# vtk DataFile Version 3.0
File written by membrane-model
ASCII
DATASET UNSTRUCTURED_GRID
POINTS 2434 float
0.0000000000000000 0.0000000000000000 0.0000000000000000
10.0000000000000000 0.0000000000000000 0.0000000000000000
10.0000000000000000 10.0000000000000000 0.0000000000000000
0.0000000000000000 10.0000000000000000 0.0000000000000000
2.2500000000000000 1.1499999761581421 0.0000000000000000
2.1914212703704834 1.2914214134216309 0.0000000000000000
2.0499999523162842 1.3500000238418579 0.0000000000000000
1.9085786342620850 1.2914214134216309 0.0000000000000000
1.8500000238418579 1.1499999761581421 0.0000000000000000
1.9085786342620850 1.0085786581039429 0.0000000000000000
2.0499999523162842 0.9499999880790710 0.0000000000000000
2.1914212703704834 1.0085786581039429 0.0000000000000000
2.4500000476837158 1.1499999761581421 0.0000000000000000
2.0499999523162842 1.5499999523162842 0.0000000000000000
1.6499999761581421 1.1499999761581421 0.0000000000000000
2.0499999523162842 0.7500000000000000 0.0000000000000000
2.2500000000000000 8.8500003814697266 0.0000000000000000
2.1914212703704834 8.9914216995239258 0.0000000000000000
2.0499999523162842 9.0500001907348633 0.0000000000000000
1.9085786342620850 8.9914216995239258 0.0000000000000000
1.8500000238418579 8.8500003814697266 0.0000000000000000
1.9085786342620850 8.7085790634155273 0.0000000000000000
2.0499999523162842 8.6499996185302734 0.0000000000000000
2.1914212703704834 8.7085790634155273 0.0000000000000000
2.4500000476837158 8.8500003814697266 0.0000000000000000
2.0499999523162842 9.2500000000000000 0.0000000000000000
1.6499999761581421 8.8500003814697266 0.0000000000000000
2.0499999523162842 8.4499998092651367 0.0000000000000000
1.3500000238418579 2.0499999523162842 0.0000000000000000
1.2914214134216309 2.1914212703704834 0.0000000000000000
1.1499999761581421 2.2500000000000000 0.0000000000000000
1.0085786581039429 2.1914212703704834 0.0000000000000000
0.9499999880790710 2.0499999523162842 0.0000000000000000
1.0085786581039429 1.9085786342620850 0.0000000000000000
1.1499999761581421 1.8500000238418579 0.0000000000000000
1.2914214134216309 1.9085786342620850 0.0000000000000000
1.5499999523162842 2.0499999523162842 0.0000000000000000
1.1499999761581421 2.4500000476837158 0.0000000000000000
0.7500000000000000 2.0499999523162842 0.0000000000000000
1.1499999761581421 1.6499999761581421 0.0000000000000000
9.0500001907348633 2.0499999523162842 0.0000000000000000
8.9914216995239258 2.1914212703704834 0.0000000000000000
8.8500003814697266 2.2500000000000000 0.0000000000000000
8.7085790634155273 2.1914212703704834 0.0000000000000000
8.6499996185302734 2.0499999523162842 0.0000000000000000
8.7085790634155273 1.9085786342620850 0.0000000000000000
8.8500003814697266 1.8500000238418579 0.0000000000000000
8.9914216995239258 1.9085786342620850 0.0000000000000000
9.2500000000000000 2.0499999523162842 0.0000000000000000
8.8500003814697266 2.4500000476837158 0.0000000000000000
8.4499998092651367 2.0499999523162842 0.0000000000000000
8.8500003814697266 1.6499999761581421 0.0000000000000000
3.7249999046325684 1.1499999761581421 0.0000000000000000
3.6664214134216309 1.2914214134216309 0.0000000000000000
3.5250000953674316 1.3500000238418579 0.0000000000000000
3.3835785388946533 1.2914214134216309 0.0000000000000000
3.3250000476837158 1.1499999761581421 0.0000000000000000
3.3835785388946533 1.0085786581039429 0.0000000000000000
3.5250000953674316 0.9499999880790710 0.0000000000000000
3.6664214134216309 1.0085786581039429 0.0000000000000000
3.9249999523162842 1.1499999761581421 0.0000000000000000
3.5250000953674316 1.5499999523162842 0.0000000000000000
3.1250000000000000 1.1499999761581421 0.0000000000000000
3.5250000953674316 0.7500000000000000 0.0000000000000000
3.7249999046325684 8.8500003814697266 0.0000000000000000
3.6664214134216309 8.9914216995239258 0.0000000000000000
3.5250000953674316 9.0500001907348633 0.0000000000000000
3.3835785388946533 8.9914216995239258 0.0000000000000000
3.3250000476837158 8.8500003814697266 0.0000000000000000
3.3835785388946533 8.7085790634155273 0.0000000000000000
3.5250000953674316 8.6499996185302734 0.0000000000000000
3.6664214134216309 8.7085790634155273 0.0000000000000000
3.9249999523162842 8.8500003814697266 0.0000000000000000
3.5250000953674316 9.2500000000000000 0.0000000000000000
3.1250000000000000 8.8500003814697266 0.0000000000000000
3.5250000953674316 8.4499998092651367 0.0000000000000000
1.3500000238418579 3.5250000953674316 0.0000000000000000
1.2914214134216309 3.6664214134216309 0.0000000000000000
1.1499999761581421 3.7249999046325684 0.0000000000000000
1.0085786581039429 3.6664214134216309 0.0000000000000000
0.9499999880790710 3.5250000953674316 0.0000000000000000
1.0085786581039429 3.3835785388946533 0.0000000000000000
1.1499999761581421 3.3250000476837158 0.0000000000000000
1.2914214134216309 3.3835785388946533 0.0000000000000000
1.5499999523162842 3.5250000953674316 0.0000000000000000
1.1499999761581421 3.9249999523162842 0.0000000000000000
0.7500000000000000 3.5250000953674316 0.0000000000000000
1.1499999761581421 3.1250000000000000 0.0000000000000000
9.0500001907348633 3.5250000953674316 0.0000000000000000
8.9914216995239258 3.6664214134216309 0.0000000000000000
8.8500003814697266 3.7249999046325684 0.0000000000000000
8.7085790634155273 3.6664214134216309 0.0000000000000000
8.6499996185302734 3.5250000953674316 0.0000000000000000
8.7085790634155273 3.3835785388946533 0.0000000000000000
8.8500003814697266 3.3250000476837158 0.0000000000000000
8.9914216995239258 3.3835785388946533 0.0000000000000000
9.2500000000000000 3.5250000953674316 0.0000000000000000
8.8500003814697266 3.9249999523162842 0.0000000000000000
8.4499998092651367 3.5250000953674316 0.0000000000000000
8.8500003814697266 3.1250000000000000 0.0000000000000000
5.1999998092651367 1.1499999761581421 0.0000000000000000
5.1414213180541992 1.2914214134216309 0.0000000000000000
5.0000000000000000 1.3500000238418579 0.0000000000000000
4.8585786819458008 1.2914214134216309 0.0000000000000000
4.8000001907348633 1.1499999761581421 0.0000000000000000
4.8585786819458008 1.0085786581039429 0.0000000000000000
5.0000000000000000 0.9499999880790710 0.0000000000000000
5.1414213180541992 1.0085786581039429 0.0000000000000000
5.4000000953674316 1.1499999761581421 0.0000000000000000
5.0000000000000000 1.5499999523162842 0.0000000000000000
4.5999999046325684 1.1499999761581421 0.0000000000000000
5.0000000000000000 0.7500000000000000 0.0000000000000000
5.1999998092651367 8.8500003814697266 0.0000000000000000
5.1414213180541992 8.9914216995239258 0.0000000000000000
5.0000000000000000 9.0500001907348633 0.0000000000000000
4.8585786819458008 8.9914216995239258 0.0000000000000000
4.8000001907348633 8.8500003814697266 0.0000000000000000
4.8585786819458008 8.7085790634155273 0.0000000000000000
5.0000000000000000 8.6499996185302734 0.0000000000000000
5.1414213180541992 8.7085790634155273 0.0000000000000000
5.4000000953674316 8.8500003814697266 0.0000000000000000
5.0000000000000000 9.2500000000000000 0.0000000000000000
4.5999999046325684 8.8500003814697266 0.0000000000000000
5.0000000000000000 8.4499998092651367 0.0000000000000000
1.3500000238418579 5.0000000000000000 0.0000000000000000
1.2914214134216309 5.1414213180541992 0.0000000000000000
1.1499999761581421 5.1999998092651367 0.0000000000000000
1.0085786581039429 5.1414213180541992 0.0000000000000000
0.9499999880790710 5.0000000000000000 0.0000000000000000
1.0085786581039429 4.8585786819458008 0.0000000000000000
1.1499999761581421 4.8000001907348633 0.0000000000000000
1.2914214134216309 4.8585786819458008 0.0000000000000000
1.5499999523162842 5.0000000000000000 0.0000000000000000
1.1499999761581421 5.4000000953674316 0.0000000000000000
0.7500000000000000 5.0000000000000000 0.0000000000000000
1.1499999761581421 4.5999999046325684 0.0000000000000000
9.0500001907348633 5.0000000000000000 0.0000000000000000
8.9914216995239258 5.1414213180541992 0.0000000000000000
8.8500003814697266 5.1999998092651367 0.0000000000000000
8.7085790634155273 5.1414213180541992 0.0000000000000000
8.6499996185302734 5.0000000000000000 0.0000000000000000
8.7085790634155273 4.8585786819458008 0.0000000000000000
8.8500003814697266 4.8000001907348633 0.0000000000000000
8.9914216995239258 4.8585786819458008 0.0000000000000000
9.2500000000000000 5.0000000000000000 0.0000000000000000
8.8500003814697266 5.4000000953674316 0.0000000000000000
8.4499998092651367 5.0000000000000000 0.0000000000000000
8.8500003814697266 4.5999999046325684 0.0000000000000000
6.6750001907348633 1.1499999761581421 0.0000000000000000
6.6164212226867676 1.2914214134216309 0.0000000000000000
6.4749999046325684 1.3500000238418579 0.0000000000000000
6.3335785865783691 1.2914214134216309 0.0000000000000000
6.2750000953674316 1.1499999761581421 0.0000000000000000
6.3335785865783691 1.0085786581039429 0.0000000000000000
6.4749999046325684 0.9499999880790710 0.0000000000000000
6.6164212226867676 1.0085786581039429 0.0000000000000000
6.8750000000000000 1.1499999761581421 0.0000000000000000
6.4749999046325684 1.5499999523162842 0.0000000000000000
6.0749998092651367 1.1499999761581421 0.0000000000000000
6.4749999046325684 0.7500000000000000 0.0000000000000000
6.6750001907348633 8.8500003814697266 0.0000000000000000
6.6164212226867676 8.9914216995239258 0.0000000000000000
6.4749999046325684 9.0500001907348633 0.0000000000000000
6.3335785865783691 8.9914216995239258 0.0000000000000000
6.2750000953674316 8.8500003814697266 0.0000000000000000
6.3335785865783691 8.7085790634155273 0.0000000000000000
6.4749999046325684 8.6499996185302734 0.0000000000000000
6.6164212226867676 8.7085790634155273 0.0000000000000000
6.8750000000000000 8.8500003814697266 0.0000000000000000
6.4749999046325684 9.2500000000000000 0.0000000000000000
6.0749998092651367 8.8500003814697266 0.0000000000000000
6.4749999046325684 8.4499998092651367 0.0000000000000000
1.3500000238418579 6.4749999046325684 0.0000000000000000
1.2914214134216309 6.6164212226867676 0.0000000000000000
1.1499999761581421 6.6750001907348633 0.0000000000000000
1.0085786581039429 6.6164212226867676 0.0000000000000000
0.9499999880790710 6.4749999046325684 0.0000000000000000
1.0085786581039429 6.3335785865783691 0.0000000000000000
1.1499999761581421 6.2750000953674316 0.0000000000000000
1.2914214134216309 6.3335785865783691 0.0000000000000000
1.5499999523162842 6.4749999046325684 0.0000000000000000
1.1499999761581421 6.8750000000000000 0.0000000000000000
0.7500000000000000 6.4749999046325684 0.0000000000000000
1.1499999761581421 6.0749998092651367 0.0000000000000000
9.0500001907348633 6.4749999046325684 0.0000000000000000
8.9914216995239258 6.6164212226867676 0.0000000000000000
8.8500003814697266 6.6750001907348633 0.0000000000000000
8.7085790634155273 6.6164212226867676 0.0000000000000000
8.6499996185302734 6.4749999046325684 0.0000000000000000
8.7085790634155273 6.3335785865783691 0.0000000000000000
8.8500003814697266 6.2750000953674316 0.0000000000000000
8.9914216995239258 6.3335785865783691 0.0000000000000000
9.2500000000000000 6.4749999046325684 0.0000000000000000
8.8500003814697266 6.8750000000000000 0.0000000000000000
8.4499998092651367 6.4749999046325684 0.0000000000000000
8.8500003814697266 6.0749998092651367 0.0000000000000000
8.1499996185302734 1.1499999761581421 0.0000000000000000
8.0914211273193359 1.2914214134216309 0.0000000000000000
7.9499998092651367 1.3500000238418579 0.0000000000000000
7.8085784912109375 1.2914214134216309 0.0000000000000000
7.7500000000000000 1.1499999761581421 0.0000000000000000
7.8085784912109375 1.0085786581039429 0.0000000000000000
7.9499998092651367 0.9499999880790710 0.0000000000000000
8.0914211273193359 1.0085786581039429 0.0000000000000000
8.3500003814697266 1.1499999761581421 0.0000000000000000
7.9499998092651367 1.5499999523162842 0.0000000000000000
7.5500001907348633 1.1499999761581421 0.0000000000000000
7.9499998092651367 0.7500000000000000 0.0000000000000000
8.1499996185302734 8.8500003814697266 0.0000000000000000
8.0914211273193359 8.9914216995239258 0.0000000000000000
7.9499998092651367 9.0500001907348633 0.0000000000000000
7.8085784912109375 8.9914216995239258 0.0000000000000000
7.7500000000000000 8.8500003814697266 0.0000000000000000
7.8085784912109375 8.7085790634155273 0.0000000000000000
7.9499998092651367 8.6499996185302734 0.0000000000000000
8.0914211273193359 8.7085790634155273 0.0000000000000000
8.3500003814697266 8.8500003814697266 0.0000000000000000
7.9499998092651367 9.2500000000000000 0.0000000000000000
7.5500001907348633 8.8500003814697266 0.0000000000000000
7.9499998092651367 8.4499998092651367 0.0000000000000000
1.3500000238418579 7.9499998092651367 0.0000000000000000
1.2914214134216309 8.0914211273193359 0.0000000000000000
1.1499999761581421 8.1499996185302734 0.0000000000000000
1.0085786581039429 8.0914211273193359 0.0000000000000000
0.9499999880790710 7.9499998092651367 0.0000000000000000
1.0085786581039429 7.8085784912109375 0.0000000000000000
1.1499999761581421 7.7500000000000000 0.0000000000000000
1.2914214134216309 7.8085784912109375 0.0000000000000000
1.5499999523162842 7.9499998092651367 0.0000000000000000
1.1499999761581421 8.3500003814697266 0.0000000000000000
0.7500000000000000 7.9499998092651367 0.0000000000000000
1.1499999761581421 7.5500001907348633 0.0000000000000000
9.0500001907348633 7.9499998092651367 0.0000000000000000
8.9914216995239258 8.0914211273193359 0.0000000000000000
8.8500003814697266 8.1499996185302734 0.0000000000000000
8.7085790634155273 8.0914211273193359 0.0000000000000000
8.6499996185302734 7.9499998092651367 0.0000000000000000
8.7085790634155273 7.8085784912109375 0.0000000000000000
8.8500003814697266 7.7500000000000000 0.0000000000000000
8.9914216995239258 7.8085784912109375 0.0000000000000000
9.2500000000000000 7.9499998092651367 0.0000000000000000
8.8500003814697266 8.3500003814697266 0.0000000000000000
8.4499998092651367 7.9499998092651367 0.0000000000000000
8.8500003814697266 7.5500001907348633 0.0000000000000000
0.5000000000000000 0.0000000000000000 0.0000000000000000
1.0000000000000000 0.0000000000000000 0.0000000000000000
1.5000000000000000 0.0000000000000000 0.0000000000000000
2.0000000000000000 0.0000000000000000 0.0000000000000000
2.5000000000000000 0.0000000000000000 0.0000000000000000
3.0000000000000000 0.0000000000000000 0.0000000000000000
3.5000000000000000 0.0000000000000000 0.0000000000000000
4.0000000000000000 0.0000000000000000 0.0000000000000000
4.5000000000000000 0.0000000000000000 0.0000000000000000
5.0000000000000000 0.0000000000000000 0.0000000000000000
5.5000000000000000 0.0000000000000000 0.0000000000000000
6.0000000000000000 0.0000000000000000 0.0000000000000000
6.5000000000000000 0.0000000000000000 0.0000000000000000
7.0000000000000000 0.0000000000000000 0.0000000000000000
7.5000000000000000 0.0000000000000000 0.0000000000000000
8.0000000000000000 0.0000000000000000 0.0000000000000000
8.5000000000000000 0.0000000000000000 0.0000000000000000
9.0000000000000000 0.0000000000000000 0.0000000000000000
9.5000000000000000 0.0000000000000000 0.0000000000000000
10.0000000000000000 0.5000000000000000 0.0000000000000000
10.0000000000000000 1.0000000000000000 0.0000000000000000
10.0000000000000000 1.5000000000000000 0.0000000000000000
10.0000000000000000 2.0000000000000000 0.0000000000000000
10.0000000000000000 2.5000000000000000 0.0000000000000000
10.0000000000000000 3.0000000000000000 0.0000000000000000
10.0000000000000000 3.5000000000000000 0.0000000000000000
10.0000000000000000 4.0000000000000000 0.0000000000000000
10.0000000000000000 4.5000000000000000 0.0000000000000000
10.0000000000000000 5.0000000000000000 0.0000000000000000
10.0000000000000000 5.5000000000000000 0.0000000000000000
10.0000000000000000 6.0000000000000000 0.0000000000000000
10.0000000000000000 6.5000000000000000 0.0000000000000000
10.0000000000000000 7.0000000000000000 0.0000000000000000
10.0000000000000000 7.5000000000000000 0.0000000000000000
10.0000000000000000 8.0000000000000000 0.0000000000000000
10.0000000000000000 8.5000000000000000 0.0000000000000000
10.0000000000000000 9.0000000000000000 0.0000000000000000
10.0000000000000000 9.5000000000000000 0.0000000000000000
9.5000000000000000 10.0000000000000000 0.0000000000000000
9.0000000000000000 10.0000000000000000 0.0000000000000000
8.5000000000000000 10.0000000000000000 0.0000000000000000
8.0000000000000000 10.0000000000000000 0.0000000000000000
7.5000000000000000 10.0000000000000000 0.0000000000000000
7.0000000000000000 10.0000000000000000 0.0000000000000000
6.5000000000000000 10.0000000000000000 0.0000000000000000
6.0000000000000000 10.0000000000000000 0.0000000000000000
5.5000000000000000 10.0000000000000000 0.0000000000000000
5.0000000000000000 10.0000000000000000 0.0000000000000000
4.5000000000000000 10.0000000000000000 0.0000000000000000
4.0000000000000000 10.0000000000000000 0.0000000000000000
3.5000000000000000 10.0000000000000000 0.0000000000000000
3.0000000000000000 10.0000000000000000 0.0000000000000000
2.5000000000000000 10.0000000000000000 0.0000000000000000
2.0000000000000000 10.0000000000000000 0.0000000000000000
1.5000000000000000 10.0000000000000000 0.0000000000000000
1.0000000000000000 10.0000000000000000 0.0000000000000000
0.5000000000000000 10.0000000000000000 0.0000000000000000
0.0000000000000000 9.5000000000000000 0.0000000000000000
0.0000000000000000 9.0000000000000000 0.0000000000000000
0.0000000000000000 8.5000000000000000 0.0000000000000000
0.0000000000000000 8.0000000000000000 0.0000000000000000
0.0000000000000000 7.5000000000000000 0.0000000000000000
0.0000000000000000 7.0000000000000000 0.0000000000000000
0.0000000000000000 6.5000000000000000 0.0000000000000000
0.0000000000000000 6.0000000000000000 0.0000000000000000
0.0000000000000000 5.5000000000000000 0.0000000000000000
0.0000000000000000 5.0000000000000000 0.0000000000000000
0.0000000000000000 4.5000000000000000 0.0000000000000000
0.0000000000000000 4.0000000000000000 0.0000000000000000
0.0000000000000000 3.5000000000000000 0.0000000000000000
0.0000000000000000 3.0000000000000000 0.0000000000000000
0.0000000000000000 2.5000000000000000 0.0000000000000000
0.0000000000000000 2.0000000000000000 0.0000000000000000
0.0000000000000000 1.5000000000000000 0.0000000000000000
0.0000000000000000 1.0000000000000000 0.0000000000000000
0.0000000000000000 0.5000000000000000 0.0000000000000000
1.2893627882003784 0.4039453268051147 0.0000000000000000
9.5960550308227539 1.2893627882003784 0.0000000000000000
0.4039453268051147 1.2893627882003784 0.0000000000000000
1.2893627882003784 9.5960550308227539 0.0000000000000000
8.7106370925903320 9.5960550308227539 0.0000000000000000
0.4039453268051147 8.7106370925903320 0.0000000000000000
9.5960550308227539 8.7106370925903320 0.0000000000000000
8.7106370925903320 0.4039453268051147 0.0000000000000000
5.7075233459472656 0.4042393565177917 0.0000000000000000
9.5957603454589844 5.7075233459472656 0.0000000000000000
5.7075233459472656 9.5957603454589844 0.0000000000000000
0.4042393565177917 5.7075233459472656 0.0000000000000000
0.4042393565177917 4.2924766540527344 0.0000000000000000
4.2924766540527344 9.5957603454589844 0.0000000000000000
4.2924766540527344 0.4042393565177917 0.0000000000000000
9.5957603454589844 4.2924766540527344 0.0000000000000000
7.2069015502929688 0.4049680233001709 0.0000000000000000
9.5950317382812500 7.2069015502929688 0.0000000000000000
9.5950317382812500 2.7930984497070312 0.0000000000000000
2.7930984497070312 0.4049680233001709 0.0000000000000000
7.2069015502929688 9.5950317382812500 0.0000000000000000
0.4049680233001709 7.2069015502929688 0.0000000000000000
2.7930984497070312 9.5950317382812500 0.0000000000000000
0.4049680233001709 2.7930984497070312 0.0000000000000000
1.6708501577377319 0.3863520026206970 0.0000000000000000
1.4885952472686768 0.7425995469093323 0.0000000000000000
1.1412864923477173 0.7721447348594666 0.0000000000000000
9.6136484146118164 1.6708501577377319 0.0000000000000000
9.2574005126953125 1.4885952472686768 0.0000000000000000
9.2278556823730469 1.1412864923477173 0.0000000000000000
1.6708501577377319 9.6136484146118164 0.0000000000000000
1.4885952472686768 9.2574005126953125 0.0000000000000000
1.1412864923477173 9.2278556823730469 0.0000000000000000
0.3863520026206970 1.6708501577377319 0.0000000000000000
0.7425995469093323 1.4885952472686768 0.0000000000000000
8.3291501998901367 9.6136484146118164 0.0000000000000000
8.5114049911499023 9.2574005126953125 0.0000000000000000
8.8587131500244141 9.2278556823730469 0.0000000000000000
0.3863520026206970 8.3291501998901367 0.0000000000000000
0.7425995469093323 8.5114049911499023 0.0000000000000000
8.3291501998901367 0.3863520026206970 0.0000000000000000
8.5114049911499023 0.7425995469093323 0.0000000000000000
9.6136484146118164 8.3291501998901367 0.0000000000000000
9.2574005126953125 8.5114049911499023 0.0000000000000000
3.1674385070800781 0.3860908150672913 0.0000000000000000
2.9863879680633545 0.7354510426521301 0.0000000000000000
2.6418218612670898 0.7717396616935730 0.0000000000000000
2.4421403408050537 0.4849557280540466 0.0000000000000000
9.6139087677001953 3.1674385070800781 0.0000000000000000
9.2645492553710938 2.9863879680633545 0.0000000000000000
9.2170867919921875 2.6572742462158203 0.0000000000000000
9.5137138366699219 2.4439799785614014 0.0000000000000000
0.3860908150672913 3.1674385070800781 0.0000000000000000
0.7354510426521301 2.9863879680633545 0.0000000000000000
0.7717396616935730 2.6418218612670898 0.0000000000000000
0.5043563246726990 2.4236159324645996 0.0000000000000000
3.1674385070800781 9.6139087677001953 0.0000000000000000
2.9863879680633545 9.2645492553710938 0.0000000000000000
2.6413943767547607 9.2341270446777344 0.0000000000000000
2.4235973358154297 9.4958982467651367 0.0000000000000000
6.8325614929199219 9.6139087677001953 0.0000000000000000
7.0136752128601074 9.2644205093383789 0.0000000000000000
7.3586144447326660 9.2341079711914062 0.0000000000000000
7.5764031410217285 9.4958972930908203 0.0000000000000000
0.3860908150672913 6.8325614929199219 0.0000000000000000
0.7354510426521301 7.0136122703552246 0.0000000000000000
0.7780258059501648 7.3493022918701172 0.0000000000000000
0.4857040941715240 7.5568027496337891 0.0000000000000000
6.8325614929199219 0.3860908150672913 0.0000000000000000
7.0136122703552246 0.7354510426521301 0.0000000000000000
7.3586058616638184 0.7658732533454895 0.0000000000000000
7.5764026641845703 0.5041018128395081 0.0000000000000000
9.6139087677001953 6.8325614929199219 0.0000000000000000
9.2645492553710938 7.0136122703552246 0.0000000000000000
9.2613162994384766 7.3446307182312012 0.0000000000000000
9.5189790725708008 7.5562467575073242 0.0000000000000000
9.5602283477783203 4.6398491859436035 0.0000000000000000
9.2639818191528320 4.4954771995544434 0.0000000000000000
9.2329425811767578 4.1383943557739258 0.0000000000000000
9.4949207305908203 3.9220747947692871 0.0000000000000000
4.7056941986083984 0.3866054713726044 0.0000000000000000
4.4958896636962891 0.7315016984939575 0.0000000000000000
4.1379055976867676 0.7670695185661316 0.0000000000000000
3.9220535755157471 0.5050796866416931 0.0000000000000000
0.3883194625377655 4.6981430053710938 0.0000000000000000
0.7372522950172424 4.4941306114196777 0.0000000000000000
0.7678909897804260 4.1376543045043945 0.0000000000000000
0.5017562508583069 3.9251666069030762 0.0000000000000000
4.6398491859436035 9.5602283477783203 0.0000000000000000
4.4954771995544434 9.2639818191528320 0.0000000000000000
4.1383943557739258 9.2329425811767578 0.0000000000000000
3.9252116680145264 9.4982948303222656 0.0000000000000000
5.2947101593017578 9.6040296554565430 0.0000000000000000
5.5021286010742188 9.2775554656982422 0.0000000000000000
5.8618111610412598 9.2342243194580078 0.0000000000000000
6.0748009681701660 9.4983720779418945 0.0000000000000000
0.3866054713726044 5.2943058013916016 0.0000000000000000
0.7315016984939575 5.5041103363037109 0.0000000000000000
0.7670695185661316 5.8620944023132324 0.0000000000000000
0.5017063617706299 6.0748181343078613 0.0000000000000000
5.3018569946289062 0.3883194625377655 0.0000000000000000
5.5067701339721680 0.7387433648109436 0.0000000000000000
5.8619265556335449 0.7674469351768494 0.0000000000000000
6.0776524543762207 0.5047702193260193 0.0000000000000000
9.6040296554565430 5.2947101593017578 0.0000000000000000
9.2775554656982422 5.5021286010742188 0.0000000000000000
9.2348814010620117 5.8612632751464844 0.0000000000000000
9.5039548873901367 6.0690875053405762 0.0000000000000000
9.2278556823730469 8.8587131500244141 0.0000000000000000
8.8587131500244141 0.7721447348594666 0.0000000000000000
0.7721447348594666 8.8587131500244141 0.0000000000000000
0.7721447348594666 1.1412864923477173 0.0000000000000000
9.1259412765502930 0.4357333481311798 0.0000000000000000
9.5642662048339844 0.8740591406822205 0.0000000000000000
9.5642662048339844 9.1259412765502930 0.0000000000000000
9.1259412765502930 9.5642662048339844 0.0000000000000000
0.4357333481311798 0.8740591406822205 0.0000000000000000
0.8740591406822205 0.4357333481311798 0.0000000000000000
0.8740591406822205 9.5642662048339844 0.0000000000000000
0.4357333481311798 9.1259412765502930 0.0000000000000000
9.0474987030029297 2.8408806324005127 0.0000000000000000
2.8346080780029297 0.9770757555961609 0.0000000000000000
0.9882811307907104 2.8184454441070557 0.0000000000000000
2.8287351131439209 9.0185937881469727 0.0000000000000000
0.9971865415573120 7.1542215347290039 0.0000000000000000
7.1808385848999023 9.0322065353393555 0.0000000000000000
7.1909260749816895 0.9858887195587158 0.0000000000000000
9.0245409011840820 7.2109599113464355 0.0000000000000000
1.3045775890350342 1.0162460803985596 0.0000000000000000
8.9956588745117188 1.3229625225067139 0.0000000000000000
1.0056232213973999 1.3124796152114868 0.0000000000000000
1.0368568897247314 8.6807088851928711 0.0000000000000000
1.3106337785720825 9.0326709747314453 0.0000000000000000
8.6796989440917969 8.9542274475097656 0.0000000000000000
8.6843414306640625 1.0067512989044189 0.0000000000000000
9.0027189254760742 8.6868848800659180 0.0000000000000000
9.0301742553710938 4.3247256278991699 0.0000000000000000
4.3193941116333008 0.9670503139495850 0.0000000000000000
4.3191514015197754 9.0214939117431641 0.0000000000000000
0.9833836555480957 4.3215827941894531 0.0000000000000000
5.6799230575561523 9.0262594223022461 0.0000000000000000
0.9640143513679504 5.6787719726562500 0.0000000000000000
5.6780242919921875 0.9722792506217957 0.0000000000000000
9.0240030288696289 5.6794714927673340 0.0000000000000000
6.1340713500976562 0.7915266156196594 0.0000000000000000
9.2066793441772461 6.1437873840332031 0.0000000000000000
0.7908151149749756 6.1366381645202637 0.0000000000000000
6.1365880966186523 9.2094135284423828 0.0000000000000000
3.8652231693267822 9.2104244232177734 0.0000000000000000
0.7909603714942932 3.8633174896240234 0.0000000000000000
9.2066793441772461 3.8562128543853760 0.0000000000000000
3.8562128543853760 0.7933205962181091 0.0000000000000000
7.6375012397766113 0.7872330546379089 0.0000000000000000
9.2162694931030273 7.6037178039550781 0.0000000000000000
7.6375012397766113 9.2127666473388672 0.0000000000000000
0.7818732261657715 7.6092481613159180 0.0000000000000000
2.3624987602233887 9.2127666473388672 0.0000000000000000
0.7880126237869263 2.3673548698425293 0.0000000000000000
2.3878874778747559 0.7787532210350037 0.0000000000000000
9.2094707489013672 2.3849992752075195 0.0000000000000000
0.4460632801055908 9.5539369583129883 0.0000000000000000
9.5607309341430664 9.5607309341430664 0.0000000000000000
0.4392694532871246 0.4392694532871246 0.0000000000000000
9.5607309341430664 0.4392694532871246 0.0000000000000000
1.7960807085037231 0.6890732645988464 0.0000000000000000
9.3109264373779297 1.7960807085037231 0.0000000000000000
0.6890732645988464 1.7960807085037231 0.0000000000000000
0.6879374384880066 8.2043895721435547 0.0000000000000000
1.7960807085037231 9.3109264373779297 0.0000000000000000
8.2039194107055664 9.3109264373779297 0.0000000000000000
9.3109264373779297 8.2039194107055664 0.0000000000000000
8.2039194107055664 0.6890732645988464 0.0000000000000000
1.9902254343032837 0.4509926140308380 0.0000000000000000
9.5490074157714844 1.9902254343032837 0.0000000000000000
1.9718934297561646 9.5164966583251953 0.0000000000000000
0.4835032820701599 1.9718934297561646 0.0000000000000000
8.0281066894531250 9.5164966583251953 0.0000000000000000
0.4508033096790314 8.0098533630371094 0.0000000000000000
9.5490074157714844 8.0097742080688477 0.0000000000000000
8.0281066894531250 0.4835032820701599 0.0000000000000000
1.0592995882034302 8.9498863220214844 0.0000000000000000
8.9604339599609375 8.9487295150756836 0.0000000000000000
1.0520961284637451 1.0520961284637451 0.0000000000000000
8.9512367248535156 1.0536793470382690 0.0000000000000000
9.3127193450927734 3.2847990989685059 0.0000000000000000
9.1081695556640625 3.1967349052429199 0.0000000000000000
3.2843286991119385 0.6861448884010315 0.0000000000000000
3.1964550018310547 0.8911544680595398 0.0000000000000000
0.6872806549072266 3.2847990989685059 0.0000000000000000
0.8918305635452271 3.1967349052429199 0.0000000000000000
3.2847990989685059 9.3127193450927734 0.0000000000000000
3.1967349052429199 9.1081695556640625 0.0000000000000000
0.6872806549072266 6.7152009010314941 0.0000000000000000
0.8918305635452271 6.8032650947570801 0.0000000000000000
6.7152113914489746 9.3126983642578125 0.0000000000000000
6.8033089637756348 9.1080799102783203 0.0000000000000000
9.3127193450927734 6.7152009010314941 0.0000000000000000
9.1081695556640625 6.8032650947570801 0.0000000000000000
6.7156710624694824 0.6861448884010315 0.0000000000000000
6.8035449981689453 0.8911544680595398 0.0000000000000000
3.4707634449005127 0.4717317521572113 0.0000000000000000
9.5281333923339844 3.4708194732666016 0.0000000000000000
0.4708020389080048 3.4703865051269531 0.0000000000000000
3.4703865051269531 9.5291976928710938 0.0000000000000000
0.4708020389080048 6.5296134948730469 0.0000000000000000
6.5296144485473633 9.5291957855224609 0.0000000000000000
6.5213565826416016 0.4599912762641907 0.0000000000000000
9.5426378250122070 6.5209097862243652 0.0000000000000000
1.6921235322952271 0.8781539201736450 0.0000000000000000
9.1218461990356445 1.6921235322952271 0.0000000000000000
1.6921235322952271 9.1218461990356445 0.0000000000000000
8.3078765869140625 9.1218461990356445 0.0000000000000000
0.8781539201736450 1.6921235322952271 0.0000000000000000
0.8770180940628052 8.3083467483520508 0.0000000000000000
9.1218461990356445 8.3078765869140625 0.0000000000000000
8.3078765869140625 0.8781539201736450 0.0000000000000000
8.9584465026855469 5.8920817375183105 0.0000000000000000
8.7986555099487305 5.7649121284484863 0.0000000000000000
5.8921418190002441 1.0423760414123535 0.0000000000000000
5.7667007446289062 1.2058150768280029 0.0000000000000000
1.0321167707443237 5.8911981582641602 0.0000000000000000
1.2058150768280029 5.7667007446289062 0.0000000000000000
5.8916563987731934 8.9965705871582031 0.0000000000000000
5.7693486213684082 8.8059120178222656 0.0000000000000000
1.0190582275390625 4.1087174415588379 0.0000000000000000
1.1776785850524902 4.2272543907165527 0.0000000000000000
4.1074786186218262 8.9568605422973633 0.0000000000000000
4.2329635620117188 8.8067502975463867 0.0000000000000000
4.1082320213317871 1.0530530214309692 0.0000000000000000
4.2431340217590332 1.1776220798492432 0.0000000000000000
8.9623994827270508 4.1091485023498535 0.0000000000000000
8.8017444610595703 4.2412886619567871 0.0000000000000000
8.6948251724243164 7.6702303886413574 0.0000000000000000
8.6730985641479492 7.4798364639282227 0.0000000000000000
8.5228862762451172 7.6196103096008301 0.0000000000000000
8.4833478927612305 7.4222488403320312 0.0000000000000000
8.3400268554687500 7.5648608207702637 0.0000000000000000
8.2886705398559570 7.3713455200195312 0.0000000000000000
8.1482019424438477 7.5134577751159668 0.0000000000000000
8.0951585769653320 7.3208336830139160 0.0000000000000000
7.9548592567443848 7.4628982543945312 0.0000000000000000
7.9016933441162109 7.2702775001525879 0.0000000000000000
7.7612838745117188 7.4127402305603027 0.0000000000000000
7.7081375122070312 7.2199134826660156 0.0000000000000000
7.5677261352539062 7.3624081611633301 0.0000000000000000
7.5145826339721680 7.1695523262023926 0.0000000000000000
7.3741850852966309 7.3119950294494629 0.0000000000000000
7.3210315704345703 7.1191763877868652 0.0000000000000000
7.1806349754333496 7.2616143226623535 0.0000000000000000
7.1274781227111816 7.0688066482543945 0.0000000000000000
6.9870815277099609 7.2112450599670410 0.0000000000000000
6.9339246749877930 7.0184383392333984 0.0000000000000000
7.0743212699890137 6.8759999275207520 0.0000000000000000
6.8807673454284668 6.8256320953369141 0.0000000000000000
6.7403707504272461 6.9680705070495605 0.0000000000000000
6.6872134208679199 6.7752642631530762 0.0000000000000000
6.8276100158691406 6.6328253746032715 0.0000000000000000
6.6340565681457520 6.5824575424194336 0.0000000000000000
6.4936594963073730 6.7248964309692383 0.0000000000000000
6.4405026435852051 6.5320897102355957 0.0000000000000000
6.5808992385864258 6.3896512985229492 0.0000000000000000
6.3873453140258789 6.3392834663391113 0.0000000000000000
6.2469487190246582 6.4817223548889160 0.0000000000000000
6.1937913894653320 6.2889156341552734 0.0000000000000000
6.3341884613037109 6.1464772224426270 0.0000000000000000
6.1406345367431641 6.0961093902587891 0.0000000000000000
6.2810311317443848 5.9536705017089844 0.0000000000000000
6.0874772071838379 5.9033026695251465 0.0000000000000000
5.9470806121826172 6.0457415580749512 0.0000000000000000
5.8939237594604492 5.8529348373413086 0.0000000000000000
5.7535266876220703 5.9953737258911133 0.0000000000000000
5.7003698348999023 5.8025670051574707 0.0000000000000000
5.8407664299011230 5.6601285934448242 0.0000000000000000
5.6472125053405762 5.6097607612609863 0.0000000000000000
5.5068159103393555 5.7521996498107910 0.0000000000000000
5.4536585807800293 5.5593929290771484 0.0000000000000000
5.7876091003417969 5.4673223495483398 0.0000000000000000
5.3132619857788086 5.7018318176269531 0.0000000000000000
5.2601051330566406 5.5090250968933105 0.0000000000000000
5.1197080612182617 5.6514639854431152 0.0000000000000000
5.0665512084960938 5.4586572647094727 0.0000000000000000
4.9261546134948730 5.6010961532592773 0.0000000000000000
4.8729972839355469 5.4082894325256348 0.0000000000000000
5.0133938789367676 5.2658510208129883 0.0000000000000000
4.8198399543762207 5.2154831886291504 0.0000000000000000
4.9602370262145996 5.0730443000793457 0.0000000000000000
4.7666831016540527 5.0226769447326660 0.0000000000000000
4.9070796966552734 4.8802380561828613 0.0000000000000000
4.7135257720947266 4.8298702239990234 0.0000000000000000
4.6794433593750000 5.3579216003417969 0.0000000000000000
4.8539228439331055 4.6874318122863770 0.0000000000000000
4.6603689193725586 4.6370639801025391 0.0000000000000000
4.8007655143737793 4.4946250915527344 0.0000000000000000
4.6072115898132324 4.4442572593688965 0.0000000000000000
4.4668149948120117 4.5866961479187012 0.0000000000000000
4.4136576652526855 4.3938894271850586 0.0000000000000000
4.7476081848144531 4.3018188476562500 0.0000000000000000
4.9411621093750000 4.3521866798400879 0.0000000000000000
4.2732610702514648 4.5363283157348633 0.0000000000000000
4.2201042175292969 4.3435215950012207 0.0000000000000000
4.9793114662170410 5.7939023971557617 0.0000000000000000
4.8880052566528320 4.1593799591064453 0.0000000000000000
5.0815591812133789 4.2097477912902832 0.0000000000000000
4.0797071456909180 4.4859604835510254 0.0000000000000000
4.0265502929687500 4.2931542396545410 0.0000000000000000
5.0284018516540527 4.0169415473937988 0.0000000000000000
5.2219557762145996 4.0673093795776367 0.0000000000000000
5.1687984466552734 3.8745028972625732 0.0000000000000000
5.3623523712158203 3.9248707294464111 0.0000000000000000
3.8861534595489502 4.4355926513671875 0.0000000000000000
3.8329963684082031 4.2427864074707031 0.0000000000000000
5.3091950416564941 3.7320642471313477 0.0000000000000000
5.5027489662170410 3.7824320793151855 0.0000000000000000
5.1156415939331055 3.6816964149475098 0.0000000000000000
5.4495921134948730 3.5896255970001221 0.0000000000000000
5.6431455612182617 3.6399934291839600 0.0000000000000000
3.6925997734069824 4.3852248191833496 0.0000000000000000
3.6394424438476562 4.1924185752868652 0.0000000000000000
3.7798392772674561 4.0499796867370605 0.0000000000000000
3.5862853527069092 3.9996120929718018 0.0000000000000000
3.7266821861267090 3.8571734428405762 0.0000000000000000
3.5331282615661621 3.8068056106567383 0.0000000000000000
3.7457568645477295 4.5780310630798340 0.0000000000000000
3.6735250949859619 3.6643669605255127 0.0000000000000000
3.4799711704254150 3.6139991283416748 0.0000000000000000
5.5899887084960938 3.4471869468688965 0.0000000000000000
5.7835426330566406 3.4975547790527344 0.0000000000000000
5.8366994857788086 3.6903612613677979 0.0000000000000000
5.9770965576171875 3.5479226112365723 0.0000000000000000
6.0302534103393555 3.7407290935516357 0.0000000000000000
6.1706500053405762 3.5982904434204102 0.0000000000000000
6.2238073348999023 3.7910969257354736 0.0000000000000000
6.3642039299011230 3.6486582756042480 0.0000000000000000
6.4173612594604492 3.8414647579193115 0.0000000000000000
3.4458887577056885 4.1420507431030273 0.0000000000000000
3.6203680038452148 3.4715604782104492 0.0000000000000000
3.4268140792846680 3.4211926460266113 0.0000000000000000
6.3110470771789551 3.4558517932891846 0.0000000000000000
6.5046005249023438 3.5062196254730225 0.0000000000000000
5.7303853034973145 3.3047482967376709 0.0000000000000000
5.5368313789367676 3.2543804645538330 0.0000000000000000
6.4514436721801758 3.3134131431579590 0.0000000000000000
6.6449975967407227 3.3637809753417969 0.0000000000000000
3.2864174842834473 3.5636312961578369 0.0000000000000000
3.2332601547241211 3.3708248138427734 0.0000000000000000
5.6772284507751465 3.1119420528411865 0.0000000000000000
3.5672106742858887 3.2787539958953857 0.0000000000000000
5.4836745262145996 3.0615742206573486 0.0000000000000000
6.5918402671813965 3.1709744930267334 0.0000000000000000
6.7853941917419434 3.2213423252105713 0.0000000000000000
6.8385510444641113 3.4141488075256348 0.0000000000000000
5.6240711212158203 2.9191355705261230 0.0000000000000000
6.7322368621826172 3.0285358428955078 0.0000000000000000
6.9257907867431641 3.0789036750793457 0.0000000000000000
3.0928635597229004 3.5132634639739990 0.0000000000000000
3.0397064685821533 3.3204569816589355 0.0000000000000000
6.8726339340209961 2.8860971927642822 0.0000000000000000
7.0661873817443848 2.9364650249481201 0.0000000000000000
7.0130305290222168 2.7436585426330566 0.0000000000000000
6.0834107398986816 3.9335355758666992 0.0000000000000000
3.7607645988464355 3.3291218280792236 0.0000000000000000
3.7076075077056885 3.1363153457641602 0.0000000000000000
3.9011614322662354 3.1866831779479980 0.0000000000000000
3.8480041027069092 2.9938766956329346 0.0000000000000000
3.6544504165649414 2.9435091018676758 0.0000000000000000
5.4305171966552734 2.8687677383422852 0.0000000000000000
5.5709137916564941 2.7263290882110596 0.0000000000000000
7.2065382003784180 2.7942025661468506 0.0000000000000000
4.0415582656860352 3.0442445278167725 0.0000000000000000
3.9884009361267090 2.8514380455017090 0.0000000000000000
7.1534271240234375 2.6012198925018311 0.0000000000000000
5.2751126289367676 4.2601156234741211 0.0000000000000000
2.8993096351623535 3.4628956317901611 0.0000000000000000
2.8461525440216064 3.2700893878936768 0.0000000000000000
7.2597336769104004 2.9868621826171875 0.0000000000000000
7.4000835418701172 2.8446047306060791 0.0000000000000000
7.4273319244384766 7.5049042701721191 0.0000000000000000
6.6790800094604492 2.8357293605804443 0.0000000000000000
5.3773603439331055 2.6759612560272217 0.0000000000000000
5.5177569389343262 2.5335226058959961 0.0000000000000000
4.1819548606872559 2.9018058776855469 0.0000000000000000
4.1287975311279297 2.7089996337890625 0.0000000000000000
2.7057559490203857 3.4125277996063232 0.0000000000000000
2.6525988578796387 3.2197215557098389 0.0000000000000000
2.7589130401611328 3.6053342819213867 0.0000000000000000
2.7929954528808594 3.0772829055786133 0.0000000000000000
2.5994329452514648 3.0269489288330078 0.0000000000000000
2.7398369312286377 2.8844821453094482 0.0000000000000000
2.5462739467620850 2.8341488838195801 0.0000000000000000
2.6866793632507324 2.6916775703430176 0.0000000000000000
4.0947151184082031 3.2370510101318359 0.0000000000000000
7.6523356437683105 7.0316176414489746 0.0000000000000000
7.4532847404479980 3.0372407436370850 0.0000000000000000
7.5936808586120605 2.8948037624359131 0.0000000000000000
2.4933304786682129 2.6412534713745117 0.0000000000000000
2.6335575580596924 2.4988567829132080 0.0000000000000000
2.3526430130004883 2.7844133377075195 0.0000000000000000
2.8270831108093262 2.5492315292358398 0.0000000000000000
2.7739272117614746 2.3564238548278809 0.0000000000000000
2.9674761295318604 2.4067926406860352 0.0000000000000000
5.7113108634948730 2.5838904380798340 0.0000000000000000
5.6581535339355469 2.3910839557647705 0.0000000000000000
5.8517074584960938 2.4414517879486084 0.0000000000000000
4.3223514556884766 2.7593672275543213 0.0000000000000000
4.2691941261291504 2.5665609836578369 0.0000000000000000
4.0756406784057617 2.5161931514739990 0.0000000000000000
4.2160692214965820 2.3736135959625244 0.0000000000000000
4.4095964431762695 2.4240987300872803 0.0000000000000000
5.7986950874328613 2.2480883598327637 0.0000000000000000
5.9922733306884766 2.2983634471893311 0.0000000000000000
5.3242030143737793 2.4831547737121582 0.0000000000000000
2.5653591156005859 3.5549664497375488 0.0000000000000000
2.6185162067413330 3.7477729320526123 0.0000000000000000
5.1006336212158203 4.9306058883666992 0.0000000000000000
5.2901206016540527 3.0112063884735107 0.0000000000000000
4.3564720153808594 2.2311477661132812 0.0000000000000000
2.4396109580993652 2.4497838020324707 0.0000000000000000
2.9142985343933105 2.2139916419982910 0.0000000000000000
3.1078348159790039 2.2644116878509521 0.0000000000000000
2.4249625205993652 3.6974050998687744 0.0000000000000000
2.4781196117401123 3.8902115821838379 0.0000000000000000
7.6468825340270996 3.0876185894012451 0.0000000000000000
7.7872862815856934 2.9451816082000732 0.0000000000000000
7.7342238426208496 2.7524673938751221 0.0000000000000000
7.5064535140991211 3.2300109863281250 0.0000000000000000
7.9276719093322754 2.8027238845825195 0.0000000000000000
4.0223989486694336 2.3231024742126465 0.0000000000000000
2.2845656871795654 3.8398437500000000 0.0000000000000000
2.3377227783203125 4.0326504707336426 0.0000000000000000
2.5312767028808594 4.0830178260803223 0.0000000000000000
2.3908801078796387 4.2254567146301270 0.0000000000000000
2.5844337940216064 4.2758245468139648 0.0000000000000000
2.4440400600433350 4.4182624816894531 0.0000000000000000
2.6375913619995117 4.4686307907104492 0.0000000000000000
2.4971978664398193 4.6110687255859375 0.0000000000000000
2.6907486915588379 4.6614370346069336 0.0000000000000000
2.5503520965576172 4.8038759231567383 0.0000000000000000
2.7439053058624268 4.8542437553405762 0.0000000000000000
2.6035087108612061 4.9966821670532227 0.0000000000000000
2.7970623970031738 5.0470499992370605 0.0000000000000000
2.6566655635833740 5.1894888877868652 0.0000000000000000
2.8502194881439209 5.2398567199707031 0.0000000000000000
2.7098226547241211 5.3822951316833496 0.0000000000000000
2.9033765792846680 5.4326629638671875 0.0000000000000000
2.7629797458648682 5.5751018524169922 0.0000000000000000
2.9565336704254150 5.6254696846008301 0.0000000000000000
2.8161368370056152 5.7679080963134766 0.0000000000000000
3.0096907615661621 5.8182759284973145 0.0000000000000000
2.8692941665649414 5.9607143402099609 0.0000000000000000
3.0628478527069092 6.0110821723937988 0.0000000000000000
2.9224512577056885 6.1535210609436035 0.0000000000000000
3.1160049438476562 6.2038888931274414 0.0000000000000000
2.9756083488464355 6.3463273048400879 0.0000000000000000
3.1691620349884033 6.3966951370239258 0.0000000000000000
3.0287654399871826 6.5391340255737305 0.0000000000000000
3.2223191261291504 6.5895018577575684 0.0000000000000000
3.0819225311279297 6.7319402694702148 0.0000000000000000
3.2754764556884766 6.7823081016540527 0.0000000000000000
3.4158730506896973 6.6398696899414062 0.0000000000000000
3.4690301418304443 6.8326759338378906 0.0000000000000000
3.1350796222686768 6.9247465133666992 0.0000000000000000
3.6094269752502441 6.6902370452880859 0.0000000000000000
3.6625840663909912 6.8830437660217285 0.0000000000000000
2.9415256977081299 6.8743791580200195 0.0000000000000000
2.9946830272674561 7.0671854019165039 0.0000000000000000
2.8011291027069092 7.0168175697326660 0.0000000000000000
3.8029806613922119 6.7406048774719238 0.0000000000000000
3.8561377525329590 6.9334115982055664 0.0000000000000000
3.9965345859527588 6.7909727096557617 0.0000000000000000
4.0496916770935059 6.9837794303894043 0.0000000000000000
4.1900882720947266 6.8413405418395996 0.0000000000000000
4.2432456016540527 7.0341472625732422 0.0000000000000000
4.3836421966552734 6.8917083740234375 0.0000000000000000
4.4367995262145996 7.0845150947570801 0.0000000000000000
4.5771961212158203 6.9420762062072754 0.0000000000000000
3.7498235702514648 6.5477986335754395 0.0000000000000000
3.2032446861267090 5.8686437606811523 0.0000000000000000
2.8542861938476562 7.2096238136291504 0.0000000000000000
4.6303529739379883 7.1348829269409180 0.0000000000000000
4.7707500457763672 6.9924440383911133 0.0000000000000000
4.4899563789367676 7.2773213386535645 0.0000000000000000
4.8239068984985352 7.1852507591247559 0.0000000000000000
2.6607325077056885 7.1592559814453125 0.0000000000000000
4.9643034934997559 7.0428118705749512 0.0000000000000000
5.0174608230590820 7.2356181144714355 0.0000000000000000
3.7157411575317383 7.0758500099182129 0.0000000000000000
2.5694260597229004 5.5247340202331543 0.0000000000000000
2.7138895988464355 7.3520627021789551 0.0000000000000000
5.1578574180603027 7.0931797027587891 0.0000000000000000
5.2110147476196289 7.2859859466552734 0.0000000000000000
2.7820544242858887 6.2959594726562500 0.0000000000000000
2.9074432849884033 7.4024305343627930 0.0000000000000000
2.7670466899871826 7.5448689460754395 0.0000000000000000
2.5203356742858887 7.3016948699951172 0.0000000000000000
5.3514113426208496 7.1435475349426270 0.0000000000000000
5.4045686721801758 7.3363537788391113 0.0000000000000000
4.3304848670959473 6.6989021301269531 0.0000000000000000
5.1047005653381348 6.9003734588623047 0.0000000000000000
2.4671785831451416 7.1088886260986328 0.0000000000000000
2.3267817497253418 7.2513270378112793 0.0000000000000000
3.0437731742858887 5.2902245521545410 0.0000000000000000
5.5449652671813965 7.1939153671264648 0.0000000000000000
5.5981221199035645 7.3867216110229492 0.0000000000000000
5.4577255249023438 7.5291604995727539 0.0000000000000000
5.6512794494628906 7.5795283317565918 0.0000000000000000
5.7916760444641113 7.4370894432067871 0.0000000000000000
5.8456258773803711 7.6312284469604492 0.0000000000000000
5.7047662734985352 7.7740502357482910 0.0000000000000000
2.9606003761291504 7.5952367782592773 0.0000000000000000
2.8202037811279297 7.7376756668090820 0.0000000000000000
2.2504832744598389 4.3678951263427734 0.0000000000000000
5.9876379966735840 7.4899225234985352 0.0000000000000000
2.2737717628479004 7.0586652755737305 0.0000000000000000
2.1333994865417480 7.2011284828186035 0.0000000000000000
2.1864137649536133 7.3937940597534180 0.0000000000000000
6.0433993339538574 7.6859989166259766 0.0000000000000000
7.8746428489685059 2.6100425720214844 0.0000000000000000
7.8150110244750977 7.6054043769836426 0.0000000000000000
7.0402483940124512 7.4040684700012207 0.0000000000000000
6.8466863632202148 7.3536863327026367 0.0000000000000000
6.8998546600341797 7.5465073585510254 0.0000000000000000
5.0706181526184082 7.4284248352050781 0.0000000000000000
4.1028490066528320 7.1765856742858887 0.0000000000000000
2.1441690921783447 3.9822824001312256 0.0000000000000000
4.3755087852478027 2.9521737098693848 0.0000000000000000
6.3982863426208496 3.1206066608428955 0.0000000000000000
4.8348479270935059 3.9665737152099609 0.0000000000000000
6.9598731994628906 2.5508522987365723 0.0000000000000000
7.1001396179199219 2.4082851409912109 0.0000000000000000
6.9066944122314453 2.3580243587493896 0.0000000000000000
7.0465812683105469 2.2150783538818359 0.0000000000000000
7.2404260635375977 2.2657370567321777 0.0000000000000000
7.1868748664855957 2.0725369453430176 0.0000000000000000
7.3812084197998047 2.1236412525177002 0.0000000000000000
2.4631118774414062 5.1391210556030273 0.0000000000000000
5.8066840171813965 6.1881799697875977 0.0000000000000000
5.6131300926208496 6.1378121376037598 0.0000000000000000
5.6050205230712891 2.1981847286224365 0.0000000000000000
2.3718204498291016 3.5045945644378662 0.0000000000000000
4.7857575416564941 5.7435345649719238 0.0000000000000000
4.8389148712158203 5.9363412857055664 0.0000000000000000
4.6453609466552734 5.8859734535217285 0.0000000000000000
6.4745850563049316 6.0040383338928223 0.0000000000000000
6.4214277267456055 5.8112320899963379 0.0000000000000000
6.6149816513061523 5.8615999221801758 0.0000000000000000
6.5618247985839844 5.6687932014465332 0.0000000000000000
6.7553782463073730 5.7191610336303711 0.0000000000000000
6.7022213935852051 5.5263547897338867 0.0000000000000000
6.8957753181457520 5.5767226219177246 0.0000000000000000
6.8426179885864258 5.3839159011840820 0.0000000000000000
7.0361719131469727 5.4342837333679199 0.0000000000000000
6.9830145835876465 5.2414774894714355 0.0000000000000000
7.0893287658691406 5.6270904541015625 0.0000000000000000
6.7894611358642578 5.1911096572875977 0.0000000000000000
6.9298577308654785 5.0486712455749512 0.0000000000000000
7.1234116554260254 5.0990390777587891 0.0000000000000000
7.0702543258666992 4.9062323570251465 0.0000000000000000
6.7363038063049316 4.9983034133911133 0.0000000000000000
7.2638082504272461 4.9566001892089844 0.0000000000000000
7.2106509208679199 4.7637939453125000 0.0000000000000000
7.4042048454284668 4.8141617774963379 0.0000000000000000
7.3510479927062988 4.6213550567626953 0.0000000000000000
7.4573621749877930 5.0069680213928223 0.0000000000000000
7.5446014404296875 4.6717228889465332 0.0000000000000000
7.4914445877075195 4.4789166450500488 0.0000000000000000
7.6849985122680664 4.5292844772338867 0.0000000000000000
7.6318411827087402 4.3364777565002441 0.0000000000000000
7.2978906631469727 4.4285488128662109 0.0000000000000000
7.8253951072692871 4.3868455886840820 0.0000000000000000
7.7722377777099609 4.1940393447875977 0.0000000000000000
6.5959072113037109 5.1407418251037598 0.0000000000000000
6.5427498817443848 4.9479355812072754 0.0000000000000000
5.6662874221801758 6.3306188583374023 0.0000000000000000
2.7210116386413574 2.1635503768920898 0.0000000000000000
2.8611783981323242 2.0211749076843262 0.0000000000000000
4.3264183998107910 4.7291345596313477 0.0000000000000000
7.5786838531494141 4.1436715126037598 0.0000000000000000
7.7190809249877930 4.0012326240539551 0.0000000000000000
3.5522029399871826 4.5276637077331543 0.0000000000000000
3.9202358722686768 3.9075410366058350 0.0000000000000000
3.6053600311279297 4.7204699516296387 0.0000000000000000
4.5159053802490234 2.8097350597381592 0.0000000000000000
4.5690622329711914 3.0025415420532227 0.0000000000000000
4.5489735603332520 2.2819333076477051 0.0000000000000000
6.8085355758666992 5.9119677543640137 0.0000000000000000
4.7175927162170410 6.7996377944946289 0.0000000000000000
2.6757402420043945 5.9103469848632812 0.0000000000000000
5.4727334976196289 6.2802510261535645 0.0000000000000000
6.6831464767456055 4.8054966926574707 0.0000000000000000
6.4895930290222168 4.7551288604736328 0.0000000000000000
6.3491959571838379 4.8975677490234375 0.0000000000000000
6.6299896240234375 4.6126904487609863 0.0000000000000000
6.2960391044616699 4.7047610282897949 0.0000000000000000
6.1556425094604492 4.8471999168395996 0.0000000000000000
6.1024851799011230 4.6543931961059570 0.0000000000000000
5.9620885848999023 4.7968320846557617 0.0000000000000000
7.5255270004272461 3.9508650302886963 0.0000000000000000
5.9324741363525391 7.2950615882873535 0.0000000000000000
1.9926329851150513 7.3432073593139648 0.0000000000000000
5.7453932762145996 2.0558390617370605 0.0000000000000000
7.9657917022705078 4.2444071769714355 0.0000000000000000
7.7000489234924316 3.2804203033447266 0.0000000000000000
2.3568017482757568 4.7535152435302734 0.0000000000000000
3.0140135288238525 7.7879729270935059 0.0000000000000000
2.8736596107482910 7.9303994178771973 0.0000000000000000
2.6798567771911621 7.8801002502441406 0.0000000000000000
3.1541969776153564 7.6455926895141602 0.0000000000000000
2.7338168621063232 8.0737133026123047 0.0000000000000000
7.3292441368103027 1.9320414066314697 0.0000000000000000
8.0668516159057617 2.6590831279754639 0.0000000000000000
7.7381553649902344 4.7220907211303711 0.0000000000000000
1.9396084547042847 7.1515331268310547 0.0000000000000000
4.4957890510559082 2.0891330242156982 0.0000000000000000
4.3032770156860352 2.0385093688964844 0.0000000000000000
4.4414567947387695 1.8982464075088501 0.0000000000000000
4.6864843368530273 2.1412494182586670 0.0000000000000000
8.0444326400756836 7.1321964263916016 0.0000000000000000
4.2500123977661133 1.8483414649963379 0.0000000000000000
8.1195077896118164 2.8516917228698730 0.0000000000000000
7.1330881118774414 1.8838313817977905 0.0000000000000000
2.6679008007049561 1.9707309007644653 0.0000000000000000
2.8090317249298096 1.8280953168869019 0.0000000000000000
5.9089312553405762 4.6040258407592773 0.0000000000000000
4.6985182762145996 6.0787796974182129 0.0000000000000000
4.5049643516540527 6.0284118652343750 0.0000000000000000
4.4518070220947266 5.8356056213378906 0.0000000000000000
4.3114104270935059 5.9780440330505371 0.0000000000000000
4.2582530975341797 5.7852377891540527 0.0000000000000000
4.1178565025329590 5.9276762008666992 0.0000000000000000
4.0646996498107910 5.7348699569702148 0.0000000000000000
2.8120701313018799 3.7981407642364502 0.0000000000000000
3.9243028163909912 5.8773083686828613 0.0000000000000000
3.8711457252502441 5.6845021247863770 0.0000000000000000
4.0115423202514648 5.5420632362365723 0.0000000000000000
3.8179886341094971 5.4916958808898926 0.0000000000000000
3.0206329822540283 2.5995991230010986 0.0000000000000000
2.4140460491180420 6.9161062240600586 0.0000000000000000
2.2201299667358398 6.8664078712463379 0.0000000000000000
2.8311448097229004 4.5189986228942871 0.0000000000000000
6.1283707618713379 7.3477416038513184 0.0000000000000000
6.0452895164489746 2.4917113780975342 0.0000000000000000
6.1853332519531250 2.3506288528442383 0.0000000000000000
3.9583852291107178 5.3492569923400879 0.0000000000000000
6.8529605865478516 2.1646437644958496 0.0000000000000000
2.0457284450531006 7.5359539985656738 0.0000000000000000
5.5518436431884766 2.0054557323455811 0.0000000000000000
8.0189485549926758 4.4372134208679199 0.0000000000000000
6.1325006484985352 2.1565744876861572 0.0000000000000000
3.2076170444488525 7.8383269309997559 0.0000000000000000
3.3477661609649658 7.6959562301635742 0.0000000000000000
1.7998255491256714 7.2921729087829590 0.0000000000000000
1.7472281455993652 7.1031990051269531 0.0000000000000000
2.9265339374542236 8.1249580383300781 0.0000000000000000
5.7685346603393555 4.7464642524719238 0.0000000000000000
5.4918079376220703 7.0011086463928223 0.0000000000000000
2.9374589920043945 4.9046115875244141 0.0000000000000000
5.1838064193725586 2.6255934238433838 0.0000000000000000
2.5413405895233154 8.0282163619995117 0.0000000000000000
2.7861213684082031 8.2657270431518555 0.0000000000000000
5.6913375854492188 1.8632777929306030 0.0000000000000000
8.0148820877075195 2.4674460887908936 0.0000000000000000
8.2054805755615234 2.5164697170257568 0.0000000000000000
7.5210857391357422 1.9816384315490723 0.0000000000000000
7.4694700241088867 1.7906540632247925 0.0000000000000000
6.7081389427185059 7.4942660331726074 0.0000000000000000
6.7612137794494629 7.6882629394531250 0.0000000000000000
6.9533023834228516 7.7392177581787109 0.0000000000000000
6.8134503364562988 7.8821096420288086 0.0000000000000000
7.0062866210937500 7.9321408271789551 0.0000000000000000
6.6236410140991211 7.8337254524230957 0.0000000000000000
6.0729937553405762 7.1527347564697266 0.0000000000000000
6.2087993621826172 5.0400061607360840 0.0000000000000000
7.2297258377075195 5.4846515655517578 0.0000000000000000
7.2828826904296875 5.6774582862854004 0.0000000000000000
7.4232797622680664 5.5350193977355957 0.0000000000000000
7.4764366149902344 5.7278261184692383 0.0000000000000000
7.6168332099914551 5.5853872299194336 0.0000000000000000
7.6699724197387695 5.7781987190246582 0.0000000000000000
7.5295906066894531 5.9206333160400391 0.0000000000000000
7.8103985786437988 5.6358394622802734 0.0000000000000000
7.7231259346008301 5.9710063934326172 0.0000000000000000
7.5827469825744629 6.1134400367736816 0.0000000000000000
7.7780537605285645 6.1641035079956055 0.0000000000000000
7.9201507568359375 6.0215415954589844 0.0000000000000000
7.6359772682189941 6.3060765266418457 0.0000000000000000
7.4423651695251465 6.2558493614196777 0.0000000000000000
7.8281035423278809 6.3601284027099609 0.0000000000000000
4.1710138320922852 6.1204829216003418 0.0000000000000000
7.7572321891784668 5.4429626464843750 0.0000000000000000
7.9507837295532227 5.4933166503906250 0.0000000000000000
7.4953031539916992 6.4484329223632812 0.0000000000000000
3.3095588684082031 6.2542567253112793 0.0000000000000000
7.8976268768310547 5.3005123138427734 0.0000000000000000
3.1801030635833740 3.1780183315277100 0.0000000000000000
5.8176250457763672 2.9695034027099609 0.0000000000000000
5.4005017280578613 5.3665866851806641 0.0000000000000000
6.3682708740234375 5.6184253692626953 0.0000000000000000
5.5559062957763672 3.9752385616302490 0.0000000000000000
4.8920717239379883 6.1291475296020508 0.0000000000000000
4.3605008125305176 4.2010831832885742 0.0000000000000000
3.1882367134094238 7.1175532341003418 0.0000000000000000
6.2428817749023438 4.5119547843933105 0.0000000000000000
3.8820726871490479 2.4657778739929199 0.0000000000000000
3.8287911415100098 2.2728435993194580 0.0000000000000000
3.6885075569152832 2.4154202938079834 0.0000000000000000
2.3608121871948242 6.7233953475952148 0.0000000000000000
2.1667323112487793 6.6735639572143555 0.0000000000000000
3.7989139556884766 4.7708377838134766 0.0000000000000000
3.6585171222686768 4.9132761955261230 0.0000000000000000
3.6353709697723389 2.2226972579956055 0.0000000000000000
3.7755465507507324 2.0801918506622314 0.0000000000000000
2.3076021671295166 6.5305981636047363 0.0000000000000000
2.1103794574737549 6.4812412261962891 0.0000000000000000
2.2539036273956299 6.3378744125366211 0.0000000000000000
2.0565996170043945 6.2885293960571289 0.0000000000000000
2.2005524635314941 6.1450972557067871 0.0000000000000000
2.0052101612091064 6.0952143669128418 0.0000000000000000
2.1476576328277588 5.9522109031677246 0.0000000000000000
1.9523912668228149 5.9023098945617676 0.0000000000000000
2.0946006774902344 5.7593750953674316 0.0000000000000000
1.9010554552078247 5.7089943885803223 0.0000000000000000
2.0419216156005859 5.5664367675781250 0.0000000000000000
8.1595277786254883 4.2949275970458984 0.0000000000000000
8.1062183380126953 4.1019940376281738 0.0000000000000000
2.6138451099395752 1.7754658460617065 0.0000000000000000
2.4740526676177979 1.9204442501068115 0.0000000000000000
3.0043020248413086 1.8755059242248535 0.0000000000000000
3.3999392986297607 7.8915443420410156 0.0000000000000000
3.5411171913146973 7.7467985153198242 0.0000000000000000
3.5932540893554688 7.9424662590026855 0.0000000000000000
3.7345974445343018 7.7973375320434570 0.0000000000000000
3.7877511978149414 7.9905219078063965 0.0000000000000000
3.9283320903778076 7.8472151756286621 0.0000000000000000
3.9814922809600830 8.0404224395751953 0.0000000000000000
4.1219115257263184 7.8975567817687988 0.0000000000000000
4.1751136779785156 8.0904178619384766 0.0000000000000000
4.3154807090759277 7.9478583335876465 0.0000000000000000
4.3686814308166504 8.1407117843627930 0.0000000000000000
4.5090394020080566 7.9982028007507324 0.0000000000000000
4.0350685119628906 8.2336273193359375 0.0000000000000000
2.9776821136474609 8.3172340393066406 0.0000000000000000
2.0910120010375977 3.7894759178161621 0.0000000000000000
1.9488031864166260 3.9324326515197754 0.0000000000000000
8.4327077865600586 7.2259569168090820 0.0000000000000000
1.8482815027236938 5.5160813331604004 0.0000000000000000
1.9887501001358032 5.3736324310302734 0.0000000000000000
1.7589012384414673 5.8519129753112793 0.0000000000000000
6.8673205375671387 8.0747537612915039 0.0000000000000000
7.0572276115417480 8.1253690719604492 0.0000000000000000
7.1992449760437012 7.9826312065124512 0.0000000000000000
7.2498879432678223 8.1759195327758789 0.0000000000000000
7.3924655914306641 8.0331678390502930 0.0000000000000000
6.9159808158874512 8.2645063400268555 0.0000000000000000
2.7566332817077637 1.6341093778610229 0.0000000000000000
8.2127151489257812 4.4877591133117676 0.0000000000000000
4.3855109214782715 1.7073341608047485 0.0000000000000000
1.6100095510482788 7.2440490722656250 0.0000000000000000
5.4991521835327148 1.8103892803192139 0.0000000000000000
5.3579254150390625 1.9503943920135498 0.0000000000000000
7.4452266693115234 8.2282085418701172 0.0000000000000000
7.5859246253967285 8.0861520767211914 0.0000000000000000
7.3025760650634766 8.3686332702636719 0.0000000000000000
4.1903529167175293 1.6563181877136230 0.0000000000000000
3.5822148323059082 2.0301184654235840 0.0000000000000000
1.6609808206558228 7.4352722167968750 0.0000000000000000
5.8216919898986816 4.9392704963684082 0.0000000000000000
3.6775918006896973 5.6341342926025391 0.0000000000000000
3.6244347095489502 5.4413280487060547 0.0000000000000000
4.5581212043762207 6.2212185859680176 0.0000000000000000
6.2665681838989258 7.2031207084655762 0.0000000000000000
2.2395009994506836 7.5865359306335449 0.0000000000000000
2.0990958213806152 7.7289104461669922 0.0000000000000000
7.4339194297790527 2.3168931007385254 0.0000000000000000
5.5258903503417969 6.4730572700500488 0.0000000000000000
5.7194442749023438 6.5234251022338867 0.0000000000000000
5.3323369026184082 6.4226894378662109 0.0000000000000000
3.4649634361267090 4.8629083633422852 0.0000000000000000
4.7094593048095703 2.8601028919219971 0.0000000000000000
4.7626161575317383 3.0529093742370605 0.0000000000000000
4.6222195625305176 3.1953480243682861 0.0000000000000000
5.6281380653381348 4.8889026641845703 0.0000000000000000
5.7153773307800293 4.5536580085754395 0.0000000000000000
6.7130589485168457 2.3075752258300781 0.0000000000000000
6.6569561958312988 2.1154258251190186 0.0000000000000000
7.3019247055053711 6.3982696533203125 0.0000000000000000
7.2487964630126953 6.2054972648620605 0.0000000000000000
3.4880902767181396 7.5536074638366699 0.0000000000000000
6.2387657165527344 2.5423772335052490 0.0000000000000000
4.8157734870910645 3.2457158565521240 0.0000000000000000
4.6753764152526855 3.3881545066833496 0.0000000000000000
5.1314477920532227 2.4335741996765137 0.0000000000000000
7.6659235954284668 3.8084263801574707 0.0000000000000000
7.4723696708679199 3.7580585479736328 0.0000000000000000
7.3319730758666992 3.9004971981048584 0.0000000000000000
7.2788162231445312 3.7076907157897949 0.0000000000000000
7.1384191513061523 3.8501293659210205 0.0000000000000000
4.1519389152526855 5.3996248245239258 0.0000000000000000
4.0987820625305176 5.2068185806274414 0.0000000000000000
3.8751697540283203 7.6543974876403809 0.0000000000000000
5.8557744026184082 4.4112191200256348 0.0000000000000000
4.2623186111450195 7.7550315856933594 0.0000000000000000
8.0923547744750977 5.3520536422729492 0.0000000000000000
8.1440114974975586 5.5430226325988770 0.0000000000000000
8.2838172912597656 5.4037461280822754 0.0000000000000000
8.0389642715454102 5.1589174270629883 0.0000000000000000
8.2999591827392578 4.1525182723999023 0.0000000000000000
8.3345565795898438 5.5917730331420898 0.0000000000000000
2.5620512962341309 1.5807375907897949 0.0000000000000000
4.5615749359130859 8.1933488845825195 0.0000000000000000
4.7021784782409668 8.0503530502319336 0.0000000000000000
4.6493616104125977 7.8560457229614258 0.0000000000000000
4.8425107002258301 7.9086756706237793 0.0000000000000000
2.8394081592559814 8.4553499221801758 0.0000000000000000
2.6494278907775879 8.4112100601196289 0.0000000000000000
4.4222478866577148 8.3328466415405273 0.0000000000000000
1.9654803276062012 6.6288857460021973 0.0000000000000000
4.5758872032165527 1.7563878297805786 0.0000000000000000
8.2466268539428711 3.9595644474029541 0.0000000000000000
5.6387696266174316 1.6708028316497803 0.0000000000000000
5.8307571411132812 1.7202926874160767 0.0000000000000000
5.4500098228454590 1.6186031103134155 0.0000000000000000
7.4957776069641113 8.4210100173950195 0.0000000000000000
1.5673599243164062 7.0529923439025879 0.0000000000000000
4.6111855506896973 8.3852939605712891 0.0000000000000000
1.6940320730209351 6.9164953231811523 0.0000000000000000
7.6586546897888184 1.8395807743072510 0.0000000000000000
7.7144618034362793 2.0303285121917725 0.0000000000000000
7.6058149337768555 1.6535069942474365 0.0000000000000000
7.4191527366638184 1.6077117919921875 0.0000000000000000
3.7224380970001221 1.8879150152206421 0.0000000000000000
8.1540842056274414 2.3295972347259521 0.0000000000000000
4.5224394798278809 1.5695680379867554 0.0000000000000000
3.2574083805084229 8.0377750396728516 0.0000000000000000
1.9053463935852051 7.6781897544860840 0.0000000000000000
1.9586744308471680 7.8711042404174805 0.0000000000000000
8.2013435363769531 7.7079029083251953 0.0000000000000000
8.1978797912597656 5.7344117164611816 0.0000000000000000
8.3903064727783203 5.7817144393920898 0.0000000000000000
8.2545061111450195 5.9256472587585449 0.0000000000000000
8.4474020004272461 5.9725461006164551 0.0000000000000000
7.5332822799682617 7.8912420272827148 0.0000000000000000
7.7273521423339844 7.9417028427124023 0.0000000000000000
2.1521868705749512 7.9217343330383301 0.0000000000000000
6.3253731727600098 7.3957400321960449 0.0000000000000000
3.4840381145477295 5.5837664604187012 0.0000000000000000
6.2128663063049316 7.0097737312316895 0.0000000000000000
6.0193996429443359 6.9594926834106445 0.0000000000000000
3.4308807849884033 5.3909602165222168 0.0000000000000000
6.7993669509887695 1.9723010063171387 0.0000000000000000
5.6812949180603027 5.0817093849182129 0.0000000000000000
5.8748488426208496 5.1320772171020508 0.0000000000000000
7.8213281631469727 2.4170782566070557 0.0000000000000000
4.4818229675292969 3.3377866744995117 0.0000000000000000
4.5349798202514648 3.5305931568145752 0.0000000000000000
4.3414258956909180 3.4802253246307373 0.0000000000000000
4.3945832252502441 3.6730318069458008 0.0000000000000000
4.9911842346191406 2.5761442184448242 0.0000000000000000
7.3550744056701660 6.5910730361938477 0.0000000000000000
7.5429725646972656 6.6505613327026367 0.0000000000000000
2.0034704208374023 4.1248073577880859 0.0000000000000000
1.8080540895462036 4.0749721527099609 0.0000000000000000
1.8629645109176636 4.2672772407531738 0.0000000000000000
1.6702163219451904 4.2163667678833008 0.0000000000000000
1.7230955362319946 4.4090666770935059 0.0000000000000000
1.6159687042236328 4.0270447731018066 0.0000000000000000
1.9164880514144897 4.4599013328552246 0.0000000000000000
1.7745634317398071 4.6013021469116211 0.0000000000000000
1.5806772708892822 4.5494089126586914 0.0000000000000000
1.9694216251373291 4.6525940895080566 0.0000000000000000
3.1460206508636475 3.7060699462890625 0.0000000000000000
8.0721416473388672 4.6300497055053711 0.0000000000000000
2.4590458869934082 3.1694040298461914 0.0000000000000000
3.4949617385864258 2.3651382923126221 0.0000000000000000
7.1915764808654785 4.0429358482360840 0.0000000000000000
6.9980225563049316 3.9925680160522461 0.0000000000000000
4.2010293006896973 3.6226639747619629 0.0000000000000000
5.3854937553405762 6.6154961585998535 0.0000000000000000
5.1919398307800293 6.5651283264160156 0.0000000000000000
4.5731291770935059 4.9723091125488281 0.0000000000000000
7.8446264266967773 5.1078448295593262 0.0000000000000000
4.3986501693725586 5.6427989006042480 0.0000000000000000
5.9811630249023438 5.5176901817321777 0.0000000000000000
6.0984148979187012 2.6846396923065186 0.0000000000000000
6.2919635772705078 2.7350277900695801 0.0000000000000000
6.1515736579895020 2.8774404525756836 0.0000000000000000
2.9333920478820801 2.9348452091217041 0.0000000000000000
5.2791795730590820 6.2298831939697266 0.0000000000000000
2.7248306274414062 4.1333856582641602 0.0000000000000000
2.7479720115661621 6.8240113258361816 0.0000000000000000
2.1823158264160156 5.4239988327026367 0.0000000000000000
2.1291584968566895 5.2311921119689941 0.0000000000000000
1.9356045722961426 5.1808242797851562 0.0000000000000000
3.5481362342834473 2.5578961372375488 0.0000000000000000
2.5012347698211670 6.5808782577514648 0.0000000000000000
4.6019554138183594 2.4748094081878662 0.0000000000000000
2.0760037899017334 5.0383934974670410 0.0000000000000000
4.9030127525329590 2.9104707241058350 0.0000000000000000
3.5371952056884766 5.7765727043151855 0.0000000000000000
7.1083974838256836 6.3479385375976562 0.0000000000000000
7.0511798858642578 4.1853742599487305 0.0000000000000000
6.8576259613037109 4.1350069046020508 0.0000000000000000
6.8044686317443848 3.9422001838684082 0.0000000000000000
6.9107828140258789 4.3278131484985352 0.0000000000000000
6.7172293663024902 4.2774453163146973 0.0000000000000000
4.2541866302490234 3.8154702186584473 0.0000000000000000
2.3946988582611084 6.1952996253967285 0.0000000000000000
7.1424860954284668 5.8198966979980469 0.0000000000000000
2.2884564399719238 5.8096599578857422 0.0000000000000000
4.2923359870910645 5.2571864128112793 0.0000000000000000
6.8235435485839844 4.6630582809448242 0.0000000000000000
4.4477405548095703 3.8658380508422852 0.0000000000000000
4.7285337448120117 3.5809607505798340 0.0000000000000000
6.4323592185974121 2.5925924777984619 0.0000000000000000
5.4877414703369141 5.0313415527343750 0.0000000000000000
5.4345841407775879 4.8385353088378906 0.0000000000000000
5.6622204780578613 4.3608512878417969 0.0000000000000000
8.0530433654785156 3.9091720581054688 0.0000000000000000
6.4610905647277832 7.2515964508056641 0.0000000000000000
4.7897348403930664 7.7137808799743652 0.0000000000000000
5.8026170730590820 4.2184128761291504 0.0000000000000000
5.9961709976196289 4.2687807083129883 0.0000000000000000
5.5218238830566406 4.5032901763916016 0.0000000000000000
4.5962448120117188 7.6630649566650391 0.0000000000000000
4.9832849502563477 7.7641773223876953 0.0000000000000000
5.0361523628234863 7.9591755867004395 0.0000000000000000
5.1768527030944824 7.8145723342895508 0.0000000000000000
5.2301149368286133 8.0073547363281250 0.0000000000000000
8.4401817321777344 4.0099339485168457 0.0000000000000000
2.7040739059448242 1.4403690099716187 0.0000000000000000
2.9020867347717285 1.4912135601043701 0.0000000000000000
7.8580508232116699 1.8850865364074707 0.0000000000000000
8.3405609130859375 2.3782007694244385 0.0000000000000000
8.3904170989990234 2.5638501644134521 0.0000000000000000
1.8953440189361572 3.7397124767303467 0.0000000000000000
2.0375175476074219 3.5967662334442139 0.0000000000000000
8.3120059967041016 6.1156225204467773 0.0000000000000000
6.6042246818542480 1.9233758449554443 0.0000000000000000
6.7431106567382812 1.7828378677368164 0.0000000000000000
1.8608340024948120 6.2350263595581055 0.0000000000000000
7.3572263717651367 8.5574321746826172 0.0000000000000000
7.1602234840393066 8.5097036361694336 0.0000000000000000
2.0111751556396484 8.0635251998901367 0.0000000000000000
2.2090806961059570 8.1227865219116211 0.0000000000000000
1.4157093763351440 7.1697278022766113 0.0000000000000000
8.4710559844970703 5.4535527229309082 0.0000000000000000
4.4764914512634277 8.5203008651733398 0.0000000000000000
4.2837023735046387 8.4716548919677734 0.0000000000000000
1.5196394920349121 6.8677191734313965 0.0000000000000000
2.7044689655303955 8.5953454971313477 0.0000000000000000
8.2662372589111328 4.6783633232116699 0.0000000000000000
8.4049692153930664 4.5386643409729004 0.0000000000000000
3.0255961418151855 8.5023880004882812 0.0000000000000000
3.1639878749847412 8.3684196472167969 0.0000000000000000
1.8315749168395996 4.7928495407104492 0.0000000000000000
8.1922664642333984 3.7712273597717285 0.0000000000000000
7.9996824264526367 3.7171080112457275 0.0000000000000000
8.1385965347290039 3.5784976482391357 0.0000000000000000
6.7308292388916016 8.2154674530029297 0.0000000000000000
6.7807440757751465 8.4027757644653320 0.0000000000000000
8.5441179275512695 2.4197621345520020 0.0000000000000000
8.5809917449951172 2.6151063442230225 0.0000000000000000
8.4437036514282227 2.7564575672149658 0.0000000000000000
7.7798061370849609 8.1341791152954102 0.0000000000000000
7.9214153289794922 7.9922256469726562 0.0000000000000000
2.5165863037109375 8.5487823486328125 0.0000000000000000
2.4627702236175537 8.3690919876098633 0.0000000000000000
3.9158864021301270 1.9378310441970825 0.0000000000000000
3.8614280223846436 1.7461009025573730 0.0000000000000000
7.9093017578125000 2.0769572257995605 0.0000000000000000
8.0578193664550781 1.9346643686294556 0.0000000000000000
7.4070739746093750 6.7845821380615234 0.0000000000000000
3.2904841899871826 5.5333986282348633 0.0000000000000000
6.0533947944641113 6.4313545227050781 0.0000000000000000
5.3703312873840332 7.8644361495971680 0.0000000000000000
5.4231805801391602 8.0572404861450195 0.0000000000000000
5.2851161956787109 8.1989679336547852 0.0000000000000000
5.4758672714233398 8.2492647171020508 0.0000000000000000
5.3359122276306152 8.3863010406494141 0.0000000000000000
5.5235943794250488 8.4377183914184570 0.0000000000000000
5.6662716865539551 8.3003273010253906 0.0000000000000000
7.3701224327087402 5.3422131538391113 0.0000000000000000
7.0552463531494141 6.1551418304443359 0.0000000000000000
2.4865629673004150 7.8307147026062012 0.0000000000000000
3.8520710468292236 4.9636440277099609 0.0000000000000000
7.0852622985839844 3.6573228836059570 0.0000000000000000
7.2256588935852051 3.5148844718933105 0.0000000000000000
8.1262063980102539 4.8220911026000977 0.0000000000000000
3.9924676418304443 4.8212056159973145 0.0000000000000000
5.6853618621826172 7.0514764785766602 0.0000000000000000
6.9148488044738770 6.2975788116455078 0.0000000000000000
5.6322045326232910 6.8586702346801758 0.0000000000000000
5.2695636749267578 2.2887797355651855 0.0000000000000000
5.0739259719848633 2.2417573928833008 0.0000000000000000
7.9464063644409180 3.5244379043579102 0.0000000000000000
8.0871133804321289 3.3811104297637939 0.0000000000000000
6.5157933235168457 2.2594304084777832 0.0000000000000000
3.3545794486999512 2.5075364112854004 0.0000000000000000
3.4077389240264893 2.7003362178802490 0.0000000000000000
5.3664193153381348 5.8946380615234375 0.0000000000000000
4.2391786575317383 5.0643796920776367 0.0000000000000000
6.1065521240234375 6.6241607666015625 0.0000000000000000
7.6127667427062988 3.6156198978424072 0.0000000000000000
3.7116742134094238 5.1060829162597656 0.0000000000000000
4.7366480827331543 7.5205969810485840 0.0000000000000000
5.5856566429138184 1.4872931241989136 0.0000000000000000
5.3994531631469727 1.4341241121292114 0.0000000000000000
3.6499731540679932 8.1356954574584961 0.0000000000000000
8.6327743530273438 2.8052434921264648 0.0000000000000000
8.4965734481811523 2.9508361816406250 0.0000000000000000
7.5721578598022461 1.4523627758026123 0.0000000000000000
7.3691310882568359 1.4217343330383301 0.0000000000000000
7.2250900268554688 1.5600880384445190 0.0000000000000000
7.1678075790405273 1.3742710351943970 0.0000000000000000
7.0205130577087402 1.5124818086624146 0.0000000000000000
8.4563751220703125 4.7194871902465820 0.0000000000000000
5.7186150550842285 8.4831562042236328 0.0000000000000000
5.8589620590209961 8.3520812988281250 0.0000000000000000
5.8080849647521973 8.1608476638793945 0.0000000000000000
6.0001053810119629 8.2149543762207031 0.0000000000000000
6.0495843887329102 8.4040050506591797 0.0000000000000000
6.1878347396850586 8.2698659896850586 0.0000000000000000
6.1437754631042480 8.0772943496704102 0.0000000000000000
6.3316593170166016 8.1317701339721680 0.0000000000000000
6.2894558906555176 7.9340157508850098 0.0000000000000000
8.4853591918945312 4.2060275077819824 0.0000000000000000
1.8522726297378540 3.5441081523895264 0.0000000000000000
1.9860889911651611 3.4038903713226318 0.0000000000000000
1.8021955490112305 3.3504791259765625 0.0000000000000000
1.9339096546173096 3.2120821475982666 0.0000000000000000
1.7420188188552856 3.1611070632934570 0.0000000000000000
1.8796421289443970 3.0210382938385010 0.0000000000000000
1.6870241165161133 2.9714021682739258 0.0000000000000000
1.8262488842010498 2.8300576210021973 0.0000000000000000
1.6338430643081665 2.7799155712127686 0.0000000000000000
1.7735326290130615 2.6381182670593262 0.0000000000000000
1.5818579196929932 2.5875732898712158 0.0000000000000000
1.7208386659622192 2.4458286762237549 0.0000000000000000
1.9136734008789062 2.4961881637573242 0.0000000000000000
1.8607953786849976 2.3037486076354980 0.0000000000000000
1.5534776449203491 3.1137084960937500 0.0000000000000000
2.0726735591888428 3.0701539516448975 0.0000000000000000
2.0535347461700439 2.3537392616271973 0.0000000000000000
2.0009427070617676 2.1614682674407959 0.0000000000000000
2.1943268775939941 2.2120265960693359 0.0000000000000000
2.1417312622070312 2.0167448520660400 0.0000000000000000
1.9480050802230835 1.9684058427810669 0.0000000000000000
1.4409096240997314 2.7299191951751709 0.0000000000000000
1.5307799577713013 2.4018232822418213 0.0000000000000000
2.1059992313385010 2.5447263717651367 0.0000000000000000
3.5269942283630371 1.8459241390228271 0.0000000000000000
3.3883590698242188 1.9812692403793335 0.0000000000000000
3.3342130184173584 1.7910287380218506 0.0000000000000000
8.4884147644042969 6.1638379096984863 0.0000000000000000
2.3430523872375488 8.5146627426147461 0.0000000000000000
4.7082328796386719 1.6218448877334595 0.0000000000000000
4.7645163536071777 1.8044980764389038 0.0000000000000000
4.6351528167724609 1.4361673593521118 0.0000000000000000
4.4630842208862305 1.3858438730239868 0.0000000000000000
1.6393518447875977 6.7420897483825684 0.0000000000000000
1.4875802993774414 4.1681375503540039 0.0000000000000000
1.4448428153991699 3.9815936088562012 0.0000000000000000
1.5780366659164429 3.8494441509246826 0.0000000000000000
5.5823993682861328 8.6323833465576172 0.0000000000000000
7.9801449775695801 8.1802110671997070 0.0000000000000000
8.1138238906860352 8.0424985885620117 0.0000000000000000
8.1742057800292969 8.2279872894287109 0.0000000000000000
5.2770619392395020 1.5605621337890625 0.0000000000000000
4.6501827239990234 8.5639209747314453 0.0000000000000000
2.0864229202270508 1.8299695253372192 0.0000000000000000
1.8918865919113159 1.7868251800537109 0.0000000000000000
1.8273625373840332 8.0215263366699219 0.0000000000000000
1.8690071105957031 8.2039260864257812 0.0000000000000000
1.6961094141006470 8.1642494201660156 0.0000000000000000
1.7336845397949219 8.3354339599609375 0.0000000000000000
1.5612055063247681 8.2897405624389648 0.0000000000000000
1.6064924001693726 8.4587850570678711 0.0000000000000000
1.4375224113464355 8.4149112701416016 0.0000000000000000
1.4824595451354980 8.5836687088012695 0.0000000000000000
1.7749630212783813 8.4987831115722656 0.0000000000000000
1.2518855333328247 8.5152530670166016 0.0000000000000000
8.4206638336181641 5.2731528282165527 0.0000000000000000
3.2306480407714844 8.5663003921508789 0.0000000000000000
8.5839643478393555 4.5924348831176758 0.0000000000000000
7.2174234390258789 8.6916828155517578 0.0000000000000000
7.3220705986022949 1.2053970098495483 0.0000000000000000
2.8407099246978760 1.3005344867706299 0.0000000000000000
8.6367406845092773 4.0888681411743164 0.0000000000000000
8.5720624923706055 3.8973531723022461 0.0000000000000000
7.5482306480407715 8.6093063354492188 0.0000000000000000
7.6748127937316895 8.4672555923461914 0.0000000000000000
2.4840419292449951 1.3753750324249268 0.0000000000000000
2.3620009422302246 1.5302574634552002 0.0000000000000000
6.2377877235412598 8.4566640853881836 0.0000000000000000
6.1034846305847168 8.5887966156005859 0.0000000000000000
1.7437107563018799 1.9167866706848145 0.0000000000000000
1.7005125284194946 1.7259480953216553 0.0000000000000000
8.5912160873413086 5.2939562797546387 0.0000000000000000
8.6666784286499023 5.4714970588684082 0.0000000000000000
2.2436895370483398 8.3505287170410156 0.0000000000000000
7.0202217102050781 8.6336956024169922 0.0000000000000000
8.6426534652709961 6.0566506385803223 0.0000000000000000
7.7454113960266113 1.5262104272842407 0.0000000000000000
8.8307085037231445 7.3496603965759277 0.0000000000000000
6.9675507545471191 8.4550714492797852 0.0000000000000000
6.8484630584716797 8.5791873931884766 0.0000000000000000
2.4014329910278320 8.1817655563354492 0.0000000000000000
8.2908811569213867 2.1905260086059570 0.0000000000000000
6.6533851623535156 8.5525627136230469 0.0000000000000000
6.4803261756896973 7.9816269874572754 0.0000000000000000
4.7992787361145020 8.4460887908935547 0.0000000000000000
4.7492289543151855 8.2457551956176758 0.0000000000000000
2.4183406829833984 1.7151175737380981 0.0000000000000000
5.3099446296691895 1.7510901689529419 0.0000000000000000
5.1653742790222168 1.8942370414733887 0.0000000000000000
4.8912916183471680 8.1000528335571289 0.0000000000000000
5.9140582084655762 8.5284547805786133 0.0000000000000000
1.3950527906417847 8.2213592529296875 0.0000000000000000
2.1987910270690918 1.6607853174209595 0.0000000000000000
3.1161537170410156 8.1772499084472656 0.0000000000000000
3.3084745407104492 8.2277660369873047 0.0000000000000000
1.8607871532440186 1.5927822589874268 0.0000000000000000
1.6539529561996460 1.5420225858688354 0.0000000000000000
1.5088963508605957 1.6748681068420410 0.0000000000000000
1.4632807970046997 1.4848351478576660 0.0000000000000000
8.6267900466918945 7.2776546478271484 0.0000000000000000
8.5649700164794922 7.0754175186157227 0.0000000000000000
8.3742399215698242 7.0359845161437988 0.0000000000000000
8.4982833862304688 6.8897123336791992 0.0000000000000000
8.3140220642089844 6.8528413772583008 0.0000000000000000
8.4289970397949219 6.6824493408203125 0.0000000000000000
8.2395324707031250 6.6672468185424805 0.0000000000000000
8.1235952377319336 6.8179697990417480 0.0000000000000000
8.0574235916137695 6.6303071975708008 0.0000000000000000
7.9280734062194824 6.7774467468261719 0.0000000000000000
8.1941719055175781 6.4743337631225586 0.0000000000000000
7.8627400398254395 6.5911779403686523 0.0000000000000000
1.6986280679702759 3.6756689548492432 0.0000000000000000
1.7574725151062012 3.8832125663757324 0.0000000000000000
8.3020982742309570 8.0923852920532227 0.0000000000000000
8.3512001037597656 8.2755117416381836 0.0000000000000000
8.2330179214477539 8.4074440002441406 0.0000000000000000
8.4052248001098633 8.4512128829956055 0.0000000000000000
8.5516691207885742 8.3116626739501953 0.0000000000000000
8.5869340896606445 8.5005769729614258 0.0000000000000000
8.2562847137451172 8.5769062042236328 0.0000000000000000
7.1089076995849609 8.3165340423583984 0.0000000000000000
8.3834037780761719 3.8304705619812012 0.0000000000000000
7.6349968910217285 8.2793054580688477 0.0000000000000000
5.5329046249389648 1.3032685518264771 0.0000000000000000
1.4307627677917480 6.7094969749450684 0.0000000000000000
1.8261114358901978 6.7760229110717773 0.0000000000000000
1.7387425899505615 6.5759558677673340 0.0000000000000000
8.2308416366577148 5.2226400375366211 0.0000000000000000
1.6564849615097046 2.2565450668334961 0.0000000000000000
8.2166395187377930 5.0223417282104492 0.0000000000000000
1.4976806640625000 2.9245727062225342 0.0000000000000000
1.3409675359725952 2.8727722167968750 0.0000000000000000
1.2213183641433716 2.7015962600708008 0.0000000000000000
6.0977878570556641 7.8818941116333008 0.0000000000000000
6.2426166534423828 7.7373781204223633 0.0000000000000000
7.7320942878723145 6.7336988449096680 0.0000000000000000
5.8996186256408691 7.8271498680114746 0.0000000000000000
8.7603712081909180 2.6513898372650146 0.0000000000000000
6.9348702430725098 1.8336510658264160 0.0000000000000000
1.6020269393920898 3.3266868591308594 0.0000000000000000
1.4222828149795532 3.2508838176727295 0.0000000000000000
1.3413394689559937 3.0681719779968262 0.0000000000000000
6.5325603485107422 8.1690053939819336 0.0000000000000000
8.2543029785156250 7.9002346992492676 0.0000000000000000
8.1166810989379883 6.0699715614318848 0.0000000000000000
8.1748075485229492 6.2621884346008301 0.0000000000000000
3.4552271366119385 8.0835943222045898 0.0000000000000000
8.4675283432006836 2.2495355606079102 0.0000000000000000
8.2536754608154297 1.9927937984466553 0.0000000000000000
8.3930997848510742 1.8628933429718018 0.0000000000000000
8.2129878997802734 1.8033453226089478 0.0000000000000000
8.3482656478881836 1.6763203144073486 0.0000000000000000
8.5315361022949219 1.7304786443710327 0.0000000000000000
8.4797534942626953 1.5491980314254761 0.0000000000000000
8.3055152893066406 1.4997727870941162 0.0000000000000000
8.4267511367797852 1.3587119579315186 0.0000000000000000
8.6103563308715820 1.4064408540725708 0.0000000000000000
8.0142650604248047 1.7438760995864868 0.0000000000000000
7.9697294235229492 6.2205991744995117 0.0000000000000000
2.0241124629974365 6.8194150924682617 0.0000000000000000
6.5486178398132324 1.7337195873260498 0.0000000000000000
6.4014167785644531 1.8709071874618530 0.0000000000000000
6.6805195808410645 1.5722506046295166 0.0000000000000000
6.8745322227478027 1.6434987783432007 0.0000000000000000
6.8357114791870117 1.4521237611770630 0.0000000000000000
6.9606952667236328 1.3256086111068726 0.0000000000000000
5.7790231704711914 1.5375716686248779 0.0000000000000000
5.9716091156005859 1.5837765932083130 0.0000000000000000
6.0219006538391113 1.7667444944381714 0.0000000000000000
6.1561927795410156 1.6326516866683960 0.0000000000000000
6.1176280975341797 1.4412994384765625 0.0000000000000000
5.9182157516479492 1.3918342590332031 0.0000000000000000
6.2085485458374023 1.8178865909576416 0.0000000000000000
6.0738253593444824 1.9602463245391846 0.0000000000000000
6.2648429870605469 2.0148882865905762 0.0000000000000000
2.3346407413482666 2.0639390945434570 0.0000000000000000
6.9918985366821289 2.0225608348846436 0.0000000000000000
1.3793011903762817 2.5387001037597656 0.0000000000000000
1.3509411811828613 2.3612892627716064 0.0000000000000000
1.4549379348754883 2.2185132503509521 0.0000000000000000
3.0562481880187988 1.3278007507324219 0.0000000000000000
3.0966272354125977 1.5340455770492554 0.0000000000000000
3.2451968193054199 1.4060575962066650 0.0000000000000000
3.3170163631439209 1.5910348892211914 0.0000000000000000
8.0621719360351562 7.8500590324401855 0.0000000000000000
4.1092143058776855 1.9883557558059692 0.0000000000000000
5.9371805191040039 2.1056666374206543 0.0000000000000000
1.7933231592178345 2.1094923019409180 0.0000000000000000
1.9087414741516113 6.4285850524902344 0.0000000000000000
1.0217540264129639 2.6252286434173584 0.0000000000000000
6.4611907005310059 2.0665359497070312 0.0000000000000000
7.8053660392761230 1.6997101306915283 0.0000000000000000
8.2448234558105469 1.3162907361984253 0.0000000000000000
1.5349940061569214 4.3602437973022461 0.0000000000000000
1.3646056652069092 4.5215334892272949 0.0000000000000000
1.4509429931640625 4.7314972877502441 0.0000000000000000
1.6409724950790405 4.7421932220458984 0.0000000000000000
8.6783046722412109 3.0188074111938477 0.0000000000000000
8.5539741516113281 3.1409692764282227 0.0000000000000000
8.3668432235717773 3.0932214260101318 0.0000000000000000
8.4301757812500000 3.2926299571990967 0.0000000000000000
8.2309122085571289 3.2371542453765869 0.0000000000000000
8.1752052307128906 3.0453715324401855 0.0000000000000000
3.0658977031707764 7.9827804565429688 0.0000000000000000
5.7571249008178711 7.9678735733032227 0.0000000000000000
8.0591144561767578 5.8781037330627441 0.0000000000000000
1.8527486324310303 7.4855170249938965 0.0000000000000000
1.7126784324645996 7.6254639625549316 0.0000000000000000
1.5248371362686157 7.5678038597106934 0.0000000000000000
1.4726859331130981 7.3858308792114258 0.0000000000000000
1.2831913232803345 7.3518333435058594 0.0000000000000000
3.1506161689758301 1.7296780347824097 0.0000000000000000
5.0873599052429199 8.1486253738403320 0.0000000000000000
8.5321578979492188 4.4014415740966797 0.0000000000000000
6.1862673759460449 7.5398960113525391 0.0000000000000000
6.3800549507141113 7.5859923362731934 0.0000000000000000
5.2149229049682617 2.0956835746765137 0.0000000000000000
5.0208053588867188 2.0461821556091309 0.0000000000000000
4.9651222229003906 1.8550941944122314 0.0000000000000000
3.9691514968872070 2.1304047107696533 0.0000000000000000
4.8806900978088379 2.1903645992279053 0.0000000000000000
7.7693886756896973 2.2226796150207520 0.0000000000000000
6.2835435867309570 1.5159608125686646 0.0000000000000000
8.0042705535888672 5.6855473518371582 0.0000000000000000
1.7431828975677490 7.8455333709716797 0.0000000000000000
7.8680396080017090 7.7987527847290039 0.0000000000000000
8.3505077362060547 4.3466520309448242 0.0000000000000000
8.3951435089111328 7.7565875053405762 0.0000000000000000
7.6741628646850586 7.7484292984008789 0.0000000000000000
8.0994749069213867 8.5302858352661133 0.0000000000000000
4.1627635955810547 2.1808555126190186 0.0000000000000000
8.6009845733642578 5.8287234306335449 0.0000000000000000
7.4804282188415527 7.6979489326477051 0.0000000000000000
3.1967117786407471 1.9285475015640259 0.0000000000000000
2.9535140991210938 1.6827490329742432 0.0000000000000000
3.6507165431976318 1.6745266914367676 0.0000000000000000
3.8096294403076172 1.5538462400436401 0.0000000000000000
3.9984569549560547 1.6070172786712646 0.0000000000000000
3.9419548511505127 1.4292011260986328 0.0000000000000000
4.1410851478576660 1.4747422933578491 0.0000000000000000
4.0542249679565430 1.7973273992538452 0.0000000000000000
2.5958182811737061 8.2216205596923828 0.0000000000000000
7.5745472908020020 2.1740038394927979 0.0000000000000000
8.2374305725097656 7.1802911758422852 0.0000000000000000
7.1465454101562500 7.7897605895996094 0.0000000000000000
7.0934505462646484 7.5968971252441406 0.0000000000000000
7.8645052909851074 5.8283729553222656 0.0000000000000000
2.3461329936981201 7.9736652374267578 0.0000000000000000
7.6276922225952148 2.3667778968811035 0.0000000000000000
7.4866933822631836 2.5095129013061523 0.0000000000000000
7.2869262695312500 7.6473646163940430 0.0000000000000000
7.6209907531738281 7.5553059577941895 0.0000000000000000
8.7965164184570312 7.0966439247131348 0.0000000000000000
7.2337961196899414 7.4544739723205566 0.0000000000000000
7.8507261276245117 7.0849795341491699 0.0000000000000000
4.2289776802062988 8.2826557159423828 0.0000000000000000
4.0887522697448730 8.4253187179565430 0.0000000000000000
3.8959729671478271 8.3773193359375000 0.0000000000000000
3.9613821506500244 8.5727930068969727 0.0000000000000000
3.7549705505371094 8.5191688537597656 0.0000000000000000
3.6982352733612061 8.3221530914306641 0.0000000000000000
3.8411824703216553 8.1844158172607422 0.0000000000000000
7.4571428298950195 6.9786033630371094 0.0000000000000000
6.6540822982788086 7.3012809753417969 0.0000000000000000
6.7936863899230957 7.1605386734008789 0.0000000000000000
2.2926824092864990 7.7793831825256348 0.0000000000000000
7.2669610977172852 6.9267883300781250 0.0000000000000000
7.8935523033142090 3.3309347629547119 0.0000000000000000
8.0347013473510742 3.1880373954772949 0.0000000000000000
7.8405451774597168 3.1379485130310059 0.0000000000000000
7.9808197021484375 2.9951591491699219 0.0000000000000000
5.7344522476196289 5.2745156288146973 0.0000000000000000
5.9280061721801758 5.3248834609985352 0.0000000000000000
6.1215596199035645 5.3752512931823730 0.0000000000000000
6.0684027671813965 5.1824450492858887 0.0000000000000000
6.2619566917419434 5.2328128814697266 0.0000000000000000
7.0211639404296875 6.6831932067871094 0.0000000000000000
2.2695596218109131 5.0887570381164551 0.0000000000000000
7.0321049690246582 3.4645166397094727 0.0000000000000000
7.1725015640258789 3.3220779895782471 0.0000000000000000
6.3001060485839844 6.6745285987854004 0.0000000000000000
5.2450971603393555 6.7579345703125000 0.0000000000000000
5.0515432357788086 6.7075667381286621 0.0000000000000000
4.9983863830566406 6.5147604942321777 0.0000000000000000
4.8579893112182617 6.6571989059448242 0.0000000000000000
4.8048324584960938 6.4643926620483398 0.0000000000000000
4.6644353866577148 6.6068310737609863 0.0000000000000000
7.4192128181457520 3.5652520656585693 0.0000000000000000
7.9318723678588867 4.7723407745361328 0.0000000000000000
3.9774599075317383 6.0701150894165039 0.0000000000000000
3.7839059829711914 6.0197472572326660 0.0000000000000000
4.0306172370910645 6.2629213333129883 0.0000000000000000
4.2241706848144531 6.3132891654968262 0.0000000000000000
4.0837740898132324 6.4557280540466309 0.0000000000000000
4.2773280143737793 6.5060954093933105 0.0000000000000000
4.1369314193725586 6.6485342979431152 0.0000000000000000
3.8902204036712646 6.4053602218627930 0.0000000000000000
3.2373270988464355 5.3405923843383789 0.0000000000000000
3.3777236938476562 5.1981534957885742 0.0000000000000000
3.1841700077056885 5.1477856636047363 0.0000000000000000
6.5086674690246582 5.4759869575500488 0.0000000000000000
7.1574940681457520 4.5709872245788574 0.0000000000000000
1.7951934337615967 5.3232650756835938 0.0000000000000000
1.6549094915390015 5.4656229019165039 0.0000000000000000
1.6112012863159180 5.2848796844482422 0.0000000000000000
1.4666694402694702 5.4200325012207031 0.0000000000000000
1.5180885791778564 5.6079988479614258 0.0000000000000000
1.3147698640823364 5.5620741844177246 0.0000000000000000
1.7242668867111206 5.1204442977905273 0.0000000000000000
1.8824502229690552 4.9880175590515137 0.0000000000000000
2.0231831073760986 4.8451652526855469 0.0000000000000000
2.1632652282714844 4.7030487060546875 0.0000000000000000
2.1100409030914307 4.5102772712707520 0.0000000000000000
1.7081323862075806 5.6585936546325684 0.0000000000000000
1.5709550380706787 5.8001422882080078 0.0000000000000000
1.6181697845458984 5.9919338226318359 0.0000000000000000
1.4441130161285400 5.9263992309570312 0.0000000000000000
1.4658036231994629 6.1197137832641602 0.0000000000000000
1.6754037141799927 6.1763439178466797 0.0000000000000000
1.8118183612823486 6.0421233177185059 0.0000000000000000
6.8616924285888672 6.1047739982604980 0.0000000000000000
6.6681389808654785 6.0544061660766602 0.0000000000000000
7.1956424713134766 6.0127010345458984 0.0000000000000000
4.2882690429687500 3.2874188423156738 0.0000000000000000
3.5562698841094971 6.4974308013916016 0.0000000000000000
3.7307488918304443 5.8269405364990234 0.0000000000000000
3.5903522968292236 5.9693794250488281 0.0000000000000000
3.6435093879699707 6.1621856689453125 0.0000000000000000
3.4499554634094238 6.1118178367614746 0.0000000000000000
5.4686665534973145 4.3104834556579590 0.0000000000000000
3.5031125545501709 6.3046245574951172 0.0000000000000000
5.0324687957763672 5.9867091178894043 0.0000000000000000
7.5405302047729492 2.7020678520202637 0.0000000000000000
7.3360395431518555 5.8702645301818848 0.0000000000000000
4.2964024543762207 7.2269535064697266 0.0000000000000000
4.1560058593750000 7.3693923950195312 0.0000000000000000
3.9624521732330322 7.3190245628356934 0.0000000000000000
4.3495597839355469 7.4197597503662109 0.0000000000000000
2.3414826393127441 6.0025053024291992 0.0000000000000000
2.4821059703826904 5.8600015640258789 0.0000000000000000
7.7040996551513672 5.2501683235168457 0.0000000000000000
7.5636811256408691 5.3925876617431641 0.0000000000000000
4.8689303398132324 3.4385223388671875 0.0000000000000000
5.0093274116516113 3.2960836887359619 0.0000000000000000
3.3627159595489502 6.4470629692077637 0.0000000000000000
6.0152454376220703 4.9896383285522461 0.0000000000000000
4.8500113487243652 2.7178173065185547 0.0000000000000000
5.2641716003417969 7.4787926673889160 0.0000000000000000
3.4118063449859619 4.6701021194458008 0.0000000000000000
3.3586490154266357 4.4772958755493164 0.0000000000000000
3.2182524204254150 4.6197342872619629 0.0000000000000000
3.1650953292846680 4.4269280433654785 0.0000000000000000
3.0246984958648682 4.5693664550781250 0.0000000000000000
6.2578897476196289 3.2630453109741211 0.0000000000000000
6.1174931526184082 3.4054839611053467 0.0000000000000000
6.0643358230590820 3.2126774787902832 0.0000000000000000
3.1500873565673828 5.6758375167846680 0.0000000000000000
6.3532629013061523 6.8673348426818848 0.0000000000000000
2.8352115154266357 6.4887661933898926 0.0000000000000000
7.3169651031494141 5.1494064331054688 0.0000000000000000
3.3054919242858887 4.2844891548156738 0.0000000000000000
3.1119382381439209 4.2341213226318359 0.0000000000000000
3.2523348331451416 4.0916829109191895 0.0000000000000000
3.0587811470031738 4.0413150787353516 0.0000000000000000
3.3927316665649414 3.9492442607879639 0.0000000000000000
5.2369632720947266 2.8183999061584473 0.0000000000000000
3.2564017772674561 6.0614500045776367 0.0000000000000000
6.5721111297607422 2.4504590034484863 0.0000000000000000
4.5881371498107910 3.7233994007110596 0.0000000000000000
4.2351117134094238 3.0946123600006104 0.0000000000000000
4.1478724479675293 3.4298574924468994 0.0000000000000000
4.0074753761291504 3.5722961425781250 0.0000000000000000
3.9543185234069824 3.3794896602630615 0.0000000000000000
2.0568337440490723 4.3175373077392578 0.0000000000000000
6.7703862190246582 4.4702515602111816 0.0000000000000000
6.5768322944641113 4.4198837280273438 0.0000000000000000
6.5236754417419434 4.2270774841308594 0.0000000000000000
6.6640720367431641 4.0846390724182129 0.0000000000000000
6.6109147071838379 3.8918323516845703 0.0000000000000000
6.7513117790222168 3.7493939399719238 0.0000000000000000
3.2141852378845215 2.6499686241149902 0.0000000000000000
3.2673428058624268 2.8427734375000000 0.0000000000000000
4.9943194389343262 4.5449929237365723 0.0000000000000000
3.2714095115661621 4.8125405311584473 0.0000000000000000
4.7326006889343262 5.5507283210754395 0.0000000000000000
3.0478401184082031 7.2599916458129883 0.0000000000000000
3.2413938045501709 7.3103594779968262 0.0000000000000000
3.3817906379699707 7.1679210662841797 0.0000000000000000
2.4479329586029053 6.3881068229675293 0.0000000000000000
3.1991777420043945 3.8988764286041260 0.0000000000000000
5.9129981994628906 6.5737929344177246 0.0000000000000000
4.1669468879699707 4.1507153511047363 0.0000000000000000
2.1972599029541016 4.1751050949096680 0.0000000000000000
5.2069478034973145 5.3162188529968262 0.0000000000000000
5.3473443984985352 5.1737799644470215 0.0000000000000000
5.1537904739379883 5.1234121322631836 0.0000000000000000
6.9448657035827637 3.7997615337371826 0.0000000000000000
3.0969302654266357 5.4830307960510254 0.0000000000000000
4.9561700820922852 3.1032772064208984 0.0000000000000000
6.2769641876220703 3.9839031696319580 0.0000000000000000
6.6490640640258789 5.3335485458374023 0.0000000000000000
6.4555106163024902 5.2831807136535645 0.0000000000000000
3.9092948436737061 7.1262178421020508 0.0000000000000000
5.1387829780578613 6.3723216056823730 0.0000000000000000
5.2560381889343262 3.5392577648162842 0.0000000000000000
2.9183843135833740 4.1837534904479980 0.0000000000000000
7.8785853385925293 4.5796375274658203 0.0000000000000000
2.8802354335784912 2.7420394420623779 0.0000000000000000
7.2447333335876465 4.2357420921325684 0.0000000000000000
7.1043367385864258 4.3781809806823730 0.0000000000000000
3.4990458488464355 4.3348569869995117 0.0000000000000000
5.5599732398986816 5.9450058937072754 0.0000000000000000
2.4099578857421875 4.9463186264038086 0.0000000000000000
4.4177246093750000 6.3636569976806641 0.0000000000000000
6.5468168258666992 6.9177026748657227 0.0000000000000000
5.0474762916564941 4.7377996444702148 0.0000000000000000
5.1878733634948730 4.5953607559204102 0.0000000000000000
3.5140535831451416 3.0859475135803223 0.0000000000000000
3.3736569881439209 3.2283861637115479 0.0000000000000000
4.9752445220947266 3.8241350650787354 0.0000000000000000
6.8194766044616699 2.6932907104492188 0.0000000000000000
2.3799369335174561 7.4441323280334473 0.0000000000000000
2.4330961704254150 7.6369400024414062 0.0000000000000000
4.6262865066528320 5.1651153564453125 0.0000000000000000
4.0687584877014160 7.7046718597412109 0.0000000000000000
7.6509461402893066 5.0573639869689941 0.0000000000000000
3.9433774948120117 6.5981664657592773 0.0000000000000000
3.8139216899871826 3.5219283103942871 0.0000000000000000
2.8883686065673828 6.6815724372863770 0.0000000000000000
5.1347160339355469 4.4025545120239258 0.0000000000000000
2.9524667263031006 3.6557021141052246 0.0000000000000000
3.9733932018280029 4.1003475189208984 0.0000000000000000
2.5122046470642090 3.3621678352355957 0.0000000000000000
2.3188390731811523 3.3119671344757080 0.0000000000000000
2.2658228874206543 3.1195154190063477 0.0000000000000000
2.4059498310089111 2.9768114089965820 0.0000000000000000
2.2121014595031738 2.9280204772949219 0.0000000000000000
2.1786229610443115 3.4544391632080078 0.0000000000000000
2.5162689685821533 5.3319272994995117 0.0000000000000000
2.3758716583251953 5.4743661880493164 0.0000000000000000
4.6944513320922852 4.1090121269226074 0.0000000000000000
5.7644677162170410 2.7766969203948975 0.0000000000000000
2.3227143287658691 5.2815604209899902 0.0000000000000000
7.4382872581481934 4.2861099243164062 0.0000000000000000
7.3851304054260254 4.0933036804199219 0.0000000000000000
2.6267099380493164 7.6874666213989258 0.0000000000000000
6.5277419090270996 6.1968450546264648 0.0000000000000000
3.3395745754241943 3.7564377784729004 0.0000000000000000
5.8898568153381348 3.8831677436828613 0.0000000000000000
5.4643568992614746 2.3404393196105957 0.0000000000000000
3.7688982486724854 7.2686567306518555 0.0000000000000000
3.5753443241119385 7.2182888984680176 0.0000000000000000
3.6284990310668945 7.4111075401306152 0.0000000000000000
5.1728653907775879 5.8442702293395996 0.0000000000000000
3.9393105506896973 4.6283988952636719 0.0000000000000000
2.5802984237670898 2.3068761825561523 0.0000000000000000
3.3967983722686768 5.9190115928649902 0.0000000000000000
5.3432779312133789 3.2040128707885742 0.0000000000000000
6.5386829376220703 2.9781680107116699 0.0000000000000000
7.5105218887329102 5.1997771263122559 0.0000000000000000
3.3014001846313477 2.3148057460784912 0.0000000000000000
7.3891968727111816 6.0630640983581543 0.0000000000000000
2.9865493774414062 3.1276507377624512 0.0000000000000000
4.5540547370910645 4.2514510154724121 0.0000000000000000
4.5199723243713379 4.7795023918151855 0.0000000000000000
5.5940556526184082 5.4169545173645020 0.0000000000000000
6.4023532867431641 5.0903739929199219 0.0000000000000000
4.4558601379394531 7.8054614067077637 0.0000000000000000
5.8257732391357422 6.9090523719787598 0.0000000000000000
5.9661722183227539 6.7666163444519043 0.0000000000000000
6.3151135444641113 5.4256191253662109 0.0000000000000000
2.2314169406890869 3.6470875740051270 0.0000000000000000
4.4286656379699707 3.1449801921844482 0.0000000000000000
3.7416853904724121 2.6082539558410645 0.0000000000000000
6.3451275825500488 2.9278073310852051 0.0000000000000000
7.1765685081481934 5.2918453216552734 0.0000000000000000
3.7948462963104248 2.8010687828063965 0.0000000000000000
3.9352405071258545 2.6586217880249023 0.0000000000000000
4.1328644752502441 4.6787667274475098 0.0000000000000000
4.1137900352478027 3.9579088687896729 0.0000000000000000
2.5735025405883789 7.4945273399353027 0.0000000000000000
2.5884308815002441 6.2456169128417969 0.0000000000000000
2.6416132450103760 6.4384222030639648 0.0000000000000000
2.9906160831451416 5.0974178314208984 0.0000000000000000
3.8370630741119385 6.2125535011291504 0.0000000000000000
4.4625506401062012 2.6169779300689697 0.0000000000000000
3.8670787811279297 3.7147347927093506 0.0000000000000000
5.0435910224914551 2.7682106494903564 0.0000000000000000
2.6716732978820801 3.9405794143676758 0.0000000000000000
5.9048686027526855 2.6342425346374512 0.0000000000000000
6.0343203544616699 5.7104964256286621 0.0000000000000000
4.1860213279724121 4.8715734481811523 0.0000000000000000
4.2050962448120117 5.5924310684204102 0.0000000000000000
4.3454928398132324 5.4499926567077637 0.0000000000000000
2.6948029994964600 6.6312155723571777 0.0000000000000000
2.6075794696807861 6.9664535522460938 0.0000000000000000
6.3832788467407227 4.3695163726806641 0.0000000000000000
6.7212958335876465 6.2472124099731445 0.0000000000000000
6.2278742790222168 5.7608642578125000 0.0000000000000000
2.2353658676147461 5.6168346405029297 0.0000000000000000
4.5922040939331055 5.6931667327880859 0.0000000000000000
4.5240387916564941 6.7492699623107910 0.0000000000000000
3.5221872329711914 7.0254821777343750 0.0000000000000000
3.3286335468292236 6.9751143455505371 0.0000000000000000
4.0456247329711914 5.0140118598937988 0.0000000000000000
4.9111466407775879 6.8500056266784668 0.0000000000000000
5.3964347839355469 3.3968191146850586 0.0000000000000000
2.7288856506347656 6.1031575202941895 0.0000000000000000
4.3645677566528320 6.1708507537841797 0.0000000000000000
7.0020895004272461 5.9623351097106934 0.0000000000000000
3.2945654392242432 7.5031738281250000 0.0000000000000000
3.1010067462921143 7.4527974128723145 0.0000000000000000
6.0493278503417969 4.4615869522094727 0.0000000000000000
3.6966664791107178 6.3549923896789551 0.0000000000000000
5.2028808593750000 3.3464515209197998 0.0000000000000000
3.1269459724426270 2.9852120876312256 0.0000000000000000
5.5790476799011230 6.6658639907836914 0.0000000000000000
6.3780450820922852 2.4017791748046875 0.0000000000000000
3.0056240558624268 3.8485085964202881 0.0000000000000000
6.9489321708679199 5.7695288658142090 0.0000000000000000
6.9639401435852051 4.5206193923950195 0.0000000000000000
2.5544078350067139 6.7736768722534180 0.0000000000000000
6.8767004013061523 4.8558645248413086 0.0000000000000000
6.6258120536804199 2.6429862976074219 0.0000000000000000
4.4708819389343262 6.5564632415771484 0.0000000000000000
6.1747169494628906 5.5680580139160156 0.0000000000000000
3.6012923717498779 2.7507007122039795 0.0000000000000000
5.2982540130615234 6.9507412910461426 0.0000000000000000
5.6963028907775879 3.8327999114990234 0.0000000000000000
6.9680056571960449 6.4903850555419922 0.0000000000000000
6.7744526863098145 6.4400186538696289 0.0000000000000000
4.5390467643737793 5.5003604888916016 0.0000000000000000
6.4364356994628906 4.5623226165771484 0.0000000000000000
3.0737888813018799 2.7924056053161621 0.0000000000000000
5.7385859489440918 7.2443513870239258 0.0000000000000000
5.8790979385375977 7.1020283699035645 0.0000000000000000
5.5749807357788086 4.6960964202880859 0.0000000000000000
5.3814268112182617 4.6457285881042480 0.0000000000000000
5.2410302162170410 4.7881674766540527 0.0000000000000000
6.0002379417419434 6.2385478019714355 0.0000000000000000
4.5008974075317383 4.0586447715759277 0.0000000000000000
5.4106054306030273 2.1464896202087402 0.0000000000000000
4.7966113090515137 2.5253319740295410 0.0000000000000000
5.2941875457763672 4.9809737205505371 0.0000000000000000
5.0965971946716309 2.9608683586120605 0.0000000000000000
7.5977640151977539 4.8645339012145996 0.0000000000000000
3.9052281379699707 5.1564507484436035 0.0000000000000000
4.3073434829711914 4.0082769393920898 0.0000000000000000
7.1615471839904785 6.5407366752624512 0.0000000000000000
5.4195761680603027 6.0874443054199219 0.0000000000000000
3.4608962535858154 2.8931410312652588 0.0000000000000000
5.9239392280578613 3.3551161289215088 0.0000000000000000
2.9715414047241211 4.3765602111816406 0.0000000000000000
3.3204998970031738 3.0355799198150635 0.0000000000000000
5.8707818984985352 3.1623096466064453 0.0000000000000000
6.0111784934997559 3.0198724269866943 0.0000000000000000
2.5352239608764648 6.0528211593627930 0.0000000000000000
5.2260222434997559 6.0370764732360840 0.0000000000000000
2.8843021392822266 4.7118048667907715 0.0000000000000000
5.9580211639404297 2.8270659446716309 0.0000000000000000
5.1497287750244141 3.1536500453948975 0.0000000000000000
6.1897249221801758 4.3191485404968262 0.0000000000000000
7.9126415252685547 4.0516066551208496 0.0000000000000000
4.6560821533203125 2.6674623489379883 0.0000000000000000
6.9789481163024902 3.2717101573944092 0.0000000000000000
6.4855041503906250 2.7853851318359375 0.0000000000000000
3.0778558254241943 4.7621726989746094 0.0000000000000000
2.7779877185821533 4.3261923789978027 0.0000000000000000
7.0170969963073730 4.7134261131286621 0.0000000000000000
4.4858894348144531 5.3075537681579590 0.0000000000000000
4.7516751289367676 6.2715859413146973 0.0000000000000000
2.8652272224426270 3.9909472465515137 0.0000000000000000
3.1610209941864014 2.4571785926818848 0.0000000000000000
6.7661709785461426 2.5005311965942383 0.0000000000000000
4.0606327056884766 3.7651026248931885 0.0000000000000000
3.3436412811279297 5.7262048721313477 0.0000000000000000
2.6225697994232178 5.7175440788269043 0.0000000000000000
6.2047324180603027 3.0702400207519531 0.0000000000000000
5.0624842643737793 3.4888899326324463 0.0000000000000000
4.7816910743713379 3.7737672328948975 0.0000000000000000
7.2143568992614746 6.7337288856506348 0.0000000000000000
4.6412940025329590 3.9162058830261230 0.0000000000000000
5.5408983230590820 5.2241477966308594 0.0000000000000000
5.7494602203369141 4.0256061553955078 0.0000000000000000
4.9220876693725586 3.6313285827636719 0.0000000000000000
4.4327325820922852 5.1147475242614746 0.0000000000000000
5.4386510848999023 6.8083024024963379 0.0000000000000000
4.3795752525329590 4.9219412803649902 0.0000000000000000
6.4705181121826172 4.0342712402343750 0.0000000000000000
7.9916033744812012 4.9664053916931152 0.0000000000000000
4.9452290534973145 6.3219537734985352 0.0000000000000000
6.3301215171813965 4.1767096519470215 0.0000000000000000
6.8917083740234375 3.6069552898406982 0.0000000000000000
7.7924947738647461 4.9150967597961426 0.0000000000000000
6.6981544494628906 3.5565874576568604 0.0000000000000000
7.8594489097595215 3.8589222431182861 0.0000000000000000
5.4155097007751465 4.1176772117614746 0.0000000000000000
5.6090631484985352 4.1680450439453125 0.0000000000000000
5.0856256484985352 6.1795153617858887 0.0000000000000000
6.5577578544616699 3.6990261077880859 0.0000000000000000
5.5107665061950684 7.7221140861511230 0.0000000000000000
3.7648315429687500 5.2988891601562500 0.0000000000000000
4.6112785339355469 6.4140248298645020 0.0000000000000000
5.8598408699035645 6.3809866905212402 0.0000000000000000
2.4289660453796387 5.6671900749206543 0.0000000000000000
5.7726068496704102 6.7162370681762695 0.0000000000000000
7.8062319755554199 3.6662826538085938 0.0000000000000000
6.6004114151000977 7.1098885536193848 0.0000000000000000
3.4349472522735596 7.3607430458068848 0.0000000000000000
6.1365675926208496 4.1263418197631836 0.0000000000000000
5.3282699584960938 4.4529223442077637 0.0000000000000000
6.1597266197204590 6.8169846534729004 0.0000000000000000
3.1310129165649414 4.9549794197082520 0.0000000000000000
7.7531023025512695 3.4734182357788086 0.0000000000000000
3.5712776184082031 5.2485213279724121 0.0000000000000000
3.5181205272674561 5.0557150840759277 0.0000000000000000
5.9430136680603027 4.0759739875793457 0.0000000000000000
7.3128962516784668 3.1796479225158691 0.0000000000000000
7.3660554885864258 3.3724477291107178 0.0000000000000000
7.1193428039550781 3.1292779445648193 0.0000000000000000
7.5596065521240234 3.4228615760803223 0.0000000000000000
3.6815881729125977 7.6041188240051270 0.0000000000000000
4.9301877021789551 7.5710449218750000 0.0000000000000000
3.3245666027069092 5.0053472518920898 0.0000000000000000
4.0156006813049316 7.5118579864501953 0.0000000000000000
6.4064202308654785 7.0601415634155273 0.0000000000000000
4.2091598510742188 7.5622134208679199 0.0000000000000000
4.8770551681518555 7.3781042098999023 0.0000000000000000
3.8220348358154297 7.4615268707275391 0.0000000000000000
5.1237406730651855 7.6214351654052734 0.0000000000000000
4.6835069656372070 7.3277068138122559 0.0000000000000000
5.3172645568847656 7.6717519760131836 0.0000000000000000
4.5431137084960938 7.4701275825500488 0.0000000000000000
4.4027113914489746 7.6125974655151367 0.0000000000000000
7.3398156166076660 7.8403525352478027 0.0000000000000000
2.2164385318756104 4.8959121704101562 0.0000000000000000
2.3036382198333740 4.5606780052185059 0.0000000000000000
1.9658290147781372 2.6877200603485107 0.0000000000000000
3.0554189682006836 2.0709755420684814 0.0000000000000000
2.2780597209930420 1.8661029338836670 0.0000000000000000
1.8853409290313721 6.9626145362854004 0.0000000000000000
3.4417490959167480 2.1727085113525391 0.0000000000000000
3.2483308315277100 2.1221845149993896 0.0000000000000000
2.0793938636779785 7.0099606513977051 0.0000000000000000
2.0189378261566162 2.8790473937988281 0.0000000000000000
7.9644799232482910 2.2684907913208008 0.0000000000000000
2.1260130405426025 3.2621140480041504 0.0000000000000000
2.0461308956146240 8.2630977630615234 0.0000000000000000
8.1042089462280273 2.1296372413635254 0.0000000000000000
7.3467059135437012 2.6526448726654053 0.0000000000000000
7.2934064865112305 2.4587523937225342 0.0000000000000000
7.6810979843139648 2.5598378181457520 0.0000000000000000
5.5636749267578125 7.9157066345214844 0.0000000000000000
2.3001077175140381 2.5915689468383789 0.0000000000000000
1.3419682979583740 6.8503117561340332 0.0000000000000000
1.2894406318664551 7.0195360183715820 0.0000000000000000
4.6312932968139648 1.9469381570816040 0.0000000000000000
4.3362283706665039 1.5235129594802856 0.0000000000000000
8.0082712173461914 7.6564126014709473 0.0000000000000000
8.4754590988159180 8.1449527740478516 0.0000000000000000
1.5686233043670654 7.7566657066345215 0.0000000000000000
5.6157007217407227 8.1085433959960938 0.0000000000000000
2.5287096500396729 2.1128370761871338 0.0000000000000000
4.1635107994079590 8.6154899597167969 0.0000000000000000
8.3541994094848633 6.3373956680297852 0.0000000000000000
7.6852507591247559 6.5065531730651855 0.0000000000000000
1.3472105264663696 7.5357856750488281 0.0000000000000000
5.9512338638305664 8.0227594375610352 0.0000000000000000
8.2777614593505859 3.4392619132995605 0.0000000000000000
1.5478380918502808 8.1159067153930664 0.0000000000000000
8.1194581985473633 1.4374432563781738 0.0000000000000000
4.8242344856262207 1.9948048591613770 0.0000000000000000
1.9285587072372437 8.5568151473999023 0.0000000000000000
2.1592698097229004 2.7359161376953125 0.0000000000000000
1.5633167028427124 1.8587230443954468 0.0000000000000000
4.7068147659301758 8.7285585403442383 0.0000000000000000
6.6746878623962402 8.0261144638061523 0.0000000000000000
1.7195292711257935 6.3655714988708496 0.0000000000000000
2.2452852725982666 2.4020652770996094 0.0000000000000000
5.8825411796569824 1.9128329753875732 0.0000000000000000
2.3871452808380127 2.2579212188720703 0.0000000000000000
5.1054773330688477 1.6787827014923096 0.0000000000000000
1.7823120355606079 1.4161020517349243 0.0000000000000000
8.1584148406982422 1.6184595823287964 0.0000000000000000
5.1392183303833008 8.3325595855712891 0.0000000000000000
5.1995511054992676 8.5242204666137695 0.0000000000000000
5.3975348472595215 8.5675134658813477 0.0000000000000000
8.3093519210815430 2.9001650810241699 0.0000000000000000
1.0720674991607666 7.3561897277832031 0.0000000000000000
8.3442430496215820 4.8530030250549316 0.0000000000000000
3.3428814411163330 8.4185533523559570 0.0000000000000000
1.6117769479751587 1.3566058874130249 0.0000000000000000
1.4296499490737915 1.2413673400878906 0.0000000000000000
1.2410004138946533 1.4374727010726929 0.0000000000000000
4.7374124526977539 2.3337411880493164 0.0000000000000000
1.4431852102279663 3.4035587310791016 0.0000000000000000
6.3428854942321777 1.6844099760055542 0.0000000000000000
8.5235681533813477 5.6309266090393066 0.0000000000000000
4.9352121353149414 2.3834855556488037 0.0000000000000000
1.4113274812698364 3.7962901592254639 0.0000000000000000
2.3716013431549072 8.6875934600830078 0.0000000000000000
8.2550992965698242 2.7057292461395264 0.0000000000000000
8.5455236434936523 3.7022113800048828 0.0000000000000000
8.0144958496093750 6.4231224060058594 0.0000000000000000
8.6017007827758789 6.7400813102722168 0.0000000000000000
6.3229513168334961 2.2083063125610352 0.0000000000000000
6.4317889213562012 7.7848577499389648 0.0000000000000000
7.0785598754882812 1.6966450214385986 0.0000000000000000
1.2710087299346924 3.2305269241333008 0.0000000000000000
7.2757673263549805 1.7451618909835815 0.0000000000000000
6.5713152885437012 7.6370515823364258 0.0000000000000000
6.5166759490966797 7.4443211555480957 0.0000000000000000
2.6471631526947021 1.2438656091690063 0.0000000000000000
2.6378467082977295 1.0374782085418701 0.0000000000000000
8.7073898315429688 3.8117933273315430 0.0000000000000000
8.5386114120483398 6.3298683166503906 0.0000000000000000
8.7163534164428711 4.4657211303710938 0.0000000000000000
2.8892138004302979 8.6405124664306641 0.0000000000000000
2.7595424652099609 8.7998933792114258 0.0000000000000000
8.6750354766845703 6.9034099578857422 0.0000000000000000
7.6616196632385254 8.7282371520996094 0.0000000000000000
8.1838817596435547 6.9950575828552246 0.0000000000000000
4.8293361663818359 1.4587671756744385 0.0000000000000000
8.1239566802978516 0.8842443823814392 0.0000000000000000
9.1437644958496094 7.7897105216979980 0.0000000000000000
2.1808264255523682 8.5495767593383789 0.0000000000000000
8.5568151473999023 1.9285587072372437 0.0000000000000000
3.3830225467681885 9.1424617767333984 0.0000000000000000
8.5622444152832031 3.3998887538909912 0.0000000000000000
5.3222904205322266 1.2896678447723389 0.0000000000000000
6.1818146705627441 1.2714412212371826 0.0000000000000000
0.9799183607101440 6.2025208473205566 0.0000000000000000
7.6568150520324707 1.2714412212371826 0.0000000000000000
0.9783394336700439 7.6724047660827637 0.0000000000000000
5.2900543212890625 8.9683475494384766 0.0000000000000000
5.2988219261169434 9.1278514862060547 0.0000000000000000
6.2025127410888672 9.0201196670532227 0.0000000000000000
8.7285585403442383 6.1818146705627441 0.0000000000000000
7.6831068992614746 9.0235958099365234 0.0000000000000000
1.8760429620742798 9.1157560348510742 0.0000000000000000
2.2036895751953125 9.1350460052490234 0.0000000000000000
2.3426585197448730 8.9864568710327148 0.0000000000000000
9.0111560821533203 2.3286576271057129 0.0000000000000000
9.0192947387695312 3.7964558601379395 0.0000000000000000
8.7126617431640625 3.2168157100677490 0.0000000000000000
3.6834087371826172 9.1347780227661133 0.0000000000000000
3.6933786869049072 9.3923091888427734 0.0000000000000000
9.1424617767333984 3.3830225467681885 0.0000000000000000
8.7285585403442383 8.2431850433349609 0.0000000000000000
1.7487705945968628 8.7279634475708008 0.0000000000000000
5.1306538581848145 1.4733265638351440 0.0000000000000000
1.4434703588485718 4.8818931579589844 0.0000000000000000
6.5992641448974609 1.4500000476837158 0.0000000000000000
1.4310644865036011 6.3659648895263672 0.0000000000000000
4.8640623092651367 0.8687888383865356 0.0000000000000000
4.7143983840942383 0.9058966636657715 0.0000000000000000
4.7603912353515625 0.7097272872924805 0.0000000000000000
5.1383876800537109 0.8682713508605957 0.0000000000000000
5.2883086204528809 0.9082598686218262 0.0000000000000000
5.2522363662719727 0.7132362127304077 0.0000000000000000
0.8687888383865356 5.1359376907348633 0.0000000000000000
0.9058966636657715 5.2856016159057617 0.0000000000000000
0.7097272872924805 5.2396087646484375 0.0000000000000000
0.8682713508605957 4.8616123199462891 0.0000000000000000
0.9077423810958862 4.7120041847229004 0.0000000000000000
0.7131142020225525 4.7478375434875488 0.0000000000000000
6.3147668838500977 0.8657860159873962 0.0000000000000000
6.6120238304138184 0.8551254272460938 0.0000000000000000
0.8575379848480225 6.6169772148132324 0.0000000000000000
0.8577919602394104 6.3214883804321289 0.0000000000000000
0.6066588163375854 6.3077526092529297 0.0000000000000000
7.7963104248046875 0.8649537563323975 0.0000000000000000
0.8480262160301208 7.7943668365478516 0.0000000000000000
8.7285585403442383 1.7568148374557495 0.0000000000000000
8.6650114059448242 1.5948101282119751 0.0000000000000000
3.8503568172454834 8.7114334106445312 0.0000000000000000
1.4443621635437012 5.1150903701782227 0.0000000000000000
1.2813940048217773 4.7023220062255859 0.0000000000000000
1.1813181638717651 4.4211444854736328 0.0000000000000000
6.1824560165405273 1.0097612142562866 0.0000000000000000
1.2742640972137451 6.1750001907348633 0.0000000000000000
7.6573414802551270 1.0135431289672852 0.0000000000000000
2.3413665294647217 1.2722284793853760 0.0000000000000000
2.2088901996612549 0.8554056286811829 0.0000000000000000
0.9775215983390808 2.3198099136352539 0.0000000000000000
3.7958171367645264 0.9814717769622803 0.0000000000000000
3.8173902034759521 8.9903917312622070 0.0000000000000000
3.2253837585449219 8.7309274673461914 0.0000000000000000
3.8538606166839600 1.2884520292282104 0.0000000000000000
3.6776492595672607 0.8599593639373779 0.0000000000000000
0.8575379848480225 3.3830225467681885 0.0000000000000000
1.2714412212371826 1.7568148374557495 0.0000000000000000
3.6565535068511963 1.4637216329574585 0.0000000000000000
3.3879764080047607 0.8551254272460938 0.0000000000000000
0.8659229278564453 3.6819553375244141 0.0000000000000000
0.6080464720726013 3.6928114891052246 0.0000000000000000
1.8760429620742798 0.8842443823814392 0.0000000000000000
0.8842443823814392 1.8760429620742798 0.0000000000000000
4.7152252197265625 1.2953249216079712 0.0000000000000000
1.2741305828094482 5.2858743667602539 0.0000000000000000
6.7780461311340332 1.2917374372482300 0.0000000000000000
5.2970433235168457 8.6998386383056641 0.0000000000000000
4.7090554237365723 8.9674701690673828 0.0000000000000000
4.6996254920959473 9.1244344711303711 0.0000000000000000
8.9683475494384766 5.2900543212890625 0.0000000000000000
9.1278514862060547 5.2988219261169434 0.0000000000000000
8.7175312042236328 4.6770949363708496 0.0000000000000000
8.9674701690673828 4.7090554237365723 0.0000000000000000
9.1244344711303711 4.6996254920959473 0.0000000000000000
8.9742641448974609 6.1750001907348633 0.0000000000000000
9.0117826461791992 7.6614851951599121 0.0000000000000000
1.0118086338043213 3.8126220703125000 0.0000000000000000
2.3403136730194092 1.0004153251647949 0.0000000000000000
8.7285585403442383 2.3431851863861084 0.0000000000000000
2.1929574012756348 1.4646660089492798 0.0000000000000000
0.8570479750633240 2.1994671821594238 0.0000000000000000
3.4024133682250977 1.4417580366134644 0.0000000000000000
1.4408084154129028 3.6456706523895264 0.0000000000000000
0.8838657736778259 8.1241140365600586 0.0000000000000000
9.1157560348510742 1.8760429620742798 0.0000000000000000
9.1401681900024414 3.6777555942535400 0.0000000000000000
8.5434761047363281 5.1304988861083984 0.0000000000000000
8.5442590713500977 4.8710279464721680 0.0000000000000000
6.6169881820678711 9.1424398422241211 0.0000000000000000
6.3214783668518066 9.1422529220581055 0.0000000000000000
6.3077397346496582 9.3933992385864258 0.0000000000000000
9.1424617767333984 6.6169772148132324 0.0000000000000000
9.1499996185302734 6.3507361412048340 0.0000000000000000
9.3660278320312500 6.3001794815063477 0.0000000000000000
8.1239566802978516 9.1157560348510742 0.0000000000000000
7.8018283843994141 9.1432685852050781 0.0000000000000000
7.8207964897155762 8.5349769592285156 0.0000000000000000
9.1157560348510742 8.1239566802978516 0.0000000000000000
8.5702390670776367 7.7925009727478027 0.0000000000000000
9.1487808227539062 2.2048516273498535 0.0000000000000000
6.1818146705627441 8.7285585403442383 0.0000000000000000
0.8160036802291870 9.1843948364257812 0.0000000000000000
9.1741762161254883 9.1741762161254883 0.0000000000000000
0.7857648730278015 0.7857648730278015 0.0000000000000000
9.1741762161254883 0.8258241415023804 0.0000000000000000
7.8386654853820801 8.3357620239257812 0.0000000000000000
1.4054698944091797 7.6967711448669434 0.0000000000000000
8.5596885681152344 6.5967922210693359 0.0000000000000000
6.3053007125854492 0.6068185567855835 0.0000000000000000
3.6904535293579102 0.6081547737121582 0.0000000000000000
9.3918437957763672 3.6904842853546143 0.0000000000000000
4.5363826751708984 8.6898880004882812 0.0000000000000000
1.3444291353225708 8.7459430694580078 0.0000000000000000
8.8397111892700195 5.5743789672851562 0.0000000000000000
6.3533086776733398 8.5712213516235352 0.0000000000000000
1.9303355216979980 1.4400610923767090 0.0000000000000000
1.3902816772460938 5.7458562850952148 0.0000000000000000
4.4261574745178223 8.8383979797363281 0.0000000000000000
1.8938324451446533 8.3878221511840820 0.0000000000000000
7.3861813545227051 1.0006253719329834 0.0000000000000000
7.3826074600219727 9.0051937103271484 0.0000000000000000
2.6212549209594727 8.9519767761230469 0.0000000000000000
8.5490951538085938 1.2031599283218384 0.0000000000000000
8.7666759490966797 1.2531068325042725 0.0000000000000000
8.2388362884521484 8.7303600311279297 0.0000000000000000
3.0679957866668701 8.6824617385864258 0.0000000000000000
9.0471611022949219 2.4997298717498779 0.0000000000000000
3.5092103481292725 8.2697086334228516 0.0000000000000000
1.7605335712432861 1.2728258371353149 0.0000000000000000
9.0324363708496094 7.4534091949462891 0.0000000000000000
7.3941435813903809 8.7128181457519531 0.0000000000000000
8.4341173171997070 8.6452140808105469 0.0000000000000000
8.6433906555175781 8.6891336441040039 0.0000000000000000
8.7843532562255859 8.5436401367187500 0.0000000000000000
4.3491334915161133 8.6528110504150391 0.0000000000000000
7.9886798858642578 6.9522261619567871 0.0000000000000000
4.0754523277282715 1.2743345499038696 0.0000000000000000
6.7609128952026367 8.7094516754150391 0.0000000000000000
2.5746839046478271 8.7218599319458008 0.0000000000000000
2.9490883350372314 8.8318796157836914 0.0000000000000000
3.4039862155914307 8.5578470230102539 0.0000000000000000
6.6155323982238770 8.3464965820312500 0.0000000000000000
4.8799042701721191 8.5600633621215820 0.0000000000000000
7.5895872116088867 6.8439664840698242 0.0000000000000000
8.8119926452636719 1.4590137004852295 0.0000000000000000
4.9273705482482910 8.2872419357299805 0.0000000000000000
5.9650106430053711 8.7103929519653320 0.0000000000000000
1.4396158456802368 7.8300371170043945 0.0000000000000000
7.0820760726928711 1.1735581159591675 0.0000000000000000
8.3268041610717773 3.6512641906738281 0.0000000000000000
6.3745260238647461 8.3087577819824219 0.0000000000000000
1.6658347845077515 8.6027774810791016 0.0000000000000000
7.7902493476867676 6.9039893150329590 0.0000000000000000
0.9695304632186890 4.5335636138916016 0.0000000000000000
1.7049727439880371 4.9219112396240234 0.0000000000000000
1.4148062467575073 1.8151376247406006 0.0000000000000000
7.7933583259582520 0.6255447864532471 0.0000000000000000
7.7989082336425781 9.3928775787353516 0.0000000000000000
2.2066414356231689 9.3744554519653320 0.0000000000000000
0.6073474287986755 2.2021200656890869 0.0000000000000000
5.4593462944030762 9.0139884948730469 0.0000000000000000
9.0145778656005859 5.4574761390686035 0.0000000000000000
1.3446172475814819 4.3013787269592285 0.0000000000000000
4.8965744972229004 1.6904956102371216 0.0000000000000000
4.9117050170898438 0.5417398810386658 0.0000000000000000
5.1018309593200684 0.5442656874656677 0.0000000000000000
0.5417398810386658 5.0882949829101562 0.0000000000000000
0.5442482829093933 4.8981795310974121 0.0000000000000000
9.7311630249023438 6.3089570999145508 0.0000000000000000
6.3089570999145508 0.2688372433185577 0.0000000000000000
0.2688372433185577 6.3089570999145508 0.0000000000000000
0.2688372433185577 3.6910426616668701 0.0000000000000000
6.3089570999145508 9.7311630249023438 0.0000000000000000
3.6910426616668701 9.7311630249023438 0.0000000000000000
9.7311630249023438 3.6910426616668701 0.0000000000000000
3.6910426616668701 0.2688372433185577 0.0000000000000000
4.4243922233581543 1.1718560457229614 0.0000000000000000
5.5557947158813477 8.8378772735595703 0.0000000000000000
5.7165002822875977 1.3851565122604370 0.0000000000000000
9.7388353347778320 7.7996106147766113 0.0000000000000000
7.7996106147766113 0.2611643970012665 0.0000000000000000
0.2611643970012665 7.7996106147766113 0.0000000000000000
7.7996106147766113 9.7388353347778320 0.0000000000000000
0.2611643970012665 2.2003896236419678 0.0000000000000000
2.2003896236419678 9.7388353347778320 0.0000000000000000
9.7388353347778320 2.2003896236419678 0.0000000000000000
2.2003896236419678 0.2611643970012665 0.0000000000000000
1.3215265274047852 4.1099586486816406 0.0000000000000000
7.4971442222595215 1.3153933286666870 0.0000000000000000
1.3478282690048218 1.6245303153991699 0.0000000000000000
7.0559711456298828 8.8372793197631836 0.0000000000000000
9.0177230834960938 4.5398445129394531 0.0000000000000000
4.5415778160095215 9.0109634399414062 0.0000000000000000
9.4028091430664062 7.7848434448242188 0.0000000000000000
0.5962618589401245 7.7866468429565430 0.0000000000000000
2.2132554054260254 0.5968785881996155 0.0000000000000000
9.3956346511840820 2.2157289981842041 0.0000000000000000
1.2065894603729248 1.2119324207305908 0.0000000000000000
5.9402623176574707 1.2219512462615967 0.0000000000000000
3.2270047664642334 1.2650558948516846 0.0000000000000000
0.9227699637413025 7.4880433082580566 0.0000000000000000
2.4962449073791504 0.9226977825164795 0.0000000000000000
4.2973799705505371 1.3408327102661133 0.0000000000000000
8.8452653884887695 2.8775832653045654 0.0000000000000000
8.0459184646606445 8.3552818298339844 0.0000000000000000
8.7332944869995117 5.3013749122619629 0.0000000000000000
6.7891845703125000 1.0399833917617798 0.0000000000000000
8.9598817825317383 6.7891287803649902 0.0000000000000000
1.0401185750961304 6.7891287803649902 0.0000000000000000
1.0401185750961304 3.2108712196350098 0.0000000000000000
3.2108712196350098 8.9598817825317383 0.0000000000000000
6.7892260551452637 8.9596843719482422 0.0000000000000000
3.2108151912689209 1.0399833917617798 0.0000000000000000
8.9598817825317383 3.2108712196350098 0.0000000000000000
4.0617527961730957 8.7639369964599609 0.0000000000000000
6.9703097343444824 9.0014410018920898 0.0000000000000000
8.6928081512451172 2.4958887100219727 0.0000000000000000
8.7370624542236328 6.7619824409484863 0.0000000000000000
8.9703397750854492 1.7594747543334961 0.0000000000000000
1.7594747543334961 1.0296604633331299 0.0000000000000000
1.0296604633331299 1.7594747543334961 0.0000000000000000
1.0296604633331299 8.2405252456665039 0.0000000000000000
1.7594747543334961 8.9703397750854492 0.0000000000000000
8.2405252456665039 8.9703397750854492 0.0000000000000000
8.2405252456665039 1.0296604633331299 0.0000000000000000
8.9703397750854492 8.2405252456665039 0.0000000000000000
1.2688202857971191 7.6682271957397461 0.0000000000000000
8.7723512649536133 5.9280905723571777 0.0000000000000000
5.2118506431579590 9.3154449462890625 0.0000000000000000
5.0772709846496582 9.4832344055175781 0.0000000000000000
9.3154449462890625 5.2118506431579590 0.0000000000000000
9.4832344055175781 5.0772709846496582 0.0000000000000000
3.0337760448455811 0.9971908926963806 0.0000000000000000
9.0063190460205078 3.0319678783416748 0.0000000000000000
0.9976601600646973 3.0332014560699463 0.0000000000000000
0.9946494102478027 6.9569220542907715 0.0000000000000000
3.0333089828491211 9.0018920898437500 0.0000000000000000
6.9715580940246582 0.9990960955619812 0.0000000000000000
9.0000228881835938 6.9730448722839355 0.0000000000000000
7.8351569175720215 1.4209538698196411 0.0000000000000000
1.1226768493652344 5.5756807327270508 0.0000000000000000
9.3025226593017578 4.7265343666076660 0.0000000000000000
4.7265343666076660 9.3025226593017578 0.0000000000000000
3.6233384609222412 8.5812263488769531 0.0000000000000000
2.9512441158294678 1.1581650972366333 0.0000000000000000
1.1996037960052490 7.1853542327880859 0.0000000000000000
0.9304093718528748 2.4832804203033447 0.0000000000000000
1.2592211961746216 3.8090710639953613 0.0000000000000000
1.2565317153930664 8.2342166900634766 0.0000000000000000
1.2981984615325928 8.3471479415893555 0.0000000000000000
8.5762672424316406 2.1660404205322266 0.0000000000000000
1.3030349016189575 6.0138630867004395 0.0000000000000000
8.6836071014404297 5.6552910804748535 0.0000000000000000
5.7898864746093750 8.6320600509643555 0.0000000000000000
8.6344709396362305 4.2806692123413086 0.0000000000000000
5.2541761398315430 1.4098203182220459 0.0000000000000000
0.3721826076507568 4.9957847595214844 0.0000000000000000
5.0042176246643066 0.3721860945224762 0.0000000000000000
3.7868232727050781 1.4118232727050781 0.0000000000000000
8.7934684753417969 4.0666718482971191 0.0000000000000000
1.5503021478652954 6.2943291664123535 0.0000000000000000
5.5700740814208984 1.1222661733627319 0.0000000000000000
5.4727406501770020 0.9799681305885315 0.0000000000000000
8.7010459899902344 8.3969078063964844 0.0000000000000000
1.5568001270294189 8.7270164489746094 0.0000000000000000
1.1737153530120850 4.0757894515991211 0.0000000000000000
1.7010246515274048 3.4843885898590088 0.0000000000000000
1.1589213609695435 2.9521234035491943 0.0000000000000000
3.4630846977233887 1.6947154998779297 0.0000000000000000
1.1929543018341064 5.9220395088195801 0.0000000000000000
4.5343770980834961 0.9630728363990784 0.0000000000000000
0.9586327672004700 5.4654731750488281 0.0000000000000000
1.4500000476837158 1.9512209892272949 0.0000000000000000
6.0473465919494629 1.3022840023040771 0.0000000000000000
8.5160894393920898 8.8245658874511719 0.0000000000000000
5.4465546607971191 8.7175226211547852 0.0000000000000000
8.3635692596435547 5.1266365051269531 0.0000000000000000
7.2968306541442871 8.8548631668090820 0.0000000000000000
8.6104478836059570 8.1699514389038086 0.0000000000000000
8.5788974761962891 8.0612649917602539 0.0000000000000000
8.5962905883789062 4.7458338737487793 0.0000000000000000
1.2934389114379883 3.9496171474456787 0.0000000000000000
1.5338704586029053 1.0141648054122925 0.0000000000000000
8.9929027557373047 1.5447549819946289 0.0000000000000000
1.0136880874633789 1.5345526933670044 0.0000000000000000
1.5431509017944336 8.9578876495361328 0.0000000000000000
1.0149775743484497 8.4454774856567383 0.0000000000000000
8.4454002380371094 8.9929275512695312 0.0000000000000000
8.9891815185546875 8.4611454010009766 0.0000000000000000
8.4565553665161133 1.0085904598236084 0.0000000000000000
8.5960655212402344 3.2755064964294434 0.0000000000000000
1.4353783130645752 5.2605438232421875 0.0000000000000000
6.2419948577880859 8.6107635498046875 0.0000000000000000
0.9392120242118835 3.9627835750579834 0.0000000000000000
0.9371917247772217 6.0387225151062012 0.0000000000000000
6.0365591049194336 9.0642995834350586 0.0000000000000000
3.9621171951293945 0.9435925483703613 0.0000000000000000
2.3078291416168213 1.4006528854370117 0.0000000000000000
1.4386773109436035 6.5775904655456543 0.0000000000000000
8.6050100326538086 2.2739889621734619 0.0000000000000000
6.7019925117492676 1.4115066528320312 0.0000000000000000
7.7028074264526367 8.6096706390380859 0.0000000000000000
4.7005362510681152 1.0458831787109375 0.0000000000000000
1.0455595254898071 5.2994532585144043 0.0000000000000000
8.6313724517822266 1.8311077356338501 0.0000000000000000
1.0481463670730591 4.7002158164978027 0.0000000000000000
5.3000001907348633 1.0520089864730835 0.0000000000000000
6.0346150398254395 0.9391419887542725 0.0000000000000000
9.0509405136108398 6.0651268959045410 0.0000000000000000
3.9636821746826172 9.0648765563964844 0.0000000000000000
9.0600404739379883 3.9635045528411865 0.0000000000000000
1.4268624782562256 8.0657377243041992 0.0000000000000000
1.1261761188507080 7.0382065773010254 0.0000000000000000
8.9574766159057617 2.6670691967010498 0.0000000000000000
1.8152261972427368 8.6197004318237305 0.0000000000000000
9.4123001098632812 4.8819985389709473 0.0000000000000000
4.8819985389709473 9.4123001098632812 0.0000000000000000
6.3623414039611816 1.4176806211471558 0.0000000000000000
6.2525825500488281 1.3856922388076782 0.0000000000000000
1.3962501287460327 6.2537207603454590 0.0000000000000000
7.7236237525939941 1.3924779891967773 0.0000000000000000
7.5235824584960938 0.9238521456718445 0.0000000000000000
7.5236401557922363 9.0714912414550781 0.0000000000000000
2.4784736633300781 9.0668153762817383 0.0000000000000000
2.0192809104919434 1.6951913833618164 0.0000000000000000
6.9048123359680176 8.7192077636718750 0.0000000000000000
5.0979762077331543 8.5912322998046875 0.0000000000000000
8.8831987380981445 4.4343156814575195 0.0000000000000000
1.4315747022628784 6.9919085502624512 0.0000000000000000
5.0981736183166504 9.1499996185302734 0.0000000000000000
9.1499996185302734 5.0981736183166504 0.0000000000000000
9.1829538345336914 4.8949871063232422 0.0000000000000000
4.8949871063232422 9.1829538345336914 0.0000000000000000
4.5682821273803711 1.2855933904647827 0.0000000000000000
8.8194408416748047 8.7905197143554688 0.0000000000000000
1.6766630411148071 8.0132217407226562 0.0000000000000000
4.7743024826049805 8.6206884384155273 0.0000000000000000
4.9125037193298340 9.6912555694580078 0.0000000000000000
9.6912555694580078 4.9125037193298340 0.0000000000000000
1.5595068931579590 6.6160264015197754 0.0000000000000000
2.2717254161834717 8.6151027679443359 0.0000000000000000
8.3245048522949219 6.5373711585998535 0.0000000000000000
1.5611652135848999 5.1502451896667480 0.0000000000000000
1.5559492111206055 3.7024042606353760 0.0000000000000000
1.5683413743972778 4.8610157966613770 0.0000000000000000
2.7823143005371094 1.1434237957000732 0.0000000000000000
1.2407281398773193 2.3094253540039062 0.0000000000000000
5.9139275550842285 8.8442649841308594 0.0000000000000000
1.3080558776855469 5.8687934875488281 0.0000000000000000
1.2677222490310669 6.7404255867004395 0.0000000000000000
8.6213636398315430 6.2131500244140625 0.0000000000000000
1.3264640569686890 5.4023952484130859 0.0000000000000000
8.7149887084960938 3.9563879966735840 0.0000000000000000
9.0765781402587891 6.2222123146057129 0.0000000000000000

CELLS 4666 18664
3 2139 79 2156
3 2076 177 2114
3 2081 163 2169
3 2111 153 2124
3 2088 89 2165
3 60 548 2216
3 103 2067 2143
3 2116 201 2126
3 2085 17 2086
3 2083 211 2175
3 2130 59 2134
3 31 2129 2160
3 2069 239 2155
3 11 2128 2157
3 2047 91 2059
3 2078 225 2117
3 2087 41 2179
3 388 336 389
3 392 337 393
3 340 380 381
3 341 384 385
3 376 342 377
3 372 343 373
3 338 368 369
3 339 364 365
3 27 1418 2070
3 432 262 483
3 434 281 481
3 436 319 482
3 438 300 480
3 205 198 2015
3 362 326 363
3 360 327 361
3 325 358 359
3 324 355 356
3 350 323 351
3 353 322 354
3 320 344 345
3 321 347 348
3 548 549 2216
3 442 1477 2347
3 334 400 401
3 335 396 397
3 404 332 405
3 408 333 409
3 330 412 413
3 331 416 417
3 424 329 425
3 420 328 421
3 301 439 480
3 282 435 481
3 244 437 482
3 263 433 483
3 261 262 432
3 280 281 434
3 318 319 436
3 299 300 438
3 2120 1603 2294
3 2163 223 2301
3 36 1414 1532
3 1473 36 1532
3 2141 9 2299
3 2164 47 2298
3 33 2142 2300
3 19 2084 2302
3 2174 209 2303
3 203 2068 2304
3 233 2177 2305
3 301 302 439
3 282 283 435
3 244 245 437
3 263 264 433
3 167 166 1427
3 1522 37 1523
3 166 171 1427
3 135 1539 2122
3 1583 2133 2216
3 1581 1580 2137
3 366 365 441
3 370 369 440
3 373 374 442
3 386 385 444
3 377 378 443
3 382 381 445
3 389 390 446
3 393 394 447
3 500 451 2192
3 1418 27 1992
3 1477 37 1522
3 397 396 2321
3 408 409 2322
3 198 197 2015
3 2308 121 2409
3 144 2310 2410
3 69 1401 2220
3 2133 60 2216
3 119 2030 2146
3 451 1399 2192
3 216 2204 2211
3 1422 447 2209
3 413 412 2308
3 424 425 2310
3 1386 2026 2095
3 75 1604 2323
3 1417 1416 2285
3 2185 1383 2284
3 16 23 2045
3 337 277 395
3 336 258 391
3 305 341 387
3 286 340 383
3 342 296 379
3 343 315 375
3 267 338 371
3 248 339 367
3 197 196 1537
3 253 420 2337
3 310 404 2336
3 196 204 1537
3 275 392 527
3 256 388 526
3 384 307 524
3 294 376 523
3 380 288 525
3 313 372 522
3 368 269 521
3 364 250 520
3 251 334 403
3 270 335 399
3 329 274 427
3 328 255 423
3 332 312 407
3 308 331 419
3 289 330 415
3 333 293 411
3 1464 215 1574
3 1468 1325 2074
3 72 2120 2294
3 2067 1376 2143
3 215 1464 2204
3 219 2185 2284
3 1401 69 2132
3 29 28 1524
3 1418 1373 2070
3 71 1604 2120
3 1407 2047 2059
3 146 1474 2034
3 1502 1250 1536
3 167 1427 2217
3 2192 2344 2365
3 398 397 456
3 402 401 457
3 409 410 458
3 414 413 460
3 405 406 459
3 418 417 461
3 421 422 462
3 425 426 463
3 103 102 2067
3 259 360 499
3 278 362 498
3 358 304 497
3 316 353 495
3 355 285 496
3 297 350 494
3 344 247 492
3 347 266 493
3 1474 146 2356
3 1503 1490 2048
3 257 336 388
3 276 337 392
3 314 343 372
3 295 342 376
3 340 287 380
3 341 306 384
3 339 249 364
3 338 268 368
3 1516 539 2278
3 145 1417 2285
3 260 327 360
3 279 326 362
3 325 303 358
3 298 323 350
3 317 322 353
3 324 284 355
3 320 246 344
3 321 265 347
3 2201 24 2218
3 1471 180 2022
3 1604 75 1605
3 2063 2201 2218
3 539 1516 2258
3 554 552 2178
3 335 271 396
3 334 252 400
3 311 332 404
3 292 333 408
3 330 290 412
3 331 309 416
3 273 329 424
3 254 328 420
3 131 1540 2096
3 1543 1542 2089
3 92 91 2047
3 205 2015 2028
3 1454 1490 2009
3 1580 61 2137
3 28 36 1524
3 14 2037 2362
3 2026 109 2095
3 1540 131 2122
3 229 1399 2366
3 95 505 2092
3 509 81 2135
3 511 67 2072
3 175 513 2113
3 161 515 2168
3 517 185 2171
3 1454 2009 2421
3 61 1528 2161
3 505 95 2293
3 507 57 2292
3 67 511 2290
3 515 161 2291
3 81 509 2289
3 513 175 2288
3 185 517 2287
3 155 519 2286
3 57 507 2138
3 519 155 2112
3 205 1502 1536
3 98 1545 2073
3 2204 1464 2211
3 1539 1540 2122
3 401 400 2101
3 417 416 2107
3 1490 1454 2048
3 1402 2061 2151
3 2123 135 2233
3 1539 135 2123
3 1262 1418 1992
3 1 263 483
3 2 282 481
3 262 1 483
3 281 2 481
3 0 244 482
3 319 0 482
3 300 3 480
3 3 301 480
3 447 394 2209
3 12 1410 2127
3 471 2130 2134
3 386 444 2033
3 404 405 2110
3 420 421 2104
3 1410 12 2057
3 218 1408 2065
3 99 1542 2283
3 393 337 394
3 389 336 390
3 341 385 386
3 340 381 382
3 377 342 378
3 373 343 374
3 339 365 366
3 338 369 370
3 1545 98 2013
3 432 483 2184
3 436 482 2183
3 434 481 2182
3 438 480 2181
3 334 401 402
3 335 397 398
3 405 332 406
3 409 333 410
3 330 413 414
3 331 417 418
3 421 328 422
3 425 329 426
3 1569 228 2005
3 99 2283 2313
3 1597 193 2318
3 484 15 2141
3 485 48 2164
3 38 486 2142
3 25 488 2084
3 489 217 2174
3 207 491 2068
3 240 490 2177
3 2061 147 2151
3 466 2076 2114
3 469 2139 2156
3 467 2081 2169
3 214 219 1574
3 464 2111 2124
3 470 2088 2165
3 487 230 2163
3 1411 1437 2159
3 1487 2221 2230
3 483 433 2184
3 482 437 2183
3 481 435 2182
3 480 439 2181
3 139 1416 2166
3 362 363 490
3 360 361 491
3 359 358 487
3 353 354 486
3 356 355 489
3 350 351 488
3 348 347 485
3 345 344 484
3 468 2090 2131
3 392 393 516
3 388 389 518
3 385 384 512
3 376 377 510
3 381 380 514
3 372 373 508
3 369 368 504
3 365 364 506
3 1412 171 2194
3 1604 1603 2120
3 2221 171 2230
3 397 2153 2271
3 2148 409 2272
3 14 2036 2037
3 452 500 2192
3 1604 71 2323
3 2189 520 2255
3 2190 521 2254
3 1480 1178 2010
3 215 214 1574
3 1382 543 2257
3 204 1500 1537
3 36 1473 1524
3 475 2078 2117
3 479 2087 2179
3 24 16 2045
3 1584 2216 2282
3 1477 442 1534
3 2030 2031 2146
3 543 1382 2333
3 2153 2152 2271
3 2147 2148 2272
3 108 1468 2074
3 1468 539 2258
3 2129 477 2160
3 473 2069 2155
3 2128 478 2157
3 495 2239 2263
3 494 2238 2264
3 2237 496 2262
3 499 2236 2260
3 102 109 2067
3 1528 61 2348
3 231 1555 2011
3 110 2256 2350
3 2035 1439 2207
3 98 92 2047
3 1428 1343 2051
3 1455 1480 2010
3 413 2080 2240
3 2150 425 2241
3 472 2116 2126
3 476 2085 2086
3 474 2083 2175
3 1427 1424 2217
3 1486 87 2347
3 346 345 448
3 349 348 449
3 354 431 450
3 430 359 451
3 351 352 452
3 357 356 453
3 361 429 454
3 363 428 455
3 1418 1262 1425
3 1423 1419 1424
3 427 274 2248
3 423 255 2249
3 308 419 2250
3 407 312 2251
3 289 415 2252
3 411 293 2253
3 270 399 2254
3 251 403 2255
3 2176 1409 2185
3 416 310 2336
3 400 253 2337
3 395 277 2259
3 391 258 2260
3 305 387 2261
3 286 383 2262
3 379 296 2264
3 375 315 2263
3 267 371 2265
3 248 367 2266
3 228 1569 2415
3 526 2188 2249
3 292 408 2417
3 396 271 2418
3 327 261 432
3 326 280 434
3 322 318 436
3 323 299 438
3 2033 444 2325
3 528 2141 2299
3 529 2164 2298
3 2142 532 2300
3 2084 530 2302
3 531 2174 2303
3 2068 535 2304
3 2177 534 2305
3 1557 2029 2225
3 193 1597 2064
3 977 1425 1592
3 1414 36 2019
3 206 1404 2199
3 403 2189 2255
3 399 2190 2254
3 447 1422 1597
3 533 2163 2301
3 302 325 439
3 283 324 435
3 245 320 437
3 264 321 433
3 2115 524 2250
3 522 2140 2251
3 523 2091 2253
3 2170 525 2252
3 366 441 2058
3 1425 1262 1592
3 2030 119 2406
3 2108 134 2110
3 2102 111 2104
3 256 257 388
3 275 276 392
3 313 314 372
3 306 307 384
3 287 288 380
3 294 295 376
3 249 250 364
3 268 269 368
3 278 279 362
3 259 260 360
3 316 317 353
3 303 304 358
3 297 298 350
3 284 285 355
3 246 247 344
3 265 266 347
3 173 1469 2429
3 459 2123 2233
3 1260 1419 1423
3 252 253 400
3 290 291 412
3 310 311 404
3 309 310 416
3 272 273 424
3 253 254 420
3 1510 1509 2145
3 1555 231 2033
3 1502 205 2028
3 426 427 465
3 422 423 464
3 410 411 468
3 419 418 466
3 406 407 469
3 415 414 467
3 399 398 470
3 403 402 471
3 2034 1334 2167
3 1416 1400 2166
3 2239 375 2263
3 2238 379 2264
3 383 2237 2262
3 2236 391 2260
3 1542 99 2089
3 270 271 335
3 251 252 334
3 257 258 336
3 276 277 337
3 279 280 326
3 260 261 327
3 254 255 328
3 273 274 329
3 283 284 324
3 302 303 325
3 292 293 333
3 311 312 332
3 295 296 342
3 314 315 343
3 317 318 322
3 286 287 340
3 289 290 330
3 298 299 323
3 305 306 341
3 308 309 331
3 245 246 320
3 264 265 321
3 248 249 339
3 267 268 338
3 989 1428 2051
3 1484 84 2040
3 1505 157 1507
3 504 96 2092
3 73 510 2072
3 86 508 2135
3 514 169 2168
3 512 182 2113
3 192 516 2171
3 1278 1423 1424
3 1449 194 2187
3 539 1468 2341
3 1555 2033 2325
3 275 527 2248
3 256 526 2249
3 294 523 2253
3 524 307 2250
3 525 288 2252
3 313 522 2251
3 521 269 2254
3 520 250 2255
3 1662 2125 2331
3 1289 1250 1502
3 1404 446 2199
3 1333 1508 1509
3 506 63 2138
3 159 518 2112
3 394 395 473
3 390 391 472
3 378 379 476
3 383 382 474
3 387 386 475
3 374 375 477
3 367 366 478
3 371 370 479
3 445 381 2295
3 441 365 2312
3 440 369 2313
3 373 442 2314
3 444 385 2315
3 377 443 2316
3 389 446 2317
3 393 447 2318
3 442 374 1534
3 1006 1455 2010
3 1525 62 2279
3 1494 1497 2071
3 370 440 2393
3 1399 451 2366
3 180 1471 2419
3 1034 1032 1533
3 412 291 2417
3 272 424 2418
3 2140 407 2251
3 419 2115 2250
3 2091 411 2253
3 415 2170 2252
3 2188 423 2249
3 2009 194 2421
3 1493 1289 1495
3 1476 1486 2347
3 361 327 429
3 363 326 428
3 354 322 431
3 351 323 352
3 325 359 430
3 324 356 357
3 320 345 346
3 321 348 349
3 2153 2321 2411
3 2322 2148 2412
3 1455 1006 2048
3 171 1412 2230
3 2080 2079 2240
3 2149 2150 2241
3 541 1652 2196
3 446 1404 2228
3 2144 125 2371
3 1276 2013 2229
3 1523 29 1524
3 1433 1562 1563
3 1523 37 2426
3 1046 1556 1578
3 1527 1525 2279
3 1509 1507 2380
3 1278 1424 1427
3 1533 1471 2022
3 1437 13 2159
3 1408 218 2210
3 528 484 2141
3 529 485 2164
3 486 532 2142
3 488 530 2084
3 531 489 2174
3 491 535 2068
3 490 534 2177
3 1507 2097 2380
3 1404 206 2268
3 1416 139 2285
3 1006 1503 2048
3 87 1486 2053
3 2216 549 2282
3 1421 205 1536
3 1333 1509 1510
3 2071 1497 2384
3 2080 2308 2409
3 2310 2150 2410
3 48 485 493
3 15 484 492
3 488 25 494
3 486 38 495
3 230 487 497
3 217 489 496
3 491 207 499
3 490 240 498
3 1507 157 2097
3 527 2173 2248
3 831 959 1559
3 1662 2340 2399
3 1372 1420 2430
3 555 1063 1444
3 1047 1049 1491
3 37 1477 1534
3 219 2176 2185
3 2344 26 2365
3 1420 2082 2430
3 1505 1506 2041
3 495 38 2239
3 494 25 2238
3 217 496 2237
3 499 207 2236
3 1256 1103 1535
3 259 499 2260
3 278 498 2259
3 497 304 2261
3 496 285 2262
3 316 495 2263
3 297 494 2264
3 492 247 2266
3 493 266 2265
3 189 188 2060
3 443 378 2201
3 382 445 2200
3 446 390 2199
3 1407 1247 1466
3 2096 1540 2424
3 50 1493 1494
3 2158 1279 2379
3 1495 1289 1502
3 1444 1063 1445
3 1277 1487 2021
3 1151 1075 2002
3 1422 1444 1597
3 1152 1438 1548
3 1425 977 1586
3 711 2223 2232
3 84 1484 2346
3 1080 1282 1467
3 188 194 2060
3 1329 2077 2400
3 1527 55 2161
3 1392 1391 1393
3 121 2308 2309
3 2310 144 2311
3 459 545 2123
3 462 538 539
3 463 536 537
3 458 546 547
3 459 544 545
3 540 461 541
3 542 460 543
3 548 457 549
3 550 456 551
3 111 2099 2101
3 134 2105 2107
3 533 487 2163
3 1478 835 1479
3 1520 1364 1984
3 1433 1561 1562
3 75 2035 2207
3 1070 1081 1465
3 526 159 2188
3 1388 1437 1984
3 123 2029 2030
3 216 2211 2354
3 1131 1244 1434
3 448 345 2362
3 449 348 2363
3 354 450 2364
3 451 359 2366
3 351 452 2365
3 453 356 2367
3 361 454 2369
3 363 455 2368
3 1399 229 2329
3 1328 1542 1543
3 1500 204 2202
3 1406 551 2334
3 967 1519 2050
3 1084 1552 1553
3 1438 1152 1439
3 1186 1273 1541
3 2256 1377 2282
3 63 520 2189
3 96 521 2190
3 1311 1561 1886
3 1473 1367 1524
3 1411 2159 2377
3 1359 1484 1485
3 338 370 371
3 339 366 367
3 340 382 383
3 341 386 387
3 378 342 379
3 374 343 375
3 394 337 395
3 390 336 391
3 1487 1428 2021
3 1653 132 2234
3 1476 1475 1486
3 1540 1541 2424
3 2061 551 2407
3 2125 1662 2399
3 194 1449 2421
3 146 2034 2167
3 1032 1135 1533
3 1430 1129 1434
3 1258 1034 1533
3 1135 1470 1471
3 1494 1493 1495
3 1528 1371 1556
3 334 402 403
3 335 398 399
3 406 332 407
3 331 418 419
3 410 333 411
3 330 414 415
3 426 329 427
3 422 328 423
3 1279 2158 2296
3 2026 1563 2243
3 1257 1505 1507
3 1392 1393 1394
3 1253 1062 1457
3 1539 1187 1540
3 50 1426 1493
3 1508 1333 2052
3 1038 1036 1664
3 157 1505 2041
3 1556 1046 1579
3 1517 1506 1519
3 1298 1382 2031
3 1661 1660 1662
3 1044 1045 1431
3 386 2033 2280
3 2210 218 2357
3 2103 421 2342
3 1343 1479 2051
3 1374 2067 2243
3 1390 1391 1392
3 1470 1135 1504
3 1356 1367 1473
3 1432 1078 1433
3 1324 1140 1325
3 1049 1326 1491
3 1079 1080 1467
3 551 2061 2334
3 1445 1446 1447
3 447 1597 2318
3 1152 1047 1491
3 1406 1247 1407
3 2029 123 2225
3 1483 1508 2052
3 1582 1082 1585
3 1479 1559 1560
3 242 1458 1488
3 1519 1535 2050
3 553 555 1444
3 1565 935 2016
3 1438 972 1548
3 1260 1423 1465
3 1474 1306 2034
3 1371 1528 2348
3 1289 1493 1993
3 1479 835 1559
3 1082 1582 1584
3 1436 221 2391
3 452 2192 2365
3 1602 1603 1604
3 125 2121 2371
3 1103 1315 1535
3 1506 1517 2041
3 123 2030 2406
3 1426 50 1492
3 1428 989 2021
3 1258 1663 1664
3 1605 1326 1606
3 1081 1260 1465
3 835 831 1559
3 959 1163 1559
3 1265 1143 1387
3 457 401 2350
3 461 417 2351
3 1269 1270 1334
3 1597 1445 2064
3 1255 1159 1372
3 1077 1078 1432
3 1391 1992 2198
3 1516 1511 2258
3 1128 1129 1430
3 121 2396 2412
3 2395 144 2411
3 1518 967 1531
3 1383 1384 1385
3 473 2155 2209
3 1277 1072 1278
3 539 538 2278
3 1045 1520 1984
3 1351 1359 1475
3 1562 1565 2016
3 1068 1070 1465
3 1433 1563 2026
3 1540 1187 1541
3 1306 1474 1934
3 1271 1272 1401
3 1006 1002 1503
3 1553 2005 2186
3 2029 1297 2030
3 1462 1459 2004
3 1488 1155 1572
3 1546 1314 1613
3 1439 1491 2207
3 1385 1459 1460
3 421 462 2342
3 1456 1253 1457
3 1145 983 1147
3 1129 1131 1434
3 1133 1268 1284
3 1356 1355 1367
3 1514 1512 1515
3 1506 1256 1535
3 2013 98 2229
3 405 459 2233
3 456 397 2271
3 409 458 2272
3 1439 1152 1491
3 1603 2008 2294
3 132 1653 2422
3 39 2038 2269
3 527 192 2173
3 1434 1244 1557
3 827 826 1481
3 551 1406 2339
3 2077 1329 2268
3 1002 1003 1503
3 1541 1273 2234
3 1295 1296 1297
3 505 504 2092
3 508 509 2135
3 510 511 2072
3 515 514 2168
3 513 512 2113
3 516 517 2171
3 1133 1285 1586
3 835 1478 1481
3 1351 1349 1359
3 1652 541 2320
3 1662 1660 1663
3 2340 2098 2399
3 1472 1124 1474
3 1381 1456 1457
3 1663 1258 2022
3 1602 1604 1605
3 1285 1284 1373
3 2173 427 2248
3 1127 1044 1431
3 1445 1063 1446
3 1556 1371 1578
3 1075 1082 2002
3 1249 1525 1526
3 460 413 2240
3 425 463 2241
3 538 158 2278
3 1652 133 2431
3 1494 1495 1496
3 1374 1151 1376
3 1431 1045 1984
3 1134 1128 1143
3 1385 1384 1458
3 2087 479 2206
3 1311 1312 1561
3 1139 1511 1512
3 1287 1580 1581
3 967 1518 1519
3 2109 405 2233
3 63 506 520
3 96 504 521
3 508 86 522
3 510 73 523
3 169 514 525
3 182 512 524
3 516 192 527
3 518 159 526
3 402 457 548
3 398 456 550
3 458 410 546
3 459 406 544
3 414 460 542
3 418 461 540
3 462 422 538
3 463 426 536
3 1497 2118 2384
3 242 1488 1572
3 1336 1338 1339
3 1377 1151 2002
3 547 546 2294
3 1528 1527 2161
3 1133 1284 1285
3 1168 1256 1257
3 1141 1079 1467
3 1138 1077 1140
3 1036 1258 1664
3 1066 1038 1664
3 1377 2256 2413
3 2037 448 2362
3 1135 1471 1533
3 2052 1331 2054
3 1062 1180 1457
3 1264 1400 1416
3 981 1150 1251
3 1150 1990 1993
3 1561 1078 1886
3 2030 1297 2031
3 1122 1121 1123
3 1180 1182 1184
3 1139 1512 1513
3 1364 1388 1984
3 133 2320 2351
3 1271 1401 2205
3 1067 1068 1072
3 1081 1079 1141
3 1482 49 2393
3 1278 1072 1423
3 1887 2039 2043
3 1427 171 2221
3 1287 1581 1582
3 1605 75 2207
3 1084 1553 1554
3 182 524 2115
3 522 86 2140
3 169 525 2170
3 523 73 2091
3 1003 1489 1503
3 826 835 1481
3 1441 1415 1442
3 1547 1613 1615
3 1121 1124 1472
3 980 1171 1990
3 1139 1513 2024
3 118 123 2406
3 1359 1349 1484
3 1553 1552 2005
3 2118 1497 2119
3 1144 1142 1267
3 1474 1124 1934
3 37 30 2426
3 1407 1466 2047
3 978 972 1060
3 982 928 983
3 27 22 2017
3 929 980 981
3 1475 1359 1486
3 1512 1511 1516
3 1572 554 2178
3 1526 1525 1527
3 1060 972 1438
3 1328 1543 1544
3 1297 1298 2031
3 1257 1507 1508
3 938 1547 1615
3 1138 1140 1324
3 1332 1333 1510
3 1385 1458 1459
3 1168 1257 1483
3 1389 1415 1440
3 1339 1413 1435
3 1247 1137 1466
3 1137 1274 1466
3 1401 2132 2205
3 546 72 2294
3 1285 1425 1586
3 1483 1257 1508
3 931 970 971
3 2057 12 2058
3 977 927 1586
3 1547 1546 1613
3 1661 1662 2331
3 2045 23 2420
3 932 933 934
3 1513 1518 2024
3 937 1530 1585
3 1376 1151 1377
3 1387 1143 1429
3 2127 1410 2377
3 1489 1003 1550
3 1367 1355 1522
3 2063 443 2201
3 1420 195 2082
3 827 1481 1549
3 1249 1405 1525
3 1456 84 2346
3 1155 1488 1529
3 1410 1127 1411
3 2223 1480 2232
3 1510 156 2228
3 172 180 2378
3 1458 242 2004
3 1395 1393 1398
3 1496 1495 2028
3 971 970 1076
3 1249 1526 1579
3 1390 1261 1391
3 1408 1141 1409
3 1339 1340 1412
3 939 2052 2054
3 1483 939 1521
3 1469 1999 2429
3 1271 1060 1272
3 1135 1026 1504
3 537 536 2307
3 1259 1141 1408
3 1336 1339 1435
3 1026 957 1504
3 1334 1270 1402
3 1143 1128 1430
3 1073 1044 1127
3 1281 1328 2032
3 171 166 2194
3 157 150 2097
3 852 850 1521
3 1281 1327 1328
3 212 218 2065
3 1546 1545 2013
3 401 2100 2350
3 417 2106 2351
3 83 1485 2040
3 1375 1563 2016
3 168 160 2217
3 1358 1473 1532
3 1184 1182 1379
3 1123 1121 1472
3 1479 1560 2051
3 1171 1566 1990
3 1140 1077 1432
3 1297 1296 1298
3 220 228 2391
3 229 222 2328
3 1409 1467 2185
3 2256 457 2350
3 1998 716 2018
3 1515 1512 1516
3 1508 1507 1509
3 507 506 2138
3 518 519 2112
3 1566 1171 1593
3 1495 1502 2028
3 2007 1800 2025
3 1328 1327 1542
3 1494 1496 1497
3 498 240 2273
3 230 497 2274
3 48 493 2276
3 15 492 2275
3 1325 1140 1386
3 1426 1150 1993
3 1286 1530 1564
3 1442 1415 2019
3 44 50 2071
3 197 1537 2015
3 1187 1186 1541
3 1252 1251 1279
3 1437 1431 1984
3 1519 1506 1535
3 1570 1161 1573
3 729 728 1531
3 1155 1529 2003
3 1314 1546 2013
3 1180 1184 1457
3 1513 1512 1514
3 186 193 2297
3 1659 1066 1660
3 1082 937 1585
3 1332 1331 1333
3 1248 1127 1410
3 1498 1496 1499
3 1485 83 2053
3 1576 537 2307
3 1072 1068 1465
3 2093 1462 2358
3 1084 1551 1552
3 1530 1286 1585
3 116 122 2020
3 90 97 2059
3 123 118 2222
3 1184 1379 1380
3 1339 1412 1413
3 1514 1515 1567
3 1779 1360 1781
3 1563 1562 2016
3 934 933 937
3 1587 1566 1593
3 1481 1478 2012
3 194 188 2187
3 1046 941 1579
3 109 2026 2243
3 1538 1187 1539
3 1493 1426 1993
3 971 1076 1142
3 1372 1159 1420
3 70 75 2323
3 181 174 2429
3 934 937 1075
3 1257 1256 1505
3 972 924 1548
3 1122 1123 1126
3 1183 1187 1538
3 138 145 2285
3 934 1136 2001
3 228 220 2227
3 1478 1341 2012
3 978 1133 1586
3 1358 1356 1473
3 216 208 2204
3 1076 1084 1554
3 964 1153 1551
3 837 1570 1573
3 226 231 2306
3 1459 1458 2004
3 1462 2093 2343
3 989 987 2021
3 123 1429 2225
3 150 157 2397
3 75 70 2220
3 1529 1570 2003
3 1551 1153 1552
3 853 982 1587
3 536 195 2307
3 218 2200 2357
3 850 963 1521
3 1067 1072 1277
3 1337 1549 2012
3 1134 1143 1265
3 939 852 1521
3 1279 1251 1492
3 1552 1569 2005
3 1359 1485 1486
3 1460 1461 1464
3 1156 1158 1550
3 968 1047 1152
3 1485 1484 2040
3 971 1144 1985
3 1549 1481 2012
3 1051 1053 1606
3 1345 1253 1456
3 1255 1372 2009
3 1278 1427 2221
3 1378 1267 1469
3 1158 1489 1550
3 1339 1338 1340
3 1564 1530 1575
3 1366 1477 1522
3 2226 543 2333
3 85 78 2327
3 1333 1331 2052
3 924 923 1548
3 978 1132 1133
3 1781 1360 1989
3 1073 1249 1579
3 1346 1347 1348
3 1446 1063 1588
3 1346 1345 1347
3 746 1564 1575
3 728 919 1531
3 967 729 1531
3 982 983 1145
3 1417 145 2193
3 1283 1161 1570
3 1520 1045 2007
3 1373 1284 2045
3 1582 1581 1583
3 1504 957 1988
3 1985 1504 1988
3 1344 1558 1571
3 1677 1594 1996
3 1138 1324 1511
3 981 980 1150
3 1447 1446 1448
3 1526 1527 1528
3 1499 1496 2028
3 1346 1348 1991
3 1470 1504 1985
3 1659 1660 1661
3 1147 983 1148
3 82 87 2053
3 968 1152 1548
3 1328 1544 2032
3 62 56 2279
3 1326 1051 1606
3 164 170 2180
3 50 44 2330
3 1285 1373 1418
3 1440 1415 1441
3 941 1073 1579
3 1550 1003 1591
3 84 76 2040
3 1367 1522 1523
3 2002 1584 2282
3 1394 1396 1436
3 931 971 1985
3 1042 1125 1571
3 1386 1432 2026
3 1362 1358 1532
3 1394 1393 1395
3 1433 1078 1561
3 1092 853 1587
3 1414 1365 1532
3 934 1075 1136
3 1246 1295 1557
3 981 1251 1252
3 1368 1998 2018
3 1059 1601 1602
3 1365 1362 1532
3 1434 1557 2225
3 1353 1351 1475
3 918 964 1551
3 1126 1123 1264
3 1132 1060 1271
3 1561 1312 1562
3 1156 1550 1568
3 1594 1593 1996
3 1544 1547 2032
3 1526 1556 1579
3 984 2055 2056
3 1994 690 1995
3 1287 1582 1585
3 1568 1550 1591
3 1647 1649 1653
3 1554 1553 2011
3 1348 1360 1991
3 1184 1380 1381
3 242 236 2359
3 1059 1600 1601
3 1263 1076 1554
3 2039 1565 2043
3 1602 1605 1606
3 140 146 2167
3 1647 1648 1649
3 746 1023 1564
3 2032 938 2046
3 1326 1605 2207
3 726 746 1575
3 1246 1294 1295
3 1348 1347 1349
3 1074 1042 1571
3 1360 1779 1991
3 1559 1163 1560
3 1244 1246 1557
3 2228 156 2317
3 999 1009 1568
3 1552 1153 1569
3 1520 2007 2025
3 1030 1149 1286
3 1391 1261 1992
3 1009 1122 1568
3 156 1510 2145
3 1125 1344 1571
3 100 108 2074
3 1053 1059 1606
3 1082 1584 2002
3 1264 1416 1417
3 982 1146 1587
3 1272 1060 1438
3 1139 1138 1511
3 1294 1997 2006
3 1445 1447 2064
3 1154 1390 1569
3 999 1568 1591
3 932 934 2001
3 735 726 1575
3 837 1573 1596
3 1059 1055 1600
3 1367 1523 1524
3 22 27 2070
3 1150 980 1990
3 1314 1612 1613
3 1260 1403 1419
3 1613 1614 1615
3 1023 1029 1030
3 1286 1149 1287
3 987 988 1067
3 964 1091 1153
3 1295 1294 1296
3 1649 1648 1650
3 564 562 1596
3 696 1577 1595
3 1602 1601 1603
3 741 742 1614
3 1614 742 1615
3 1063 557 1588
3 716 1780 1781
3 1191 1778 1779
3 1055 1057 1600
3 923 968 1548
3 198 205 2319
3 1023 1030 1564
3 1562 1312 1565
3 559 936 1588
3 1342 1428 1487
3 1577 696 1596
3 1286 1287 1585
3 1030 1286 1564
3 716 708 1780
3 1067 988 1068
3 1211 1653 1654
3 1030 1083 1149
3 1349 1347 1484
3 1153 1154 1569
3 1302 1592 1610
3 696 564 1596
3 562 837 1596
3 696 1595 1598
3 921 741 1614
3 1780 1779 1781
3 1211 1647 1653
3 1092 1587 1593
3 1573 1577 1596
3 1302 977 1592
3 745 938 1615
3 742 745 1615
3 1046 1578 1983
3 1191 1777 1778
3 1777 858 1778
3 54 61 2161
3 1032 1026 1135
3 840 838 1590
3 827 1549 1997
3 1529 1283 1570
3 1651 1658 1659
3 708 706 1780
3 1613 1612 1614
3 1030 1029 1083
3 158 152 2075
3 1595 1590 1598
3 1254 1346 1782
3 1153 1091 1154
3 556 554 1572
3 1660 1066 1664
3 1590 838 1598
3 1040 1066 1658
3 236 242 2178
3 1592 1162 1610
3 1003 1000 1591
3 997 999 1591
3 1589 1595 1979
3 109 102 2095
3 986 840 1590
3 1658 1066 1659
3 1215 1211 1654
3 1254 1782 1816
3 1595 1577 1979
3 1657 1185 1718
3 1064 1040 1658
3 1778 858 1782
3 1654 1273 1655
3 1549 1337 2006
3 1069 1589 1979
3 922 1656 1981
3 1594 1994 1995
3 1655 1188 1656
3 1273 1188 1655
3 1656 1657 1981
3 830 1657 1718
3 1188 1185 1657
3 1589 986 1590
3 568 566 1598
3 1302 1610 1767
3 1071 1069 1979
3 1215 1654 1655
3 1092 1593 1594
3 1589 1590 1595
3 1610 1090 1767
3 838 568 1598
3 566 696 1598
3 1000 997 1591
3 1160 1071 1979
3 1276 1314 2013
3 1083 1029 1986
3 563 711 1599
3 561 563 1599
3 1655 1656 1980
3 1656 1188 1657
3 711 565 1607
3 1290 1607 1611
3 1607 567 1611
3 1608 1237 1952
3 1609 1608 1952
3 839 1608 1609
3 567 569 1611
3 570 839 1609
3 1120 1971 1978
3 571 570 1609
3 1810 1015 1927
3 1290 1611 1925
3 1089 1165 1970
3 1118 1966 1973
3 1801 796 1920
3 596 1616 1617
3 670 669 1909
3 1631 905 1846
3 1644 820 1828
3 1934 1199 1938
3 1761 1774 1955
3 1629 905 1631
3 1616 1170 1617
3 1058 1056 1812
3 820 1642 1742
3 1616 596 1810
3 1642 820 1644
3 991 1619 1690
3 1166 1814 1956
3 1616 1810 1927
3 795 1669 1858
3 1623 670 1909
3 1969 1118 1973
3 1633 930 1751
3 1619 1170 1690
3 806 1921 1949
3 1190 1633 1751
3 1617 1170 1619
3 1796 1732 1847
3 1642 1291 1742
3 1797 1106 1953
3 1865 1646 1913
3 795 1641 1771
3 1641 795 1858
3 1619 991 1620
3 1291 1701 1742
3 905 1629 1850
3 1094 892 1948
3 1720 911 1877
3 1907 897 1940
3 1761 1882 1883
3 1883 1234 1888
3 1626 817 1627
3 670 1937 1939
3 1130 1058 1812
3 1015 1739 1927
3 1957 1728 1968
3 1784 1209 1787
3 1679 800 1682
3 1841 1720 1877
3 1813 1166 1880
3 1234 1233 1888
3 1708 1750 1916
3 1683 1684 1901
3 1011 1675 1689
3 1217 1801 1920
3 1627 817 1850
3 1915 1630 1947
3 1321 1112 1632
3 1882 1234 1883
3 841 809 1692
3 1641 1638 1771
3 1772 1716 1831
3 1893 1177 1925
3 1874 1218 1893
3 579 578 1625
3 1195 1224 1919
3 1819 845 1922
3 1629 1627 1850
3 1897 958 1912
3 1229 911 1719
3 1842 1309 1875
3 1814 1320 1956
3 1684 906 1901
3 1775 1189 1863
3 1717 1716 1772
3 842 791 1679
3 1165 1702 1970
3 1221 1220 1722
3 809 815 1692
3 1963 744 1965
3 805 1796 1847
3 1316 1725 1917
3 1669 1675 1858
3 1217 1671 1801
3 1936 1906 1954
3 1937 1724 1939
3 1734 1189 1792
3 1213 1827 1839
3 1088 1758 1853
3 796 1701 1920
3 1229 1865 1913
3 1621 1874 1893
3 1011 1673 1675
3 1704 1300 1820
3 1849 1117 1891
3 1700 1896 1899
3 1703 774 1773
3 1056 1120 1812
3 1902 1206 1943
3 1223 1720 1721
3 1217 1670 1671
3 1756 856 1894
3 1827 1703 1839
3 1675 1669 1689
3 823 1945 1976
3 1697 958 1897
3 817 1626 1872
3 1928 1793 1961
3 1709 1734 1792
3 998 1001 1806
3 921 1612 1958
3 1638 1640 1771
3 1639 816 1640
3 1213 1839 1866
3 1001 1005 1806
3 1836 1319 1849
3 1621 576 1874
3 1686 1300 1804
3 580 1842 1875
3 791 793 1679
3 1724 1723 1944
3 974 1872 1931
3 1783 1784 1787
3 854 1622 1757
3 1622 854 1787
3 1233 1739 1888
3 1639 1758 1869
3 573 576 1621
3 590 856 1756
3 1900 1014 1904
3 1882 1761 1955
3 1300 1704 1804
3 1095 1197 1748
3 1872 1626 1931
3 1699 648 1896
3 1620 991 1811
3 1308 1813 1880
3 1094 1735 1950
3 1020 780 1848
3 661 657 1698
3 1620 1746 1815
3 1638 1639 1640
3 882 1770 1804
3 1206 1095 1748
3 910 891 1811
3 1113 916 1789
3 1243 1967 1974
3 678 676 1765
3 1117 962 1891
3 1869 1758 1947
3 1236 1907 1940
3 1921 1684 1949
3 944 1088 1853
3 755 958 1903
3 966 1190 1751
3 1715 1716 1717
3 1735 1814 1950
3 669 673 1909
3 767 765 1701
3 1750 1207 1916
3 1221 1722 1723
3 1876 1838 1914
3 1625 578 1702
3 772 774 1703
3 994 1300 1686
3 1701 765 1742
3 842 1679 1680
3 1106 1855 1953
3 1214 1887 1908
3 1189 1734 1863
3 875 1704 1820
3 1112 1114 1632
3 582 579 1625
3 1855 1731 1953
3 1086 952 1670
3 1217 1086 1670
3 1939 1724 1944
3 641 639 1709
3 676 697 1765
3 1229 1719 1865
3 653 1723 1933
3 1711 796 1801
3 1770 1685 1804
3 1012 1008 1685
3 1319 1117 1849
3 1682 800 1977
3 1702 578 1759
3 1209 1784 1844
3 1830 1214 1908
3 1223 1719 1720
3 830 1718 1737
3 654 1705 1707
3 1668 710 1714
3 710 1668 1715
3 1037 1227 1683
3 1647 1064 1648
3 1790 1767 1825
3 1194 1221 1741
3 671 686 1786
3 812 1790 1825
3 1868 1712 1918
3 892 855 1948
3 1736 1824 1892
3 845 1698 1922
3 881 879 1646
3 578 575 1759
3 811 797 1730
3 871 875 1820
3 1220 1223 1722
3 1124 1199 1934
3 1946 1087 1959
3 686 720 1786
3 1166 990 1880
3 1770 1890 1938
3 699 730 1794
3 1232 1107 1862
3 1691 1176 1832
3 890 1745 1746
3 1746 1620 1811
3 1177 1290 1925
3 1016 863 1843
3 1752 955 1878
3 1065 1064 1647
3 958 1697 1903
3 1824 1224 1892
3 803 799 1850
3 1725 955 1917
3 1210 1622 1787
3 1673 1711 1801
3 713 695 1677
3 1890 930 1938
3 1174 1195 1715
3 1633 1934 1938
3 1754 1646 1865
3 952 951 1670
3 904 1665 1666
3 1017 632 1873
3 797 784 1730
3 1718 1179 1737
3 1170 1085 1690
3 1668 1174 1715
3 1701 1291 1920
3 605 733 1740
3 1226 1667 1854
3 1700 1899 1900
3 1868 697 1910
3 1685 1686 1804
3 710 688 1714
3 1940 1111 1951
3 991 910 1811
3 799 905 1850
3 1111 1321 1951
3 1676 1902 1943
3 786 795 1771
3 1107 961 1862
3 1705 654 1755
3 1732 1020 1848
3 1646 879 1913
3 1054 1052 1769
3 1667 1226 1678
3 926 828 1856
3 865 1016 1645
3 1292 582 1320
3 863 586 1843
3 790 788 1640
3 1224 1824 1919
3 1213 1031 1733
3 1693 1096 1728
3 1774 691 1955
3 955 1725 1878
3 1173 1231 1713
3 1719 911 1720
3 995 998 1678
3 996 994 1686
3 591 590 1756
3 856 907 1894
3 1221 1724 1741
3 1683 1227 1684
3 1676 620 1798
3 1634 1007 1636
3 769 796 1711
3 1209 1210 1787
3 1052 1118 1769
3 870 871 1820
3 1941 1017 1942
3 688 700 1714
3 1221 1723 1724
3 1035 1037 1683
3 1181 1179 1718
3 911 909 1877
3 1320 582 1625
3 619 624 1736
3 1736 624 1776
3 1700 1699 1896
3 631 633 1749
3 965 857 1886
3 1101 973 1881
3 1115 1194 1741
3 1204 1819 1922
3 639 654 1709
3 773 1011 1689
3 1618 1620 1815
3 654 1707 1709
3 1098 1216 1743
3 1796 1797 1953
3 1750 1897 1912
3 694 1962 1964
3 1226 1854 1864
3 976 698 1710
3 1786 720 1834
3 816 1639 1869
3 1678 998 1806
3 825 822 1879
3 868 872 1864
3 664 1013 1763
3 913 991 1690
3 1672 1635 1829
3 750 830 1737
3 1687 1108 1688
3 1715 1195 1716
3 1680 1679 1682
3 1204 1900 1904
3 758 854 1757
3 805 787 1747
3 1085 915 1690
3 948 1007 1634
3 906 1684 1921
3 950 1775 1863
3 1673 1011 1711
3 916 896 1789
3 774 776 1773
3 1238 1130 1242
3 1175 1173 1713
3 1709 1707 1734
3 1836 895 1932
3 756 758 1757
3 762 806 1783
3 1109 1108 1687
3 600 603 1738
3 828 811 1856
3 859 861 1845
3 1952 1237 1970
3 887 1753 1788
3 1758 1637 1853
3 930 1633 1938
3 1618 1815 1870
3 856 855 892
3 721 699 1794
3 862 1666 1791
3 959 917 990
3 1716 1195 1919
3 1131 1130 1238
3 1190 1269 1306
3 1222 1754 1865
3 604 609 1768
3 1665 1309 1842
3 1723 1722 1933
3 720 722 1834
3 801 803 804
3 1164 1086 1217
3 1218 1104 1893
3 775 773 1689
3 884 887 1788
3 1025 1213 1866
3 829 925 1790
3 854 1783 1787
3 1189 663 1792
3 698 685 1710
3 1025 1031 1213
3 615 1019 1808
3 1027 642 1799
3 703 702 1777
3 760 762 1783
3 842 1680 1681
3 1031 1033 1733
3 710 1715 1717
3 1002 1000 1003
3 643 1772 1831
3 771 769 1711
3 891 890 1811
3 1274 1236 1275
3 1305 1623 1624
3 829 923 924
3 1698 657 1699
3 1055 1054 1056
3 1632 1963 1965
3 603 605 1740
3 812 829 1790
3 844 902 1817
3 945 944 946
3 1114 1115 1304
3 1194 1193 1219
3 577 575 578
3 671 685 686
3 742 713 743
3 850 849 963
3 862 864 1666
3 902 1099 1817
3 1108 1098 1743
3 1621 1893 1925
3 1785 1885 1926
3 589 592 1835
3 763 820 1742
3 909 910 912
3 1042 1043 1125
3 1219 1193 1753
3 1687 1923 1929
3 1721 1720 1841
3 1244 1245 1246
3 781 778 1669
3 1640 788 1771
3 948 946 1007
3 1014 1786 1904
3 1100 1233 1234
3 1223 1721 1722
3 598 600 1738
3 1896 659 1899
3 750 752 830
3 1114 1305 1632
3 1636 1637 1638
3 642 629 1799
3 727 726 735
3 759 757 975
3 1725 1726 1878
3 593 594 595
3 1770 882 1890
3 907 1095 1206
3 1201 596 1617
3 590 588 855
3 595 594 597
3 641 1709 1792
3 1205 707 1752
3 793 798 800
3 1100 1085 1169
3 1137 1236 1274
3 581 583 584
3 584 585 586
3 675 693 1807
3 824 826 827
3 874 873 877
3 975 1903 1911
3 1712 1102 1918
3 787 786 788
3 867 1645 1745
3 927 924 972
3 1176 976 1832
3 1165 990 1166
3 1303 1027 1307
3 1216 1691 1832
3 672 668 1803
3 680 682 1717
3 929 836 980
3 890 873 1745
3 908 909 911
3 1115 1193 1194
3 1183 1186 1187
3 626 625 627
3 630 638 1776
3 643 641 644
3 730 1311 1794
3 748 750 1737
3 949 948 951
3 1005 1105 1806
3 1232 1868 1910
3 1760 1727 1761
3 1731 1855 1856
3 1735 1320 1814
3 860 620 1676
3 674 1189 1775
3 819 813 1766
3 842 1681 1747
3 851 850 852
3 875 876 878
3 919 965 979
3 999 996 1008
3 1005 1004 1010
3 731 739 858
3 782 781 786
3 795 781 1669
3 816 790 1640
3 902 1097 1098
3 1235 1101 1241
3 1246 1245 1293
3 1639 1637 1758
3 949 952 953
3 951 1634 1635
3 1099 1172 1817
3 1635 1634 1829
3 639 637 654
3 658 657 661
3 662 661 668
3 743 713 1677
3 834 819 1766
3 826 831 835
3 942 915 973
3 959 1089 1163
3 1186 1188 1273
3 668 845 1803
3 693 705 1807
3 779 778 781
3 907 1093 1095
3 1630 1629 1631
3 715 736 1800
3 784 1020 1730
3 824 822 825
3 1105 1218 1301
3 1712 1232 1862
3 600 601 602
3 741 713 742
3 959 990 1089
3 1197 1626 1627
3 607 610 1760
3 681 666 1762
3 1191 703 1777
3 1207 749 1833
3 768 767 769
3 787 789 1747
3 872 1226 1864
3 877 873 890
3 968 926 969
3 947 948 949
3 595 597 598
3 610 612 1727
3 643 644 655
3 655 656 666
3 793 800 1679
3 862 863 864
3 898 1694 1755
3 925 927 977
3 1047 1048 1049
3 1185 1181 1718
3 1694 1693 1695
3 1694 1705 1755
3 596 593 1810
3 692 674 1775
3 690 678 847
3 702 731 1777
3 776 780 783
3 812 828 829
3 887 881 1646
3 883 884 885
3 908 891 909
3 1195 1175 1224
3 1014 671 1786
3 779 781 782
3 861 944 945
3 1057 1056 1058
3 1100 1169 1233
3 1636 1638 1641
3 855 588 1884
3 613 614 615
3 845 661 1698
3 793 794 798
3 815 814 821
3 919 857 965
3 902 901 1097
3 1307 1027 1799
3 1315 1102 1712
3 1168 1103 1256
3 1190 1306 1633
3 601 620 859
3 623 618 1823
3 622 621 625
3 772 773 774
3 789 790 791
3 798 799 801
3 867 865 1645
3 968 969 1047
3 1041 1064 1065
3 1049 1050 1051
3 1128 1058 1129
3 1211 1065 1647
3 1194 1220 1221
3 1308 1310 1813
3 610 1727 1760
3 632 635 1873
3 1765 697 1868
3 818 813 819
3 917 825 1879
3 1061 843 1062
3 1062 843 1179
3 1018 860 1676
3 997 996 999
3 1005 1104 1105
3 1230 1175 1713
3 1761 1727 1774
3 607 608 610
3 622 691 1774
3 628 627 631
3 628 632 1017
3 950 704 1775
3 764 763 765
3 791 790 792
3 793 792 794
3 956 832 957
3 878 880 882
3 1224 1175 1230
3 1201 1617 1618
3 733 607 1760
3 693 692 702
3 694 695 712
3 826 825 831
3 900 1096 1693
3 951 948 1634
3 953 952 954
3 995 996 997
3 1242 1130 1812
3 1743 1216 1889
3 1344 1247 1406
3 589 588 590
3 656 644 663
3 1802 660 1851
3 664 663 674
3 690 847 848
3 776 777 780
3 785 784 797
3 945 947 1200
3 1169 1085 1170
3 1183 1181 1185
3 1204 1203 1819
3 1205 1752 1878
3 1319 1836 1932
3 609 602 1729
3 637 636 1755
3 651 652 653
3 785 797 802
3 985 840 986
3 1179 843 1737
3 871 874 875
3 1696 1697 1897
3 581 579 582
3 583 582 1292
3 650 648 1699
3 673 672 676
3 686 685 698
3 717 718 719
3 824 825 826
3 844 901 902
3 848 850 851
3 864 865 866
3 942 1101 1119
3 944 943 1088
3 973 1100 1881
3 1731 1020 1732
3 1241 1101 1881
3 1631 1846 1869
3 1019 619 1736
3 638 637 639
3 1744 653 1933
3 687 678 690
3 903 735 932
3 754 755 756
3 770 769 771
3 905 794 1846
3 861 945 1845
3 872 870 992
3 993 992 994
3 1037 1038 1039
3 1125 1043 1137
3 1209 1065 1210
3 1090 1766 1767
3 1119 1235 1239
3 1180 1179 1181
3 1182 1181 1183
3 702 692 704
3 724 701 725
3 715 714 736
3 717 955 1752
3 747 740 748
3 764 765 766
3 1783 806 1784
3 833 834 918
3 878 879 880
3 966 1042 1074
3 1636 1007 1637
3 1199 1012 1685
3 1031 1032 1033
3 1039 1038 1040
3 587 589 1835
3 649 648 650
3 668 661 845
3 722 728 729
3 792 790 816
3 799 794 905
3 973 915 1085
3 979 1077 1138
3 1173 1109 1231
3 1197 1628 1748
3 1707 1708 1734
3 1611 572 1925
3 584 862 1791
3 915 913 1690
3 976 1710 1832
3 999 1008 1009
3 1120 1054 1769
3 1210 1065 1211
3 1859 1688 1905
3 598 597 599
3 601 859 1729
3 610 608 611
3 640 641 643
3 655 644 656
3 674 663 1189
3 664 675 1013
3 675 692 693
3 677 678 687
3 682 681 683
3 682 688 710
3 694 687 695
3 700 689 701
3 758 760 854
3 770 771 772
3 808 803 817
3 821 974 1308
3 866 865 867
3 888 966 1751
3 914 915 942
3 942 973 1101
3 954 952 1086
3 1029 1024 1192
3 1231 1109 1687
3 1114 1304 1305
3 1174 1173 1175
3 1197 1196 1626
3 624 630 1776
3 665 667 671
3 671 667 685
3 712 741 744
3 718 715 1800
3 722 729 960
3 762 761 763
3 763 761 820
3 770 772 810
3 914 913 915
3 1025 957 1026
3 1025 1026 1031
3 1099 1109 1172
3 1119 1240 1857
3 1169 1170 1616
3 1197 1627 1628
3 1220 1219 1222
3 577 579 580
3 603 602 604
3 720 699 721
3 815 822 823
3 815 823 1692
3 918 834 964
3 875 874 876
3 877 891 908
3 885 884 886
3 898 1693 1694
3 1111 916 1112
3 949 953 1837
3 1167 1642 1643
3 1223 1222 1719
3 1235 1241 1674
3 1667 1301 1854
3 1708 1706 1750
3 1743 1889 1905
3 1767 1766 1825
3 611 608 1809
3 682 683 688
3 719 737 738
3 748 740 749
3 812 811 828
3 831 917 959
3 872 993 1226
3 883 881 884
3 897 916 1111
3 993 995 1678
3 1111 1112 1321
3 1618 1619 1620
3 598 599 600
3 1015 598 1738
3 608 606 1198
3 815 821 822
3 889 896 897
3 897 896 916
3 953 954 962
3 998 1000 1001
3 1061 1062 1253
3 1193 1113 1789
3 1739 1233 1927
3 581 584 1791
3 584 586 862
3 631 627 633
3 634 631 1749
3 646 645 659
3 697 672 1803
3 847 678 1765
3 823 822 824
3 943 860 1018
3 964 1090 1091
3 1001 1002 1004
3 1023 1022 1024
3 1745 1645 1746
3 1703 1773 1839
3 604 602 609
3 730 698 976
3 884 881 887
3 1009 1008 1012
3 1033 1035 1225
3 1040 1038 1066
3 1062 1179 1180
3 1765 1868 1918
3 649 679 1793
3 783 780 784
3 1121 1012 1124
3 1037 1039 1227
3 1053 1054 1055
3 1053 1055 1059
3 1180 1181 1182
3 1628 1629 1630
3 602 601 1729
3 647 648 649
3 651 650 652
3 652 657 658
3 658 661 662
3 675 674 692
3 782 786 787
3 787 788 789
3 809 814 815
3 829 924 925
3 861 943 944
3 923 926 968
3 1051 1052 1053
3 1239 1235 1942
3 1676 1798 1902
3 630 629 636
3 649 650 651
3 652 650 657
3 656 663 664
3 960 729 961
3 756 755 757
3 772 771 773
3 1057 1058 1128
3 1210 1215 1622
3 1671 1673 1801
3 1726 1860 1878
3 624 623 629
3 677 676 678
3 712 713 741
3 719 718 737
3 731 858 1777
3 788 786 1771
3 871 869 873
3 1005 1010 1104
3 1024 1022 1818
3 1061 1253 1254
3 1174 1175 1195
3 1183 1185 1186
3 1210 1211 1215
3 593 591 594
3 592 596 1201
3 619 618 623
3 651 653 1744
3 717 715 718
3 739 732 740
3 843 748 1737
3 762 763 764
3 818 819 832
3 951 1635 1670
3 1192 1212 1316
3 1314 1313 1612
3 1725 1317 1726
3 613 611 614
3 699 698 730
3 731 704 732
3 705 706 707
3 707 708 709
3 932 735 933
3 748 749 750
3 758 757 759
3 766 765 767
3 777 775 778
3 776 783 1773
3 777 778 779
3 782 787 805
3 902 1098 1099
3 1033 1034 1035
3 1033 1225 1733
3 1035 1036 1037
3 1167 1291 1642
3 1694 1695 1696
3 1694 1696 1705
3 747 843 1061
3 776 775 777
3 903 932 935
3 931 918 970
3 949 951 952
3 993 994 995
3 1254 1253 1345
3 1705 1706 1707
3 589 590 591
3 626 627 628
3 654 637 1755
3 638 639 640
3 638 899 1776
3 656 664 1763
3 680 666 681
3 676 672 697
3 682 710 1717
3 688 683 689
3 685 734 1710
3 704 692 1775
3 693 702 703
3 705 703 706
3 732 704 950
3 707 706 708
3 727 735 903
3 783 784 785
3 1090 834 1766
3 839 984 1608
3 889 886 896
3 900 1027 1028
3 1665 904 1854
3 941 940 1044
3 963 1103 1168
3 1023 1024 1029
3 1028 1027 1303
3 1099 1108 1109
3 1688 1108 1743
3 1172 1109 1173
3 1311 1110 1312
3 630 637 638
3 636 898 1755
3 640 639 641
3 898 642 900
3 665 660 667
3 702 704 731
3 706 703 1191
3 737 718 893
3 724 726 727
3 728 857 919
3 961 729 967
3 731 732 739
3 754 756 922
3 796 767 1701
3 810 772 1703
3 784 780 1020
3 1685 1008 1686
3 1225 1683 1901
3 612 611 613
3 612 617 1727
3 895 614 1809
3 625 621 846
3 700 701 723
3 725 701 1822
3 722 721 728
3 730 976 1110
3 780 777 1848
3 818 832 956
3 872 992 993
3 894 940 941
3 894 941 1046
3 956 957 1025
3 979 1138 1139
3 1226 993 1678
3 612 613 616
3 615 619 1019
3 662 669 670
3 686 699 720
3 717 719 955
3 728 721 857
3 769 767 796
3 804 803 808
3 809 808 814
3 865 863 1016
3 1041 1040 1064
3 610 611 612
3 614 611 1809
3 638 640 899
3 662 668 669
3 789 788 790
3 888 920 966
3 1044 940 1045
3 1137 1043 1236
3 1105 1104 1218
3 1112 1113 1114
3 1176 1691 1887
3 1254 1345 1346
3 1671 1672 1673
3 1673 1672 1675
3 577 578 579
3 580 579 581
3 664 674 675
3 685 667 734
3 709 715 717
3 720 721 722
3 742 743 745
3 802 818 1840
3 804 808 809
3 1095 1196 1197
3 1228 1117 1319
3 632 631 634
3 635 634 645
3 747 748 843
3 754 753 755
3 774 773 775
3 774 775 776
3 807 797 811
3 833 918 931
3 848 849 850
3 898 900 1693
3 1112 916 1113
3 925 977 1302
3 1735 1094 1948
3 1172 1173 1174
3 1805 1316 1917
3 1643 1642 1644
3 684 681 1762
3 705 707 1205
3 707 709 1752
3 760 759 761
3 964 834 1090
3 984 840 985
3 853 928 982
3 1203 1107 1232
3 1807 1205 1860
3 615 614 618
3 680 681 682
3 709 708 714
3 739 747 1816
3 750 749 751
3 848 847 849
3 928 852 939
3 885 886 888
3 1004 1002 1006
3 1087 1086 1164
3 1103 1102 1315
3 1276 1275 1313
3 601 599 620
3 612 616 617
3 617 621 622
3 859 620 860
3 622 625 626
3 649 651 679
3 712 695 713
3 737 893 894
3 798 794 799
3 802 797 807
3 851 853 1092
3 861 860 943
3 1093 892 1094
3 925 924 927
3 954 1086 1087
3 1172 1174 1668
3 624 629 630
3 628 631 632
3 635 645 646
3 677 687 694
3 739 740 747
3 786 781 795
3 783 785 1208
3 802 813 818
3 947 946 948
3 1015 1738 1739
3 1192 1024 1212
3 1033 1032 1034
3 1056 1054 1120
3 1167 1164 1291
3 587 588 589
3 592 591 593
3 597 594 1318
3 595 598 1015
3 647 646 648
3 714 708 716
3 709 714 715
3 724 725 726
3 726 725 746
3 747 1061 1816
3 750 751 752
3 877 890 891
3 1077 965 1078
3 1110 976 1176
3 1124 1012 1199
3 1049 1051 1326
3 1052 1050 1118
3 1119 1101 1235
3 1860 1205 1878
3 1316 1212 1317
3 592 593 596
3 615 618 619
3 693 703 705
3 723 701 724
3 727 1214 1830
3 730 1110 1311
3 758 759 760
3 880 881 883
3 1225 1035 1683
3 1322 1946 1959
3 1698 1699 1700
3 581 582 583
3 584 583 585
3 586 585 587
3 655 666 680
3 688 689 700
3 700 844 1714
3 893 718 1800
3 857 721 1794
3 768 769 770
3 807 811 812
3 883 885 930
3 945 946 947
3 1308 974 1310
3 1216 1097 1691
3 1695 1693 1728
3 580 581 1791
3 700 723 844
3 789 791 842
3 831 825 917
3 856 892 907
3 859 860 861
3 864 866 904
3 907 892 1093
3 913 910 991
3 912 913 914
3 912 914 1021
3 942 1119 1857
3 1055 1056 1057
3 1095 1093 1196
3 1618 1617 1619
3 1696 1695 1697
3 862 586 863
3 608 1198 1809
3 636 629 642
3 659 645 660
3 665 671 1014
3 727 903 1214
3 745 743 836
3 746 1022 1023
3 751 749 1207
3 864 863 865
3 864 904 1666
3 871 873 874
3 880 879 881
3 1089 990 1165
3 1001 1004 1005
3 1212 1024 1818
3 1041 1209 1844
3 1863 1708 1916
3 605 604 606
3 752 751 753
3 833 819 834
3 877 908 1867
3 909 891 910
3 900 1028 1096
3 908 911 1229
3 1037 1036 1038
3 1116 1117 1228
3 1220 1222 1223
3 576 575 577
3 659 660 665
3 804 809 841
3 878 876 879
3 1021 1841 1877
3 1705 1696 1706
3 851 852 853
3 888 889 920
3 998 997 1000
3 1671 1635 1672
3 587 585 588
3 1013 675 1807
3 1871 684 1895
3 868 870 872
3 963 1102 1103
3 994 992 1300
3 1202 1203 1204
3 1216 1832 1889
3 630 636 637
3 632 634 635
3 801 799 803
3 866 867 868
3 1047 969 1048
3 635 646 647
3 683 681 684
3 765 763 1742
3 857 1794 1886
3 1847 1732 1848
3 619 623 624
3 701 689 1822
3 844 723 901
3 979 965 1077
3 1009 1121 1122
3 1051 1050 1052
3 575 574 1759
3 600 599 601
3 1799 623 1823
3 669 668 672
3 673 676 677
3 705 1205 1807
3 745 836 929
3 802 807 813
3 832 819 833
3 1039 1040 1041
3 1039 1041 1844
3 1638 1637 1639
3 1831 1716 1919
3 679 651 1744
3 669 672 673
3 1022 725 1822
3 756 757 758
3 922 756 1757
3 1669 778 1689
3 622 626 691
3 752 753 754
3 760 761 762
3 854 760 1783
3 791 792 793
3 1001 1000 1002
3 1009 1012 1121
3 1053 1052 1054
3 1702 1165 1956
3 607 606 608
3 709 717 1752
3 762 764 806
3 766 767 768
3 894 893 940
3 912 910 913
3 966 920 1042
3 953 962 1116
3 1114 1113 1115
3 1707 1706 1708
3 618 895 1823
3 829 828 923
3 963 849 1102
3 1194 1219 1220
3 1316 1317 1725
3 1736 1776 1824
3 1036 1034 1258
3 1962 1624 1964
3 636 642 898
3 733 1883 1888
3 773 771 1011
3 1035 1034 1036
3 1186 1185 1188
3 1303 1307 1849
3 605 607 733
3 617 616 621
3 900 642 1027
3 686 698 699
3 746 725 1022
3 1115 1113 1193
3 1125 1247 1344
3 1192 1316 1805
3 618 614 895
3 625 846 1764
3 745 929 938
3 817 803 1850
3 1714 844 1817
3 987 986 988
3 1307 1799 1823
3 1821 684 1871
3 945 1200 1845
3 973 1085 1100
3 1031 1026 1032
3 1099 1098 1108
3 1201 1618 1870
3 643 655 1772
3 853 852 928
3 1116 962 1117
3 1098 1097 1216
3 1244 1243 1245
3 605 606 607
3 818 956 1840
3 980 836 1171
3 960 961 1107
3 1129 1130 1131
3 590 855 856
3 603 604 605
3 789 842 1747
3 927 972 978
3 985 987 989
3 1674 1941 1942
3 755 753 958
3 947 949 1837
3 1838 1228 1914
3 600 602 603
3 1762 666 1763
3 1855 926 1856
3 1200 1838 1876
3 1305 1304 1623
3 946 944 1853
3 985 986 987
3 1819 1203 1910
3 585 583 1884
3 593 595 1810
3 974 814 1872
3 1057 1128 1134
3 1061 1254 1816
3 1119 1239 1240
3 573 574 575
3 589 591 592
3 733 1760 1883
3 766 768 906
3 794 792 1846
3 868 869 870
3 1042 920 1043
3 1088 1915 1947
3 1625 1702 1956
3 588 585 1884
3 1923 633 1929
3 663 644 1792
3 1048 969 1106
3 995 994 996
3 1087 1164 1167
3 1166 1813 1814
3 1172 1668 1817
3 1821 1818 1822
3 1818 1821 1871
3 1021 914 1857
3 1818 1022 1822
3 1129 1058 1130
3 1301 1218 1309
3 629 623 1799
3 866 868 1864
3 868 867 869
3 874 877 1867
3 1746 1645 1815
3 1688 1859 1923
3 822 821 1879
3 888 886 889
3 1202 1107 1203
3 597 1318 1798
3 684 1762 1895
3 858 739 1816
3 870 869 871
3 897 1111 1940
3 1028 1303 1322
3 1105 1301 1667
3 1304 1115 1741
3 1303 1849 1891
3 1636 1641 1829
3 1668 1714 1817
3 744 741 921
3 757 755 1903
3 890 1746 1811
3 995 997 998
3 1238 1242 1323
3 1246 1293 1294
3 1666 1665 1842
3 960 1107 1202
3 1078 965 1886
3 1104 1010 1177
3 1177 1010 1178
3 574 571 1609
3 573 575 576
3 785 802 1840
3 908 1229 1867
3 1730 1020 1731
3 1177 1178 1290
3 1301 1309 1665
3 1854 904 1864
3 930 885 1751
3 1041 1065 1209
3 1131 1238 1243
3 662 670 1939
3 1852 1826 1901
3 820 761 1828
3 1861 1310 1931
3 620 599 1798
3 670 1623 1937
3 1131 1243 1244
3 901 723 1830
3 1895 1762 1898
3 689 1821 1822
3 1670 1635 1671
3 666 656 1763
3 680 1717 1772
3 1163 1089 1237
3 1839 1208 1866
3 1634 1636 1829
3 613 615 1808
3 821 1308 1879
3 749 740 1833
3 1199 1685 1770
3 783 1208 1773
3 923 828 926
3 577 580 1875
3 770 810 1852
3 778 775 1689
3 1729 859 1845
3 901 1830 1908
3 1733 1225 1826
3 1125 1137 1247
3 592 1201 1835
3 886 884 1788
3 1292 1320 1735
3 1740 733 1888
3 846 1785 1926
3 1049 1048 1050
3 1841 1906 1936
3 839 840 984
3 907 1206 1894
3 1763 1013 1898
3 1116 1228 1838
3 1826 1225 1901
3 1237 1089 1970
3 606 604 1768
3 1749 633 1923
3 683 684 1821
3 1791 1666 1842
3 1011 771 1711
3 722 960 1834
3 814 808 1872
3 821 814 974
3 595 1015 1810
3 966 1074 1190
3 1309 1218 1874
3 810 1826 1852
3 992 870 1820
3 1645 1016 1815
3 1016 1843 1870
3 807 812 1825
3 1776 899 1824
3 960 1202 1834
3 633 627 1764
3 953 1116 1837
3 1203 1232 1910
3 1887 1691 1908
3 647 649 1793
3 1723 653 1944
3 740 732 1833
3 1208 785 1840
3 689 683 1821
3 1227 1039 1844
3 572 573 1621
3 1206 1748 1943
3 732 950 1833
3 1190 1074 1269
3 1200 947 1837
3 1207 1750 1912
3 846 621 1785
3 869 867 1745
3 1019 1736 1892
3 644 641 1792
3 1924 846 1926
3 1823 895 1836
3 1734 1708 1863
3 1815 1016 1870
3 1269 1074 1270
3 1738 603 1740
3 1889 734 1905
3 1100 1234 1881
3 1796 1795 1797
3 724 727 1830
3 1784 806 1949
3 1753 887 1754
3 1222 1219 1754
3 599 597 1798
3 805 1795 1796
3 1212 1818 1871
3 627 625 1764
3 660 645 1851
3 667 660 1802
3 1165 1166 1956
3 1196 1861 1931
3 1239 1928 1961
3 1966 1797 1973
3 1727 617 1774
3 1310 974 1931
3 1224 1230 1892
3 1760 1761 1883
3 1301 1665 1854
3 1307 1836 1849
3 1612 1313 1958
3 887 1646 1754
3 1628 1627 1629
3 1835 1201 1870
3 1793 679 1961
3 1231 1687 1929
3 876 874 1867
3 1307 1823 1836
3 1644 1957 1968
3 617 622 1774
3 719 738 1917
3 1766 813 1825
3 1276 1313 1314
3 723 724 1830
3 580 1791 1842
3 759 975 1828
3 792 816 1846
3 1013 1807 1860
3 1829 1641 1858
3 1232 1712 1868
3 1688 1743 1905
3 1808 1019 1885
3 1667 1678 1806
3 1762 1763 1898
3 1704 882 1804
3 1644 1828 1957
3 1317 1212 1871
3 896 886 1788
3 1903 1697 1911
3 609 1876 1914
3 1300 992 1820
3 1200 1837 1838
3 1845 1200 1876
3 1739 1740 1888
3 958 753 1912
3 1317 1871 1895
3 586 587 1843
3 697 1803 1910
3 1744 1933 1936
3 899 640 1831
3 734 667 1802
3 655 680 1772
3 738 1805 1917
3 1219 1753 1754
3 1885 1230 1926
3 808 817 1872
3 1087 1167 1959
3 1803 1819 1910
3 628 1017 1941
3 1769 1118 1969
3 648 646 1896
3 1322 1303 1891
3 811 1730 1856
3 896 1788 1789
3 1741 1724 1937
3 1730 1731 1856
3 640 643 1831
3 899 1831 1919
3 1794 1311 1886
3 1713 1231 1924
3 925 1302 1790
3 573 571 574
3 616 613 1808
3 621 616 1785
3 1302 1767 1790
3 1812 1120 1978
3 1859 1749 1923
3 1785 1808 1885
3 1198 606 1768
3 1802 1859 1905
3 634 1749 1851
3 645 634 1851
3 1309 1874 1875
3 583 1292 1884
3 646 659 1896
3 1236 1043 1907
3 975 757 1903
3 1008 996 1686
3 1637 1007 1853
3 806 764 1921
3 914 942 1857
3 768 770 1852
3 1208 1840 1866
3 694 712 1962
3 1118 1050 1966
3 1726 1895 1898
3 920 889 1907
3 1105 1667 1806
3 1630 1631 1947
3 1017 1873 1928
3 1768 609 1914
3 635 647 1873
3 1674 691 1941
3 1719 1222 1865
3 761 759 1828
3 1837 1116 1838
3 1230 1885 1892
3 1007 946 1853
3 1832 1710 1889
3 766 906 1921
3 824 827 1945
3 1013 1860 1898
3 1228 1319 1930
3 1623 1304 1937
3 1315 1712 1862
3 813 807 1825
3 1021 1857 1906
3 1207 1833 1916
3 885 888 1751
3 1274 1275 1276
3 875 878 1704
3 1739 1738 1740
3 609 1729 1876
3 1764 846 1924
3 1798 1318 1902
3 1785 616 1808
3 1857 1240 1906
3 1945 1293 1976
3 878 882 1704
3 1788 1753 1789
3 1241 1881 1882
3 657 650 1699
3 1726 1317 1895
3 751 1207 1912
3 906 1852 1901
3 1928 1239 1942
3 691 1674 1955
3 1802 1851 1859
3 810 1703 1827
3 1198 1930 1932
3 1630 1915 1935
3 904 866 1864
3 1310 1861 1950
3 1860 1726 1898
3 1043 920 1907
3 805 1747 1795
3 906 768 1852
3 962 954 1946
3 873 869 1745
3 1753 1193 1789
3 744 921 1965
3 1672 1829 1858
3 990 917 1880
3 1867 1229 1913
3 1104 1177 1893
3 1626 1196 1931
3 1213 1733 1827
3 855 1884 1948
3 1881 1234 1882
3 1624 1623 1909
3 1731 1732 1953
3 1732 1796 1953
3 1786 1834 1904
3 1879 1308 1880
3 1318 1756 1894
3 1675 1672 1858
3 1803 845 1819
3 1841 1021 1906
3 1713 1924 1926
3 1833 950 1916
3 782 805 1847
3 1196 1093 1861
3 1199 1770 1938
3 1710 734 1889
3 1106 969 1855
3 1747 1681 1795
3 753 751 1912
3 1958 1321 1965
3 1826 810 1827
3 895 1809 1932
3 950 1863 1916
3 1164 1217 1920
3 1631 1869 1947
3 1894 1206 1902
3 734 1802 1905
3 653 652 1944
3 955 719 1917
3 889 897 1907
3 1930 1319 1932
3 594 591 1756
3 691 626 1941
3 1698 1700 1922
3 1885 1019 1892
3 1906 1240 1954
3 1687 1688 1923
3 883 930 1890
3 969 926 1855
3 1291 1164 1920
3 1674 1241 1955
3 1322 1891 1946
3 1235 1674 1942
3 673 677 1964
3 777 779 1848
3 1275 1236 1940
3 1304 1741 1937
3 587 1835 1843
3 647 1793 1873
3 1093 1094 1861
3 804 841 1972
3 1843 1835 1870
3 1722 1721 1933
3 1318 594 1756
3 1321 1632 1965
3 1202 1204 1904
3 1824 899 1919
3 1951 1321 1958
3 879 876 1913
3 1809 1198 1932
3 1911 1728 1957
3 1729 1845 1876
3 1914 1228 1930
3 882 880 1890
3 1891 962 1946
3 779 782 1847
3 1706 1696 1897
3 1813 1310 1950
3 1744 1936 1954
3 1695 1728 1911
3 1840 956 1866
3 847 1765 1918
3 1198 1768 1930
3 1697 1695 1911
3 956 1025 1866
3 1018 1676 1943
3 1773 1208 1839
3 1230 1713 1926
3 1721 1841 1936
3 1728 1096 1968
3 1097 901 1908
3 917 1879 1880
3 849 847 1918
3 876 1867 1913
3 1899 1014 1900
3 1884 1292 1948
3 1750 1706 1897
3 764 766 1921
3 1900 1204 1922
3 1851 1749 1859
3 1102 849 1918
3 1768 1914 1930
3 633 1764 1929
3 1814 1813 1950
3 1915 1018 1935
3 1733 1826 1827
3 1924 1231 1929
3 909 912 1877
3 1106 1797 1966
3 1846 816 1869
3 1844 1784 1949
3 659 665 1899
3 779 1847 1848
3 1691 1097 1908
3 626 628 1941
3 1834 1202 1904
3 658 662 1939
3 1227 1844 1949
3 1628 1630 1935
3 1971 1682 1978
3 572 1621 1925
3 954 1087 1946
3 1313 1275 1951
3 1828 975 1957
3 1967 841 1974
3 572 571 573
3 1873 1793 1928
3 1935 1018 1943
3 975 1911 1957
3 1933 1721 1936
3 1700 1900 1922
3 569 572 1611
3 839 838 840
3 712 744 1962
3 880 883 1890
3 1318 1894 1902
3 1632 1305 1963
3 576 577 1875
3 1305 1624 1963
3 1275 1940 1951
3 1758 1088 1947
3 1764 1924 1929
3 665 1014 1899
3 1684 1227 1949
3 679 1744 1954
3 1909 673 1964
3 1233 1169 1927
3 1874 576 1875
3 1028 1322 1960
3 1748 1628 1935
3 677 694 1964
3 1241 1882 1955
3 652 658 1944
3 1861 1094 1950
3 1624 1909 1964
3 1320 1625 1956
3 912 1021 1877
3 1167 1643 1959
3 1096 1028 1960
3 658 1939 1944
3 1748 1935 1943
3 1292 1735 1948
3 1243 1238 1967
3 1169 1616 1927
3 1088 943 1915
3 1017 1928 1942
3 943 1018 1915
3 1240 1239 1961
3 1633 1306 1934
3 1313 1951 1958
3 1238 1323 1967
3 823 824 1945
3 1759 1952 1970
3 1954 1240 1961
3 1692 823 1976
3 1681 1969 1973
3 679 1954 1961
3 800 798 1975
3 1322 1959 1960
3 1048 1106 1966
3 1096 1960 1968
3 921 1958 1965
3 1245 1243 1974
3 1624 1962 1963
3 1050 1048 1966
3 841 1967 1972
3 1643 1644 1968
3 1960 1643 1968
3 1962 744 1963
3 1682 1977 1978
3 1120 1769 1971
3 1959 1643 1960
3 1702 1759 1970
3 801 804 1972
3 1759 574 1952
3 574 1609 1952
3 841 1692 1974
3 1681 1680 1969
3 800 1975 1977
3 1972 1323 1975
3 801 1972 1975
3 1680 1682 1971
3 798 801 1975
3 1293 1245 1976
3 1323 1242 1977
3 1769 1969 1971
3 1967 1323 1972
3 1797 1795 1973
3 1795 1681 1973
3 1975 1323 1977
3 1245 1974 1976
3 1969 1680 1971
3 1974 1692 1976
3 569 571 572
3 570 838 839
3 1242 1812 1978
3 1977 1242 1978
3 570 568 838
3 569 570 571
3 569 568 570
3 567 568 569
3 565 567 1607
3 567 566 568
3 565 566 567
3 566 564 696
3 563 565 711
3 565 564 566
3 563 564 565
3 563 562 564
3 936 561 1599
3 562 560 837
3 561 562 563
3 559 561 936
3 561 560 562
3 559 560 561
3 1068 1069 1070
3 1264 1123 1400
3 1155 556 1572
3 559 558 560
3 1262 1162 1592
3 557 558 559
3 558 556 1155
3 1191 1779 1780
3 1091 1090 1610
3 1215 1655 1980
3 1657 830 1981
3 1656 922 1980
3 1622 1215 1980
3 922 1757 1980
3 830 752 1981
3 754 922 1981
3 1383 1283 1384
3 1154 1261 1390
3 1261 1162 1262
3 1573 1160 1577
3 1371 1370 1578
3 752 754 1981
3 1757 1622 1980
3 1282 1283 1383
3 1161 1160 1573
3 1282 1161 1283
3 1080 1161 1282
3 988 986 1589
3 1080 1071 1160
3 1389 1414 1415
3 1577 1160 1979
3 1080 1160 1161
3 555 557 1063
3 557 556 558
3 1648 1064 1658
3 1146 1566 1587
3 1389 1365 1414
3 1070 1071 1079
3 1079 1071 1080
3 1370 1083 1986
3 1070 1069 1071
3 1342 1343 1428
3 1782 858 1816
3 1388 1365 1389
3 1364 1362 1365
3 1162 1091 1610
3 1154 1162 1261
3 1364 1365 1388
3 1369 1370 1371
3 894 1046 1983
3 738 737 1983
3 1363 1364 1520
3 1343 1478 1479
3 1069 988 1589
3 1363 1362 1364
3 1146 1288 1566
3 1489 1490 1503
3 1370 1986 1987
3 738 1983 1987
3 1288 1250 1289
3 1779 1778 1991
3 1601 1266 2008
3 1461 1459 1462
3 706 1191 1780
3 1578 1370 1987
3 1068 988 1069
3 1489 1255 1490
3 178 183 2125
3 555 556 557
3 1361 1362 1363
3 1357 1361 1368
3 737 894 1983
3 1144 1267 1378
3 1057 1134 1600
3 1455 1453 1480
3 1029 1192 1986
3 557 559 1588
3 1612 921 1614
3 1983 1578 1987
3 1158 1255 1489
3 1354 1356 1357
3 1650 1651 1652
3 1361 1358 1362
3 1357 1368 1982
3 1343 1341 1478
3 4 12 2127
3 1149 1083 1369
3 1651 1648 1658
3 1154 1091 1162
3 1357 1358 1361
3 1570 837 2003
3 1452 1453 1455
3 1369 1083 1370
3 1122 1156 1568
3 1357 1356 1358
3 1352 1354 1982
3 1354 1355 1356
3 1518 1531 2024
3 1158 1159 1255
3 1287 1149 1580
3 957 832 1988
3 833 931 1988
3 1149 1369 1580
3 1342 1341 1343
3 1146 1250 1288
3 1600 1266 1601
3 1336 1337 1338
3 120 112 2146
3 1192 1805 1986
3 1354 1357 1982
3 1986 1805 1987
3 1447 1448 1449
3 92 98 2073
3 1805 738 1987
3 1354 1353 1355
3 1335 1336 1435
3 1182 1183 1538
3 1352 1353 1354
3 1997 1549 2006
3 1782 1346 1991
3 1059 1602 1606
3 1352 1351 1353
3 933 735 1575
3 99 94 2089
3 1158 1157 1159
3 1450 1452 1454
3 61 54 2137
3 2067 109 2243
3 1081 1141 1259
3 1992 27 2198
3 555 554 556
3 1452 1451 1453
3 1650 1648 1651
3 234 241 2093
3 1336 1299 1337
3 1594 1677 1994
3 1593 1171 1996
3 1677 695 1994
3 687 690 1994
3 1092 1594 1995
3 690 848 1995
3 851 1092 1995
3 1171 836 1996
3 743 1677 1996
3 1145 1147 1536
3 1350 1351 1352
3 1350 1352 1989
3 1945 827 1997
3 1294 1293 1997
3 716 1781 2018
3 714 716 1998
3 1295 1297 2029
3 2212 453 2354
3 1270 1074 1571
3 1156 1157 1158
3 558 1155 2003
3 1437 1388 2404
3 837 560 2003
3 1337 1299 2006
3 1350 1349 1351
3 1348 1349 1350
3 1133 1132 1268
3 931 1985 1988
3 970 918 1551
3 893 1800 2007
3 1045 940 2007
3 1383 1385 2284
3 1156 1126 1157
3 1394 1436 2014
3 2321 2395 2411
3 2396 2322 2412
3 1136 1375 2001
3 1144 1470 1985
3 42 49 2158
3 1348 1350 1360
3 1159 1157 1576
3 1146 1145 1250
3 1401 1272 2035
3 1990 1288 1993
3 1566 1288 1990
3 1178 1010 2010
3 1004 1006 2010
3 832 833 1988
3 1360 1350 1989
3 1352 1982 1989
3 148 156 2145
3 195 190 2082
3 971 1142 1144
3 1076 970 1084
3 1460 1464 1574
3 1415 1414 2019
3 2259 498 2273
3 497 2261 2274
3 493 2265 2276
3 492 2266 2275
3 110 104 2143
3 1340 1341 1342
3 1288 1289 1993
3 1778 1782 1991
3 1469 1267 1999
3 695 687 1994
3 848 851 1995
3 836 743 1996
3 1134 1266 1600
3 34 39 2136
3 124 132 2121
3 1411 1127 1431
3 927 978 1586
3 1293 1945 1997
3 1298 1335 1382
3 146 140 2166
3 52 60 2133
3 736 714 1998
3 180 172 2098
3 14 8 2208
3 84 1456 2423
3 20 26 2094
3 1263 2000 2408
3 1450 1451 1452
3 560 558 2003
3 979 1139 2024
3 6 13 2195
3 219 214 2176
3 68 74 2132
3 987 1067 2021
3 1432 1433 2026
3 1070 1079 1081
3 1800 736 2025
3 736 2023 2025
3 206 200 2077
3 394 473 2209
3 940 893 2007
3 1251 1426 1492
3 1413 2180 2226
3 1530 933 1575
3 1384 1283 1529
3 1324 1325 1468
3 1296 1294 2006
3 1603 1601 2008
3 51 46 2118
3 1781 1989 2018
3 1269 1334 2034
3 1335 1299 1336
3 130 135 2122
3 1341 1338 2012
3 1281 2032 2046
3 1010 1004 2010
3 553 554 555
3 1458 1384 1488
3 1298 1299 1335
3 463 537 2193
3 1136 1075 1151
3 935 2001 2016
3 1409 1141 1467
3 147 142 2151
3 1368 1361 2023
3 12 2157 2281
3 736 1998 2023
3 1261 1262 1992
3 72 64 2120
3 963 1168 1521
3 1084 970 1551
3 978 1060 1132
3 1338 1337 2012
3 1558 1270 1571
3 2100 401 2101
3 2106 417 2107
3 1073 1127 1248
3 551 456 2407
3 2038 39 2364
3 1251 1150 1426
3 1250 1145 1536
3 1989 1982 2018
3 1075 937 1082
3 935 932 2001
3 133 126 2144
3 1147 1148 1329
3 937 933 1530
3 1147 1329 1421
3 1444 1445 1597
3 187 2049 2187
3 1263 1554 1555
3 132 124 2096
3 1136 1151 1374
3 2080 413 2308
3 425 2150 2310
3 1073 1248 1249
3 1379 1182 1538
3 935 1565 2039
3 50 1494 2071
3 1998 1368 2023
3 13 6 2159
3 1557 1295 2029
3 1544 1543 1545
3 291 292 2417
3 271 272 2418
3 1535 1315 2050
3 1379 2242 2267
3 1460 1459 1461
3 1330 1332 1404
3 1374 1376 2067
3 1404 1332 2228
3 1513 1517 1518
3 1136 1374 1375
3 1982 1368 2018
3 1531 919 2024
3 2044 2162 2423
3 903 935 2039
3 1887 1214 2039
3 1576 1157 2042
3 1299 1296 2006
3 205 1421 2319
3 1312 1110 2043
3 1176 1887 2043
3 1513 1514 1517
3 1565 1312 2043
3 76 84 2162
3 1400 1123 1472
3 1168 1483 1521
3 1122 1126 1156
3 1272 1438 1439
3 1440 13 2404
3 982 1145 1146
3 1330 1331 1332
3 2055 1560 2056
3 1467 1282 2185
3 1470 1378 1471
3 1081 1259 1260
3 1505 1256 1506
3 1452 1455 2048
3 1488 1384 1529
3 939 1483 2052
3 2145 1509 2380
3 1442 2235 2269
3 1178 1480 2223
3 1544 1546 1547
3 1361 1363 2023
3 133 2351 2383
3 110 2350 2382
3 479 370 2206
3 2023 1363 2025
3 961 967 2050
3 1315 1862 2050
3 1547 938 2032
3 1363 1520 2025
3 1662 1663 2340
3 1184 1381 1457
3 2008 1266 2214
3 1411 1431 1437
3 1490 1255 2009
3 1450 1448 1451
3 1560 1163 2056
3 919 979 2024
3 1555 1554 2011
3 981 1252 2046
3 2086 24 2403
3 218 2083 2402
3 2126 206 2401
3 1608 984 2056
3 1163 1237 2056
3 985 989 2055
3 150 149 2097
3 941 1044 1073
3 1298 1296 1299
3 929 981 2046
3 1134 1265 1266
3 1340 1338 1341
3 1366 1353 1475
3 13 1437 2404
3 2153 397 2321
3 409 2148 2322
3 1518 1517 1519
3 1402 1270 1558
3 1497 1496 1498
3 1249 1248 1405
3 1258 1533 2022
3 2001 1375 2016
3 458 547 2197
3 2235 2136 2269
3 1366 1476 1477
3 2044 77 2162
3 1498 1499 1500
3 1582 1583 1584
3 550 551 2339
3 111 2101 2244
3 134 2107 2246
3 938 929 2046
3 13 1440 2195
3 2325 444 2392
3 547 2008 2214
3 1306 1269 2034
3 1447 1449 2049
3 1327 1280 1482
3 133 1652 2320
3 2193 145 2241
3 1663 1660 1664
3 55 1527 2279
3 1148 983 2054
3 983 928 2054
3 1420 1159 1576
3 1423 1072 1465
3 1067 1277 2021
3 1588 936 2066
3 1355 1353 1366
3 240 2069 2273
3 2128 15 2275
3 2179 48 2276
3 2117 230 2274
3 928 939 2054
3 2180 170 2226
3 1214 903 2039
3 1331 1148 2054
3 1392 1394 2014
3 2033 231 2280
3 1285 1418 1425
3 1147 1421 1536
3 1110 1176 2043
3 1449 1448 1450
3 1282 1383 2185
3 1252 1281 2046
3 1144 1378 1470
3 1355 1366 1522
3 2270 1403 2357
3 1544 1545 1546
3 1500 1499 1537
3 1514 1567 2041
3 1652 1651 2196
3 1260 1259 1403
3 2186 2005 2227
3 29 1523 2426
3 1429 1143 1430
3 553 552 554
3 231 2078 2280
3 1386 1140 1432
3 405 2109 2110
3 421 2103 2104
3 549 457 2256
3 543 460 2257
3 2058 12 2281
3 1517 1514 2041
3 1422 553 1444
3 1429 1430 2225
3 1567 157 2041
3 349 449 503
3 346 448 502
3 357 453 501
3 430 451 500
3 452 352 500
3 450 431 502
3 455 428 501
3 454 429 503
3 1659 1661 2196
3 181 1999 2000
3 1157 1126 2042
3 1486 1485 2053
3 1454 1452 2048
3 1142 1076 1263
3 1440 1441 2027
3 141 140 2167
3 1862 961 2050
3 1394 1395 1396
3 1126 1264 2042
3 1526 1528 1556
3 1330 1148 1331
3 97 550 2339
3 1393 1391 2198
3 2129 37 2326
3 989 2051 2055
3 23 22 2070
3 1420 1576 2307
3 537 1576 2332
3 984 985 2055
3 1484 1347 2346
3 1469 173 2378
3 1248 1410 2057
3 192 184 2172
3 162 169 2169
3 73 66 2090
3 176 182 2114
3 86 80 2139
3 237 236 2178
3 159 154 2111
3 88 96 2165
3 58 63 2134
3 102 101 2095
3 1366 1475 1476
3 1237 1608 2056
3 1252 1279 1280
3 2047 1466 2229
3 179 178 2125
3 207 202 2116
3 210 217 2175
3 25 18 2085
3 38 32 2160
3 240 232 2069
3 224 230 2117
3 40 48 2179
3 10 15 2128
3 1381 2044 2423
3 2045 1284 2218
3 1342 1487 2230
3 142 147 2152
3 122 116 2147
3 112 120 2079
3 145 138 2149
3 711 1607 2223
3 1290 1178 2223
3 190 195 2154
3 152 158 2124
3 64 72 2131
3 97 90 2088
3 170 164 2081
3 78 85 2156
3 183 178 2076
3 60 52 2130
3 466 418 2374
3 406 469 2373
3 467 414 2375
3 471 402 2376
3 112 119 2146
3 93 92 2073
3 48 40 2164
3 15 10 2141
3 18 25 2084
3 217 210 2174
3 32 38 2142
3 232 240 2177
3 202 207 2068
3 230 224 2163
3 96 88 2092
3 169 162 2168
3 182 176 2113
3 66 73 2072
3 80 86 2135
3 184 192 2171
3 63 58 2138
3 154 159 2112
3 1401 2035 2220
3 1281 1280 1327
3 1441 1442 1443
3 2036 14 2208
3 231 226 2078
3 30 37 2129
3 49 42 2087
3 238 243 2155
3 200 206 2126
3 16 24 2086
3 218 212 2083
3 12 4 2157
3 111 106 2099
3 134 128 2105
3 128 134 2108
3 106 111 2102
3 1446 1588 2066
3 1451 1448 2066
3 22 21 2017
3 1429 123 2222
3 1654 1653 2234
3 1537 1499 2015
3 231 2011 2306
3 94 99 2293
3 56 62 2292
3 160 168 2291
3 174 181 2288
3 74 68 2290
3 87 82 2289
3 193 186 2287
3 156 148 2286
3 1389 1440 2404
3 542 543 2427
3 214 213 2176
3 2066 936 2215
3 1274 1276 2229
3 2110 134 2247
3 2104 111 2245
3 1252 1280 1281
3 422 464 2387
3 426 465 2388
3 410 468 2389
3 470 398 2390
3 1132 1271 2062
3 545 544 2345
3 36 28 2352
3 1398 1393 2198
3 540 541 2349
3 2166 1400 2356
3 62 1525 2324
3 1402 1558 2061
3 1264 1417 2042
3 345 484 528
3 348 485 529
3 356 489 531
3 486 354 532
3 488 351 530
3 359 487 533
3 490 363 534
3 491 361 535
3 454 503 2203
3 1272 1439 2035
3 2078 475 2280
3 51 2118 2119
3 91 90 2059
3 1381 1380 2044
3 1410 1411 2377
3 936 1599 2215
3 61 1580 2348
3 2000 1263 2325
3 1379 1538 2242
3 462 539 2341
3 1329 1148 1330
3 2283 440 2313
3 2014 1436 2391
3 166 165 2194
3 213 212 2065
3 1501 1500 2202
3 37 1534 2326
3 195 536 2388
3 158 538 2387
3 72 546 2389
3 550 97 2390
3 2191 2197 2214
3 24 2201 2403
3 2200 218 2402
3 206 2199 2401
3 227 2186 2227
3 1448 1446 2066
3 195 1420 2307
3 1472 1474 2356
3 1344 1406 2334
3 45 44 2071
3 1345 1456 2346
3 1332 1510 2228
3 1382 1335 2333
3 2011 1553 2186
3 2051 1560 2055
3 46 51 2298
3 8 14 2299
3 208 216 2303
3 26 20 2302
3 222 229 2301
3 39 34 2300
3 241 234 2305
3 204 196 2304
3 117 116 2020
3 1375 1374 2243
3 419 466 2115
3 415 467 2170
3 469 407 2140
3 468 411 2091
3 1569 1390 2415
3 1412 1340 2230
3 188 187 2187
3 2069 473 2273
3 475 2117 2274
3 478 2128 2275
3 479 2179 2276
3 399 470 2190
3 403 471 2189
3 541 461 2320
3 542 170 2375
3 85 544 2373
3 540 183 2374
3 548 60 2376
3 2215 1599 2232
3 1419 1403 2270
3 2009 1372 2060
3 49 2206 2393
3 2144 2371 2431
3 1461 1462 1463
3 243 238 552
3 1460 1574 2284
3 1491 1326 2207
3 98 2047 2229
3 2242 545 2267
3 165 164 2180
3 76 83 2040
3 2017 1398 2198
3 183 540 2349
3 2015 1499 2028
3 1580 1369 2348
3 1497 1498 2119
3 104 110 2382
3 126 133 2383
3 135 130 2385
3 108 100 2386
3 1451 2066 2215
3 70 69 2220
3 243 553 1422
3 1651 1659 2196
3 365 506 507
3 369 504 505
3 508 373 509
3 510 377 511
3 381 514 515
3 385 512 513
3 516 393 517
3 518 389 519
3 1999 1267 2408
3 544 85 2345
3 2206 370 2393
3 2261 387 2274
3 2265 371 2276
3 2266 367 2275
3 395 2259 2273
3 1456 1381 2423
3 1447 2049 2064
3 83 82 2053
3 1396 1395 1397
3 101 100 2074
3 1268 1132 2062
3 2074 1325 2335
3 1574 219 2284
3 2240 120 2257
3 429 327 432
3 431 322 436
3 352 323 438
3 428 326 434
3 55 54 2161
3 152 151 2075
3 2027 7 2195
3 2136 39 2269
3 5 4 2127
3 1449 1450 2421
3 1599 711 2232
3 1405 1248 2057
3 118 117 2222
3 221 1436 2328
3 94 93 2089
3 1543 2089 2370
3 54 53 2137
3 2037 1443 2038
3 1435 1413 2226
3 235 234 2093
3 1430 1434 2225
3 1268 2062 2063
3 43 42 2158
3 149 148 2145
3 190 189 2082
3 7 2027 2208
3 1277 1278 2221
3 104 103 2143
3 453 2212 2414
3 1501 2202 2203
3 2027 1441 2036
3 1265 1387 2191
3 35 34 2136
3 125 124 2121
3 1487 1277 2221
3 477 2129 2326
3 543 2226 2427
3 140 139 2166
3 53 52 2133
3 1453 1451 2215
3 172 179 2098
3 2299 14 2362
3 2298 51 2363
3 39 2300 2364
3 26 2302 2365
3 2301 229 2366
3 2303 216 2367
3 241 2305 2368
3 204 2304 2369
3 21 20 2094
3 220 227 2227
3 69 68 2132
3 200 199 2077
3 325 430 439
3 324 357 435
3 320 346 437
3 321 349 433
3 184 191 2172
3 163 162 2169
3 66 65 2090
3 177 176 2114
3 80 79 2139
3 46 45 2118
3 131 130 2122
3 24 2045 2218
3 503 449 2203
3 2061 1558 2334
3 211 210 2175
3 202 201 2116
3 18 17 2085
3 32 31 2160
3 1541 2234 2424
3 142 141 2151
3 1266 1265 2214
3 1330 1404 2268
3 143 142 2152
3 116 115 2147
3 191 190 2154
3 153 152 2124
3 65 64 2131
3 90 89 2088
3 64 71 2120
3 97 2088 2390
3 2131 72 2389
3 2154 195 2388
3 2124 158 2387
3 464 423 2188
3 160 167 2217
3 224 223 2163
3 1265 2191 2214
3 126 125 2144
3 208 215 2204
3 1387 1429 2416
3 58 57 2138
3 155 154 2112
3 124 131 2096
3 1284 1268 2218
3 1581 2137 2338
3 1525 1405 2324
3 1466 1274 2229
3 6 5 2159
3 1464 1461 2211
3 239 238 2155
3 201 200 2126
3 212 211 2083
3 17 16 2086
3 4 11 2157
3 129 128 2108
3 107 106 2102
3 1392 2014 2415
3 381 515 2295
3 2133 1583 2338
3 1382 2257 2355
3 549 2256 2282
3 1563 1375 2243
3 445 2270 2357
3 2197 122 2272
3 1584 1583 2216
3 77 76 2162
3 2000 1999 2408
3 28 35 2352
3 374 477 2326
3 1453 2215 2232
3 365 507 2312
3 369 505 2313
3 509 373 2314
3 511 377 2316
3 385 513 2315
3 517 393 2318
3 519 389 2317
3 390 472 2401
3 474 382 2402
3 378 476 2403
3 193 2064 2297
3 1324 1468 2258
3 1607 1290 2223
3 463 2193 2241
3 1538 1539 2242
3 478 366 2281
3 424 2311 2418
3 2309 412 2417
3 2157 478 2281
3 114 2409 2412
3 2410 136 2411
3 345 528 2362
3 348 529 2363
3 532 354 2364
3 359 533 2366
3 530 351 2365
3 356 531 2367
3 535 361 2369
3 534 363 2368
3 1576 2042 2332
3 2283 1482 2393
3 1259 1408 2210
3 170 542 2427
3 2038 1443 2269
3 1396 1397 1399
3 2062 1271 2205
3 2107 416 2246
3 2101 400 2244
3 2130 471 2376
3 2076 466 2374
3 469 2156 2373
3 2081 467 2375
3 2197 547 2214
3 7 6 2195
3 465 427 2173
3 2022 180 2340
3 2231 2094 2344
3 2064 2049 2297
3 1340 1342 2230
3 1492 50 2330
3 1498 1500 1501
3 60 2130 2376
3 170 2081 2375
3 2156 85 2373
3 183 2076 2374
3 1327 1482 2283
3 242 1572 2178
3 1480 1453 2232
3 1273 1654 2234
3 2291 168 2295
3 475 386 2280
3 1442 2019 2235
3 1511 1324 2258
3 2292 62 2312
3 2293 99 2313
3 87 2289 2314
3 74 2290 2316
3 2288 181 2315
3 193 2287 2318
3 156 2286 2317
3 8 7 2208
3 2027 2036 2208
3 366 2058 2281
3 1515 2075 2398
3 51 2119 2224
3 1395 1398 2231
3 2049 1449 2187
3 274 275 2248
3 255 256 2249
3 288 289 2252
3 307 308 2250
3 293 294 2253
3 312 313 2251
3 269 270 2254
3 250 251 2255
3 1408 1409 2381
3 194 2009 2060
3 1142 1263 2408
3 1403 1259 2210
3 243 1422 2209
3 2075 1515 2353
3 157 1567 2397
3 105 104 2382
3 127 126 2383
3 130 129 2385
3 100 107 2386
3 476 2086 2403
3 2083 474 2402
3 472 2126 2401
3 2031 1382 2355
3 49 1482 2296
3 2095 101 2335
3 448 2037 2277
3 1268 2063 2218
3 1435 2226 2333
3 154 153 2111
3 59 58 2134
3 89 88 2165
3 277 278 2259
3 258 259 2260
3 304 305 2261
3 315 316 2263
3 285 286 2262
3 296 297 2264
3 247 248 2266
3 266 267 2265
3 1471 1378 2419
3 232 239 2069
3 225 224 2117
3 11 10 2128
3 41 40 2179
3 113 112 2079
3 138 137 2149
3 178 177 2076
3 79 78 2156
3 164 163 2081
3 52 59 2130
3 1280 1279 2296
3 10 9 2141
3 40 47 2164
3 210 209 2174
3 33 32 2142
3 19 18 2084
3 203 202 2068
3 233 232 2177
3 1421 1329 2400
3 88 95 2092
3 81 80 2135
3 176 175 2113
3 162 161 2168
3 67 66 2072
3 185 184 2171
3 226 225 2078
3 31 30 2129
3 42 41 2087
3 2137 53 2338
3 106 105 2099
3 128 127 2105
3 1385 1460 2284
3 1441 1443 2036
3 1387 2020 2191
3 2205 74 2219
3 53 2133 2338
3 2320 461 2351
3 101 2074 2335
3 114 113 2409
3 137 136 2410
3 1545 1543 2370
3 136 143 2411
3 115 114 2412
3 1498 1501 2119
3 1440 2027 2195
3 2062 2205 2219
3 2257 120 2355
3 2132 74 2205
3 1399 1397 2192
3 1424 1419 2405
3 2014 228 2415
3 1380 1379 2267
3 404 2110 2247
3 420 2104 2245
3 1397 1395 2231
3 1539 2123 2242
3 1999 181 2429
3 2049 187 2297
3 2088 470 2390
3 468 2131 2389
3 464 2124 2387
3 77 2044 2327
3 472 391 2236
3 383 474 2237
3 477 375 2239
3 476 379 2238
3 1406 1407 2432
3 2036 1443 2037
3 243 552 553
3 2011 2186 2306
3 2094 26 2344
3 2063 2062 2219
3 1501 2203 2224
3 1413 1412 2372
3 2005 228 2227
3 2172 465 2173
3 502 448 2277
3 2267 2345 2361
3 2192 1397 2344
3 1376 1377 2413
3 2004 242 2359
3 1377 2002 2282
3 238 237 552
3 1334 1402 2360
3 27 2017 2198
3 2212 2213 2414
3 1462 2004 2358
3 2123 545 2242
3 1325 1386 2335
3 1386 2095 2335
3 2111 464 2188
3 148 155 2286
3 186 185 2287
3 161 160 2291
3 68 67 2290
3 175 174 2288
3 82 81 2289
3 95 94 2293
3 57 56 2292
3 2191 122 2197
3 1583 1581 2338
3 1429 2222 2416
3 47 46 2298
3 9 8 2299
3 223 222 2301
3 34 33 2300
3 20 19 2302
3 209 208 2303
3 196 203 2304
3 234 233 2305
3 446 2228 2317
3 129 2108 2109
3 107 2102 2103
3 2350 2100 2382
3 2351 2106 2383
3 443 2063 2219
3 1482 1280 2296
3 1396 1399 2329
3 450 2038 2364
3 2202 454 2203
3 141 2167 2360
3 146 2166 2356
3 352 438 2181
3 428 434 2182
3 431 436 2183
3 429 432 2184
3 192 2172 2173
3 1558 1344 2334
3 2213 241 2368
3 471 2134 2189
3 470 2165 2190
3 2008 547 2294
3 35 2136 2235
3 2256 110 2413
3 1335 1435 2333
3 2139 469 2140
3 466 2114 2115
3 467 2169 2170
3 2090 468 2091
3 2073 1545 2370
3 139 138 2285
3 1542 1327 2283
3 460 2240 2257
3 56 55 2279
3 1463 1462 2343
3 93 2073 2370
3 199 198 2319
3 2371 1650 2431
3 433 349 2184
3 435 357 2182
3 437 346 2183
3 439 430 2181
3 357 501 2182
3 430 500 2181
3 500 352 2181
3 349 503 2184
3 501 428 2182
3 346 502 2183
3 502 431 2183
3 503 429 2184
3 458 2197 2272
3 1461 1463 2211
3 1468 108 2341
3 2231 1398 2394
3 1567 1515 2398
3 450 502 2277
3 228 2014 2391
3 485 347 493
3 484 344 492
3 353 486 495
3 350 488 494
3 487 358 497
3 489 355 496
3 360 491 499
3 362 490 498
3 473 395 2273
3 387 475 2274
3 371 479 2276
3 367 478 2275
3 1663 2022 2340
3 2186 227 2306
3 1329 1330 2268
3 1267 1142 2408
3 2219 74 2316
3 501 453 2414
3 2035 75 2220
3 44 43 2330
3 71 70 2323
3 2203 449 2224
3 2099 105 2100
3 2105 127 2106
3 2211 1463 2212
3 1347 1345 2346
3 1373 2045 2420
3 2213 455 2414
3 5 2127 2377
3 528 2299 2362
3 529 2298 2363
3 2300 532 2364
3 2302 530 2365
3 531 2303 2367
3 533 2301 2366
3 2305 534 2368
3 2304 535 2369
3 1534 374 2326
3 35 2235 2352
3 2212 1463 2213
3 143 2152 2153
3 2147 115 2148
3 1390 1392 2415
3 1649 1650 2371
3 187 186 2297
3 2089 93 2370
3 465 2172 2433
3 2094 2231 2394
3 1369 1371 2348
3 2151 141 2360
3 515 2291 2295
3 2159 5 2377
3 227 226 2306
3 2020 122 2191
3 1515 1516 2353
3 222 221 2328
3 1443 1442 2269
3 507 2292 2312
3 505 2293 2313
3 2289 509 2314
3 2290 511 2316
3 513 2288 2315
3 2287 517 2318
3 2286 519 2317
3 455 501 2414
3 1650 1652 2431
3 1419 2270 2405
3 78 77 2327
3 1436 1396 2329
3 2270 168 2405
3 181 2000 2392
3 159 2111 2188
3 2103 2342 2386
3 1653 1649 2422
3 440 2283 2393
3 2378 180 2419
3 2202 204 2369
3 1279 1492 2379
3 1263 1555 2325
3 2065 1408 2381
3 2196 1661 2428
3 113 2079 2080
3 2149 137 2150
3 418 540 2374
3 544 406 2373
3 414 542 2375
3 402 548 2376
3 2037 2038 2277
3 206 2077 2268
3 2143 1376 2413
3 2042 1417 2332
3 111 2244 2245
3 134 2246 2247
3 2079 120 2240
3 145 2149 2241
3 1388 1389 2404
3 2354 453 2367
3 129 2109 2385
3 107 2103 2386
3 189 2060 2430
3 180 2098 2340
3 2019 36 2352
3 1402 2151 2360
3 1450 1454 2421
3 2100 105 2382
3 2106 127 2383
3 2119 1501 2224
3 2409 121 2412
3 144 2410 2411
3 1400 1472 2356
3 2233 135 2385
3 2345 85 2361
3 506 364 520
3 504 368 521
3 372 508 522
3 376 510 523
3 514 380 525
3 512 384 524
3 392 516 527
3 388 518 526
3 173 172 2378
3 236 235 2359
3 2200 445 2357
3 221 220 2391
3 119 118 2406
3 538 422 2387
3 536 426 2388
3 546 410 2389
3 398 550 2390
3 2244 400 2337
3 2246 416 2336
3 1380 2267 2361
3 151 150 2397
3 2044 1380 2361
3 443 2219 2316
3 2371 2121 2422
3 1417 2193 2332
3 2162 84 2423
3 158 2075 2353
3 43 2158 2379
3 49 2087 2206
3 2057 2058 2425
3 30 29 2426
3 2109 2233 2385
3 2193 537 2332
3 2038 450 2277
3 2342 108 2386
3 2109 2108 2110
3 2103 2102 2104
3 241 2213 2343
3 2099 2100 2101
3 2105 2106 2107
3 2311 2395 2418
3 2396 2309 2417
3 2152 147 2271
3 122 2147 2272
3 2146 2031 2355
3 174 173 2429
3 51 2224 2363
3 2165 96 2190
3 2134 63 2189
3 2155 243 2209
3 2154 2388 2433
3 2167 1334 2360
3 229 2328 2329
3 168 2270 2295
3 143 2153 2411
3 2148 115 2412
3 2395 396 2418
3 408 2396 2417
3 2097 149 2380
3 1378 1469 2419
3 2341 108 2342
3 133 2144 2431
3 113 2080 2409
3 2150 137 2410
3 2169 169 2170
3 2114 182 2115
3 73 2090 2091
3 86 2139 2140
3 455 2213 2368
3 2158 49 2296
3 1412 2194 2372
3 23 2070 2420
3 2278 158 2353
3 1407 2059 2432
3 2017 21 2394
3 216 2354 2367
3 2116 472 2236
3 474 2175 2237
3 2160 477 2239
3 2085 476 2238
3 2060 1372 2430
3 207 2116 2236
3 2175 217 2237
3 25 2085 2238
3 38 2160 2239
3 2058 441 2425
3 117 2020 2416
3 1398 2017 2394
3 2213 1463 2343
3 85 2327 2361
3 2020 1387 2416
3 1403 2210 2357
3 179 2125 2399
3 2330 43 2379
3 1397 2231 2344
3 2311 144 2395
3 121 2309 2396
3 21 2094 2394
3 235 2093 2358
3 2315 181 2392
3 2176 213 2381
3 1649 2371 2422
3 2194 165 2372
3 2224 449 2363
3 213 2065 2381
3 2312 62 2324
3 45 2071 2384
3 1469 2378 2419
3 147 2061 2407
3 2093 241 2343
3 165 2180 2372
3 2222 117 2416
3 2211 2212 2354
3 541 2196 2428
3 2125 183 2331
3 1405 2057 2425
3 149 2145 2380
3 120 2146 2355
3 2199 390 2401
3 382 2200 2402
3 2201 378 2403
3 2118 45 2384
3 2267 545 2345
3 2075 151 2398
3 2098 179 2399
3 2226 170 2427
3 1409 2176 2381
3 2327 2044 2361
3 2247 2246 2336
3 2245 2244 2337
3 2388 465 2433
3 2070 1373 2420
3 2180 1413 2372
3 1516 2278 2353
3 87 2314 2347
3 2328 1436 2329
3 2270 445 2295
3 2234 132 2424
3 404 2247 2336
3 420 2245 2337
3 2077 199 2400
3 2082 189 2430
3 462 2341 2342
3 441 2312 2324
3 454 2202 2369
3 2235 2019 2352
3 168 2217 2405
3 2308 412 2309
3 424 2310 2311
3 2331 183 2349
3 2314 442 2347
3 110 2143 2413
3 2324 1405 2425
3 2000 2325 2392
3 2217 1424 2405
3 2172 191 2433
3 191 2154 2433
3 2059 97 2432
3 2271 147 2407
3 2321 396 2395
3 408 2322 2396
3 441 2324 2425
3 2121 132 2422
3 132 2096 2424
3 2331 2349 2428
3 1661 2331 2428
3 199 2319 2400
3 235 2358 2359
3 151 2397 2398
3 444 2315 2392
3 1492 2330 2379
3 2339 1406 2432
3 97 2339 2432
3 2349 541 2428
3 456 2271 2407
3 2319 1421 2400
3 2358 2004 2359
3 2397 1567 2398
3 2090 65 2131
3 552 237 2178
3 1477 1476 2347

CELL_TYPES 4666
5
5
5
5
5
5
5
5
5
5
5
5
5
5
5
5
5
5
5
5
5
5
5
5
5
5
5
5
5
5
5
5
5
5
5
5
5
5
5
5
5
5
5
5
5
5
5
5
5
5
5
5
5
5
5
5
5
5
5
5
5
5
5
5
5
5
5
5
5
5
5
5
5
5
5
5
5
5
5
5
5
5
5
5
5
5
5
5
5
5
5
5
5
5
5
5
5
5
5
5
5
5
5
5
5
5
5
5
5
5
5
5
5
5
5
5
5
5
5
5
5
5
5
5
5
5
5
5
5
5
5
5
5
5
5
5
5
5
5
5
5
5
5
5
5
5
5
5
5
5
5
5
5
5
5
5
5
5
5
5
5
5
5
5
5
5
5
5
5
5
5
5
5
5
5
5
5
5
5
5
5
5
5
5
5
5
5
5
5
5
5
5
5
5
5
5
5
5
5
5
5
5
5
5
5
5
5
5
5
5
5
5
5
5
5
5
5
5
5
5
5
5
5
5
5
5
5
5
5
5
5
5
5
5
5
5
5
5
5
5
5
5
5
5
5
5
5
5
5
5
5
5
5
5
5
5
5
5
5
5
5
5
5
5
5
5
5
5
5
5
5
5
5
5
5
5
5
5
5
5
5
5
5
5
5
5
5
5
5
5
5
5
5
5
5
5
5
5
5
5
5
5
5
5
5
5
5
5
5
5
5
5
5
5
5
5
5
5
5
5
5
5
5
5
5
5
5
5
5
5
5
5
5
5
5
5
5
5
5
5
5
5
5
5
5
5
5
5
5
5
5
5
5
5
5
5
5
5
5
5
5
5
5
5
5
5
5
5
5
5
5
5
5
5
5
5
5
5
5
5
5
5
5
5
5
5
5
5
5
5
5
5
5
5
5
5
5
5
5
5
5
5
5
5
5
5
5
5
5
5
5
5
5
5
5
5
5
5
5
5
5
5
5
5
5
5
5
5
5
5
5
5
5
5
5
5
5
5
5
5
5
5
5
5
5
5
5
5
5
5
5
5
5
5
5
5
5
5
5
5
5
5
5
5
5
5
5
5
5
5
5
5
5
5
5
5
5
5
5
5
5
5
5
5
5
5
5
5
5
5
5
5
5
5
5
5
5
5
5
5
5
5
5
5
5
5
5
5
5
5
5
5
5
5
5
5
5
5
5
5
5
5
5
5
5
5
5
5
5
5
5
5
5
5
5
5
5
5
5
5
5
5
5
5
5
5
5
5
5
5
5
5
5
5
5
5
5
5
5
5
5
5
5
5
5
5
5
5
5
5
5
5
5
5
5
5
5
5
5
5
5
5
5
5
5
5
5
5
5
5
5
5
5
5
5
5
5
5
5
5
5
5
5
5
5
5
5
5
5
5
5
5
5
5
5
5
5
5
5
5
5
5
5
5
5
5
5
5
5
5
5
5
5
5
5
5
5
5
5
5
5
5
5
5
5
5
5
5
5
5
5
5
5
5
5
5
5
5
5
5
5
5
5
5
5
5
5
5
5
5
5
5
5
5
5
5
5
5
5
5
5
5
5
5
5
5
5
5
5
5
5
5
5
5
5
5
5
5
5
5
5
5
5
5
5
5
5
5
5
5
5
5
5
5
5
5
5
5
5
5
5
5
5
5
5
5
5
5
5
5
5
5
5
5
5
5
5
5
5
5
5
5
5
5
5
5
5
5
5
5
5
5
5
5
5
5
5
5
5
5
5
5
5
5
5
5
5
5
5
5
5
5
5
5
5
5
5
5
5
5
5
5
5
5
5
5
5
5
5
5
5
5
5
5
5
5
5
5
5
5
5
5
5
5
5
5
5
5
5
5
5
5
5
5
5
5
5
5
5
5
5
5
5
5
5
5
5
5
5
5
5
5
5
5
5
5
5
5
5
5
5
5
5
5
5
5
5
5
5
5
5
5
5
5
5
5
5
5
5
5
5
5
5
5
5
5
5
5
5
5
5
5
5
5
5
5
5
5
5
5
5
5
5
5
5
5
5
5
5
5
5
5
5
5
5
5
5
5
5
5
5
5
5
5
5
5
5
5
5
5
5
5
5
5
5
5
5
5
5
5
5
5
5
5
5
5
5
5
5
5
5
5
5
5
5
5
5
5
5
5
5
5
5
5
5
5
5
5
5
5
5
5
5
5
5
5
5
5
5
5
5
5
5
5
5
5
5
5
5
5
5
5
5
5
5
5
5
5
5
5
5
5
5
5
5
5
5
5
5
5
5
5
5
5
5
5
5
5
5
5
5
5
5
5
5
5
5
5
5
5
5
5
5
5
5
5
5
5
5
5
5
5
5
5
5
5
5
5
5
5
5
5
5
5
5
5
5
5
5
5
5
5
5
5
5
5
5
5
5
5
5
5
5
5
5
5
5
5
5
5
5
5
5
5
5
5
5
5
5
5
5
5
5
5
5
5
5
5
5
5
5
5
5
5
5
5
5
5
5
5
5
5
5
5
5
5
5
5
5
5
5
5
5
5
5
5
5
5
5
5
5
5
5
5
5
5
5
5
5
5
5
5
5
5
5
5
5
5
5
5
5
5
5
5
5
5
5
5
5
5
5
5
5
5
5
5
5
5
5
5
5
5
5
5
5
5
5
5
5
5
5
5
5
5
5
5
5
5
5
5
5
5
5
5
5
5
5
5
5
5
5
5
5
5
5
5
5
5
5
5
5
5
5
5
5
5
5
5
5
5
5
5
5
5
5
5
5
5
5
5
5
5
5
5
5
5
5
5
5
5
5
5
5
5
5
5
5
5
5
5
5
5
5
5
5
5
5
5
5
5
5
5
5
5
5
5
5
5
5
5
5
5
5
5
5
5
5
5
5
5
5
5
5
5
5
5
5
5
5
5
5
5
5
5
5
5
5
5
5
5
5
5
5
5
5
5
5
5
5
5
5
5
5
5
5
5
5
5
5
5
5
5
5
5
5
5
5
5
5
5
5
5
5
5
5
5
5
5
5
5
5
5
5
5
5
5
5
5
5
5
5
5
5
5
5
5
5
5
5
5
5
5
5
5
5
5
5
5
5
5
5
5
5
5
5
5
5
5
5
5
5
5
5
5
5
5
5
5
5
5
5
5
5
5
5
5
5
5
5
5
5
5
5
5
5
5
5
5
5
5
5
5
5
5
5
5
5
5
5
5
5
5
5
5
5
5
5
5
5
5
5
5
5
5
5
5
5
5
5
5
5
5
5
5
5
5
5
5
5
5
5
5
5
5
5
5
5
5
5
5
5
5
5
5
5
5
5
5
5
5
5
5
5
5
5
5
5
5
5
5
5
5
5
5
5
5
5
5
5
5
5
5
5
5
5
5
5
5
5
5
5
5
5
5
5
5
5
5
5
5
5
5
5
5
5
5
5
5
5
5
5
5
5
5
5
5
5
5
5
5
5
5
5
5
5
5
5
5
5
5
5
5
5
5
5
5
5
5
5
5
5
5
5
5
5
5
5
5
5
5
5
5
5
5
5
5
5
5
5
5
5
5
5
5
5
5
5
5
5
5
5
5
5
5
5
5
5
5
5
5
5
5
5
5
5
5
5
5
5
5
5
5
5
5
5
5
5
5
5
5
5
5
5
5
5
5
5
5
5
5
5
5
5
5
5
5
5
5
5
5
5
5
5
5
5
5
5
5
5
5
5
5
5
5
5
5
5
5
5
5
5
5
5
5
5
5
5
5
5
5
5
5
5
5
5
5
5
5
5
5
5
5
5
5
5
5
5
5
5
5
5
5
5
5
5
5
5
5
5
5
5
5
5
5
5
5
5
5
5
5
5
5
5
5
5
5
5
5
5
5
5
5
5
5
5
5
5
5
5
5
5
5
5
5
5
5
5
5
5
5
5
5
5
5
5
5
5
5
5
5
5
5
5
5
5
5
5
5
5
5
5
5
5
5
5
5
5
5
5
5
5
5
5
5
5
5
5
5
5
5
5
5
5
5
5
5
5
5
5
5
5
5
5
5
5
5
5
5
5
5
5
5
5
5
5
5
5
5
5
5
5
5
5
5
5
5
5
5
5
5
5
5
5
5
5
5
5
5
5
5
5
5
5
5
5
5
5
5
5
5
5
5
5
5
5
5
5
5
5
5
5
5
5
5
5
5
5
5
5
5
5
5
5
5
5
5
5
5
5
5
5
5
5
5
5
5
5
5
5
5
5
5
5
5
5
5
5
5
5
5
5
5
5
5
5
5
5
5
5
5
5
5
5
5
5
5
5
5
5
5
5
5
5
5
5
5
5
5
5
5
5
5
5
5
5
5
5
5
5
5
5
5
5
5
5
5
5
5
5
5
5
5
5
5
5
5
5
5
5
5
5
5
5
5
5
5
5
5
5
5
5
5
5
5
5
5
5
5
5
5
5
5
5
5
5
5
5
5
5
5
5
5
5
5
5
5
5
5
5
5
5
5
5
5
5
5
5
5
5
5
5
5
5
5
5
5
5
5
5
5
5
5
5
5
5
5
5
5
5
5
5
5
5
5
5
5
5
5
5
5
5
5
5
5
5
5
5
5
5
5
5
5
5
5
5
5
5
5
5
5
5
5
5
5
5
5
5
5
5
5
5
5
5
5
5
5
5
5
5
5
5
5
5
5
5
5
5
5
5
5
5
5
5
5
5
5
5
5
5
5
5
5
5
5
5
5
5
5
5
5
5
5
5
5
5
5
5
5
5
5
5
5
5
5
5
5
5
5
5
5
5
5
5
5
5
5
5
5
5
5
5
5
5
5
5
5
5
5
5
5
5
5
5
5
5
5
5
5
5
5
5
5
5
5
5
5
5
5
5
5
5
5
5
5
5
5
5
5
5
5
5
5
5
5
5
5
5
5
5
5
5
5
5
5
5
5
5
5
5
5
5
5
5
5
5
5
5
5
5
5
5
5
5
5
5
5
5
5
5
5
5
5
5
5
5
5
5
5
5
5
5
5
5
5
5
5
5
5
5
5
5
5
5
5
5
5
5
5
5
5
5
5
5
5
5
5
5
5
5
5
5
5
5
5
5
5
5
5
5
5
5
5
5
5
5
5
5
5
5
5
5
5
5
5
5
5
5
5
5
5
5
5
5
5
5
5
5
5
5
5
5
5
5
5
5
5
5
5
5
5
5
5
5
5
5
5
5
5
5
5
5
5
5
5
5
5
5
5
5
5
5
5
5
5
5
5
5
5
5
5
5
5
5
5
5
5
5
5
5
5
5
5
5
5
5
5
5
5
5
5
5
5
5
5
5
5
5
5
5
5
5
5
5
5
5
5
5
5
5
5
5
5
5
5
5
5
5
5
5
5
5
5
5
5
5
5
5
5
5
5
5
5
5
5
5
5
5
5
5
5
5
5
5
5
5
5
5
5
5
5
5
5
5
5
5
5
5
5
5
5
5
5
5
5
5
5
5
5
5
5
5
5
5
5
5
5
5
5
5
5
5
5
5
5
5
5
5
5
5
5
5
5
5
5
5
5
5
5
5
5
5
5
5
5
5
5
5
5
5
5
5
5
5
5
5
5
5
5
5
5
5
5
5
5
5
5
5
5
5
5
5
5
5
5
5
5
5
5
5
5
5
5
5
5
5
5
5
5
5
5
5
5
5
5
5
5
5
5
5
5
5
5
5
5
5
5
5
5
5
5
5
5
5
5
5
5
5
5
5
5
5
5
5
5
5
5
5
5
5
5
5
5
5
5
5
5
5
5
5
5
5
5
5
5
5
5
5
5
5
5
5
5
5
5
5
5
5
5
5
5
5
5
5
5
5
5
5
5
5
5
5
5
5
5
5
5
5
5
5
5
5
5
5
5
5
5
5
5
5
5
5
5
5
5
5
5
5
5
5
5
5
5
5
5
5
5
5
5
5
5
5
5
5
5
5
5
5
5
5
5
5
5
5
5
5
5
5
5
5
5
5
5
5
5
5
5
5
5
5
5
5
5
5
5
5
5
5
5
5
5
5
5
5
5
5
5
5
5
5
5
5
5
5
5
5
5
5
5
5
5
5
5
5
5
5
5
5
5
5
5
5
5
5
5
5
5
5
5
5
5
5
5
5
5
5
5
5
5
5
5
5
5
5
5
5
5
5
5
5
5
5
5
5
5
5
5
5
5
5
5
5
5
5
5
5
5
5
5
5
5
5
5
5
5
5
5
5
5
5
5
5
5
5
5
5
5
5
5
5
5
5
5
5
5
5
5
5
5
5
5
5
5
5
5
5
5
5
5
5
5
5
5
5
5
5
5
5
5
5
5
5
5
5
5
5
5
5
5
5
5
5
5
5
5
5
5
5
5
5
5
5
5
5
5
5
5
5
5
5
5
5
5
5
5
5
5
5
5
5
5
5
5
5
5
5
5
5
5
5
5
5
5
5
5
5
5
5
5
5
5
5
5
5
5
5
5
5
5
5
5
5
5
5
5
5
5
5
5
5
5
5
5
5
5
5
5
5
5
5
5
5
5
5
5
5
5
5
5
5
5
5
5
5
5
5
5
5
5
5
5
5
5
5
5
5
5
5
5
5
5
5
5
5
5
5
5
5
5
5
5
5
5
5
5
5
5
5
5
5
5
5
5
5
5
5
5
5
5
5
5
5
5
5
5
5
5
5
5
5
5
5
5
5
5
5
5
5
5
5
5
5
5
5
5
5
5
5
5
5
5
5
5
5
5
5
5
5
5
5
5
5
5
5
5
5
5
5
5
5
5
5
5
5
5
5
5
5
5
5
5
5
5
5
5
5
5
5
5
5
5
5
5
5
5
5
5
5
5
5
5
5
5
5
5
5
5
5
5
5
5
5
5
5
5
5
5
5
5
5
5
5
5
5
5
5
5
5
5
5
5
5
5
5
5
5
5
5
5
5
5
5
5
5
5
5
5
5
5
5
5
5
5
5
5
5
5
5
5
5
5
5
5
5
5
5
5
5
5
5
5
5
5
5
5
5
5
5
5
5
5
5
5
5
5
5
5
5
5
5
5
5
5
5
5
5
5
5
5
5
5
5
5
5
5
5
5
5
5
5
5
5
5
5
5
5
5
5
5
5
5
5
5
5
5
5
5
5
5
5
5
5
5
5
5
5
5
5
5
5
5
5
5
5
5
5
5
5
5
5
5
5
5
5
5
5
5
5
5
5
5
5
5
5
5
5
5
5
5
5
5
5
5
5
5
5
5
5
5
5
5
5
5
5
5
5
5
5
5
5
5
5
5
5
5
5
5
5
5
5
5
5
5
5
5
5
5
5
5
5
5
5
5
5
5
5
5
5
5
5
5
5
5
5
5
5
5
5
5
5
5
5
5
5
5
5
5
5
5
5
5
5
5
5
5
5
5
5
5
5
5
5
5
5
5
5
5
5
5
5
5
5
5
5
5
5
5
5
5
5
5
5
5
5
5
5
5
5
5
5
5
5
5
5
5
5
5
5
5
5
5
5
5
5
5
5
5
5
5
5
5
5
5
5
5
5
5
5
5
5
5
5
5
5
5
5
5
5
5
5
5
5
5
5
5
5
5
5
5
5
5
5
5
5
5
5
5
5
5
5
5
5
5
5
5
5
5
5
5
5
5
5
5
5
5
5
5
5
5
5
5
5
5
5
5
5
5
5
5
5
5
5
5
5
5
5
5
5
5
5
5
5
5
5
5
5
5
5
5
5
5
5
5
5
5
5
5
5
5
5
5
5
5
5
5
5
5
5
5
5
5
5
5
5
5
5
5
5
5
5
5
5
5
5
5
5
5
5
5
5
5
5
5
5
5
5
5
5
5
5
5
5
5
5
5
5
5
5
5
5
5
5
5
5
5
5
5
5
5
5
5
5
5
5
5
5
5
5
5
5
5
5
5
5
5
5
5
5
5
5
5
5
5
5
5
5
5
5
5
5
5
5
5
5
5
5
5
5
5
5
5
5
5
5
5
5
5
5
5
5
5
5
5
5
5
5
5
5
5
5
5
5
5
5
5
5
5
5
5
5
5
5
5
5
5
5
5
5
5
5
5
5
5
5
5
5
5
5
5
5
5
5
5
5
5
5
5
5
5
5
5
5
5
5
5
5
5
5
5
5
5
5
5
5
5
5
5
5
5
5
5
5
5
5
5
5
5
5
5
5
5
5
5
5
5
5
5
5
5
5
5
5
5
5
5
5
5
5
5
5
5
5
5
5
5
5
5
5
5
5
5
5
5
5
5
5
5
5
5
5
5
5
5
5
5
5
5
5
5
5
5
5
5
5
5
5
5
5
5
5
5
5
5
5
5
5
5
5
5
5
5
5
5
5
5
5
5
5
5
5
5
5
5
5
5
5
5
5
5
5
5
5
5
5
5
5
5
5
5
5
5
5
5
5
5
5
5
5
5
5
5
5
5
5
5
5
5
5
5
5
5
5
5
5
5
5
5
5
5
5
5
5
5
5
5
5
5
5
5
5
5
5
5
5
5
5
5
5
5
5
5
5
5
5
5
5
5
5
5
5
5
5
5
5
5
5
5
5
5
5
5
5
5
5
5
5
5
5
5
5
5
5
5
5
5
5
5
5
5
5
5
5
5
5
5
5
5
5
5
5
5
5
5
5
5
5
5
5
5
5
5
5
5
5
5
5
5
5
5
5
5
5
5
5
5
5
5
5
5
5
5
5
5
5
5
5
5
5
5
5
5
5
5
5
5
5
5
5
5
5
5
5
5
5
5
5
5
5
5
5
5
5
5
5
5
5
5
5
5
5
5
5
5
5
5
5
5
5
5
5
5
5
5
5
5
5
5
5
5
5
5
5
5
5
5
5
5
5
5
5
5
5
5
5
5
5
5
5
5
5
5
5
5
5
5
5
5
5
5
5
5
5
5
5
5
5
5
5
5
5
5
5
5
5
5
5
5
5
5
5
5
5
5
5
5
5
5
5
5
5
5
5
5
5
5
5
5
5
5
5
5
5
5
5
5
5
5
5
5
5
5
5
5
5
5
5
5
5
5
5
5
5
5
5
5
5
5
5
5
5
5
5
5
5
5
5
5
5
5
5
5
5
5
5
5
5
5
5
5
5
5
5
5
5
5
5
5
5
5
5
5
5
5
5
5
5
5
5
5
5
5
5
5
5
5
5
5
5
5
5
5
5
5
5
5
5
5
5
5
5
5
5
5
5
5
5
5
5
5
5
5
5
5
5
5
5
5
5
5
5
5
5
5
5
5
5
5
5
5
5
5
5
5
5
5
5
5
5
5
5
5
5
5
5
5
5
5
5
5
5
5
5
5
5
5
5
5
5
5
5
5
5
5
5
5
5
5
5
5
5
5
5
5
5
5
5
5
5
5
5
5
5
5
5
5
5
5
5
5
5
5
5
5
5
5
5
5
5
5
5
5
5
5
5
5
5
5
5
5
5
5
5
5
5
5
5
5
5
5
5
5
5
5
5
5
5
5
5
5
5
5
5
5
5
5
5
5
5
5
5
5
5
5
5
5
5
5
5
5
5
5
5
5
5
5
5
5
5
5
5
5
5
5
5
5
5
5
5
5
5
5
5
5
5
5
5
5
5
5
5
5
5
5
5
5
5
5
5
5
5
5
5
5
5
5
5
5
5
5
5
5
5
5
5
5
5
5
5
5
5
5
5
5
5
5
5
5
5
5
5
5
5
5
5
5
5
5
5
5
5
5
5
5
5
5
5
5
5
5
5
5
5
5
5
5
5
5
5
5
5
5
5
5
5
5
5
5
5
5
5
5
5
5
5
5
5
5
5
5
5
5
5
5
5
5
5
5
5
5
5
5
5
5
5
5
5
5
5
5
5
5
5
5
5
5
5
5
5
5
5
5
5
5
5
5
5
5
5
5
5
5
5
5
5
5
5
5
5
5
5
5
5
5
5
5
5
5
5
5
5
5
5
5
5
5
5
5
5
5
5
5
5
5
5
5
5
5
5
5
5
5
5
5
5
5
5
5
5
5
5
5
5
5
5
5
5
5
5
5
5
5
5
5
5
5
5
5
5
5
5
5
5
5
5
5
5
5
5
5
5
5
5
5
5
5
5
5
5
5
5
5
5
5
5
5
5
5
5
5
5
5
5
5
5
5
5
5
5
5
5
5
5
5
5
5
5
5
5
5
5
5
5
5
5
5
5
5
5
5
5
5
5
5
5
5
5
5
5
5
5
5
5
5
5
5
5
5
5
5
5
5
5
5
5
5
5
5
5
5
5
5
5
5
5
5
5
5
5
5
5
5
5
5
5
5
5
5
5
5
5
5
5
5
5
5
5
5
5
5
5
5
5
5
5
5
5
5
5
5
5
5
5
5
5
5
5
5
5
5
5
5
5
5
5
5
5
5
5
5
5
5
5
5
5
5
5
5
5
5
5
5
5
5
5
5
5
5
5
5
5
5
5
5
5
5
5
5
5
5
5
5
5
5
5
5
5
5
5
5
5
5
5
5
5
5
5
5
5
5
5
5
5
5
5
5
5
5
5
5
5
5
5
5
5
5
5
5
5
5
5
5
5
5
5
5
5
5
5
5
5
5
5
5
5
5
5
5
5
5
5
5
5
5
5
5
5
5

POINT_DATA 2434
SCALARS v:bnd int 1
LOOKUP_TABLE default
4
4
4
4
4
4
4
4
4
141
141
141
4
4
4
4
4
142
142
142
142
4
4
4
4
4
4
4
4
4
4
131
131
131
131
4
4
4
4
4
132
132
132
4
4
4
4
132
4
4
4
4
4
4
4
4
4
141
141
141
4
4
4
4
4
142
142
142
142
4
4
4
4
4
4
4
4
4
4
131
131
131
131
4
4
4
4
4
132
132
132
4
4
4
4
132
4
4
4
4
4
4
4
4
4
141
141
141
4
4
4
4
4
142
142
142
142
4
4
4
4
4
4
4
4
4
4
131
131
131
131
4
4
4
4
4
132
132
132
4
4
4
4
132
4
4
4
4
4
4
4
4
4
141
141
141
4
4
4
4
4
142
142
142
142
4
4
4
4
4
4
4
4
4
4
131
131
131
131
4
4
4
4
4
132
132
132
4
4
4
4
132
4
4
4
4
4
4
4
4
4
141
141
141
4
4
4
4
4
142
142
142
142
4
4
4
4
4
4
4
4
4
4
131
131
131
131
4
4
4
4
4
132
132
132
4
4
4
4
132
4
4
4
4
4
4
4
4
4
4
4
4
4
4
4
4
4
4
4
4
4
4
4
4
4
4
4
4
4
4
4
4
4
4
4
4
4
4
4
4
4
4
4
4
4
4
4
4
4
4
4
4
4
4
4
4
4
4
4
4
4
4
4
4
4
4
4
4
4
4
4
4
4
4
4
4
4
4
4
4
4
4
4
4
4
4
4
4
4
4
4
4
4
4
4
4
4
4
4
4
4
4
4
4
4
4
4
4
4
4
4
4
4
4
4
4
4
4
4
4
4
4
4
4
4
4
4
4
4
4
4
4
4
4
4
4
4
4
4
4
4
4
4
4
4
4
4
4
4
4
4
4
4
4
4
4
4
4
4
4
4
4
4
4
4
4
4
4
4
4
4
4
4
4
4
4
4
4
4
4
4
4
4
4
4
4
4
4
4
4
4
4
4
4
4
4
4
4
4
4
4
4
4
4
4
4
4
4
4
4
4
4
4
4
4
4
4
4
4
4
4
4
4
4
4
4
4
4
4
4
4
4
4
4
4
4
4
4
4
4
4
4
4
4
4
4
4
4
4
4
4
4
4
4
4
4
4
4
4
4
4
4
4
4
4
4
4
4
4
4
4
4
4
4
4
4
4
4
4
4
4
4
4
4
4
4
4
4
4
4
4
4
4
4
4
4
4
4
4
4
4
4
4
4
4
4
4
4
4
4
4
4
4
4
4
4
4
4
4
4
4
4
4
4
4
4
4
4
4
4
4
4
4
4
4
4
4
4
4
4
4
4
4
4
4
4
4
4
4
4
4
4
4
4
4
4
4
4
4
4
4
4
4
4
4
4
4
4
4
4
4
4
4
4
4
4
4
4
4
4
4
4
4
4
4
4
4
4
4
4
4
4
4
4
4
4
4
4
4
4
4
4
4
4
4
4
4
4
4
4
4
4
4
4
4
4
4
4
4
4
4
4
4
4
4
4
4
4
4
4
4
4
4
4
4
4
4
4
4
4
4
4
4
4
4
4
4
4
4
4
4
4
4
4
4
4
4
4
4
4
4
4
4
4
4
4
4
4
4
4
4
4
4
4
4
4
4
4
4
4
4
4
4
4
4
4
4
4
4
4
4
4
4
4
4
4
4
4
4
4
4
4
4
4
4
4
4
4
4
4
4
4
4
4
4
4
4
4
4
4
4
4
4
4
4
4
4
4
4
4
4
4
4
4
4
4
4
4
4
4
4
4
4
4
4
4
4
4
4
4
4
4
4
4
4
4
4
4
4
4
4
4
4
4
4
4
4
4
4
4
4
4
4
4
4
4
4
4
4
4
4
4
4
4
4
4
4
4
4
4
4
4
4
4
4
4
4
4
4
4
4
4
4
4
4
4
4
4
4
4
4
4
4
4
4
4
4
4
4
4
4
4
4
4
4
4
4
4
4
4
4
4
4
4
4
4
4
4
4
4
4
4
4
4
4
4
4
4
4
4
4
4
4
4
4
4
4
4
4
4
4
4
4
4
4
4
4
4
4
4
4
4
4
4
4
4
4
4
4
4
4
4
4
4
4
4
4
4
4
4
4
4
4
4
4
4
4
4
4
4
4
4
4
4
4
4
4
4
4
4
4
4
4
4
4
4
4
4
4
4
4
4
4
4
4
4
4
4
4
4
4
4
4
4
4
4
4
4
4
4
4
4
4
4
4
4
4
4
4
4
4
4
4
4
4
4
4
4
4
4
4
4
4
4
4
4
4
4
4
4
4
4
4
4
4
4
4
4
4
4
4
4
4
4
4
4
4
4
4
4
4
4
4
4
4
4
4
4
4
4
4
4
4
4
4
4
4
4
4
4
4
4
4
4
4
4
4
4
4
4
4
4
4
4
4
4
4
4
4
4
4
4
4
4
4
4
4
4
4
4
4
4
4
4
4
4
4
4
4
4
4
4
4
4
4
4
4
4
4
4
4
4
4
4
4
4
4
4
4
4
4
4
4
4
4
4
4
4
4
4
4
4
4
4
4
4
4
4
4
4
4
4
4
4
4
4
4
4
4
4
4
4
4
4
4
4
4
4
4
4
4
4
4
4
4
4
4
4
4
4
4
4
4
4
4
4
4
4
4
4
4
4
4
4
4
4
4
4
4
4
4
4
4
4
4
4
4
4
4
4
4
4
4
4
4
4
4
4
4
4
4
4
4
4
4
4
4
4
4
4
4
4
4
4
4
4
4
4
4
4
4
4
4
4
4
4
4
4
4
4
4
4
4
4
4
4
4
4
4
4
4
4
4
4
4
4
4
4
4
4
4
4
4
4
4
4
4
4
4
4
4
4
4
4
4
4
4
4
4
4
4
4
4
4
4
4
4
4
4
4
4
4
4
4
4
4
4
4
4
4
4
4
4
4
4
4
4
4
4
4
4
4
4
4
4
4
4
4
4
4
4
4
4
4
4
4
4
4
4
4
4
4
4
4
4
4
4
4
4
4
4
4
4
4
4
4
4
4
4
4
4
4
4
4
4
4
4
4
4
4
4
4
4
4
4
4
4
4
4
4
4
4
4
4
4
4
4
4
4
4
4
4
4
4
4
4
4
4
4
4
4
4
4
4
4
4
4
4
4
4
4
4
4
4
4
4
4
4
4
4
4
4
4
4
4
4
4
4
4
4
4
4
4
4
4
4
4
4
4
4
4
4
4
4
4
4
4
4
4
4
4
4
4
4
4
4
4
4
4
4
4
4
4
4
4
4
4
4
4
4
4
4
4
4
4
4
4
4
4
4
4
4
4
4
4
4
4
4
4
4
4
4
4
4
4
4
4
4
4
4
4
4
4
4
4
4
4
4
4
4
4
4
4
4
4
4
4
4
4
4
4
4
4
4
4
4
4
4
4
4
4
4
4
4
4
4
4
4
4
4
4
4
4
4
4
4
4
4
4
4
4
4
4
4
4
4
4
4
4
4
4
4
4
4
4
4
4
4
4
4
4
4
4
4
4
4
4
4
4
4
4
4
4
4
4
4
4
4
4
4
4
4
4
4
4
4
4
4
4
4
4
4
4
4
4
4
4
4
4
4
4
4
4
4
4
4
4
4
4
4
4
4
4
4
4
4
4
4
4
4
4
4
4
4
4
4
4
4
4
4
4
4
4
4
4
4
4
4
4
4
4
4
4
4
4
4
4
4
4
4
4
4
4
4
4
4
4
4
4
4
4
4
4
4
4
4
4
4
4
4
4
4
4
4
4
4
4
4
4
4
4
4
4
4
4
4
4
4
4
4
4
4
4
4
4
4
4
4
4
4
4
4
4
4
4
4
4
4
4
4
4
4
4
4
4
4
4
4
4
4
4
4
4
4
4
4
4
4
4
4
4
4
4
4
4
4
4
4
4
4
4
4
4
4
4
4
4
4
4
4
4
4
4
4
4
4
4
4
4
4
4
4
4
4
4
4
4
4
4
4
4
4
4
4
4
4
4
4
4
4
4
4
4
4
4
4
4
4
4
4
4
4
4
4
4
4
4
4
4
4
4
4
4
4
4
4
4
4
4
4
4
4
4
4
4
4
4
4
4
4
4
4
4
4
4
4
4
4
4
4
4
4
4
4
4
4
4
4
4
4
4
4
4
4
4
4
4
4
4
4
4
4
4
4
4
4
4
4
4
4
4
4
4
4
4
4
4
4
4
4
4
4
4
4
4
4
4
4
4
4
4
4
4
4
4
4
4
4
4
4
4
4
4
4
4
4
4
4
4
4
4
4
4
4
4
4
4
4
4
4
4
4
4
4
4
4
4
4
4
4
4
4
4
4
4
4
4
4
4
4
4
4
4
4
4
4
4
4
4
4
4
4
4
4
4
4
4
4
4
4
4
4
4
4
4
4
4
4
4
4
4
4
4
4
4
4
4
4
4
4
4
4
4
4
4
4
4
4
4
4
4
4
4
4
4
4
4
4
4
4
4
4
4
4
4
4
4
4
4
4
4
4
4
4
4
4
4
4
4
4
4
4
4
4
4
4
4
4
4
4
4
4
4
4
4
4
4
4
4
4
4
4
4
4
4
4
4
4
4
4
4
4
4
4
4
4
4
4
4
4
4
4
4
4
4
4
4
4
4
4
4
4
4
4
4
4
4
4
4
4
4
4
4
4
4
4
4
4
4
4
4
4
4
4
4
4
4
4
4
4
4
4
4
4
4
4
4
4
4
4
4
4
4
4
4
4
4
4
4
4
4
4
4
4
4
4
4
4
4
4
4
4
4
4
4
4
4
4
4
4
4
4
4
4
4
4
4
4
4
4
4
4
4
4
4
4
4
4
4
4
4
4
4
4
4
4
4
4
4
4
4
4
4
4
4
4
4
4
4
4
4
4
4
4
4
4
4
4
4
4
4
4
4
4
4
4
4
4
4
4
4
4
4
4
4
4
4
4
4
4
4
4
4
4
4
4
4
4
4
4
4
4
4
4
4
4
4
4
4
4
4
4
4
4
4
4
4
4
4
4
4
4
4
4
4
4
4
4
4
4
4
4
4
4
4
4
4
4
4
4
4
4
4
4
4
4
4
4
4
4
4
4
4
4
4
4
4
4
4
4
4
4
4
4
4
4
4
4
4
4
4
4
4
4
4
4
4
4
4
4
4
4
4
4
4
4
4
4
4
4
4
4
4
4
4
4
4
4
4
4
4
4
4
4
4
4
4
4
4
4
4
4
4
4
4
4
4
4
4
4
4
4
4
4
4
4
4
4
4
4
4
4
4
4
4
4
4
4
4
4
4
4
4
4
4
4
4
4
4
4
4
4
4
4
4
4
4
4
4
4
4
4
4
4
4
4
4
4
4
4
4
4
4
4
4
4
4
4
4
4
4
4
4
4
4
4
4
4
4
4
4
4
4
4
4
4
4
4
4
4
4
4
4
4
4
4
4
4
4
4
4
4
4
4
4
4
4
4
4
4
4
4
4
4
4
4
4
4
4
4
4
4
4
4

SCALARS v:bnd_sim int 1
LOOKUP_TABLE default
4
4
4
4
4
4
4
4
4
14
14
14
4
4
4
4
4
14
14
14
14
4
4
4
4
4
4
4
4
4
4
13
13
13
13
4
4
4
4
4
13
13
13
4
4
4
4
13
4
4
4
4
4
4
4
4
4
14
14
14
4
4
4
4
4
14
14
14
14
4
4
4
4
4
4
4
4
4
4
13
13
13
13
4
4
4
4
4
13
13
13
4
4
4
4
13
4
4
4
4
4
4
4
4
4
14
14
14
4
4
4
4
4
14
14
14
14
4
4
4
4
4
4
4
4
4
4
13
13
13
13
4
4
4
4
4
13
13
13
4
4
4
4
13
4
4
4
4
4
4
4
4
4
14
14
14
4
4
4
4
4
14
14
14
14
4
4
4
4
4
4
4
4
4
4
13
13
13
13
4
4
4
4
4
13
13
13
4
4
4
4
13
4
4
4
4
4
4
4
4
4
14
14
14
4
4
4
4
4
14
14
14
14
4
4
4
4
4
4
4
4
4
4
13
13
13
13
4
4
4
4
4
13
13
13
4
4
4
4
13
4
4
4
4
4
4
4
4
4
4
4
4
4
4
4
4
4
4
4
4
4
4
4
4
4
4
4
4
4
4
4
4
4
4
4
4
4
4
4
4
4
4
4
4
4
4
4
4
4
4
4
4
4
4
4
4
4
4
4
4
4
4
4
4
4
4
4
4
4
4
4
4
4
4
4
4
4
4
4
4
4
4
4
4
4
4
4
4
4
4
4
4
4
4
4
4
4
4
4
4
4
4
4
4
4
4
4
4
4
4
4
4
4
4
4
4
4
4
4
4
4
4
4
4
4
4
4
4
4
4
4
4
4
4
4
4
4
4
4
4
4
4
4
4
4
4
4
4
4
4
4
4
4
4
4
4
4
4
4
4
4
4
4
4
4
4
4
4
4
4
4
4
4
4
4
4
4
4
4
4
4
4
4
4
4
4
4
4
4
4
4
4
4
4
4
4
4
4
4
4
4
4
4
4
4
4
4
4
4
4
4
4
4
4
4
4
4
4
4
4
4
4
4
4
4
4
4
4
4
4
4
4
4
4
4
4
4
4
4
4
4
4
4
4
4
4
4
4
4
4
4
4
4
4
4
4
4
4
4
4
4
4
4
4
4
4
4
4
4
4
4
4
4
4
4
4
4
4
4
4
4
4
4
4
4
4
4
4
4
4
4
4
4
4
4
4
4
4
4
4
4
4
4
4
4
4
4
4
4
4
4
4
4
4
4
4
4
4
4
4
4
4
4
4
4
4
4
4
4
4
4
4
4
4
4
4
4
4
4
4
4
4
4
4
4
4
4
4
4
4
4
4
4
4
4
4
4
4
4
4
4
4
4
4
4
4
4
4
4
4
4
4
4
4
4
4
4
4
4
4
4
4
4
4
4
4
4
4
4
4
4
4
4
4
4
4
4
4
4
4
4
4
4
4
4
4
4
4
4
4
4
4
4
4
4
4
4
4
4
4
4
4
4
4
4
4
4
4
4
4
4
4
4
4
4
4
4
4
4
4
4
4
4
4
4
4
4
4
4
4
4
4
4
4
4
4
4
4
4
4
4
4
4
4
4
4
4
4
4
4
4
4
4
4
4
4
4
4
4
4
4
4
4
4
4
4
4
4
4
4
4
4
4
4
4
4
4
4
4
4
4
4
4
4
4
4
4
4
4
4
4
4
4
4
4
4
4
4
4
4
4
4
4
4
4
4
4
4
4
4
4
4
4
4
4
4
4
4
4
4
4
4
4
4
4
4
4
4
4
4
4
4
4
4
4
4
4
4
4
4
4
4
4
4
4
4
4
4
4
4
4
4
4
4
4
4
4
4
4
4
4
4
4
4
4
4
4
4
4
4
4
4
4
4
4
4
4
4
4
4
4
4
4
4
4
4
4
4
4
4
4
4
4
4
4
4
4
4
4
4
4
4
4
4
4
4
4
4
4
4
4
4
4
4
4
4
4
4
4
4
4
4
4
4
4
4
4
4
4
4
4
4
4
4
4
4
4
4
4
4
4
4
4
4
4
4
4
4
4
4
4
4
4
4
4
4
4
4
4
4
4
4
4
4
4
4
4
4
4
4
4
4
4
4
4
4
4
4
4
4
4
4
4
4
4
4
4
4
4
4
4
4
4
4
4
4
4
4
4
4
4
4
4
4
4
4
4
4
4
4
4
4
4
4
4
4
4
4
4
4
4
4
4
4
4
4
4
4
4
4
4
4
4
4
4
4
4
4
4
4
4
4
4
4
4
4
4
4
4
4
4
4
4
4
4
4
4
4
4
4
4
4
4
4
4
4
4
4
4
4
4
4
4
4
4
4
4
4
4
4
4
4
4
4
4
4
4
4
4
4
4
4
4
4
4
4
4
4
4
4
4
4
4
4
4
4
4
4
4
4
4
4
4
4
4
4
4
4
4
4
4
4
4
4
4
4
4
4
4
4
4
4
4
4
4
4
4
4
4
4
4
4
4
4
4
4
4
4
4
4
4
4
4
4
4
4
4
4
4
4
4
4
4
4
4
4
4
4
4
4
4
4
4
4
4
4
4
4
4
4
4
4
4
4
4
4
4
4
4
4
4
4
4
4
4
4
4
4
4
4
4
4
4
4
4
4
4
4
4
4
4
4
4
4
4
4
4
4
4
4
4
4
4
4
4
4
4
4
4
4
4
4
4
4
4
4
4
4
4
4
4
4
4
4
4
4
4
4
4
4
4
4
4
4
4
4
4
4
4
4
4
4
4
4
4
4
4
4
4
4
4
4
4
4
4
4
4
4
4
4
4
4
4
4
4
4
4
4
4
4
4
4
4
4
4
4
4
4
4
4
4
4
4
4
4
4
4
4
4
4
4
4
4
4
4
4
4
4
4
4
4
4
4
4
4
4
4
4
4
4
4
4
4
4
4
4
4
4
4
4
4
4
4
4
4
4
4
4
4
4
4
4
4
4
4
4
4
4
4
4
4
4
4
4
4
4
4
4
4
4
4
4
4
4
4
4
4
4
4
4
4
4
4
4
4
4
4
4
4
4
4
4
4
4
4
4
4
4
4
4
4
4
4
4
4
4
4
4
4
4
4
4
4
4
4
4
4
4
4
4
4
4
4
4
4
4
4
4
4
4
4
4
4
4
4
4
4
4
4
4
4
4
4
4
4
4
4
4
4
4
4
4
4
4
4
4
4
4
4
4
4
4
4
4
4
4
4
4
4
4
4
4
4
4
4
4
4
4
4
4
4
4
4
4
4
4
4
4
4
4
4
4
4
4
4
4
4
4
4
4
4
4
4
4
4
4
4
4
4
4
4
4
4
4
4
4
4
4
4
4
4
4
4
4
4
4
4
4
4
4
4
4
4
4
4
4
4
4
4
4
4
4
4
4
4
4
4
4
4
4
4
4
4
4
4
4
4
4
4
4
4
4
4
4
4
4
4
4
4
4
4
4
4
4
4
4
4
4
4
4
4
4
4
4
4
4
4
4
4
4
4
4
4
4
4
4
4
4
4
4
4
4
4
4
4
4
4
4
4
4
4
4
4
4
4
4
4
4
4
4
4
4
4
4
4
4
4
4
4
4
4
4
4
4
4
4
4
4
4
4
4
4
4
4
4
4
4
4
4
4
4
4
4
4
4
4
4
4
4
4
4
4
4
4
4
4
4
4
4
4
4
4
4
4
4
4
4
4
4
4
4
4
4
4
4
4
4
4
4
4
4
4
4
4
4
4
4
4
4
4
4
4
4
4
4
4
4
4
4
4
4
4
4
4
4
4
4
4
4
4
4
4
4
4
4
4
4
4
4
4
4
4
4
4
4
4
4
4
4
4
4
4
4
4
4
4
4
4
4
4
4
4
4
4
4
4
4
4
4
4
4
4
4
4
4
4
4
4
4
4
4
4
4
4
4
4
4
4
4
4
4
4
4
4
4
4
4
4
4
4
4
4
4
4
4
4
4
4
4
4
4
4
4
4
4
4
4
4
4
4
4
4
4
4
4
4
4
4
4
4
4
4
4
4
4
4
4
4
4
4
4
4
4
4
4
4
4
4
4
4
4
4
4
4
4
4
4
4
4
4
4
4
4
4
4
4
4
4
4
4
4
4
4
4
4
4
4
4
4
4
4
4
4
4
4
4
4
4
4
4
4
4
4
4
4
4
4
4
4
4
4
4
4
4
4
4
4
4
4
4
4
4
4
4
4
4
4
4
4
4
4
4
4
4
4
4
4
4
4
4
4
4
4
4
4
4
4
4
4
4
4
4
4
4
4
4
4
4
4
4
4
4
4
4
4
4
4
4
4
4
4
4
4
4
4
4
4
4
4
4
4
4
4
4
4
4
4
4
4
4
4
4
4
4
4
4
4
4
4
4
4
4
4
4
4
4
4
4
4
4
4
4
4
4
4
4
4
4
4
4
4
4
4
4
4
4
4
4
4
4
4
4
4
4
4
4
4
4
4
4
4
4
4
4
4
4
4
4
4
4
4
4
4
4
4
4
4
4
4
4
4
4
4
4
4
4
4
4
4
4
4
4
4
4
4
4
4
4
4
4
4
4
4
4
4
4
4
4
4
4
4
4
4
4
4
4
4
4
4
4
4
4
4
4
4
4
4
4
4
4
4
4
4
4
4
4
4
4
4
4
4
4
4
4
4
4
4
4
4
4
4
4
4
4
4
4
4
4
4
4
4
4
4
4
4
4
4
4
4
4
4
4
4
4
4
4
4
4
4
4
4
4
4
4
4
4
4
4
4
4
4
4
4
4
4
4
4
4
4
4
4
4
4
4
4
4
4
4
4
4
4
4
4
4
4
4
4
4
4
4
4
4
4
4
4
4
4
4
4
4
4
4
4
4
4
4
4
4
4
4
4
4
4
4
4
4
4
4
4
4
4
4
4
4
4
4
4
4
4
4
4
4
4
4
4
4
4
4
4
4
4
4
4
4
4
4
4
4
4
4
4
4
4
4
4
4
4
4
4
4
4
4
4
4
4
4
4
4
4
4
4
4
4
4
4
4
4
4
4
4
4
4
4
4
4
4
4
4
4
4
4
4
4
4
4
4
4
4
4
4
4
4
4
4
4
4
4
4
4
4
4
4
4
4
4
4
4
4
4
4
4
4
4
4
4
4
4
4
4
4
4
4
4
4
4
4
4
4
4
4
4
4
4
4
4
4
4
4
4
4
4
4
4
4
4
4
4
4
4
4
4
4
4
4
4
4
4
4
4
4
4
4
4
4
4
4
4
4
4
4
4
4
4
4
4
4
4
4
4
4
4
4
4
4
4
4
4
4
4
4
4
4
4
4
4
4
4
4
4
4
4
4
4
4
4
4
4
4
4
4
4
4
4
4
4
4
4
4
4
4
4
4
4
4
4
4
4
4
4
4
4
4
4
4
4
4
4
4
4
4
4
4
4
4
4
4
4
4
4
4
4
4
4
4
4
4
4
4
4
4
4
4
4
4
4
4
4
4
4
4
4
4
4
4

SCALARS v:x double 3
LOOKUP_TABLE default
-0.0032768124453082 0.0006153465621676 0.0000000000000000
10.0025840179995296 0.0001122969253053 0.0000000000000000
10.0030791519756672 10.0002476751983949 0.0000000000000000
-0.0027084699415662 10.0007233231765014 0.0000000000000000
2.2475779275693699 1.1471819046644502 0.0000000000000000
2.1891503987691299 1.2890143923460573 0.0000000000000000
2.0476674866095155 1.3481004581311824 0.0000000000000000
1.9061785941030038 1.2889686457971470 0.0000000000000000
1.8477583412314740 1.1470338236126594 0.0000000000000000
1.9061219054876244 1.0000420583968366 0.0000000000000000
2.0476899351867863 0.9414634146341463 0.0000000000000000
2.1892637630422485 1.0000420583968366 0.0000000000000000
2.4478231523368907 1.1482646482197680 0.0000000000000000
2.0475984659432918 1.5480985527529163 0.0000000000000000
1.6476410359857978 1.1481806417636193 0.0000000000000000
2.0476367973182379 0.7457378437747114 0.0000000000000000
2.2481073098630548 8.8531596395765604 0.0000000000000000
2.1896390538580421 8.9999579416031619 0.0000000000000000
2.0480567014105673 9.0585365853658519 0.0000000000000000
1.9065194150460196 8.9999579416031619 0.0000000000000000
1.8479550957385467 8.8585365853658526 0.0000000000000000
1.9066419722878269 8.7123139009221724 0.0000000000000000
2.0481776419911815 8.6527043264266297 0.0000000000000000
2.1896948192102270 8.7114947455027405 0.0000000000000000
2.4482849096779589 8.8523842197945566 0.0000000000000000
2.0480490860677087 9.2542712768304867 0.0000000000000000
1.6479140029715866 8.8529727502738798 0.0000000000000000
2.0480113291321254 8.4527132556362812 0.0000000000000000
1.3471365827221686 2.0495286269683861 0.0000000000000000
1.2883757522346762 2.1911680195207577 0.0000000000000000
1.1465252098811114 2.2500540589841784 0.0000000000000000
1.0000420583968366 2.1916478289187871 0.0000000000000000
0.9414634146341463 2.0502601212848321 0.0000000000000000
1.0000420583968366 1.9087249690084462 0.0000000000000000
1.1414634146341465 1.8498510558683010 0.0000000000000000
1.2881451179319958 1.9081663038907855 0.0000000000000000
1.5472180730377314 2.0490317853924087 0.0000000000000000
1.1468298848946858 2.4500545291818847 0.0000000000000000
0.7459975265400092 2.0504372595653204 0.0000000000000000
1.1467594940071699 1.6498580923486301 0.0000000000000000
9.0585365853658519 2.0499341764132493 0.0000000000000000
8.9999579416031619 2.1913233587464296 0.0000000000000000
8.8585365853658526 2.2497300212188938 0.0000000000000000
8.7118540704506842 2.1908245436090175 0.0000000000000000
8.6525905430014571 2.0492084193816784 0.0000000000000000
8.7111318420580890 1.9078488107188634 0.0000000000000000
8.8530490020441981 1.8495627412869133 0.0000000000000000
8.9999579416031619 1.9084175307462174 0.0000000000000000
9.2539353618186269 2.0500708291757408 0.0000000000000000
8.8532753494904224 2.4497269453023969 0.0000000000000000
8.4525053808295461 2.0487151596557136 0.0000000000000000
8.8526679115701583 1.6495624568185754 0.0000000000000000
3.7236464330903205 1.1472878523038732 0.0000000000000000
3.6652589677837142 1.2889906706735634 0.0000000000000000
3.5237343598556965 1.3479938133676339 0.0000000000000000
3.3821689110129807 1.2887881879163836 0.0000000000000000
3.3236094709894837 1.1468555246179337 0.0000000000000000
3.3819759704158789 1.0000420583968366 0.0000000000000000
3.5236245809767710 0.9414634146341463 0.0000000000000000
3.6652663283035549 1.0000420583968366 0.0000000000000000
3.9238855749063384 1.1481645983192190 0.0000000000000000
3.5236915418002264 1.5479831075394341 0.0000000000000000
3.1234752083908215 1.1478575068417169 0.0000000000000000
3.5236639993109478 0.7457022231459846 0.0000000000000000
3.7241293590521112 8.8531560253203825 0.0000000000000000
3.6656285247448128 8.9999579416031619 0.0000000000000000
3.5239801361056435 9.0585365853658519 0.0000000000000000
3.3823958010001274 8.9999579416031619 0.0000000000000000
3.3238331393147438 8.8585365853658526 0.0000000000000000
3.3825632809628776 8.7122196861836034 0.0000000000000000
3.5241689326850807 8.6527297822097626 0.0000000000000000
3.6656999946971576 8.7115034078285163 0.0000000000000000
3.9243003346952632 8.8523809290406401 0.0000000000000000
3.5240034383145242 9.2542918751800993 0.0000000000000000
3.1237511741608497 8.8530307066327261 0.0000000000000000
3.5240502118467445 8.4527625781014066 0.0000000000000000
1.3470649534160202 3.5250400486322233 0.0000000000000000
1.2883580567709991 3.6666444563164711 0.0000000000000000
1.1465247662694449 3.7253953068524774 0.0000000000000000
1.0000420583968366 3.6668430630083710 0.0000000000000000
0.9414634146341463 3.5253920646104397 0.0000000000000000
1.0000420583968366 3.3838667494415628 0.0000000000000000
1.1414634146341465 3.3250713118276956 0.0000000000000000
1.2880607878332251 3.3835642672504136 0.0000000000000000
1.5471408440402012 3.5248172523017880 0.0000000000000000
1.1468034765336483 3.9253920609761312 0.0000000000000000
0.7459669586058325 3.5255024621424469 0.0000000000000000
1.1466083386360935 3.1250789866074600 0.0000000000000000
9.0585365853658519 3.5250397920245766 0.0000000000000000
8.9999579416031619 3.6664848062456272 0.0000000000000000
8.8585365853658526 3.7250155582613935 0.0000000000000000
8.7119315149722603 3.6662179319283723 0.0000000000000000
8.6528834452870811 3.5246344487953691 0.0000000000000000
8.7115014495467165 3.3831678616553411 0.0000000000000000
8.8533735275900494 3.3247545373527214 0.0000000000000000
8.9999579416031619 3.3835275065438135 0.0000000000000000
9.2540286856033482 3.5251226604349362 0.0000000000000000
8.8533583323224168 3.9250163922721679 0.0000000000000000
8.4527647061830784 3.5244505029457365 0.0000000000000000
8.8531046474783945 3.1247550910232351 0.0000000000000000
5.1998979363453310 1.1469101499708059 0.0000000000000000
5.1413673195918150 1.2887098423101411 0.0000000000000000
4.9998042727784551 1.3478247550198457 0.0000000000000000
4.8582546169607586 1.2888400322087212 0.0000000000000000
4.7997273497220467 1.1469040209155426 0.0000000000000000
4.8581256019936427 1.0000420583968366 0.0000000000000000
4.9997816949961562 0.9414634146341463 0.0000000000000000
5.1414543588016324 1.0000420583968366 0.0000000000000000
5.4000357678301496 1.1478578580397820 0.0000000000000000
4.9998215589894626 1.5478501638216855 0.0000000000000000
4.5995779001036912 1.1478990062002854 0.0000000000000000
4.9997781639578074 0.7456863977470137 0.0000000000000000
5.2002975751923772 8.8533804767185806 0.0000000000000000
5.1417641746649165 8.9999579416031619 0.0000000000000000
5.0000637643450965 9.0585365853658519 0.0000000000000000
4.8585028427781101 8.9999579416031619 0.0000000000000000
4.7999023191020340 8.8585365853658526 0.0000000000000000
4.8586229905000495 8.7122129891619657 0.0000000000000000
5.0002271287043047 8.6528060278139112 0.0000000000000000
5.1418033780359833 8.7116379575368317 0.0000000000000000
5.4004074254429035 8.8526993168752810 0.0000000000000000
5.0000468253165495 9.2542064573017679 0.0000000000000000
4.5998127835661622 8.8529678436909585 0.0000000000000000
5.0001665697348949 8.4528422981554545 0.0000000000000000
1.3470807433059699 5.0006204889708039 0.0000000000000000
1.2884131200727227 5.1421658940796888 0.0000000000000000
1.1465629777517117 5.2007803288229670 0.0000000000000000
1.0000420583968366 5.1420989365122844 0.0000000000000000
0.9414634146341463 5.0005981320179220 0.0000000000000000
1.0000420583968366 4.8590956860832071 0.0000000000000000
1.1414634146341465 4.8004234389499656 0.0000000000000000
1.2880280055559172 4.8590790572964631 0.0000000000000000
1.5471564001133429 5.0005997308484016 0.0000000000000000
1.1468354426667866 5.4007769658151750 0.0000000000000000
0.7459589297560755 5.0006101251634849 0.0000000000000000
1.1466082438317247 4.6004288020771957 0.0000000000000000
9.0585365853658519 5.0002044296041275 0.0000000000000000
8.9999579416031619 5.1416826205418067 0.0000000000000000
8.8585365853658526 5.2003361130836732 0.0000000000000000
8.7119721557990388 5.1416721749549446 0.0000000000000000
8.6529109711072696 5.0001472057810634 0.0000000000000000
8.7115902033767192 4.8586207193197035 0.0000000000000000
8.8534073183983253 4.8000404480900229 0.0000000000000000
8.9999579416031619 4.8587294964686008 0.0000000000000000
9.2540200874610470 5.0002065966431894 0.0000000000000000
8.8533931666514611 5.4003295000468929 0.0000000000000000
8.4528210257368617 5.0001689546544457 0.0000000000000000
8.8531737968712800 4.6000404574641358 0.0000000000000000
6.6759166846839504 1.1468571927686155 0.0000000000000000
6.6174108524363486 1.2887979021695137 0.0000000000000000
6.4758835715022274 1.3480093272978280 0.0000000000000000
6.3343382251399545 1.2890216044125673 0.0000000000000000
6.2759358711970137 1.1471571961384646 0.0000000000000000
6.3342860316642122 1.0000420583968366 0.0000000000000000
6.4759075946388700 0.9414634146341463 0.0000000000000000
6.6175532694332988 1.0000420583968366 0.0000000000000000
6.8760640426602215 1.1478624873419010 0.0000000000000000
6.4759163429161042 1.5479808523485521 0.0000000000000000
6.0756885907245719 1.1482324764352925 0.0000000000000000
6.4758549156513707 0.7456888336368210 0.0000000000000000
6.6764128156249551 8.8534376974261875 0.0000000000000000
6.6179018216984780 8.9999579416031619 0.0000000000000000
6.4762028385449062 9.0585365853658519 0.0000000000000000
6.3345931768473003 8.9999579416031619 0.0000000000000000
6.2759872313469858 8.8585365853658526 0.0000000000000000
6.3347136653055713 8.7122064401444419 0.0000000000000000
6.4763275525908277 8.6529408910698464 0.0000000000000000
6.6179010856800371 8.7116582509015217 0.0000000000000000
6.8765091491676298 8.8526300637536703 0.0000000000000000
6.4761957358309523 9.2543024707681294 0.0000000000000000
6.0758789663550932 8.8530230228132698 0.0000000000000000
6.4762696706871212 8.4529315915596364 0.0000000000000000
1.3471489475183960 6.4762001346614619 0.0000000000000000
1.2885155823910877 6.6176708562671971 0.0000000000000000
1.1466038513004646 6.6761378437554573 0.0000000000000000
1.0000420583968366 6.6173341345144854 0.0000000000000000
0.9414634146341463 6.4758094977609399 0.0000000000000000
1.0000420583968366 6.3343514083197787 0.0000000000000000
1.1414634146341465 6.2758000318787994 0.0000000000000000
1.2880249551902518 6.3346033998419848 0.0000000000000000
1.5472102108306880 6.4763956754302239 0.0000000000000000
1.1468907485125990 6.8761343925152785 0.0000000000000000
0.7459748035407380 6.4757262584206439 0.0000000000000000
1.1466339592551140 6.0758001931411831 0.0000000000000000
9.0585365853658519 6.4753686715822871 0.0000000000000000
8.9999579416031619 6.6168711231561517 0.0000000000000000
8.8585365853658526 6.6756161058750854 0.0000000000000000
8.7119203800234910 6.6171104258431415 0.0000000000000000
8.6529151315477488 6.4756480536883538 0.0000000000000000
8.7116276335677547 6.3340767504073634 0.0000000000000000
8.8534746094012515 6.2753624773054710 0.0000000000000000
8.9999579416031619 6.3339211600596297 0.0000000000000000
9.2540357924586214 6.4752919300953655 0.0000000000000000
8.8533815256426536 6.8756069206703616 0.0000000000000000
8.4528327509636849 6.4758606596097570 0.0000000000000000
8.8531851171803631 6.0753638285089195 0.0000000000000000
8.1516935281565477 1.1469386995843740 0.0000000000000000
8.0932933961469438 1.2888942168841058 0.0000000000000000
7.9518427290476863 1.3479889110567707 0.0000000000000000
7.8103396150605855 1.2890364170231250 0.0000000000000000
7.7519336465078448 1.1471738603452719 0.0000000000000000
7.8102501887304028 1.0000420583968366 0.0000000000000000
7.9517784801117894 0.9414634146341463 0.0000000000000000
8.0933324381312275 1.0000420583968366 0.0000000000000000
8.3518252137065669 1.1479784573687142 0.0000000000000000
7.9519218648542465 1.5480085998739694 0.0000000000000000
7.5516934487042127 1.1481994540724978 0.0000000000000000
7.9518278456144262 0.7457695483703191 0.0000000000000000
8.1523179200294908 8.8532442356077095 0.0000000000000000
8.0938132178138442 8.9999579416031619 0.0000000000000000
7.9521777733204964 9.0585365853658519 0.0000000000000000
7.8106404712310997 8.9999579416031619 0.0000000000000000
7.7520910243443026 8.8585365853658526 0.0000000000000000
7.8108333754160499 8.7122353352932542 0.0000000000000000
7.9524197299958699 8.6527921695867107 0.0000000000000000
8.0939154226786432 8.7114702746797636 0.0000000000000000
8.3524164373093726 8.8522487609113973 0.0000000000000000
7.9522453544393317 9.2542608193458928 0.0000000000000000
7.5519986017422696 8.8528549429178618 0.0000000000000000
7.9523712776249411 8.4527892002951308 0.0000000000000000
1.3473806936083963 7.9516828358331386 0.0000000000000000
1.2888218314026525 8.0930639653023224 0.0000000000000000
1.1469137075676488 8.1513856291862830 0.0000000000000000
1.0000420583968366 8.0925065681296608 0.0000000000000000
0.9414634146341463 7.9509682849231167 0.0000000000000000
1.0000420583968366 7.8095703408681754 0.0000000000000000
1.1414634146341465 7.7511366149888978 0.0000000000000000
1.2881593051414573 7.8100527306723002 0.0000000000000000
1.5474669888072135 7.9521763683654845 0.0000000000000000
1.1472832320556143 8.3513847802383019 0.0000000000000000
0.7460597667449660 7.9508116909350921 0.0000000000000000
1.1467190634145195 7.5511400264392474 0.0000000000000000
9.0585365853658519 7.9504751630022508 0.0000000000000000
8.9999579416031619 8.0919913649576500 0.0000000000000000
8.8585365853658526 8.1508129611283504 0.0000000000000000
8.7118688462838616 8.0924451764080754 0.0000000000000000
8.6528661271164093 7.9510723013100293 0.0000000000000000
8.7116234943076520 7.8094561646888554 0.0000000000000000
8.8534797703692725 7.7506421246894392 0.0000000000000000
8.9999579416031619 7.8090705322203515 0.0000000000000000
9.2540098460249833 7.9503417151046580 0.0000000000000000
8.8532602746456721 8.3508087280412227 0.0000000000000000
8.4527775197138517 7.9515182230012051 0.0000000000000000
8.8531821798606707 7.5506383206647083 0.0000000000000000
0.4966597989652787 0.0005657851284597 0.0000000000000000
0.9964621479461926 0.0002314285705836 0.0000000000000000
1.4963200510127468 -0.0012777380745661 0.0000000000000000
1.9971382452130682 -0.0042283343939150 0.0000000000000000
2.4980336544413317 -0.0016642154718822 0.0000000000000000
2.9979072310457613 -0.0018806121742529 0.0000000000000000
3.4985702727633385 -0.0042279611297306 0.0000000000000000
3.9992213375788346 -0.0015895377893528 0.0000000000000000
4.4990592279875017 -0.0020528807533166 0.0000000000000000
4.9997577818945231 -0.0040445846563478 0.0000000000000000
5.5004501178983798 -0.0020498852071107 0.0000000000000000
6.0002793482080925 -0.0015848305327103 0.0000000000000000
6.5009229060291069 -0.0042481913799639 0.0000000000000000
7.0015475127493065 -0.0018695418878777 0.0000000000000000
7.5013952991824251 -0.0017608404799039 0.0000000000000000
8.0021887271021779 -0.0042135167322078 0.0000000000000000
8.5029837575685825 -0.0015294970261561 0.0000000000000000
9.0028552792801655 -0.0000953874329585 0.0000000000000000
9.5026478237898893 0.0001552032438035 0.0000000000000000
10.0024319817233405 0.5001072033091215 0.0000000000000000
10.0024150361379984 1.0000948738464377 0.0000000000000000
10.0028540139339981 1.5000855153612314 0.0000000000000000
10.0035554306539236 2.0001005139705681 0.0000000000000000
10.0035145282552058 2.5001273242759847 0.0000000000000000
10.0034630142119791 3.0001344574157702 0.0000000000000000
10.0037573202510455 3.5001503507697636 0.0000000000000000
10.0035754999812312 4.0001675326358104 0.0000000000000000
10.0035089355108759 4.5001717092078524 0.0000000000000000
10.0037707923695116 5.0001846398421845 0.0000000000000000
10.0035830025008554 5.5001987113152575 0.0000000000000000
10.0035463957310000 6.0002006228700315 0.0000000000000000
10.0037875672883558 6.5002130697528031 0.0000000000000000
10.0035650895427022 7.0002279420862861 0.0000000000000000
10.0035513545132435 7.5002315773750592 0.0000000000000000
10.0037267573014841 8.0002504985086560 0.0000000000000000
10.0032802945249433 8.5002665385655760 0.0000000000000000
10.0029079041407787 9.0002617955259616 0.0000000000000000
10.0029190333069664 9.5002520461231423 0.0000000000000000
9.5031319877236253 10.0002489095343954 0.0000000000000000
9.0033079368303142 10.0004919017591654 0.0000000000000000
8.5034345207545332 10.0017801352290601 0.0000000000000000
8.0027691588931642 10.0042059822816487 0.0000000000000000
7.5018902394310674 10.0028872111362137 0.0000000000000000
7.0018489684283374 10.0024630050726184 0.0000000000000000
6.5013606746029415 10.0042481129432996 0.0000000000000000
6.0006681061311635 10.0028282622558589 0.0000000000000000
5.5006808823318050 10.0027015289747059 0.0000000000000000
5.0001805799108086 10.0041660773512149 0.0000000000000000
4.4994202869334199 10.0027760866114637 0.0000000000000000
3.9994993108885151 10.0022324860536678 0.0000000000000000
3.4990118381726272 10.0043269917322490 0.0000000000000000
2.9983807365762019 10.0027062935042395 0.0000000000000000
2.4984353029269895 10.0023332345581277 0.0000000000000000
1.9978269421923185 10.0043483904526891 0.0000000000000000
1.4970527772139979 10.0024631243994975 0.0000000000000000
0.9970625707693942 10.0010622659038368 0.0000000000000000
0.4972323796901368 10.0007109606723237 0.0000000000000000
-0.0025447903635176 9.5007283792727542 0.0000000000000000
-0.0025264525248089 9.0007393215997880 0.0000000000000000
-0.0029189863936361 8.5007475145516089 0.0000000000000000
-0.0035708415515793 8.0007327017892198 0.0000000000000000
-0.0035124921551175 7.5007075070604232 0.0000000000000000
-0.0034577533756761 7.0007018333830793 0.0000000000000000
-0.0037497815636135 6.5006872801108111 0.0000000000000000
-0.0035645339964727 6.0006720333420818 0.0000000000000000
-0.0035143661046295 5.5006692301805913 0.0000000000000000
-0.0037576072384838 5.0006581606772569 0.0000000000000000
-0.0035673431069237 4.5006450679270058 0.0000000000000000
-0.0035372579156171 4.0006441968311810 0.0000000000000000
-0.0037818893851888 3.5006336406651495 0.0000000000000000
-0.0035573975520082 3.0006204641217482 0.0000000000000000
-0.0035457173076487 2.5006195919959606 0.0000000000000000
-0.0037176988719268 2.0006047578197386 0.0000000000000000
-0.0032843088797888 1.5005907114138990 0.0000000000000000
-0.0029614738644975 1.0005982756541298 0.0000000000000000
-0.0030419119099283 0.5006098950946452 0.0000000000000000
1.2864218823096218 0.4034624856063360 0.0000000000000000
9.5986275959385381 1.2895022277593131 0.0000000000000000
0.4008761618625308 1.2899296803664999 0.0000000000000000
1.2869377514836400 9.5978178572164712 0.0000000000000000
8.7134411592341863 9.5971580257947853 0.0000000000000000
0.4012826329541878 8.7113516087477976 0.0000000000000000
9.5991094209708390 8.7108920014185731 0.0000000000000000
8.7129662316739509 0.4031654877413688 0.0000000000000000
5.7078218298779335 0.4026236240638333 0.0000000000000000
9.5992367356304396 5.7077393821643216 0.0000000000000000
5.7081368376868609 9.5982658476390625 0.0000000000000000
0.4008012412056220 5.7081816102132921 0.0000000000000000
0.4007740715465454 4.2930890246531552 0.0000000000000000
4.2920321622631779 9.5981416930422068 0.0000000000000000
4.2917008394947471 0.4026275569008390 0.0000000000000000
9.5992079569647721 4.2926563395531998 0.0000000000000000
7.2082708623611840 0.4033890241833237 0.0000000000000000
9.5985032079449617 7.2071490243118221 0.0000000000000000
9.5984208700502460 2.7932451400366833 0.0000000000000000
2.7911840056753237 0.4034087958138431 0.0000000000000000
7.2086823972715965 9.5974383220974389 0.0000000000000000
0.4015819931595401 7.2076036559685468 0.0000000000000000
2.7916071601955870 9.5973913784481670 0.0000000000000000
0.4015049202844517 2.7936729508768905 0.0000000000000000
1.6680385953655272 0.3841201914314094 0.0000000000000000
1.4859906987463598 0.7414385878719794 0.0000000000000000
1.1385487614912995 0.7720349557740250 0.0000000000000000
9.6167483938632028 1.6709834827252847 0.0000000000000000
9.2600791603107293 1.4886732843226935 0.0000000000000000
9.2302053191142424 1.1413610738949667 0.0000000000000000
1.6685585191059724 9.6167937829362380 0.0000000000000000
1.4863722981783909 9.2597471449574087 0.0000000000000000
1.1389598278493323 9.2292462889486568 0.0000000000000000
0.3828856484969557 1.6714151397758386 0.0000000000000000
0.7394279495918048 1.4890398999233474 0.0000000000000000
8.3318352091723273 9.6162224656259863 0.0000000000000000
8.5139325351408672 9.2590719366470715 0.0000000000000000
8.8613777347873164 9.2286439584327713 0.0000000000000000
0.3832066991568951 8.3298683418393633 0.0000000000000000
0.7398504004363489 8.5122184886479175 0.0000000000000000
8.3313637089874746 0.3839452217038019 0.0000000000000000
8.5134470229778962 0.7411844293197879 0.0000000000000000
9.6171184710872257 8.3294070889014176 0.0000000000000000
9.2605772662801353 8.5117415267487502 0.0000000000000000
3.1657552667588491 0.3835041041706136 0.0000000000000000
2.9846569220030292 0.7336255784563350 0.0000000000000000
2.6398765785039524 0.7702646356528967 0.0000000000000000
2.4400216815022291 0.4831459575424240 0.0000000000000000
9.6174617265986146 3.1675894564413190 0.0000000000000000
9.2678526174968354 2.9864962360437528 0.0000000000000000
9.2203684915449688 2.6573654917599030 0.0000000000000000
9.5172499422685579 2.4441198969193416 0.0000000000000000
0.3824363902608007 3.1680217335780889 0.0000000000000000
0.7320043198668916 2.9868673080244186 0.0000000000000000
0.7684099196608827 2.6422737443424982 0.0000000000000000
0.5008089516537046 2.4241661244762001 0.0000000000000000
3.1661663731281449 9.6171631481336792 0.0000000000000000
2.9849975726561628 9.2671965987976286 0.0000000000000000
2.6398175684447103 9.2363500498487046 0.0000000000000000
2.4218983456074783 9.4983816019366270 0.0000000000000000
6.8340943648522723 9.6168783288001514 0.0000000000000000
7.0152778089832317 9.2668677675273994 0.0000000000000000
7.3604265419596180 9.2366061488734417 0.0000000000000000
7.5783967223054622 9.4989899481233238 0.0000000000000000
0.3825437594815632 6.8332560811809184 0.0000000000000000
0.7321510914954379 7.0143636652513210 0.0000000000000000
0.7747354251245483 7.3500798481454312 0.0000000000000000
0.4821686700680703 7.5575179833591717 0.0000000000000000
6.8337161805460633 0.3835131471858007 0.0000000000000000
7.0148441114072897 0.7336242095611195 0.0000000000000000
7.3600431279773337 0.7643371051275069 0.0000000000000000
7.5779743791634040 0.5021400236140965 0.0000000000000000
9.6175700247382636 6.8328027818174517 0.0000000000000000
9.2680017632192939 7.0139260429151964 0.0000000000000000
9.2646648514052572 7.3449518740333399 0.0000000000000000
9.5225219563045211 7.5565050426038249 0.0000000000000000
9.5637978100927299 4.6400356043986788 0.0000000000000000
9.2673561243788640 4.4956516861670179 0.0000000000000000
9.2362993819282320 4.1385530182351697 0.0000000000000000
9.4985259226524672 3.9222463761264921 0.0000000000000000
4.7051509290927855 0.3837480627994411 0.0000000000000000
4.4952576597632765 0.7295263846786956 0.0000000000000000
4.1370306893509277 0.7655784713269589 0.0000000000000000
3.9210300975300436 0.5032753021096981 0.0000000000000000
0.3846345474669267 4.6987682604419154 0.0000000000000000
0.7337772411749375 4.4946969066956424 0.0000000000000000
0.7645611433845861 4.1381922444969392 0.0000000000000000
0.4982215159648401 3.9257565605109983 0.0000000000000000
4.6396317492283998 9.5634455918656567 0.0000000000000000
4.4951387602724013 9.2666883605891730 0.0000000000000000
4.1378451324585379 9.2351373620433570 0.0000000000000000
3.9245353145012900 9.5006670912436544 0.0000000000000000
5.2950428391407707 9.6073082690466141 0.0000000000000000
5.5026056642230863 9.2802187652193773 0.0000000000000000
5.8625106317722349 9.2367348018105488 0.0000000000000000
6.0756452310147084 9.5014041346853571 0.0000000000000000
0.3829841125638604 5.2949539491241806 0.0000000000000000
0.7281229597178753 5.5047640675480984 0.0000000000000000
0.7637144947764472 5.8627718725201001 0.0000000000000000
0.4981111505492318 6.0754873617570730 0.0000000000000000
5.3019305072855856 0.3854953646073666 0.0000000000000000
5.5069582462300950 0.7367698912797619 0.0000000000000000
5.8623469774089694 0.7659592125464303 0.0000000000000000
6.0781902349527019 0.5029773564020859 0.0000000000000000
9.6077371064978934 5.2949166536745587 0.0000000000000000
9.2810501457869048 5.5023696346004156 0.0000000000000000
9.2382144400911805 5.8615252126661836 0.0000000000000000
9.5074961294802396 6.0693176900197114 0.0000000000000000
9.2307128711642719 8.8590544439414014 0.0000000000000000
8.8608902961101652 0.7717173144529988 0.0000000000000000
0.7696772689507322 8.8595444849438110 0.0000000000000000
0.7692710439905120 1.1417205813200850 0.0000000000000000
9.1283484938616812 0.4357637736301601 0.0000000000000000
9.5666190128170960 0.8742052784607897 0.0000000000000000
9.5671147557677010 9.1261935404749330 0.0000000000000000
9.1288270635566420 9.5646451537202779 0.0000000000000000
0.4328144436176084 0.8746273086541773 0.0000000000000000
0.8710358861668334 0.4361029179411139 0.0000000000000000
0.8715446125962387 9.5651754036392838 0.0000000000000000
0.4332588893696687 9.1266533511379624 0.0000000000000000
9.0506439211415461 2.8408546412856257 0.0000000000000000
2.8328002275632467 0.9754967243063192 0.0000000000000000
0.9850531275891686 2.8187127978278084 0.0000000000000000
2.8272460874633767 9.0209435153261843 0.0000000000000000
0.9940686515504015 7.1551578339665083 0.0000000000000000
7.1825418846628049 9.0345832321296520 0.0000000000000000
7.1922771225810154 0.9843174259224626 0.0000000000000000
9.0277640116118221 7.2114157685597879 0.0000000000000000
1.3019928775066194 1.0157052619500127 0.0000000000000000
8.9980160194268866 1.3227945381540405 0.0000000000000000
1.0027560136243172 1.3126131135365418 0.0000000000000000
1.0344195222750630 8.6818655279180774 0.0000000000000000
1.3083897874876333 9.0344787757587959 0.0000000000000000
8.6822596394558609 8.9553962997293262 0.0000000000000000
8.6863846789045223 1.0058819978319467 0.0000000000000000
9.0055992624512378 8.6874542032793016 0.0000000000000000
9.0333844018282647 4.3248515718243681 0.0000000000000000
4.3186831695947721 0.9654077040478881 0.0000000000000000
4.3187138445756998 9.0238427982953908 0.0000000000000000
0.9801323861402353 4.3220630281345507 0.0000000000000000
5.6805015196469091 9.0287416691528346 0.0000000000000000
0.9607962502519403 5.6794722227946517 0.0000000000000000
5.6783086273940233 0.9706409844421460 0.0000000000000000
9.0272587704000156 5.6797675964173244 0.0000000000000000
6.1346599210652935 0.7895244997433867 0.0000000000000000
9.2102262480215789 6.1440671068798807 0.0000000000000000
0.7871443811430554 6.1373417206401326 0.0000000000000000
6.1374604585006258 9.2127192852230539 0.0000000000000000
3.8644974087303074 9.2129685541782678 0.0000000000000000
0.7874335759244186 3.8638307665606284 0.0000000000000000
9.2103634904870457 3.8563503037404137 0.0000000000000000
3.8551383108093549 0.7912632758178904 0.0000000000000000
7.6390649120408218 0.7850362541251401 0.0000000000000000
9.2197886490702725 7.6040617869062528 0.0000000000000000
7.6394479664753252 9.2161186927762504 0.0000000000000000
0.7782637491255601 7.6100443412098562 0.0000000000000000
2.3607816246747131 9.2154353091056294 0.0000000000000000
0.7844638256632175 2.3677868146360388 0.0000000000000000
2.3858025727160519 0.7767415118466748 0.0000000000000000
9.2130857371855992 2.3850772574807446 0.0000000000000000
0.4435155340434422 9.5546437463448957 0.0000000000000000
9.5636547749443821 9.5609771590271482 0.0000000000000000
0.4362157685914762 0.4398461855900930 0.0000000000000000
9.5631696933525383 0.4394229234163421 0.0000000000000000
1.7935339706031936 0.6860021481527149 0.0000000000000000
9.3143087829547966 1.7961669614747959 0.0000000000000000
0.6853614866769504 1.7965484331710382 0.0000000000000000
0.6845282846282619 8.2051835606222312 0.0000000000000000
1.7939950701729559 9.3146912602611440 0.0000000000000000
8.2063560709235386 9.3142192262618835 0.0000000000000000
9.3146426241917215 8.2042415371415611 0.0000000000000000
8.2058988162545567 0.6858817011803907 0.0000000000000000
1.9877164049063245 0.4468362090830720 0.0000000000000000
9.5526279439002497 1.9903596911019712 0.0000000000000000
1.9698866230151246 9.5207691881744942 0.0000000000000000
0.4797179344961273 1.9724421034009199 0.0000000000000000
8.0304871318804985 9.5205995338152878 0.0000000000000000
0.4471701429757025 8.0105742346350262 0.0000000000000000
9.5527983528470930 8.0100339642182590 0.0000000000000000
8.0300328883868186 0.4794002804778146 0.0000000000000000
1.0569618029438337 8.9511025432513058 0.0000000000000000
8.9631428612352266 8.9493525268014480 0.0000000000000000
1.0493659429371600 1.0521520225358505 0.0000000000000000
8.9534287473936693 1.0534336249475107 0.0000000000000000
9.3164113911902646 3.2849225186863089 0.0000000000000000
9.1116153596832525 3.1967585537754855 0.0000000000000000
3.2827689135271489 0.6828949477429865 0.0000000000000000
3.1947850225785333 0.8885301766529378 0.0000000000000000
0.6834588943549733 3.2853087984273910 0.0000000000000000
0.8881192868098347 3.1971095412425776 0.0000000000000000
3.2836383801683282 9.3164984042111936 0.0000000000000000
3.1954201488727847 9.1116318996454382 0.0000000000000000
0.6835913708831632 6.7159301974045107 0.0000000000000000
0.8883813068212991 6.8040999448478088 0.0000000000000000
6.7166261212496892 9.3161783017805533 0.0000000000000000
6.8048500833479144 9.1110907051913266 0.0000000000000000
9.3165448281251599 6.7154917766280775 0.0000000000000000
9.1118823455834477 6.8036537264654857 0.0000000000000000
6.7167394415876407 0.6829074968236263 0.0000000000000000
6.8047354782181912 0.8885388261522584 0.0000000000000000
3.4693710512195985 0.4675536808837673 0.0000000000000000
9.5319474488265215 3.4709761531548620 0.0000000000000000
0.4669523540555573 3.4709648045716239 0.0000000000000000
3.4693891172656794 9.5334818162689121 0.0000000000000000
0.4669947173362503 6.5303019842321364 0.0000000000000000
6.5308719391968406 9.5333879150415530 0.0000000000000000
6.5222407936199911 0.4557865635654235 0.0000000000000000
9.5464901740639281 6.5211499029648543 0.0000000000000000
1.6896135804436612 0.8759322273560937 0.0000000000000000
9.1248550793955143 1.6920838469800978 0.0000000000000000
1.6899493436148365 9.1251395889784259 0.0000000000000000
8.3103200374615067 9.1244315474137387 0.0000000000000000
0.8746224260965657 1.6924184588165432 0.0000000000000000
0.8739657174390297 8.3092933753597666 0.0000000000000000
9.1253852379867535 8.3083300965266513 0.0000000000000000
8.3098357440061701 0.8757554469864346 0.0000000000000000
8.9616232277105521 5.8924056441718928 0.0000000000000000
8.8017078710997456 5.7652739641917607 0.0000000000000000
5.8926216302723882 1.0409303779373311 0.0000000000000000
5.7670773585634407 1.2043510490937590 0.0000000000000000
1.0288809865638722 5.8919397874244277 0.0000000000000000
1.2027773064012022 5.7675274615886698 0.0000000000000000
5.8923669866798507 8.9990617983751910 0.0000000000000000
5.7700386077342642 8.8082928001554226 0.0000000000000000
1.0158616430869183 4.1091677935175586 0.0000000000000000
1.1746023646610535 4.2276469237591385 0.0000000000000000
4.1069128332325624 8.9589964549035503 0.0000000000000000
4.2325349416587219 8.8089200987842791 0.0000000000000000
4.1073302448928777 1.0516008431530366 0.0000000000000000
4.2423795412481500 1.1761229697380664 0.0000000000000000
8.9656286394055993 4.1092331494169789 0.0000000000000000
8.8047827040548405 4.2412823913013593 0.0000000000000000
8.6979269714138727 7.6711206553666438 0.0000000000000000
8.6760648985578861 7.4807300752785331 0.0000000000000000
8.5257607118515697 7.6208428839183480 0.0000000000000000
8.4861384873569001 7.4234788670242580 0.0000000000000000
8.3427196240460244 7.5664405263600933 0.0000000000000000
8.2913092648946396 7.3729146378327854 0.0000000000000000
8.1507452302871801 7.5153690071549786 0.0000000000000000
8.0976650775786698 7.3226873047154237 0.0000000000000000
7.9572706520302878 7.4650226214242972 0.0000000000000000
7.9040758576081664 7.2722929185834726 0.0000000000000000
7.7635731249255713 7.4149244611779670 0.0000000000000000
7.7103968216831618 7.2219372731226485 0.0000000000000000
7.5698876447704286 7.3644680856694258 0.0000000000000000
7.5167041609786223 7.1714282066189421 0.0000000000000000
7.3761898810326416 7.3138119521351577 0.0000000000000000
7.3229896492436177 7.1208410523941934 0.0000000000000000
7.1824642745048362 7.2632684452031917 0.0000000000000000
7.1292607237743324 7.0703569322668960 0.0000000000000000
6.9887380963914918 7.2129011812343817 0.0000000000000000
6.9355367268087376 7.0200147287750632 0.0000000000000000
7.0760570240351823 6.8774515133753686 0.0000000000000000
6.8823344110637930 6.8271251329560663 0.0000000000000000
6.7418242339400640 6.9697511555798934 0.0000000000000000
6.6886239769762312 6.7768533361077363 0.0000000000000000
6.8291305922282737 6.6342301607293361 0.0000000000000000
6.6354227446187730 6.5839467700858005 0.0000000000000000
6.4949239157037155 6.7265652046981605 0.0000000000000000
6.4417229651256580 6.5336358138115553 0.0000000000000000
6.5822200166264659 6.3910330680846927 0.0000000000000000
6.3885202869147690 6.3407010646522171 0.0000000000000000
6.2480248745890821 6.4832544784844490 0.0000000000000000
6.1948198117257025 6.2903010262749302 0.0000000000000000
6.3353173371226275 6.1477622878940936 0.0000000000000000
6.1416142229630477 6.0973488574659704 0.0000000000000000
6.2821134605131492 5.9548207724041777 0.0000000000000000
6.0884074588539461 5.9043983501812676 0.0000000000000000
5.9479026544557225 6.0468819431115222 0.0000000000000000
5.8946933597850251 5.8539336525290544 0.0000000000000000
5.7541823451949314 5.9964025545978519 0.0000000000000000
5.7009718821303306 5.8034652792185186 0.0000000000000000
5.8414833778944510 5.6609902562713978 0.0000000000000000
5.6477613235904727 5.6105308231794071 0.0000000000000000
5.5072500775601618 5.7530307151037290 0.0000000000000000
5.4540410222314035 5.5601022000489619 0.0000000000000000
5.7882731624508512 5.4680502623437555 0.0000000000000000
5.3135344525325969 5.7026386612242090 0.0000000000000000
5.2603281646301374 5.5097096013624673 0.0000000000000000
5.1198269109425008 5.6522718942028156 0.0000000000000000
5.0666222741320972 5.4593373508979468 0.0000000000000000
4.9261249694173257 5.6019037486643901 0.0000000000000000
4.8729199437547148 5.4089633436037037 0.0000000000000000
5.0134173510036453 5.2664006424229806 0.0000000000000000
4.8197147071780089 5.2160237192275041 0.0000000000000000
4.9602129956006893 5.0734620716706411 0.0000000000000000
4.7665096712397759 5.0230858148551389 0.0000000000000000
4.9070081914630492 4.8805239615587848 0.0000000000000000
4.7133038522795676 4.8301504135004052 0.0000000000000000
4.6792151578792041 5.3585693681680766 0.0000000000000000
4.8538038464680993 4.6875872447228204 0.0000000000000000
4.6600981798588297 4.6372195053056275 0.0000000000000000
4.8005989446559862 4.4946528257930609 0.0000000000000000
4.6068916435563034 4.4442928895434912 0.0000000000000000
4.4663844937465909 4.5868395959314112 0.0000000000000000
4.4131754893691895 4.3939178404457726 0.0000000000000000
4.7473938670340523 4.3017229443472385 0.0000000000000000
4.9410964940473781 4.3520817668942779 0.0000000000000000
4.2726624019597690 4.5364348531104506 0.0000000000000000
4.2194521004324725 4.3435124070399969 0.0000000000000000
4.9793294197725260 5.7948424846763356 0.0000000000000000
4.8878923032654678 4.1591442950702255 0.0000000000000000
5.0815932425452734 4.2095243537527356 0.0000000000000000
4.0789363742111044 4.4860076340906074 0.0000000000000000
4.0257261687994337 4.2930801770009923 0.0000000000000000
5.0283877645678681 4.0165783938586443 0.0000000000000000
5.2220903702590178 4.0669965646471073 0.0000000000000000
5.1688829903619729 3.8740420135013536 0.0000000000000000
5.3625901356704180 3.9245037220626697 0.0000000000000000
3.8852132280106453 4.4355729521811673 0.0000000000000000
3.8320047672083239 4.2426384367542642 0.0000000000000000
5.3093800673209941 3.7315441451158118 0.0000000000000000
5.5030937371575188 3.7820408742035436 0.0000000000000000
5.1156764773288401 3.6810865659490486 0.0000000000000000
5.4498811194508612 3.5890825044376564 0.0000000000000000
5.6436016427118387 3.6395910027134790 0.0000000000000000
3.6914976084086830 4.3851499925473396 0.0000000000000000
3.6382918338100025 4.1922115294518827 0.0000000000000000
3.7787968500965228 4.0496987249306224 0.0000000000000000
3.5850868290131381 3.9992700178935041 0.0000000000000000
3.7255893530912254 3.8567547500369463 0.0000000000000000
3.5318821597477528 3.8063268645578994 0.0000000000000000
3.7447040394664293 4.5780848390333437 0.0000000000000000
3.6723824044676694 3.6638061621755700 0.0000000000000000
3.4786780297020550 3.6133835803576537 0.0000000000000000
5.5903863705945422 3.4466426832529851 0.0000000000000000
5.7841134851404465 3.4971267140059457 0.0000000000000000
5.8373284313162808 3.6900513273645985 0.0000000000000000
5.9778399242930185 3.5475257744782636 0.0000000000000000
6.0310521491488620 3.7404354151249075 0.0000000000000000
6.1715572404663490 3.5978530720001514 0.0000000000000000
6.2247670204195629 3.7907643027410054 0.0000000000000000
6.3652656719790439 3.6481629620230707 0.0000000000000000
6.4184740453626734 3.8410874099233001 0.0000000000000000
3.4445867990075407 4.1418194251091247 0.0000000000000000
3.6191764532361175 3.4708539473138451 0.0000000000000000
3.4254750938147986 3.4204419982355314 0.0000000000000000
6.3120563346682230 3.4552440281195280 0.0000000000000000
6.5057597375792824 3.5055709474023322 0.0000000000000000
5.7308964220715994 3.3041972183295854 0.0000000000000000
5.5371699369730241 3.2536858405786293 0.0000000000000000
6.4525489833449852 3.3126378351441006 0.0000000000000000
6.6462516580960589 3.3630125298744415 0.0000000000000000
3.2849778199601900 3.5630288115845654 0.0000000000000000
3.2317757245509457 3.3701101833511347 0.0000000000000000
5.6776783509732942 3.1112605853355877 0.0000000000000000
3.5659719066602946 3.2778992155610225 0.0000000000000000
5.4839536539452727 3.0607194949018184 0.0000000000000000
6.5930379069402951 3.1700632992153777 0.0000000000000000
6.7867427176061677 3.2205012470417866 0.0000000000000000
6.8399599697269045 3.4134621196094845 0.0000000000000000
5.6244584997919409 2.9183136576310611 0.0000000000000000
6.7335257310811532 3.0275378775842352 0.0000000000000000
6.9272359717704015 3.0780391919139531 0.0000000000000000
3.0912718146103288 3.5127251233946639 0.0000000000000000
3.0380680401037639 3.3198265581619757 0.0000000000000000
6.8740151757147583 2.8850673977220707 0.0000000000000000
7.0677359076771422 2.9356167943381535 0.0000000000000000
7.0145102160230657 2.7426525967853426 0.0000000000000000
6.0842629300444200 3.9333478251682159 0.0000000000000000
3.7596785961865056 3.3283697555311571 0.0000000000000000
3.7064721583983640 3.1354101532628502 0.0000000000000000
3.9001859961268588 3.1859169052907221 0.0000000000000000
3.8469769227357689 2.9929612717159211 0.0000000000000000
3.6532676369616848 2.9424456888257140 0.0000000000000000
5.4307369902666922 2.8677425029696288 0.0000000000000000
5.5712375874814315 2.7253539589809619 0.0000000000000000
7.2082004057097588 2.7933717744910873 0.0000000000000000
4.0406983287798193 3.0434737769876792 0.0000000000000000
3.9874864276728341 2.8505301708722581 0.0000000000000000
7.1550177599142808 2.6002640717164636 0.0000000000000000
5.2752976506232985 4.2599487906602720 0.0000000000000000
2.8975530283486886 3.4624121930216232 0.0000000000000000
2.8443455975478069 3.2695139093171837 0.0000000000000000
7.2614635882698790 2.9861454221743569 0.0000000000000000
7.4019298237763440 2.8438065223516111 0.0000000000000000
7.4293857755186750 7.5068911936209082 0.0000000000000000
6.6803098215641876 2.8345742508476288 0.0000000000000000
5.3775214072913391 2.6747552440401101 0.0000000000000000
5.5180164817324719 2.5323789482156869 0.0000000000000000
4.1812162345984962 2.9010158142234781 0.0000000000000000
4.1280032124752211 2.7080988606767886 0.0000000000000000
2.7038231879333336 3.4120289877950607 0.0000000000000000
2.6506137616609191 3.2191091670990368 0.0000000000000000
2.7570360941121663 3.6049440002050059 0.0000000000000000
2.7911413243769072 3.0766155469454595 0.0000000000000000
2.5974013526532502 3.0262150690989311 0.0000000000000000
2.7379381272305370 2.8837199486445488 0.0000000000000000
2.5441997443015110 2.8332827251223076 0.0000000000000000
2.6847356183309339 2.6908137667325587 0.0000000000000000
4.0939101246990370 3.2364072241981190 0.0000000000000000
7.6545643396788545 7.0334808550813284 0.0000000000000000
7.4551934039616619 3.0365262570128690 0.0000000000000000
7.5956974625437788 2.8939156948014571 0.0000000000000000
2.4912133096213482 2.6402416981009673 0.0000000000000000
2.6315662964037068 2.4978802583218713 0.0000000000000000
2.3504091868001353 2.7833892138864411 0.0000000000000000
2.8252722924792097 2.5482993613552356 0.0000000000000000
2.7720700352417347 2.3554217127032149 0.0000000000000000
2.9657921728139973 2.4056800971289181 0.0000000000000000
5.7117480858272227 2.5829584098723442 0.0000000000000000
5.6585236910371037 2.3900206606538061 0.0000000000000000
5.8522619819461381 2.4404863688684690 0.0000000000000000
4.3217361643045464 2.7584983159006171 0.0000000000000000
4.2685248525050792 2.5656131770177724 0.0000000000000000
4.0747900540806796 2.5151702010598345 0.0000000000000000
4.2153445188171546 2.3725825640260352 0.0000000000000000
4.4090495234527625 2.4230052050792090 0.0000000000000000
5.7991829450150956 2.2470362637091199 0.0000000000000000
5.9929409769307709 2.2972521590499575 0.0000000000000000
5.3243065879705771 2.4817589474687702 0.0000000000000000
2.5633060888369350 3.5545077041915953 0.0000000000000000
2.6165216605152866 3.7474372657528821 0.0000000000000000
5.1007109656473384 4.9309022919152650 0.0000000000000000
5.2902437262931885 3.0101694668984731 0.0000000000000000
4.3558738596227826 2.2300028739814479 0.0000000000000000
2.4374475096395818 2.4486113906590434 0.0000000000000000
2.9125730705020123 2.2128353217304202 0.0000000000000000
3.1062652147032512 2.2630288067461843 0.0000000000000000
2.4227980326205922 3.6969803064163171 0.0000000000000000
2.4760116467233506 3.8899179483755186 0.0000000000000000
7.6489565609401113 3.0868150482672387 0.0000000000000000
7.7894569803652960 2.9441800861463614 0.0000000000000000
7.7363447718149416 2.7513679971040355 0.0000000000000000
7.5084261444700777 3.2293831013277337 0.0000000000000000
7.9299403029251057 2.8015450854590713 0.0000000000000000
4.0214915290895066 2.3219418992396657 0.0000000000000000
2.2822968489606885 3.8394723779439457 0.0000000000000000
2.3355048843158674 4.0324111903503548 0.0000000000000000
2.5292198859728532 4.0828502934958673 0.0000000000000000
2.3887061379882728 4.2253456074537636 0.0000000000000000
2.5824233537599546 4.2757788729418964 0.0000000000000000
2.4419056295300332 4.4182754821035921 0.0000000000000000
2.6356255913858520 4.4687038746807772 0.0000000000000000
2.4951055845494969 4.6112021388081432 0.0000000000000000
2.6888305812209241 4.6616272020217746 0.0000000000000000
2.5483105117316938 4.8041269517318970 0.0000000000000000
2.7420405233923644 4.8545509311131099 0.0000000000000000
2.6015257598436468 4.9970492579699082 0.0000000000000000
2.7952550976786879 5.0474756928632054 0.0000000000000000
2.6547433202908830 5.1899718548059930 0.0000000000000000
2.8484700258630511 5.2404038497700745 0.0000000000000000
2.7079584395846896 5.3828952106664669 0.0000000000000000
2.9016826549179711 5.4333356093276990 0.0000000000000000
2.7611698775212394 5.5758217785098028 0.0000000000000000
2.9548925992349284 5.6262728040871659 0.0000000000000000
2.8143788975923947 5.7687521329750435 0.0000000000000000
3.0081010289351702 5.8192150117707184 0.0000000000000000
2.8675883933833424 5.9616882410181695 0.0000000000000000
3.0613098811382913 6.0121628174959376 0.0000000000000000
2.9208007410908405 6.1546319359718566 0.0000000000000000
3.1145207805253143 6.2051162922134688 0.0000000000000000
2.9740173452572978 6.3475833430644943 0.0000000000000000
3.1677340093135702 6.3980734477941059 0.0000000000000000
3.0272369819243909 6.5405440099356564 0.0000000000000000
3.2209484775419193 6.5910334665289607 0.0000000000000000
3.0804572894510938 6.7335128648720168 0.0000000000000000
3.2741629574774249 6.7839928197560511 0.0000000000000000
3.4146504413602252 6.6414287767438607 0.0000000000000000
3.4678617336253281 6.8343587259259602 0.0000000000000000
3.1336765375439120 6.9264893172627104 0.0000000000000000
3.6083541902528560 6.6917352460738551 0.0000000000000000
3.6615662392134780 6.8846369377124130 0.0000000000000000
2.9399591857940592 6.8759305851108312 0.0000000000000000
2.9931839892880547 7.0689051643627758 0.0000000000000000
2.7994497960355793 7.0183261192119355 0.0000000000000000
3.8020672523098771 6.7420042481658946 0.0000000000000000
3.8552821479285728 6.9348908416063830 0.0000000000000000
3.9957925594459440 6.7923018238832382 0.0000000000000000
4.0490108885846388 6.9851944566971476 0.0000000000000000
4.1895269861872695 6.8426949948397331 0.0000000000000000
4.2427481040008468 7.0356191059330149 0.0000000000000000
4.3832613171037353 6.8932145414365262 0.0000000000000000
4.4364815888098326 7.0861840087057892 0.0000000000000000
4.5769795504679065 6.9437884207076248 0.0000000000000000
3.7488540635849703 6.5491113368934215 0.0000000000000000
3.2018136980804055 5.8696569712291256 0.0000000000000000
2.8526763938066062 7.2112703641371905 0.0000000000000000
4.6301928546177296 7.1367769514754009 0.0000000000000000
4.7706782068287907 6.9942965986769954 0.0000000000000000
4.4897017721310934 7.2791698070972499 0.0000000000000000
4.8238847665167777 7.1872641329947431 0.0000000000000000
2.6589327951482287 7.1607743598954103 0.0000000000000000
4.9643693818277512 7.0446920441923675 0.0000000000000000
5.0175744191679899 7.2376258376148010 0.0000000000000000
3.7147796115582512 7.0775281875963376 0.0000000000000000
2.5674448145541779 5.5253965362325532 0.0000000000000000
2.7121584147487745 7.3536796100607278 0.0000000000000000
5.1580652825140625 7.0950029258675213 0.0000000000000000
5.2112712231082279 7.2879105518109979 0.0000000000000000
2.7802858144849667 6.2970847997876271 0.0000000000000000
2.9059063182380913 7.4042317634894390 0.0000000000000000
2.7653913598360469 7.5465939830112339 0.0000000000000000
2.5184138647092151 7.3033134080087532 0.0000000000000000
5.3517702938615477 7.1452790163071480 0.0000000000000000
5.4049782605928360 7.3381718598562253 0.0000000000000000
4.3300417923582062 6.7002601351789313 0.0000000000000000
5.1048601175895305 6.9020865041355597 0.0000000000000000
2.4651956515091640 7.1104372774658140 0.0000000000000000
2.3246829548058003 7.2530663884244442 0.0000000000000000
3.0421900952820495 5.2908337642742751 0.0000000000000000
5.5454868612062178 7.1955795185566744 0.0000000000000000
5.5986972465009437 7.3884759418019419 0.0000000000000000
5.4581862998822217 7.5310589781010551 0.0000000000000000
5.6519089862520540 7.5813731078578908 0.0000000000000000
5.7924288994948734 7.4389219517188074 0.0000000000000000
5.8464372041693347 7.6332032219934947 0.0000000000000000
5.7054515236870804 7.7759891182889405 0.0000000000000000
2.9591424276083305 7.5972133009345031 0.0000000000000000
2.8186346404627933 7.7395222764729281 0.0000000000000000
2.2481897141217622 4.3678658438269489 0.0000000000000000
5.9885676287348035 7.4920153953476891 0.0000000000000000
2.2716200636431743 7.0603351794420730 0.0000000000000000
2.1311416329431596 7.2030201816012474 0.0000000000000000
2.1841992192754436 7.3957655128413933 0.0000000000000000
6.0443863655914631 7.6883019643575725 0.0000000000000000
7.8768699708487242 2.6087443078719974 0.0000000000000000
7.8173348263362179 7.6077388856545749 0.0000000000000000
7.0419505756665606 7.4058025390243492 0.0000000000000000
6.8482239919692312 7.3555243076854646 0.0000000000000000
6.9014354687904618 7.5484115875739244 0.0000000000000000
5.0707793608698664 7.4305498351383834 0.0000000000000000
4.1022314283021215 7.1780882122259566 0.0000000000000000
2.1418001810547582 3.9820021619331447 0.0000000000000000
4.3749462380499846 2.9513833709982364 0.0000000000000000
6.3993372469584466 3.1197103447174341 0.0000000000000000
4.8346876214881167 3.9662112721235920 0.0000000000000000
6.9612811318668708 2.5496732403469284 0.0000000000000000
7.1016514647566877 2.4071890729754828 0.0000000000000000
6.9080263293018982 2.3566553509150330 0.0000000000000000
7.0480057957210924 2.2138219674195470 0.0000000000000000
7.2420493459110160 2.2646783005106026 0.0000000000000000
7.1884025276288819 2.0713738475000705 0.0000000000000000
7.3829373307632089 2.1224956962915127 0.0000000000000000
2.4610164295084940 5.1395615964350840 0.0000000000000000
5.8073936708159977 6.1893433854529150 0.0000000000000000
5.6136698590373282 6.1388834728174038 0.0000000000000000
5.6053225206831261 2.1969728948695804 0.0000000000000000
2.3695952284091923 3.5040331601961103 0.0000000000000000
4.7856277398423179 5.7444570632540755 0.0000000000000000
4.8388336864962538 5.9374032354642816 0.0000000000000000
4.6451294807100902 5.8869823081942414 0.0000000000000000
6.4758147169336784 6.0051864957652690 0.0000000000000000
6.4226121343476059 5.8122567113583630 0.0000000000000000
6.6163147372375617 5.8625942411888365 0.0000000000000000
6.5631129289889962 5.6696719292904740 0.0000000000000000
6.7568191643082471 5.7200073294179923 0.0000000000000000
6.7036166390394625 5.5270884614613465 0.0000000000000000
6.8973293197724086 5.5774460426677486 0.0000000000000000
6.8441245893089233 5.3845246810854812 0.0000000000000000
7.0378436400924471 5.4349182070012638 0.0000000000000000
6.9846361863105821 5.2419922276716466 0.0000000000000000
7.0910484368747824 5.6278440431199419 0.0000000000000000
6.7909188893007295 5.1916008758726289 0.0000000000000000
6.9314268842936233 5.0490645442263569 0.0000000000000000
7.1251497165251942 5.0994879021030224 0.0000000000000000
7.0719362903316396 4.9065561687841868 0.0000000000000000
6.7377114444894444 4.9986740897633455 0.0000000000000000
7.2656611613955207 4.9569959321315915 0.0000000000000000
7.2124457564934064 4.7640642019416743 0.0000000000000000
7.4061686560846107 4.8144960569922830 0.0000000000000000
7.3529551677364200 4.6215673631362586 0.0000000000000000
7.4593857977414277 5.0074255174256148 0.0000000000000000
7.5466721609142757 4.6719693228670476 0.0000000000000000
7.4934637625862415 4.4790468720983716 0.0000000000000000
7.6871740721598849 4.5294098638866123 0.0000000000000000
7.6339728351346281 4.3364916574445997 0.0000000000000000
7.2997452140855295 4.4286395312836335 0.0000000000000000
7.8276762395991675 4.3868245212056234 0.0000000000000000
7.7744850288632605 4.1939078607494036 0.0000000000000000
6.5972087183599450 5.1412399209016240 0.0000000000000000
6.5440030455029570 4.9483122236815626 0.0000000000000000
5.6668811894481301 6.3318116849080992 0.0000000000000000
2.7191056850460549 2.1624721961421343 0.0000000000000000
2.8594100913550879 2.0199820332754261 0.0000000000000000
4.3258730134347756 4.7293581078387454 0.0000000000000000
7.5807758933655425 4.1435766757523274 0.0000000000000000
7.7212955501369933 4.0009935865352722 0.0000000000000000
3.5509935261184817 4.5276899682418987 0.0000000000000000
3.9193056551730185 3.9072126053755780 0.0000000000000000
3.6041984382157031 4.7206231875860292 0.0000000000000000
4.5154575239150265 2.8087674026834053 0.0000000000000000
4.5686628901235249 3.0016514915783592 0.0000000000000000
4.5485368079363901 2.2805959264534370 0.0000000000000000
6.8100226439954579 5.9129226857327204 0.0000000000000000
4.7174696845149500 6.8013262728328048 0.0000000000000000
2.6738587114438999 5.9112331217770260 0.0000000000000000
5.4731585093807631 6.2814018255192092 0.0000000000000000
6.6845037545257284 4.8057441551203119 0.0000000000000000
6.4907976008661219 4.7553829679110082 0.0000000000000000
6.3502974135298151 4.8979600820020543 0.0000000000000000
6.6312972514753721 4.6128126762090123 0.0000000000000000
6.2970918576718917 4.7050316977096109 0.0000000000000000
6.1565893707774082 4.8475933820261412 0.0000000000000000
6.1033815617669660 4.6546648303801668 0.0000000000000000
5.9628742585423717 4.7971930233184690 0.0000000000000000
7.5275765225073368 3.9506644211923492 0.0000000000000000
5.9333461611804115 7.2969671143111627 0.0000000000000000
1.9902630598162221 7.3453125749428061 0.0000000000000000
5.7458125072492781 2.0546908543660569 0.0000000000000000
7.9681847541872255 4.2442337559745393 0.0000000000000000
7.7021855257209682 3.2797091321045237 0.0000000000000000
2.3545850281327114 4.7537266235935505 0.0000000000000000
3.0126416169309107 7.7901500072642120 0.0000000000000000
2.8721864090903177 7.9323855484823120 0.0000000000000000
2.6781797657271591 7.8819350675058857 0.0000000000000000
3.1529080318408438 7.6479147189472947 0.0000000000000000
2.7322444924178568 8.0756352424652125 0.0000000000000000
7.3308735636379625 1.9308420667324993 0.0000000000000000
8.0692300048900414 2.6577793054100902 0.0000000000000000
7.7403824157266170 4.7223296287860324 0.0000000000000000
1.9372091905287732 7.1535209735543139 0.0000000000000000
4.4953063017181183 2.0877493527587552 0.0000000000000000
4.3026257342102037 2.0373170984697464 0.0000000000000000
4.4409262492866688 1.8968360252338312 0.0000000000000000
4.6861410433568302 2.1396258922211109 0.0000000000000000
8.0469253891660930 7.1339759549784221 0.0000000000000000
4.2493060622839849 1.8471012630387602 0.0000000000000000
8.1219166683194910 2.8505328366612552 0.0000000000000000
7.1345171039307473 1.8825477942871036 0.0000000000000000
2.6659458460379604 1.9695653968864055 0.0000000000000000
2.8072226002461464 1.8268669027828763 0.0000000000000000
5.9096641585117871 4.6042621427987385 0.0000000000000000
4.6983377118100362 6.0799350273302082 0.0000000000000000
4.5046275332697761 6.0294708700802158 0.0000000000000000
4.4514159055323725 5.8365219002121700 0.0000000000000000
4.3109057470263750 5.9789890009442850 0.0000000000000000
4.2576920501453142 5.7860549306778921 0.0000000000000000
4.1171766604641444 5.9285385226610625 0.0000000000000000
4.0639639567423380 5.7356208321473723 0.0000000000000000
2.8102483762199890 3.7978565367718899 0.0000000000000000
3.9234492477437204 5.8781464093314684 0.0000000000000000
3.8702387811326777 5.6852359587376649 0.0000000000000000
4.0107517959112693 5.5427035200843671 0.0000000000000000
3.8170293374147684 5.4923219535633372 0.0000000000000000
3.0189886518551226 2.5985413131026438 0.0000000000000000
2.4120018092985003 6.9175822423965707 0.0000000000000000
2.2179202690543116 6.8680004256501581 0.0000000000000000
2.8293506184192920 4.5191239885817600 0.0000000000000000
6.1293973085731812 7.3498775122504414 0.0000000000000000
6.0460181035610772 2.4906613988116044 0.0000000000000000
6.1861590398006499 2.3493391568272237 0.0000000000000000
3.9575406451684692 5.3497858996399827 0.0000000000000000
6.8542126438362585 2.1630664974587686 0.0000000000000000
2.0433960244818188 7.5381609509097265 0.0000000000000000
5.5520773475777379 2.0040738830785321 0.0000000000000000
8.0213732615333804 4.4371534078583208 0.0000000000000000
6.1332687387517382 2.1552173777681709 0.0000000000000000
3.2064018573564774 7.8408806704633598 0.0000000000000000
3.3466014540128945 7.6983832262824619 0.0000000000000000
1.7973227837039230 7.2942897514356844 0.0000000000000000
1.7447021827990188 7.1051500625701438 0.0000000000000000
2.9251593280885078 8.1271055597317332 0.0000000000000000
5.7691532672941594 4.7467558296737540 0.0000000000000000
5.4922767276349962 7.0026810437106306 0.0000000000000000
2.9357670164506571 4.9049713435559363 0.0000000000000000
5.1838235658991714 2.6242067831242895 0.0000000000000000
2.5395690401333293 8.0301634367954939 0.0000000000000000
2.7846511407228811 8.2677509336675019 0.0000000000000000
5.6916871565327600 1.8620172929715757 0.0000000000000000
8.0172264511820206 2.4660039695791363 0.0000000000000000
8.2079938490016850 2.5151040270222520 0.0000000000000000
7.5229003627890583 1.9802708750978557 0.0000000000000000
7.4711895499429515 1.7892631093980764 0.0000000000000000
6.7095689818821054 7.4963337222287505 0.0000000000000000
6.7626845650314094 7.6904047853120794 0.0000000000000000
6.9549280956876807 7.7411805735886272 0.0000000000000000
6.8149612228998606 7.8843143685095143 0.0000000000000000
7.0079582916708318 7.9341567227154153 0.0000000000000000
6.6250133830686684 7.8361285819546023 0.0000000000000000
6.0739696813414970 7.1546840379161765 0.0000000000000000
6.2097959220671166 5.0405238689463499 0.0000000000000000
7.2315670786260844 5.4853503049013463 0.0000000000000000
7.2847701413980461 5.6782847424631209 0.0000000000000000
7.4252881472438075 5.5357988663732902 0.0000000000000000
7.4784863523847154 5.7287392234299102 0.0000000000000000
7.6190003012170422 5.5862258109042315 0.0000000000000000
7.6721738483127089 5.7791679415866408 0.0000000000000000
7.5316830665828531 5.9216837455131826 0.0000000000000000
7.8127141434140768 5.6366846282263907 0.0000000000000000
7.7253664980965135 5.9721066127806344 0.0000000000000000
7.5848867944916689 6.1146311506413911 0.0000000000000000
7.7803420440640441 6.1653332811959523 0.0000000000000000
7.9225350798409480 6.0226162690323841 0.0000000000000000
7.6381701171766450 6.3074105049581988 0.0000000000000000
7.4444016471223327 6.2570855451673353 0.0000000000000000
7.8304441009744181 6.3614877436205317 0.0000000000000000
4.1703911141329391 6.1214594563985667 0.0000000000000000
7.7595207740326337 5.4436879870326926 0.0000000000000000
7.9532258689161797 5.4940042308676862 0.0000000000000000
7.4973968703847289 6.4498170280342828 0.0000000000000000
3.3082293371699358 6.2555481494183311 0.0000000000000000
7.9000408535834250 5.3010914754661096 0.0000000000000000
3.1785759855185636 3.1772005687366600 0.0000000000000000
5.8181907002519759 2.9687992105321857 0.0000000000000000
5.4008330134642009 5.3671716386531152 0.0000000000000000
6.3694098013280662 5.6193238555863081 0.0000000000000000
5.5563065921934838 3.9749928846311593 0.0000000000000000
4.8920388870122320 6.1303481887337918 0.0000000000000000
4.3599664178091029 4.2009999585500699 0.0000000000000000
3.1868943034070054 7.1194715439797616 0.0000000000000000
6.2438855029853570 4.5121059601183751 0.0000000000000000
3.8810513769690655 2.4645587246640486 0.0000000000000000
3.8277185048599889 2.2714488834338931 0.0000000000000000
3.6873363080012918 2.4140164543137232 0.0000000000000000
2.3587023977605184 6.7247946588015131 0.0000000000000000
2.1644569314950837 6.6750696742078519 0.0000000000000000
3.7979116330378031 4.7710161117660652 0.0000000000000000
3.6574047164801478 4.9135535835897590 0.0000000000000000
3.6341565734059156 2.2211244637391800 0.0000000000000000
3.7744251264596378 2.0786098478819355 0.0000000000000000
2.3054207736896091 6.5319154953545571 0.0000000000000000
2.1080243105787422 6.4826534280937196 0.0000000000000000
2.2516495754597594 6.3391041866422482 0.0000000000000000
2.0541660469830290 6.2898381584601726 0.0000000000000000
2.1982403088661497 6.1462331378920938 0.0000000000000000
2.0027265137867460 6.0964139475258232 0.0000000000000000
2.1453095494802574 5.9532470823971337 0.0000000000000000
1.9498895173352657 5.9033973514869631 0.0000000000000000
2.0922269883468165 5.7603065308282444 0.0000000000000000
1.8985413673288751 5.7099656682802893 0.0000000000000000
2.0395150679908509 5.5672591488753946 0.0000000000000000
8.1620617845279355 4.2947381771722632 0.0000000000000000
8.1087408383641986 4.1016870293868415 0.0000000000000000
2.6118432955514503 1.7741939106547044 0.0000000000000000
2.4719070825919469 1.9190127790956253 0.0000000000000000
3.0026657241471892 1.8740465236606112 0.0000000000000000
3.3988315803831055 7.8941086359159192 0.0000000000000000
3.5400869573066736 7.7491168209593431 0.0000000000000000
3.5922861672435915 7.9448677969581523 0.0000000000000000
3.7337180198431850 7.7994671354396852 0.0000000000000000
3.7869357981501834 7.9927070309888242 0.0000000000000000
3.9276153654293546 7.8491413515557058 0.0000000000000000
3.9808404482012589 8.0423910305028130 0.0000000000000000
4.1213756631942449 7.8993816154772949 0.0000000000000000
4.1746473749237047 8.0923178162215699 0.0000000000000000
4.3151350091957239 7.9497871686324064 0.0000000000000000
4.3684063397116004 8.1427853645162891 0.0000000000000000
4.5088804333151451 8.0005119248407155 0.0000000000000000
4.0344810620358524 8.2356311708365109 0.0000000000000000
2.9764017803145326 8.3195636882247470 0.0000000000000000
2.0885912573758345 3.7890694248531873 0.0000000000000000
1.9462886952477298 3.9321739981825177 0.0000000000000000
8.4354655581217362 7.2271890007671953 0.0000000000000000
1.8457329572137944 5.5169364779401890 0.0000000000000000
1.9862956821676392 5.3743436328999881 0.0000000000000000
1.7562587446928699 5.8530079161450468 0.0000000000000000
6.8688716662453526 8.0770048729389021 0.0000000000000000
7.0589438971805558 8.1274364544720576 0.0000000000000000
7.2010971313509389 7.9846166172910262 0.0000000000000000
7.2517887243008170 8.1780067473710858 0.0000000000000000
7.3945023827106020 8.0353541399079571 0.0000000000000000
6.9175683173372544 8.2667918103430047 0.0000000000000000
2.7547837008364984 1.6328418834188654 0.0000000000000000
8.2152857315197920 4.4876833771852906 0.0000000000000000
4.3849269646121920 1.7059134716453743 0.0000000000000000
1.6073841564662905 7.2459754291448260 0.0000000000000000
5.4993201413185115 1.8088112303451496 0.0000000000000000
5.3579964667910307 1.9486328046338381 0.0000000000000000
7.4473113619918951 8.2305762828167417 0.0000000000000000
7.5881370709959306 8.0887935708893597 0.0000000000000000
7.3045279558759146 8.3708405552794396 0.0000000000000000
4.1895799282652968 1.6550225412625090 0.0000000000000000
3.5809608319121007 2.0283800720910357 0.0000000000000000
1.6583440885898042 7.4374038019424979 0.0000000000000000
5.8223642515888079 4.9396914885013539 0.0000000000000000
3.6765220466817730 5.6348860583476554 0.0000000000000000
3.6233151367091536 5.4419661657600269 0.0000000000000000
4.5578385622665101 6.2224270008111180 0.0000000000000000
6.2676841702683301 7.2052019771595495 0.0000000000000000
2.2373442435126880 7.5885756204911283 0.0000000000000000
2.0968375779438690 7.7312036344370316 0.0000000000000000
7.4357404808996117 2.3158023027476102 0.0000000000000000
5.5263679093076021 6.4743169255962183 0.0000000000000000
5.7200927846521568 6.5247429179240637 0.0000000000000000
5.3326515934487100 6.4239644159097571 0.0000000000000000
3.4636961195232385 4.8631823536005871 0.0000000000000000
4.7091613806397215 2.8589975028657917 0.0000000000000000
4.7623648757568677 3.0519078062839236 0.0000000000000000
4.6218684255974614 3.1945456989748577 0.0000000000000000
5.6286420767728691 4.8892370250281889 0.0000000000000000
5.7159418959637724 4.5538195547628630 0.0000000000000000
6.7142457073540838 2.3060216406093828 0.0000000000000000
6.6580761004060456 2.1137045005825836 0.0000000000000000
7.3038511562412909 6.3995234496427313 0.0000000000000000
7.2506664923179960 6.2066190609380278 0.0000000000000000
3.4870005213926181 7.5558287665968491 0.0000000000000000
6.2396493136136337 2.5411681801231221 0.0000000000000000
4.8155691321505349 3.2448283087292751 0.0000000000000000
4.6750732523785619 3.3874496654998358 0.0000000000000000
5.1314151147936231 2.4320146129259608 0.0000000000000000
7.6680939828276360 3.8080836062557242 0.0000000000000000
7.4743666098835169 3.7577547326242056 0.0000000000000000
7.3338488872234020 3.9002859744566889 0.0000000000000000
7.2806339466445520 3.7073642550622510 0.0000000000000000
7.1401181483287930 3.8498448577757070 0.0000000000000000
4.1512668076874339 5.4002007341732936 0.0000000000000000
4.0980550849604276 5.2072776217453258 0.0000000000000000
3.8743888922969099 7.6562740822582169 0.0000000000000000
5.8564538320600663 4.4113315750322544 0.0000000000000000
4.2619027778756724 7.7568351853078505 0.0000000000000000
8.0949416796176372 5.3525702906753727 0.0000000000000000
8.1466035539241304 5.5436318478890350 0.0000000000000000
8.2865810027989326 5.4041879411801261 0.0000000000000000
8.0414972812447250 5.1593344859363688 0.0000000000000000
8.3026273367827326 4.1522381453910775 0.0000000000000000
8.3372928442663810 5.5922894397541505 0.0000000000000000
2.5600081714380725 1.5793359713145565 0.0000000000000000
4.5614842649212761 8.1959070321927499 0.0000000000000000
4.7021642610894068 8.0531109474792952 0.0000000000000000
4.6492919820412366 7.8585477167321232 0.0000000000000000
4.8425476600789761 7.9113006076588412 0.0000000000000000
2.8380292160711473 8.4574963386306816 0.0000000000000000
2.6478646759920883 8.4132412293525736 0.0000000000000000
4.4220417363925746 8.3350892392649047 0.0000000000000000
1.9630447465065017 6.6304781801403143 0.0000000000000000
4.5754612450708239 1.7546530258279991 0.0000000000000000
8.2493110420388067 3.9591630807301579 0.0000000000000000
5.6390478402161737 1.6694116655595979 0.0000000000000000
5.8312242718730989 1.7190233384484048 0.0000000000000000
5.4501080142420326 1.6168081819494788 0.0000000000000000
7.4979118908168143 8.4235800655576991 0.0000000000000000
1.5647067299394051 7.0547403295941038 0.0000000000000000
4.6111562451449304 8.3881332039498222 0.0000000000000000
1.6914462280222049 6.9182820724239820 0.0000000000000000
7.6605143812794454 1.8378876582376864 0.0000000000000000
7.7164333151519742 2.0287156470127008 0.0000000000000000
7.6075922521142010 1.6517529770648434 0.0000000000000000
7.4207868792679257 1.6063212360765089 0.0000000000000000
3.7212705552418859 1.8861372829305587 0.0000000000000000
8.1565494121366342 2.3280733705709649 0.0000000000000000
4.5219795796270725 1.5678309039572236 0.0000000000000000
3.2562658584170028 8.0405734659819430 0.0000000000000000
1.9029035590017660 7.6806049533672986 0.0000000000000000
1.9563460833221040 7.8736409562763265 0.0000000000000000
8.2039308147693557 7.7098547897608283 0.0000000000000000
8.2004734955065786 5.7351049294297702 0.0000000000000000
8.3930373891519476 5.7822945325112265 0.0000000000000000
8.2571310468006178 5.9264126567376492 0.0000000000000000
8.4501810526948695 5.9731768739503845 0.0000000000000000
7.5354422810176480 7.8936369495356029 0.0000000000000000
7.7296417616406607 7.9443661782000099 0.0000000000000000
2.1500495696460220 7.9240986572098047 0.0000000000000000
6.3265343249391481 7.3979779929934608 0.0000000000000000
3.4828136723527248 5.5845418628581802 0.0000000000000000
6.2139377532867623 7.0116930252214331 0.0000000000000000
6.0203240865953864 6.9612661907971622 0.0000000000000000
3.4296077461722825 5.3916125980123226 0.0000000000000000
6.8005390999476418 1.9705011455338424 0.0000000000000000
5.6818524427755905 5.0821749869070363 0.0000000000000000
5.8755742302988319 5.1326282753951213 0.0000000000000000
7.8234992339191880 2.4156675037648760 0.0000000000000000
4.4813631639754545 3.3371635115843037 0.0000000000000000
4.5345702988969547 3.5300619907194855 0.0000000000000000
4.3408501488816444 3.4797337174349283 0.0000000000000000
4.3940602478949780 3.6726380717784339 0.0000000000000000
4.9910662742653873 2.5746769980875124 0.0000000000000000
7.3570580505053051 6.5924665011412786 0.0000000000000000
7.5451180209493289 6.6521036883795217 0.0000000000000000
2.0010019331119051 4.1246603732353835 0.0000000000000000
1.8054474702179666 4.0748929315319691 0.0000000000000000
1.8603875741018527 4.2672947342747003 0.0000000000000000
1.6675089874425433 4.2164707281263842 0.0000000000000000
1.7203845818441263 4.4092568989271532 0.0000000000000000
1.6132203826947757 4.0270755268352181 0.0000000000000000
1.9139180761946075 4.4600226202073552 0.0000000000000000
1.7718349313640125 4.6015861033089340 0.0000000000000000
1.5777824122076654 4.5497608084844110 0.0000000000000000
1.9668648903306190 4.6528232311203261 0.0000000000000000
3.1444764712483968 3.7056316305575763 0.0000000000000000
8.0746137093123611 4.6301009428040203 0.0000000000000000
2.4568859793758380 3.1686788397364634 0.0000000000000000
3.4936466387674687 2.3635784262378308 0.0000000000000000
7.1933301008098987 4.0427796552350390 0.0000000000000000
6.9996051126586396 3.9923172153499800 0.0000000000000000
4.2003341294598906 3.6222525288335392 0.0000000000000000
5.3858590908362745 6.6168748861792928 0.0000000000000000
5.1921500314731617 6.5665586969179817 0.0000000000000000
4.5728007062406419 4.9726956630218169 0.0000000000000000
7.8469838574283548 5.1083122275700701 0.0000000000000000
4.3982047023125324 5.6435790223288658 0.0000000000000000
5.9819924321762175 5.5185074768228572 0.0000000000000000
6.0992026085006579 2.6836598100336340 0.0000000000000000
6.2929039069039003 2.7339129139793843 0.0000000000000000
6.1524186855019876 2.8765401905802790 0.0000000000000000
2.9316667308831765 2.9340535588792429 0.0000000000000000
5.2794443487228424 6.2310491395245373 0.0000000000000000
2.7229418615124805 4.1332833586867919 0.0000000000000000
2.7462236563656273 6.8253949945504528 0.0000000000000000
2.1800111723845830 5.4246714312312641 0.0000000000000000
2.1267981966461624 5.2317552483048226 0.0000000000000000
1.9330907013988778 5.1814237964994589 0.0000000000000000
3.5468639074991266 2.5565046831720299 0.0000000000000000
2.4992314734536270 6.5821284162497991 0.0000000000000000
4.6015645855031497 2.4735347250213970 0.0000000000000000
2.0735751088373169 5.0388450796320194 0.0000000000000000
4.9028540967341536 2.9092883016999003 0.0000000000000000
3.5360192471112963 5.7774675000775471 0.0000000000000000
7.1101509305161343 6.3491053489219382 0.0000000000000000
7.0528148061241955 4.1852588335872500 0.0000000000000000
6.8590965322206499 4.1348068006708107 0.0000000000000000
6.8058876619040625 3.9418610717542699 0.0000000000000000
6.9123041321067031 4.3277487728819111 0.0000000000000000
6.7185924634444136 4.2773270545019315 0.0000000000000000
4.2535457504037026 3.8151687749169008 0.0000000000000000
2.3925625741881915 6.1963719019743531 0.0000000000000000
7.1442534193406706 5.8207701443826414 0.0000000000000000
2.2862350771286626 5.8105410255627437 0.0000000000000000
4.2917816714245172 5.2577111914648347 0.0000000000000000
6.8250069707654060 4.6632010599904561 0.0000000000000000
4.4472695011215135 3.8655448957527447 0.0000000000000000
4.7282783698480504 3.5803624241839560 0.0000000000000000
6.4333863304661207 2.5912789189760597 0.0000000000000000
5.4881323278404643 5.0317260850095851 0.0000000000000000
5.4349229270449584 4.8387871408370140 0.0000000000000000
5.6627306648330702 4.3608808332779923 0.0000000000000000
8.0555523691601945 3.9087457965798262 0.0000000000000000
6.4623409525564410 7.2536807308647315 0.0000000000000000
4.7897294143206341 7.7162362655418617 0.0000000000000000
5.8032422241297752 4.2184010739133306 0.0000000000000000
5.9969641721369014 4.2688161208794746 0.0000000000000000
5.5222209785403686 4.5033556072073004 0.0000000000000000
4.5961155461940688 7.6653294910774896 0.0000000000000000
4.9834030527531912 7.7666123738717232 0.0000000000000000
5.0363167590030828 7.9617223577469014 0.0000000000000000
5.1771103042938398 7.8169015287445829 0.0000000000000000
5.2304217131731185 8.0097733097786623 0.0000000000000000
8.4430391559969511 4.0096097263227000 0.0000000000000000
2.7021641160593228 1.4390538808666817 0.0000000000000000
2.9003772264486432 1.4897429215480100 0.0000000000000000
7.8600521692687932 1.8832503762946060 0.0000000000000000
8.3432371682315463 2.3768615583494297 0.0000000000000000
8.3930857568798842 2.5627041971307256 0.0000000000000000
1.8927746128474723 3.7393470712129595 0.0000000000000000
2.0350355453471343 3.5962353638016733 0.0000000000000000
8.3146933004096031 6.1164461250732929 0.0000000000000000
6.6052846919032158 1.9215050033361045 0.0000000000000000
6.7442064603380860 1.7808027316278590 0.0000000000000000
1.8582125927139497 6.2363675094695701 0.0000000000000000
7.3592320260664552 8.5597805922012693 0.0000000000000000
7.1620360581114326 8.5118829433022736 0.0000000000000000
2.0089844384324977 8.0661238179012393 0.0000000000000000
2.2070789114016733 8.1252249911024439 0.0000000000000000
1.4129460572415322 7.1712804515654431 0.0000000000000000
8.4739885860068203 5.4539203222298882 0.0000000000000000
4.4763460397554971 8.5227400896941141 0.0000000000000000
4.2833772816693125 8.4737471644889713 0.0000000000000000
1.5169039774917157 6.8692944157552542 0.0000000000000000
2.7029890288838896 8.5974366002273062 0.0000000000000000
8.2688642270859685 4.6783939660812335 0.0000000000000000
8.4076959992685989 4.5386085939787488 0.0000000000000000
3.0243895221382244 8.5049163602763436 0.0000000000000000
3.1628812111464630 8.3713751183814793 0.0000000000000000
1.8288829821774164 4.7932304432046156 0.0000000000000000
8.1949170874867772 3.7707033955032894 0.0000000000000000
8.0021395981423264 3.7165625638847501 0.0000000000000000
8.1411462237293346 3.5778442238488406 0.0000000000000000
6.7322817604644820 8.2180282227331691 0.0000000000000000
6.7822311924147565 8.4053987953045546 0.0000000000000000
8.5470725658173823 2.4188398811240650 0.0000000000000000
8.5838132350994947 2.6143288203992134 0.0000000000000000
8.4463553139979108 2.7555028185689117 0.0000000000000000
7.7821312178127027 8.1370372995094655 0.0000000000000000
7.9238157783860181 7.9947998271527130 0.0000000000000000
2.5149265176988336 8.5509577667873966 0.0000000000000000
2.4610308013298949 8.3712835334250144 0.0000000000000000
3.9148656378482989 1.9363359358536987 0.0000000000000000
3.8603551368092583 1.7444018437084177 0.0000000000000000
7.9114373777186699 2.0752503782975795 0.0000000000000000
8.0599896219881160 1.9328477976612719 0.0000000000000000
7.4091093347571118 6.7861246506344850 0.0000000000000000
3.2891083270903461 5.5341753880637450 0.0000000000000000
6.0543205063265582 6.4327935735001329 0.0000000000000000
5.3707351214248096 7.8666122023151495 0.0000000000000000
5.4236332757082355 8.0594819586842110 0.0000000000000000
5.2854750734533162 8.2014671424709924 0.0000000000000000
5.4763668524959650 8.2515593226098840 0.0000000000000000
5.3363093517597520 8.3888753975451280 0.0000000000000000
5.5241331202079476 8.4400556542517986 0.0000000000000000
5.6669399284030497 8.3025096560176479 0.0000000000000000
7.3720854297426381 5.3428624040829753 0.0000000000000000
7.0569462416600732 6.1561977608836562 0.0000000000000000
2.4846842137784138 7.8326180126499727 0.0000000000000000
3.8511204036164162 4.9639427961902243 0.0000000000000000
7.0869013589305441 3.6569046607478950 0.0000000000000000
7.2274116081396196 3.5144390261565581 0.0000000000000000
8.1287385058307891 4.8222486902918842 0.0000000000000000
3.9916324957208054 4.8214302303778238 0.0000000000000000
5.6860020938396900 7.0530643794448338 0.0000000000000000
6.9164333295799167 6.2987393671211915 0.0000000000000000
5.6327897193492529 6.8601464214382517 0.0000000000000000
5.2696109001160529 2.2871848835599753 0.0000000000000000
5.0738416144249054 2.2400290189973471 0.0000000000000000
7.9487794572765713 3.5237731316522591 0.0000000000000000
8.0895585521660642 3.3803208505580904 0.0000000000000000
6.5168388472073335 2.2578316922322856 0.0000000000000000
3.3531742300651763 2.5060981470628474 0.0000000000000000
3.4063720642611619 2.6990378880707682 0.0000000000000000
5.3667418426129565 5.8955632084363385 0.0000000000000000
4.2385699033250104 5.0647830817554729 0.0000000000000000
6.1075282627596668 6.6257567531009842 0.0000000000000000
7.6148764605045720 3.6151776417689447 0.0000000000000000
3.7106121350402574 5.1064807849647895 0.0000000000000000
4.7365945870640003 7.5228683285532583 0.0000000000000000
5.5858651596025162 1.4857532852058128 0.0000000000000000
5.3994781156728537 1.4320794789132316 0.0000000000000000
3.6490766224626259 8.1381624079270320 0.0000000000000000
8.6355703945284930 2.8046200906565484 0.0000000000000000
8.4992657330687038 2.9500571265799560 0.0000000000000000
7.5738842847235963 1.4505482375051799 0.0000000000000000
7.3706765266721073 1.4203555216213288 0.0000000000000000
7.2265219905862415 1.5587547810846780 0.0000000000000000
7.1691513103712809 1.3728277665056998 0.0000000000000000
7.0217468672924994 1.5108775962378804 0.0000000000000000
8.4591685056756969 4.7195232504079625 0.0000000000000000
5.7193362713479701 8.4854084215431254 0.0000000000000000
5.8598120420880138 8.3543436749562012 0.0000000000000000
5.8088809375580093 8.1629928807485399 0.0000000000000000
6.0010927402699510 8.2174844916143819 0.0000000000000000
6.0506304390279757 8.4067841768278981 0.0000000000000000
6.1889627050089668 8.2729079205100948 0.0000000000000000
6.1448606510117685 8.0800742534478864 0.0000000000000000
6.3328356756340503 8.1346279279221303 0.0000000000000000
6.2906082863854875 7.9367130737000835 0.0000000000000000
8.4881553594752557 4.2058170927134952 0.0000000000000000
1.8496427822228656 3.5436362906636787 0.0000000000000000
1.9835338474815598 3.4032376371194459 0.0000000000000000
1.7994700653819078 3.3499127940677762 0.0000000000000000
1.9313050710864175 3.2113144633233865 0.0000000000000000
1.7392495681744413 3.1604770555189021 0.0000000000000000
1.8770271464686215 3.0201681286839706 0.0000000000000000
1.6842756439342523 2.9707192653099792 0.0000000000000000
1.8236393411605343 2.8290967535320628 0.0000000000000000
1.6311159458482358 2.7791928986616052 0.0000000000000000
1.7709093497536328 2.6370812484874349 0.0000000000000000
1.5791047574268691 2.5868282679752492 0.0000000000000000
1.7181716575910475 2.4447362085476039 0.0000000000000000
1.9111342661818935 2.4948797798695130 0.0000000000000000
1.8582154981927681 2.3023283730428346 0.0000000000000000
1.5505313147611184 3.1133099008183787 0.0000000000000000
2.0701985393289153 3.0692334829265402 0.0000000000000000
2.0510841219921421 2.3522768275909125 0.0000000000000000
1.9984515500858198 2.1598513364875633 0.0000000000000000
2.1919778655955779 2.2105180711645684 0.0000000000000000
2.1393433130559369 2.0150779876110296 0.0000000000000000
1.9454594985467184 1.9666367317465197 0.0000000000000000
1.4380582584497874 2.7295195216669574 0.0000000000000000
1.5279546451457398 2.4010800980695617 0.0000000000000000
2.1035885906752414 2.5434177224548833 0.0000000000000000
3.5257056378596383 1.8440329621139269 0.0000000000000000
3.3869614807217170 1.9793609739144655 0.0000000000000000
3.3327749222911307 1.7889319911391799 0.0000000000000000
8.4912660874679506 6.1645200221105085 0.0000000000000000
2.3412907271542127 8.5171792930173105 0.0000000000000000
4.7078915032047925 1.6197317305890186 0.0000000000000000
4.7641953930927237 1.8024949133684995 0.0000000000000000
4.6347797902005166 1.4340368542114870 0.0000000000000000
4.4625423762043726 1.3841624474809786 0.0000000000000000
1.6366928542341144 6.7437217020654021 0.0000000000000000
1.4847483016591037 4.1683429418780564 0.0000000000000000
1.4419535634692069 3.9817429330611649 0.0000000000000000
1.5752277017539540 3.8494066996003751 0.0000000000000000
5.5829914245773233 8.6347437569374215 0.0000000000000000
7.9825806170836753 8.1828456302280621 0.0000000000000000
8.1163767853076560 8.0448512254951901 0.0000000000000000
8.1768271260199352 8.2303720321420535 0.0000000000000000
5.2770299602278161 1.5583422168762440 0.0000000000000000
4.6502112157215159 8.5670453393946140 0.0000000000000000
2.0840113821264041 1.8281677589603131 0.0000000000000000
1.8892913990463474 1.7849085013351027 0.0000000000000000
1.8250669485037254 8.0243247162598941 0.0000000000000000
1.8668291930403598 8.2069436793000481 0.0000000000000000
1.6938297083710427 8.1669868797042859 0.0000000000000000
1.7315313089702704 8.3384159111113263 0.0000000000000000
1.5588932404906821 8.2921178859641582 0.0000000000000000
1.6043419350227761 8.4614128022598667 0.0000000000000000
1.4351788150100895 8.4169206672816959 0.0000000000000000
1.4802823091593251 8.5858408039083702 0.0000000000000000
1.7729240898287093 8.5020407117482808 0.0000000000000000
1.2494743326845048 8.5168543201963836 0.0000000000000000
8.4236392791422610 5.2734601205059217 0.0000000000000000
3.2296130200791735 8.5696643741586342 0.0000000000000000
8.5868589993954210 4.5924178190833933 0.0000000000000000
7.2192453500217608 8.6939419789880699 0.0000000000000000
7.3235513338098004 1.2039824044100422 0.0000000000000000
2.8389326646068618 1.2990755360106245 0.0000000000000000
8.6397139682427113 4.0886896458363902 0.0000000000000000
8.5751724818412658 3.8970526364244531 0.0000000000000000
7.5504385238997260 8.6121098010833190 0.0000000000000000
7.6771018055551847 8.4704481638597429 0.0000000000000000
2.4818910357738528 1.3737717340063642 0.0000000000000000
2.3597657093895767 1.5283643271679885 0.0000000000000000
6.2389570048858616 8.4599899457612153 0.0000000000000000
6.1045955192818404 8.5918919985926472 0.0000000000000000
1.7410156703100637 1.9152205531251489 0.0000000000000000
1.6978195188443885 1.7243231533590531 0.0000000000000000
8.5944579025199594 5.2942227174397329 0.0000000000000000
8.6697944227773611 5.4718086001328308 0.0000000000000000
2.2417959607082545 8.3530966707490961 0.0000000000000000
7.0218879311274751 8.6359809173070925 0.0000000000000000
8.6456200929511091 6.0571486480851355 0.0000000000000000
7.7472252464383713 1.5240948387405744 0.0000000000000000
8.8337751702116485 7.3503104079553792 0.0000000000000000
6.9691736065386243 8.4573698755731339 0.0000000000000000
6.8499823567254419 8.5818076836614399 0.0000000000000000
2.3995866184850745 8.1839544211903466 0.0000000000000000
8.2934141094036740 2.1889804042813577 0.0000000000000000
6.6548308315416103 8.5555154264324091 0.0000000000000000
6.4815994572250855 7.9842651210560591 0.0000000000000000
4.7993513328964648 8.4493974802493650 0.0000000000000000
4.7492607570989671 8.2487772927795753 0.0000000000000000
2.4161544516864426 1.7134654676849277 0.0000000000000000
5.3099690316781754 1.7490895850196291 0.0000000000000000
5.1653214779363177 1.8922442772130816 0.0000000000000000
4.8913634293618049 8.1028156283574191 0.0000000000000000
5.9149640052013233 8.5308513211735608 0.0000000000000000
1.3925145624501083 8.2232172265012977 0.0000000000000000
2.1964653212715133 1.6587800705254312 0.0000000000000000
3.1149610723247085 8.1799160693248467 0.0000000000000000
3.3073967437493299 8.2307995942165171 0.0000000000000000
1.8582514520370572 1.5906486486080795 0.0000000000000000
1.6513653465625504 1.5403948506660916 0.0000000000000000
1.5060474606620582 1.6738561971887627 0.0000000000000000
1.4605931762115800 1.4839234338505485 0.0000000000000000
8.6296879619168205 7.2785744326155868 0.0000000000000000
8.5678842793741730 7.0763650078501374 0.0000000000000000
8.3770130700059546 7.0372196419327100 0.0000000000000000
8.5012677995444950 6.8906860366286766 0.0000000000000000
8.3168166130438941 6.8540712665395365 0.0000000000000000
8.4319703405707553 6.6834296833639861 0.0000000000000000
8.2422692029034881 6.6684721702318583 0.0000000000000000
8.1262115363199552 6.8194349138452894 0.0000000000000000
8.0599819060253264 6.6317129483339734 0.0000000000000000
7.9305265618090521 6.7790655723484425 0.0000000000000000
8.1968067571229533 6.4754918541650426 0.0000000000000000
7.8651343839327517 6.5926930837162265 0.0000000000000000
1.6959032317768896 3.6754168078362714 0.0000000000000000
1.7548127656602339 3.8830433373394158 0.0000000000000000
8.3048190964146915 8.0943672521750845 0.0000000000000000
8.3539584741039796 8.2774656376444913 0.0000000000000000
8.2356201714862785 8.4098744088156625 0.0000000000000000
8.4079078541026977 8.4530666047964225 0.0000000000000000
8.5546685300702219 8.3130313263555156 0.0000000000000000
8.5897200282537831 8.5018977285035504 0.0000000000000000
8.2588099054886914 8.5794328289381294 0.0000000000000000
7.1106711153165865 8.3186523862765984 0.0000000000000000
8.3862761300982882 3.8300319582350313 0.0000000000000000
7.6372420050125021 8.2822189690139822 0.0000000000000000
5.5330567416028336 1.3015587988394652 0.0000000000000000
1.4279117187664514 6.7108878580435478 0.0000000000000000
1.8235999422954232 6.7777477330901927 0.0000000000000000
1.7361316348783706 6.5775306358957852 0.0000000000000000
8.2335775214673035 5.2230044836223239 0.0000000000000000
1.6537701686663917 2.2554471559863636 0.0000000000000000
8.2192905048828759 5.0225909279747363 0.0000000000000000
1.4948079942965813 2.9241646663249439 0.0000000000000000
1.3379960204550034 2.8725898319154202 0.0000000000000000
1.2183092189944178 2.7015564480345136 0.0000000000000000
6.0988287737390277 7.8844292870194730 0.0000000000000000
6.2437357307418937 7.7398974062562527 0.0000000000000000
7.7343932076856738 6.7353515772876644 0.0000000000000000
5.9004894619265595 7.8292872223561583 0.0000000000000000
8.7633277970243899 2.6509641552902141 0.0000000000000000
6.9361065413131406 1.8319916066511408 0.0000000000000000
1.5990764688589192 3.3263339570388264 0.0000000000000000
1.4190609043555520 3.2507278363119618 0.0000000000000000
1.3382160864081032 3.0680493985806834 0.0000000000000000
6.5338710600366481 8.1717422344956336 0.0000000000000000
8.2569320858280459 7.9022065465087508 0.0000000000000000
8.1192109388320439 6.0709435041220798 0.0000000000000000
8.1773946208732848 6.2632335501607335 0.0000000000000000
3.4541744540296282 8.0862537451971619 0.0000000000000000
8.4703633359643735 2.2483837472502120 0.0000000000000000
8.2559923880791324 1.9910359907952169 0.0000000000000000
8.3954098071775967 1.8613510041757393 0.0000000000000000
8.2151529557443297 1.8013731751338928 0.0000000000000000
8.3504330438749950 1.6745266871698126 0.0000000000000000
8.5339132358512924 1.7293145152515141 0.0000000000000000
8.4819286752646796 1.5478224110496737 0.0000000000000000
8.3075223709840866 1.4977130878751512 0.0000000000000000
8.4287226921888028 1.3570857503280731 0.0000000000000000
8.6125061825194802 1.4054237579304321 0.0000000000000000
8.0163190749088553 1.7419449004057672 0.0000000000000000
7.9721601777284095 6.2217863630880714 0.0000000000000000
2.0217489633808734 6.8211165534393121 0.0000000000000000
6.5496276955064365 1.7317342619990983 0.0000000000000000
6.4023274631701090 1.8690502241423506 0.0000000000000000
6.6815421311688681 1.5699467861298084 0.0000000000000000
6.8756764583380727 1.6415809872057487 0.0000000000000000
6.8367645181076133 1.4499564236490972 0.0000000000000000
6.9618300739589714 1.3237987309292734 0.0000000000000000
5.7794153506952135 1.5362318908495420 0.0000000000000000
5.9722102676944706 1.5823633106397019 0.0000000000000000
6.0225530101802658 1.7653241118173795 0.0000000000000000
6.1569307952461267 1.6308507012910958 0.0000000000000000
6.1183490684966824 1.4394479039450514 0.0000000000000000
5.9187444254850750 1.3904487998737927 0.0000000000000000
6.2093276069651191 1.8161535181544548 0.0000000000000000
6.0745316541080721 1.9588486152962359 0.0000000000000000
6.2656841426529635 2.0132461833920212 0.0000000000000000
2.3323838998654054 2.0623985107342682 0.0000000000000000
6.9932295671719453 2.0211183952918477 0.0000000000000000
1.3763841368355068 2.5383415660390591 0.0000000000000000
1.3479131775689257 2.3609375862194146 0.0000000000000000
1.4520485531388967 2.2178541955593203 0.0000000000000000
3.0546988309337331 1.3259598958247696 0.0000000000000000
3.0950983831066496 1.5321889555285082 0.0000000000000000
3.2437498910134575 1.4036248619751888 0.0000000000000000
3.3155880945947955 1.5887017636081719 0.0000000000000000
8.0646628027811023 7.8523502927356841 0.0000000000000000
4.1083735709578857 1.9871250724595864 0.0000000000000000
5.9377828705976690 2.1045036316920567 0.0000000000000000
1.7906981673302105 2.1079932323458999 0.0000000000000000
1.9062098316746896 6.4300499400177928 0.0000000000000000
1.0185616091673442 2.6254492386294355 0.0000000000000000
6.4621713982097351 2.0648049181140729 0.0000000000000000
7.8072423533045603 1.6977447703319246 0.0000000000000000
8.2466352261308895 1.3138591968695319 0.0000000000000000
1.5321551388363410 4.3605176021334602 0.0000000000000000
1.3615210864568399 4.5219625865676685 0.0000000000000000
1.4477599102181762 4.7319937453754113 0.0000000000000000
1.6380609804705035 4.7426246865605064 0.0000000000000000
8.6811719682131603 3.0183051339500522 0.0000000000000000
8.5567705769572768 3.1403488429070552 0.0000000000000000
8.3694594569504090 3.0923656694946193 0.0000000000000000
8.4328746173998361 3.2919428004694162 0.0000000000000000
8.2334415415386406 3.2362951175353505 0.0000000000000000
8.1776671827924279 3.0443629572427544 0.0000000000000000
3.0646167326291636 7.9851862700783185 0.0000000000000000
5.7578659831745993 7.9699118628923431 0.0000000000000000
8.0615964231416495 5.8789911329043436 0.0000000000000000
1.8502542745236201 7.4877936270369272 0.0000000000000000
1.7100464438636420 7.6278149147755014 0.0000000000000000
1.5219816386182128 7.5697368545275214 0.0000000000000000
1.4698991425941750 7.3875773833003562 0.0000000000000000
1.2802629457099068 7.3532113775706192 0.0000000000000000
3.1490985096477746 1.7278363540518715 0.0000000000000000
5.0875711760615685 8.1512694826857359 0.0000000000000000
8.5349690488253280 4.4013351698758525 0.0000000000000000
6.1873432305861105 7.5422224777664866 0.0000000000000000
6.3812560415015955 7.5883738812427941 0.0000000000000000
5.2149169854481459 2.0938892705342771 0.0000000000000000
5.0206733741976688 2.0442921733679391 0.0000000000000000
4.9649422943477379 1.8530565052907710 0.0000000000000000
3.9681873757905395 2.1290878090504997 0.0000000000000000
4.8804743845065000 2.1886128727828660 0.0000000000000000
7.7714729728108534 2.2211613631267091 0.0000000000000000
6.2843413206687524 1.5138311508141298 0.0000000000000000
8.0067269541947397 5.6863383977928450 0.0000000000000000
1.7406875566147997 7.8481170818642090 0.0000000000000000
7.8703989689844569 7.8012205618918680 0.0000000000000000
8.3531805419203167 4.3464885024740667 0.0000000000000000
8.3978863410170472 7.7581476754589103 0.0000000000000000
7.6764095747749801 7.7508877344908607 0.0000000000000000
8.1019686583568831 8.5330052698220946 0.0000000000000000
4.1619817761876030 2.1797321588564142 0.0000000000000000
8.6038677265919770 5.8291723849322929 0.0000000000000000
7.4825341086860746 7.7001273430976731 0.0000000000000000
3.1952125149379520 1.9267707961385818 0.0000000000000000
2.9518480308149257 1.6812774972343265 0.0000000000000000
3.6495038952125802 1.6725134890674376 0.0000000000000000
3.8084985439122869 1.5519257224957184 0.0000000000000000
3.9974868257793377 1.6054943882723323 0.0000000000000000
3.9408928729310415 1.4274851097144046 0.0000000000000000
4.1402506193968653 1.4733820781537377 0.0000000000000000
4.0533219166408037 1.7959674670759096 0.0000000000000000
2.5941545879511381 8.2236074397674592 0.0000000000000000
7.5764620520611956 2.1726794859050873 0.0000000000000000
8.2400521314978690 7.1818324479220710 0.0000000000000000
7.1483459718977267 7.7916556898456006 0.0000000000000000
7.0952006660020626 7.5987097605121212 0.0000000000000000
7.8668492269604346 5.8293351599295207 0.0000000000000000
2.3441728944077593 7.9758125564106788 0.0000000000000000
7.6296946515517714 2.3655150909636697 0.0000000000000000
7.4885907750057976 2.5084819942753609 0.0000000000000000
7.2888556764519832 7.6492542568370840 0.0000000000000000
7.6231942823816006 7.5575612570239974 0.0000000000000000
8.7996085390816514 7.0973112079450686 0.0000000000000000
7.2356740534211559 7.4562400445820378 0.0000000000000000
7.8530908111166777 7.0868771694461987 0.0000000000000000
4.2285813813883566 8.2846426200683290 0.0000000000000000
4.0882271518748254 8.4273534644243533 0.0000000000000000
3.8952754811813013 8.3795769180531767 0.0000000000000000
3.9607399038203903 8.5750316208490194 0.0000000000000000
3.7542032105277721 8.5217938652937786 0.0000000000000000
3.6974012908283962 8.3246968048217056 0.0000000000000000
3.8404294086932151 8.1866462313253319 0.0000000000000000
7.4592203229193057 6.9803051288757647 0.0000000000000000
6.6554711272643958 7.3032646553806693 0.0000000000000000
6.7951820187340530 7.1623019153405281 0.0000000000000000
2.2906130022037834 7.7814806108112595 0.0000000000000000
7.2688721868332653 6.9283147196782844 0.0000000000000000
7.8958439979656845 3.3301520691581707 0.0000000000000000
8.0370770048047682 3.1871143092290617 0.0000000000000000
7.8427721253759159 3.1370529687008419 0.0000000000000000
7.9831358393538903 2.9941056728449920 0.0000000000000000
5.7350631580272529 5.2751119660364161 0.0000000000000000
5.9287839812186611 5.3255663356515672 0.0000000000000000
6.1224983795231172 5.3759980890385259 0.0000000000000000
6.0692915558331260 5.1830608674618741 0.0000000000000000
6.2630019215370067 5.2334567514513957 0.0000000000000000
7.0228506867851506 6.6845483231376868 0.0000000000000000
2.2672954255030802 5.0891881587699386 0.0000000000000000
7.0336801181366626 3.4639578240214743 0.0000000000000000
7.1741861709748607 3.3215075473292788 0.0000000000000000
6.3012284532114551 6.6762064407554380 0.0000000000000000
5.2453564243029600 6.7594723811539144 0.0000000000000000
5.0516546701546474 6.7091612859240684 0.0000000000000000
4.9984497770121852 6.5162291817430349 0.0000000000000000
4.8579584154123552 6.6587995627257870 0.0000000000000000
4.8047522493738439 6.4658459386803786 0.0000000000000000
4.6642599388998409 6.6083557826314703 0.0000000000000000
7.4211464477973808 3.5648466511618149 0.0000000000000000
7.9342510956560153 4.7725428224913280 0.0000000000000000
3.9766611586648435 6.0710547856714978 0.0000000000000000
3.7829383524895088 6.0207104436263306 0.0000000000000000
4.0298750703912587 6.2639615319089588 0.0000000000000000
4.2236065034539036 6.3143848183462916 0.0000000000000000
4.0830903929445528 6.4568693840330296 0.0000000000000000
4.2768237644119003 6.5073174053331870 0.0000000000000000
4.1363080465611910 6.6497795405423386 0.0000000000000000
3.8893616051837041 6.4065138270536934 0.0000000000000000
3.2359017331565667 5.3412389561023996 0.0000000000000000
3.3764015376367138 5.1986807611215289 0.0000000000000000
3.1826938142902907 5.1483036779767524 0.0000000000000000
6.5099104269754804 5.4767465222743317 0.0000000000000000
7.1592333084831079 4.5711312548171055 0.0000000000000000
1.7925895044681539 5.3240061287175608 0.0000000000000000
1.6522150042987058 5.4664771947859716 0.0000000000000000
1.6084459235585009 5.2856307087919578 0.0000000000000000
1.4638160733889913 5.4208486694810372 0.0000000000000000
1.5153060988655767 5.6089198349702736 0.0000000000000000
1.3118321878501220 5.5629158923420894 0.0000000000000000
1.7215845746504479 5.1210746711318649 0.0000000000000000
1.8798549216701650 4.9885068028037809 0.0000000000000000
2.0206774014667293 4.8455044542474184 0.0000000000000000
2.1608776318276397 4.7032512061735749 0.0000000000000000
2.1076207954587294 4.5103632041227231 0.0000000000000000
1.7054844557138711 5.6595657052530788 0.0000000000000000
1.5681852970369761 5.8011827932204207 0.0000000000000000
1.6153571191599503 5.9930998896545615 0.0000000000000000
1.4411889177025592 5.9274518669538327 0.0000000000000000
1.4627245099652466 6.1208713126041125 0.0000000000000000
1.6725808026340869 6.1776389837908861 0.0000000000000000
1.8091670986022990 6.0433410319082554 0.0000000000000000
6.8632272047581067 6.1058335644323147 0.0000000000000000
6.6695176267278411 6.0555115093100733 0.0000000000000000
7.1974594471886002 6.0136966453874114 0.0000000000000000
4.2876397295825832 3.2868302287041620 0.0000000000000000
3.5551433073336263 6.4988245560851201 0.0000000000000000
3.7297295861153987 5.8278007525182902 0.0000000000000000
3.5892254834227328 5.9703886070752104 0.0000000000000000
3.6424331383298401 6.1633030978426246 0.0000000000000000
3.4487256448892842 6.1129787821544763 0.0000000000000000
5.4690103879003704 4.3104091909438216 0.0000000000000000
3.5019335416807271 6.3059054139649744 0.0000000000000000
5.0325343953886392 5.9877790174901477 0.0000000000000000
7.5424906892676438 2.7011037461993186 0.0000000000000000
7.3379732577558725 5.8712224045696182 0.0000000000000000
4.2959704108669525 7.2285541753334988 0.0000000000000000
4.1554535733344444 7.3709867002903140 0.0000000000000000
3.9617179377810117 7.3206473960376446 0.0000000000000000
4.3491947674696609 7.4215043222258057 0.0000000000000000
2.3392984021988039 6.0034841389182629 0.0000000000000000
2.4800497489385309 5.8608574612359448 0.0000000000000000
7.7063477228486814 5.2507730424725825 0.0000000000000000
7.5658105354823029 5.3932971703847352 0.0000000000000000
4.8687731959180613 3.4377573507301471 0.0000000000000000
5.0092643713532929 3.2951793325356049 0.0000000000000000
3.3614394352528754 6.4484907454426610 0.0000000000000000
6.0160831322273918 4.9901255884139060 0.0000000000000000
4.8498059075145150 2.7165067556592257 0.0000000000000000
5.2644770321918646 7.4808098051098462 0.0000000000000000
3.4104914796185182 4.6702509847351950 0.0000000000000000
3.3572880182635298 4.4773201444272903 0.0000000000000000
3.2167844786926798 4.6198891657578320 0.0000000000000000
3.1635813585158101 4.4269643682092550 0.0000000000000000
3.0230714985307223 4.5695189514512595 0.0000000000000000
6.2588453363957584 3.2623318668268415 0.0000000000000000
6.1183462126927406 3.4049475662822193 0.0000000000000000
6.0651330560182526 3.2120477829116054 0.0000000000000000
3.1486068925145574 5.6767128904370825 0.0000000000000000
6.3544296445512884 6.8691551727639490 0.0000000000000000
2.8335085828461737 6.4900223726751101 0.0000000000000000
7.3188756028445487 5.1499281230720486 0.0000000000000000
3.3040857749191908 4.2843909111200542 0.0000000000000000
3.1103787904364624 4.2340436188959227 0.0000000000000000
3.2508835931902103 4.0914657857742007 0.0000000000000000
3.0571753207942005 4.0411284563989183 0.0000000000000000
3.3913838711900706 3.9488853881137320 0.0000000000000000
5.2370327302788757 2.8171888237570508 0.0000000000000000
3.2550207781256146 6.0626025067138407 0.0000000000000000
6.5732206455149189 2.4490001433781456 0.0000000000000000
4.5877772658324192 3.7229669835742407 0.0000000000000000
4.2344280954398839 3.0939252277616944 0.0000000000000000
4.1471224794727126 3.4293326976600436 0.0000000000000000
4.0066069746930886 3.5718044637902282 0.0000000000000000
3.9533961692930610 3.3788644878733622 0.0000000000000000
2.0543933268336092 4.3175061907722290 0.0000000000000000
6.7717988338053132 4.4702649710770217 0.0000000000000000
6.5780912457479657 4.4198796343895390 0.0000000000000000
6.5248862416425508 4.2269471383583159 0.0000000000000000
6.6653858865351419 4.0843875887369911 0.0000000000000000
6.6121784689429779 3.8914471524930754 0.0000000000000000
6.7526774022237923 3.7489130648913940 0.0000000000000000
3.2126858449545215 2.6487422373170064 0.0000000000000000
3.2658801652446683 2.8416506933052887 0.0000000000000000
4.9943012578196733 4.5450212363899167 0.0000000000000000
3.2699890746845024 4.8128175762135834 0.0000000000000000
4.7324219077646390 5.5515122834090516 0.0000000000000000
3.0464088853858065 7.2618956179323506 0.0000000000000000
3.2401110776646633 7.3124546985681178 0.0000000000000000
3.3805885726988492 7.1698974042323416 0.0000000000000000
2.4458591441205160 6.3892691135298634 0.0000000000000000
3.1976805967667987 3.8985455167433094 0.0000000000000000
5.9138162713536921 6.5752443187875320 0.0000000000000000
4.1662410790614217 4.1505901526397819 0.0000000000000000
2.1949332944254909 4.1749511790214804 0.0000000000000000
5.2071218940609265 5.3167771363003800 0.0000000000000000
5.3476250146817863 5.1742374640375068 0.0000000000000000
5.1539160208173938 5.1238407906682903 0.0000000000000000
6.9463931165091184 3.7993705291486553 0.0000000000000000
3.0953994504220148 5.4837711868401291 0.0000000000000000
4.9560589207157166 3.1022308268993828 0.0000000000000000
6.2779746029674746 3.9836806364958730 0.0000000000000000
6.6504130138011766 5.3341659427943773 0.0000000000000000
6.4567074873360317 5.2838186814502297 0.0000000000000000
3.9084988793175013 7.1277711165452153 0.0000000000000000
5.1389445919864896 6.3736377151916637 0.0000000000000000
5.2561708234318978 3.5385807771840048 0.0000000000000000
2.9166635559436966 4.1836822572337775 0.0000000000000000
7.8809098643914552 4.5797282354377078 0.0000000000000000
2.8784681730575166 2.7411761719220178 0.0000000000000000
7.2465377040184826 4.2357104461034751 0.0000000000000000
7.1060231429603720 4.3781968330165535 0.0000000000000000
3.4977898208429821 4.3347545926700013 0.0000000000000000
5.5604598161866656 5.9459572033141646 0.0000000000000000
2.4077991843581446 4.9466458309662249 0.0000000000000000
4.4173345684981076 6.3648801585504842 0.0000000000000000
6.5481237270978072 6.9194865808499015 0.0000000000000000
5.0475057401826717 4.7379621893744748 0.0000000000000000
5.1880047269284368 4.5954163434784876 0.0000000000000000
3.5127697903268982 3.0849434194274989 0.0000000000000000
3.3722742046645102 3.2275042590512140 0.0000000000000000
4.9751825318681231 3.8236339849725471 0.0000000000000000
6.8207939168423790 2.6920887784211689 0.0000000000000000
2.3778945852882782 7.4459330199381411 0.0000000000000000
2.4311254075050672 7.6387948627430999 0.0000000000000000
4.6260084061285216 5.1656303962442136 0.0000000000000000
4.0681544862005090 7.7064279133667304 0.0000000000000000
7.6531370953269633 5.0578481614059223 0.0000000000000000
3.9425761217910260 6.5994090432557524 0.0000000000000000
3.8128866678365090 3.5213235592639154 0.0000000000000000
2.8867339331421022 6.6829699540706580 0.0000000000000000
5.1347985533503282 4.4024710885860099 0.0000000000000000
2.9507618125903123 3.6553132249190754 0.0000000000000000
3.9725159506536980 4.1001486411846475 0.0000000000000000
2.5100942412831033 3.3615796616439124 0.0000000000000000
2.3165573411552853 3.3112639383244113 0.0000000000000000
2.2634992533762799 3.1186654988288245 0.0000000000000000
2.4037505791080429 2.9759409117657643 0.0000000000000000
2.2097494259907218 2.9270198758104580 0.0000000000000000
2.1762318125734152 3.4537949389495437 0.0000000000000000
2.5142332995949914 5.3324792993022552 0.0000000000000000
2.3737241095035011 5.4750153601768874 0.0000000000000000
4.6941889636568410 4.1087977691005522 0.0000000000000000
5.7649701723752758 2.7758832516797791 0.0000000000000000
2.3205125045741020 5.2821020996866412 0.0000000000000000
7.4402594173652226 4.2861256488749415 0.0000000000000000
7.3870565107736477 4.0932059702407626 0.0000000000000000
2.6249372668701731 7.6892252249607225 0.0000000000000000
6.5290170193841854 6.1981127270922087 0.0000000000000000
3.3381807668406016 3.7559545383151760 0.0000000000000000
5.8905421246355543 3.8829732637507055 0.0000000000000000
5.4645520632096263 2.3391092490379028 0.0000000000000000
3.7679947487114669 7.2704100361845114 0.0000000000000000
3.5742856845551025 7.2201872809585836 0.0000000000000000
3.6274975548798714 7.4130949855598391 0.0000000000000000
5.1730323546786785 5.8452022375242345 0.0000000000000000
3.9384224342854459 4.6285031438394686 0.0000000000000000
2.5782563963348992 2.3057712841443818 0.0000000000000000
3.3955193075303658 5.9200473256158874 0.0000000000000000
5.3434557702195713 3.2031463205349358 0.0000000000000000
6.5398242871208447 2.9771171964039076 0.0000000000000000
7.5126031411033551 5.2003596055308305 0.0000000000000000
3.2999589515338172 2.3132371308987087 0.0000000000000000
7.3911798384641356 6.0641582595032508 0.0000000000000000
2.9848664465069885 3.1269361404938816 0.0000000000000000
4.5536850937866769 4.2513719411741020 0.0000000000000000
4.5195930471545545 4.7797650811920098 0.0000000000000000
5.5945515559877732 5.4175971222247785 0.0000000000000000
6.4035029143767064 5.0908891433745334 0.0000000000000000
4.4556323913075939 7.8075555788606925 0.0000000000000000
5.8265328612789187 6.9106405080688242 0.0000000000000000
5.9670439596991356 6.7682240362268145 0.0000000000000000
6.3162062091779250 5.4263902744797132 0.0000000000000000
2.2290901711545317 3.6465808404028826 0.0000000000000000
4.4281548581866748 3.1442710808632310 0.0000000000000000
3.7405600299056294 2.6070180775683713 0.0000000000000000
6.3461235971828707 2.9267972829232347 0.0000000000000000
7.1783602986419854 5.2924186676379099 0.0000000000000000
3.7937690569804894 2.7999964351091422 0.0000000000000000
3.9342720860700324 2.6575648255073188 0.0000000000000000
4.1321473831962727 4.6789328485062054 0.0000000000000000
4.1130302245119896 3.9576656962722216 0.0000000000000000
2.5716485696304630 7.4962149706908345 0.0000000000000000
2.5864772287648905 6.2466745608867420 0.0000000000000000
2.6397248305386412 6.4395830978890718 0.0000000000000000
2.9889788051651687 5.0979001567815887 0.0000000000000000
3.8361488597882536 6.2136143010597378 0.0000000000000000
4.4620536273118292 2.6159428991080649 0.0000000000000000
3.8660958608972513 3.7142712300820770 0.0000000000000000
5.0435211005673004 2.7668957145192876 0.0000000000000000
2.6697337754531034 3.9403619971569253 0.0000000000000000
5.9054872264298046 2.6333592182626542 0.0000000000000000
6.0352005422656534 5.7114512766106653 0.0000000000000000
4.1853582680858397 4.8718577966144432 0.0000000000000000
4.2044794261479508 5.5931257683152573 0.0000000000000000
4.3449929720827072 5.4506425993724026 0.0000000000000000
2.6929845460324384 6.6324843003619600 0.0000000000000000
2.6057136897591597 6.9678797144124882 0.0000000000000000
6.3843869208536486 4.3695270239723918 0.0000000000000000
6.7227211503684998 6.2484234355784096 0.0000000000000000
6.2289095851059724 5.7618790645736837 0.0000000000000000
2.2331070071311392 5.6176135161734546 0.0000000000000000
4.5919212959028251 5.6940328031972998 0.0000000000000000
4.5237647124997258 6.7508091163312773 0.0000000000000000
3.5210732721512872 7.0272786879308207 0.0000000000000000
3.3273761722205366 6.9769486325255849 0.0000000000000000
4.0448433560364636 5.0143543040756997 0.0000000000000000
4.9111644248972857 6.8517494006201076 0.0000000000000000
5.3966680361708814 3.3961174840460915 0.0000000000000000
2.7270572275227045 6.1041602542842579 0.0000000000000000
4.3641201014270399 6.1719305797091142 0.0000000000000000
7.0037386723589901 5.9632811329909483 0.0000000000000000
3.2933420167921357 7.5054414502354172 0.0000000000000000
3.0996452478574881 7.4549022480200051 0.0000000000000000
6.0501730540710961 4.4617393140184047 0.0000000000000000
3.6956426471215047 6.3562111265098977 0.0000000000000000
5.2029616277959017 3.3456149386976026 0.0000000000000000
3.1253786785722242 2.9843019363550973 0.0000000000000000
5.5795786429145080 6.6672315163065523 0.0000000000000000
6.3790124680050662 2.4003472949694293 0.0000000000000000
3.0039698073297876 3.8482183480571726 0.0000000000000000
6.9505331500816006 5.7703644370879736 0.0000000000000000
6.9655129885671068 4.5206873495016167 0.0000000000000000
2.5524747339247260 6.7750143916450867 0.0000000000000000
6.8782162583179378 4.8561339496290934 0.0000000000000000
6.6269824821377386 2.6416765488894320 0.0000000000000000
4.4705498782779465 6.5578393186836141 0.0000000000000000
6.1757044976652962 5.5689380044202075 0.0000000000000000
3.6000640292331503 2.7494749066673423 0.0000000000000000
5.2985628543212879 6.9523794545973203 0.0000000000000000
5.6968164341705325 3.8325323580171511 0.0000000000000000
6.9696414002002394 6.4916437213476366 0.0000000000000000
6.7759256209650438 6.4413295352234554 0.0000000000000000
4.5387122018807133 5.5010883885732484 0.0000000000000000
6.4375919117728797 4.5624543096918790 0.0000000000000000
3.0721829947890922 2.7914151838873718 0.0000000000000000
5.7392821135547933 7.2460569538656179 0.0000000000000000
5.8799137520277780 7.1037677395934891 0.0000000000000000
5.5754312372425439 4.6962977631353793 0.0000000000000000
5.3817139142777224 4.6458443905034645 0.0000000000000000
5.2412108665682755 4.7883600154672639 0.0000000000000000
6.0011121211907215 6.2398348581927729 0.0000000000000000
4.5004774383942809 4.0584562270156201 0.0000000000000000
5.4107369767267324 2.1449532549740522 0.0000000000000000
4.7963597744546034 2.5239032321096802 0.0000000000000000
5.2944179491267533 4.9813003799263456 0.0000000000000000
5.0965765307873001 2.9597108228111986 0.0000000000000000
7.5998924995051986 4.8648984237756601 0.0000000000000000
3.9043301516870912 5.1568661546837902 0.0000000000000000
4.3067562094512546 4.0080842795627429 0.0000000000000000
7.1633557266601127 6.5420172492207938 0.0000000000000000
5.4199495123097901 6.0884839165986602 0.0000000000000000
3.4595698148998153 2.8919883541500684 0.0000000000000000
5.9246252834686306 3.3546177324802082 0.0000000000000000
2.9698674978408590 4.3765990040623155 0.0000000000000000
3.3190759236104790 3.0345730535990807 0.0000000000000000
5.8714087266251314 3.1617095691129142 0.0000000000000000
6.0119182066068904 3.0191546670192380 0.0000000000000000
2.5332144878437610 6.0537778369462245 0.0000000000000000
5.2262378047189237 6.0381280139043962 0.0000000000000000
2.8825573621160823 4.7120459305821152 0.0000000000000000
5.9587014452075246 2.8262642643085156 0.0000000000000000
5.1497583911886124 3.1526526649144859 0.0000000000000000
6.1906791692243912 4.3191831930266913 0.0000000000000000
7.9150129016901456 4.0513198287906489 0.0000000000000000
4.6557378016751452 2.6662652095604793 0.0000000000000000
6.9804580292841054 3.2710027638646650 0.0000000000000000
6.4865888992084928 2.7841996816194854 0.0000000000000000
3.0762775037094130 4.7624430309307231 0.0000000000000000
2.7761465028353198 4.3262037905344952 0.0000000000000000
7.0187233561131945 4.7136232671198952 0.0000000000000000
4.4855026758952947 5.3081485509078039 0.0000000000000000
4.7515450051877073 6.2728900314546312 0.0000000000000000
2.8634575964440607 3.9907687807276209 0.0000000000000000
3.1594860907763094 2.4558642898411529 0.0000000000000000
6.7674233838003550 2.4991530850491857 0.0000000000000000
4.0598186223625321 3.7647378237047113 0.0000000000000000
3.3423138793476146 5.7271119291229393 0.0000000000000000
2.6206388470724398 5.7183174443406513 0.0000000000000000
6.2056333031768371 3.0694287766233339 0.0000000000000000
5.0624699283260854 3.4881316957344923 0.0000000000000000
4.7814833125911305 3.7732834454355100 0.0000000000000000
7.2162188333718857 6.7351284407041536 0.0000000000000000
4.6409831474779510 3.9158791518843570 0.0000000000000000
5.5413415712381822 5.2246622853762377 0.0000000000000000
5.7500301193206829 4.0254682305677134 0.0000000000000000
4.9219779911204586 3.6306929909016841 0.0000000000000000
4.4322932306544214 5.1152142284949376 0.0000000000000000
5.4390677896649890 6.8097800189499376 0.0000000000000000
4.3790829923922709 4.9222845089659044 0.0000000000000000
6.4716804515099691 4.0340160150500370 0.0000000000000000
7.9940575616423475 4.9667149675888167 0.0000000000000000
4.9452443836868083 6.3232906109627978 0.0000000000000000
6.3311812108726242 4.1766018559863491 0.0000000000000000
6.8931774948169764 3.6064189180511996 0.0000000000000000
7.7947840996729463 4.9154499602754171 0.0000000000000000
6.6994647999182968 3.5559630166333687 0.0000000000000000
7.8617879564263378 3.8585238671891218 0.0000000000000000
5.4158004219608991 4.1174588779360768 0.0000000000000000
5.6095185918410007 4.1679392666739430 0.0000000000000000
5.0857390922257233 6.1807110027823153 0.0000000000000000
6.5589700492683916 3.6985080089778712 0.0000000000000000
5.5112790361678607 7.7240876128535376 0.0000000000000000
3.7638205686386144 5.2994033136035430 0.0000000000000000
4.6110497732122200 6.4153888676924744 0.0000000000000000
5.8606047659476044 6.3822904275939667 0.0000000000000000
2.4268659679575459 5.6679438212493123 0.0000000000000000
5.7733107020127523 6.7176857522782480 0.0000000000000000
7.8085132643406654 3.6657756696247343 0.0000000000000000
6.6017595560739508 7.1117778831121772 0.0000000000000000
3.4338006478206813 7.3628496726576333 0.0000000000000000
6.1374714910954449 4.1262634383106391 0.0000000000000000
5.3285058075101741 4.4528985497969940 0.0000000000000000
6.1607515083877340 6.8187414085876750 0.0000000000000000
3.1294852566018387 4.9553717351632338 0.0000000000000000
7.7553099640392746 3.4728064852549441 0.0000000000000000
3.5701084432614429 5.2490412477590889 0.0000000000000000
3.5169019621080868 5.0561132237107786 0.0000000000000000
5.9437536514165235 4.0758941362152079 0.0000000000000000
7.3146931854137609 3.1790381541063844 0.0000000000000000
7.3679206895835554 3.3719409395254423 0.0000000000000000
7.1209591940215322 3.1285740766485901 0.0000000000000000
7.5616470871000816 3.4223243150322049 0.0000000000000000
3.6806464767149598 7.6061828934051290 0.0000000000000000
4.9302602308918733 7.5733534024437281 0.0000000000000000
3.3231950417370815 5.0057488924192794 0.0000000000000000
4.0149304449347269 7.5135476865783177 0.0000000000000000
6.4076292721876245 7.0620987153685890 0.0000000000000000
4.2086749234602960 7.5639068745635027 0.0000000000000000
4.8770811261387639 7.3802709835928137 0.0000000000000000
3.8211915549042454 7.4633460587060521 0.0000000000000000
5.1239497503081415 7.6236670160964364 0.0000000000000000
4.6834015140708898 7.3297887355530547 0.0000000000000000
5.3176191839087901 7.6738530781896479 0.0000000000000000
4.5429222785897334 7.4721742165270078 0.0000000000000000
4.4024146935215329 7.6145050605957749 0.0000000000000000
7.3417988121933755 7.8423810476829914 0.0000000000000000
2.2141067891765398 4.8962299819657318 0.0000000000000000
2.3013774164185072 4.5607706025685593 0.0000000000000000
1.9633232899988649 2.6865347779969810 0.0000000000000000
3.0538158199537717 2.0695448395767473 0.0000000000000000
2.2757593173901642 1.8643497441771482 0.0000000000000000
1.8828946189171940 6.9644741750995820 0.0000000000000000
3.4403921954571577 2.1709770711916319 0.0000000000000000
3.2468572706508607 2.1205007994856930 0.0000000000000000
2.0770886660391432 7.0117623652803571 0.0000000000000000
2.0164493649630373 2.8779923505543290 0.0000000000000000
7.9667446843021441 2.2669115525628971 0.0000000000000000
2.1235676159243013 3.2613314721768361 0.0000000000000000
2.0440552545802855 8.2657421242412870 0.0000000000000000
8.1065356433499609 2.1279583207391255 0.0000000000000000
7.3484871764709849 2.6517641134320895 0.0000000000000000
7.2951145743953791 2.4577857317740914 0.0000000000000000
7.6831673155992419 2.5586507020780376 0.0000000000000000
5.5642398978109879 7.9177512556176586 0.0000000000000000
2.2978379953600538 2.5903844867240453 0.0000000000000000
1.3390507641793186 6.8516537022971216 0.0000000000000000
1.2865527220124193 7.0208530001242897 0.0000000000000000
4.6309056587961743 1.9452435104784267 0.0000000000000000
4.3355835789833090 1.5220785592278112 0.0000000000000000
8.0107202564248770 7.6586294983469978 0.0000000000000000
8.4783988125671588 8.1464833922139803 0.0000000000000000
1.5658309035775282 7.7587835147548629 0.0000000000000000
5.6163181813091514 8.1106565645388677 0.0000000000000000
2.5266163432655757 2.1115833993108697 0.0000000000000000
4.1630690555264369 8.6175511533119558 0.0000000000000000
8.3569371556993435 6.3382955611647462 0.0000000000000000
7.6874998783713995 6.5080362379018428 0.0000000000000000
1.3441520969283420 7.5373411860422017 0.0000000000000000
5.9521637221034878 8.0250808589984004 0.0000000000000000
8.2803638337641878 3.4385521280845497 0.0000000000000000
1.5454214379498559 8.1181603547441235 0.0000000000000000
8.1214053854863515 1.4350474888180393 0.0000000000000000
4.8239695309711266 1.9929204165894283 0.0000000000000000
1.9265643408630504 8.5602347681480637 0.0000000000000000
2.1568925510569006 2.7347618600653947 0.0000000000000000
1.5604333073094876 1.8576179550283032 0.0000000000000000
4.7069040628423089 8.7321211226536715 0.0000000000000000
6.6760986057833378 8.0286049237862738 0.0000000000000000
1.7168054580967580 6.3669992140603036 0.0000000000000000
2.2429744569951016 2.4007175077191758 0.0000000000000000
5.8830764578880714 1.9116203592998098 0.0000000000000000
2.3849349535247404 2.2565730957752201 0.0000000000000000
5.1053927632053275 1.6765857151146888 0.0000000000000000
1.7798478964885032 1.4138912705416187 0.0000000000000000
8.1604462893331338 1.6162634207677227 0.0000000000000000
5.1394945047263612 8.3352936408246023 0.0000000000000000
5.1998857686614892 8.5270867635643146 0.0000000000000000
5.3979656307033439 8.5701142739406428 0.0000000000000000
8.3118975300310165 2.8991387225702567 0.0000000000000000
1.0689427679110510 7.3572168009860883 0.0000000000000000
8.3469516921607170 4.8531178884539266 0.0000000000000000
3.3418422465442972 8.4218105855600260 0.0000000000000000
1.6093115815083341 1.3550460710946188 0.0000000000000000
1.4271176249776683 1.2405090538821293 0.0000000000000000
1.2381844612956303 1.4371330856562348 0.0000000000000000
4.7371115613182013 2.3322117832928826 0.0000000000000000
1.4400903583153430 3.4034472842104573 0.0000000000000000
6.3437155054800600 1.6824305189839799 0.0000000000000000
8.5264429003125493 5.6313454215888967 0.0000000000000000
4.9350449078951906 2.3818720218531930 0.0000000000000000
1.4083458049375830 3.7963884434516606 0.0000000000000000
2.3698311570261263 8.6901709266073883 0.0000000000000000
8.2576171080707592 2.7045290963363899 0.0000000000000000
8.5486347417915169 3.7018128760768270 0.0000000000000000
8.0169825961700720 6.4244191607314338 0.0000000000000000
8.6049607781745099 6.7408771291708200 0.0000000000000000
6.3238565708080934 2.2067634859899221 0.0000000000000000
6.4330277011965284 7.7873748589007485 0.0000000000000000
7.0798930525202683 1.6952166285521939 0.0000000000000000
1.2674650803865555 3.2305114424130004 0.0000000000000000
7.2772963423314732 1.7439042768178314 0.0000000000000000
6.5726480151241278 7.6393562824125807 0.0000000000000000
6.5179678072620622 7.4465214416557766 0.0000000000000000
2.6451937120566038 1.2424759482835448 0.0000000000000000
2.6358859165124513 1.0360459660467365 0.0000000000000000
8.7108754734528215 3.8116102781351717 0.0000000000000000
8.5415116304654664 6.3305749442546997 0.0000000000000000
8.7193222382245246 4.4656965467453196 0.0000000000000000
2.8878957068253270 8.6427989327031760 0.0000000000000000
2.7580725219188995 8.8020889139536660 0.0000000000000000
8.6782072030635096 6.9041705321644189 0.0000000000000000
7.6638948439161263 8.7317797446658947 0.0000000000000000
8.1865089419813017 6.9965618513145484 0.0000000000000000
4.8290186951347387 1.4563321033464973 0.0000000000000000
8.1259514591943773 0.8804300424086501 0.0000000000000000
9.1477359804784282 7.7900996321315175 0.0000000000000000
2.1789983984965788 8.5523495864381687 0.0000000000000000
8.5592907310098081 1.9275160815159325 0.0000000000000000
3.3818881498802527 9.1466036812734082 0.0000000000000000
8.5650635033503928 3.3993914025810286 0.0000000000000000
5.3222100970380515 1.2872748178823012 0.0000000000000000
6.1826587605785921 1.2691813458520660 0.0000000000000000
0.9760408552748141 6.2032701880191148 0.0000000000000000
7.6586577521759169 1.2691823025104392 0.0000000000000000
0.9745281567859916 7.6733564659351776 0.0000000000000000
5.2903681996414393 8.9714424336334986 0.0000000000000000
5.2992548785805669 9.1310244894651440 0.0000000000000000
6.2033794743302133 9.0238376129668953 0.0000000000000000
8.7317098274148730 6.1822760112183506 0.0000000000000000
7.6850263412603219 9.0272895643092710 0.0000000000000000
1.8739678737783048 9.1198501804258800 0.0000000000000000
2.2018782345356662 9.1390873885812063 0.0000000000000000
2.3408630645806818 8.9891777215092485 0.0000000000000000
9.0149680862031651 2.3285883373987328 0.0000000000000000
9.0231723573606111 3.7965426138757081 0.0000000000000000
8.7156831625588627 3.2163940206726918 0.0000000000000000
3.6825732745010260 9.1387852519287591 0.0000000000000000
3.6925808689870103 9.3960706720567693 0.0000000000000000
9.1464833049721737 3.3830851942646887 0.0000000000000000
8.7320393514466534 8.2441737442929437 0.0000000000000000
1.7468891727361808 8.7314538146958824 0.0000000000000000
5.1305719066487541 1.4708701825571502 0.0000000000000000
1.4403648122397292 4.8824553916314297 0.0000000000000000
6.6002637568089710 1.4476459851680081 0.0000000000000000
1.4279995569839667 6.3671954855639328 0.0000000000000000
4.8636939388313376 0.8647798769618263 0.0000000000000000
4.7138463073808650 0.9030900266406553 0.0000000000000000
4.7598963238573200 0.7065332250786199 0.0000000000000000
5.1383247881164014 0.8642831600355896 0.0000000000000000
5.2884269373866113 0.9054590205132014 0.0000000000000000
5.2522891511806726 0.7101025214962710 0.0000000000000000
0.8647560012396363 5.1365615100126325 0.0000000000000000
0.9023235734329151 5.2862549922053201 0.0000000000000000
0.7060198459562044 5.2402452517331630 0.0000000000000000
0.8642007609298692 4.8621928278303512 0.0000000000000000
0.9039375403836328 4.7125478320778145 0.0000000000000000
0.7093003347517585 4.7484267193758578 0.0000000000000000
6.3154689951287146 0.8618797644588603 0.0000000000000000
6.6130236840017558 0.8511068068992919 0.0000000000000000
0.8535186531509223 6.6177667731418346 0.0000000000000000
0.8537505631817878 6.3222308693417055 0.0000000000000000
0.6028146257907800 6.3084388184567350 0.0000000000000000
7.7979671687462204 0.8609893295815817 0.0000000000000000
0.8440334499170198 7.7952227914690209 0.0000000000000000
8.7312344527724530 1.7561260588388083 0.0000000000000000
8.6674020874777309 1.5939600435323253 0.0000000000000000
3.8496200967129992 8.7139995885401742 0.0000000000000000
1.4414672717216208 5.1157528551875240 0.0000000000000000
1.2778838384290931 4.7027931141334056 0.0000000000000000
1.1781586347602115 4.4215522466320580 0.0000000000000000
6.1832096915253141 1.0074864872974871 0.0000000000000000
1.2707505015895904 6.1759833932087620 0.0000000000000000
7.6590631775354883 1.0112884772711559 0.0000000000000000
2.3390355974894845 1.2699981562366049 0.0000000000000000
2.2067232713875500 0.8515224781165629 0.0000000000000000
0.9739532880029838 2.3200683348696360 0.0000000000000000
3.7946280974878199 0.9790746902684381 0.0000000000000000
3.8165834445930686 8.9931358182517815 0.0000000000000000
3.2243907801505372 8.7344935049039147 0.0000000000000000
3.8526762819190625 1.2864114930950421 0.0000000000000000
3.6764733362204711 0.8560455783858010 0.0000000000000000
0.8534689380907233 3.3834471562832262 0.0000000000000000
1.2679872232770433 1.7564369109215376 0.0000000000000000
3.6553654027940574 1.4614912494349406 0.0000000000000000
3.3864952788515161 0.8511053905160273 0.0000000000000000
0.8619276736801399 3.6824234531456574 0.0000000000000000
0.6042379962522142 3.6933724480099133 0.0000000000000000
1.8735047344413962 0.8804748647166383 0.0000000000000000
0.8802452740639883 1.8763444823145587 0.0000000000000000
4.7149292744822606 1.2927989076016484 0.0000000000000000
1.2710008586109962 5.2866478011982121 0.0000000000000000
6.7789822701263889 1.2892262162679742 0.0000000000000000
5.2974049645421184 8.7027634639873330 0.0000000000000000
4.7088083753968046 8.9711209271490198 0.0000000000000000
4.6993838546133269 9.1279912324919810 0.0000000000000000
8.9721975960232498 5.2903417723364248 0.0000000000000000
9.1316366303865752 5.2990731119207286 0.0000000000000000
8.7206133329067406 4.6771115068598714 0.0000000000000000
8.9709159844042112 4.7091896520195524 0.0000000000000000
9.1279886789129900 4.6997906714486835 0.0000000000000000
8.9777232044149180 6.1753431795163864 0.0000000000000000
9.0152951090581883 7.6619611111555965 0.0000000000000000
1.0083006188565806 3.8130501356733211 0.0000000000000000
2.3381050739749845 0.9981548343688529 0.0000000000000000
8.7320223958676024 2.3426375543973630 0.0000000000000000
2.1906899239145869 1.4624467263001300 0.0000000000000000
0.8530607844735028 2.1998366263393345 0.0000000000000000
3.4010290197497755 1.4393555434274110 0.0000000000000000
1.4378752944482340 3.6456620373307382 0.0000000000000000
0.8800468119566560 8.1250572420442015 0.0000000000000000
9.1195629905780997 1.8760012415458949 0.0000000000000000
9.1442152223854585 3.6778584067010338 0.0000000000000000
8.5465651149507025 5.1307042584624520 0.0000000000000000
8.5471345453733694 4.8711311517050531 0.0000000000000000
6.6183284881098414 9.1465017360380028 0.0000000000000000
6.3225395976561218 9.1464016992990658 0.0000000000000000
6.3087596321955548 9.3973662762075119 0.0000000000000000
9.1465330965534228 6.6173267785617034 0.0000000000000000
9.1540287788921830 6.3510489567021793 0.0000000000000000
9.3698380646709030 6.3004334613129869 0.0000000000000000
8.1263779749690475 9.1196207814115233 0.0000000000000000
7.8039225917757546 9.1474174004255921 0.0000000000000000
7.8230714293126553 8.5383311350753424 0.0000000000000000
9.1197588433496932 8.1244037294261489 0.0000000000000000
8.5731465119519772 7.7936951097357037 0.0000000000000000
9.1527793045362262 2.2048824028327418 0.0000000000000000
6.1829867849420888 8.7321268458207779 0.0000000000000000
0.8135950148696195 9.1852558816867447 0.0000000000000000
9.1769421085686727 9.1745358192266391 0.0000000000000000
0.7829056698227318 0.7862014122334179 0.0000000000000000
9.1764471254517872 0.8258781138229143 0.0000000000000000
7.8409889509833191 8.3387992464692733 0.0000000000000000
1.4023381010944094 7.6985007337893636 0.0000000000000000
8.5627639387784420 6.5975782105791296 0.0000000000000000
6.3059445786381012 0.6032452952884071 0.0000000000000000
3.6893320092473600 0.6045849863112953 0.0000000000000000
9.3956953169671298 3.6906423333331939 0.0000000000000000
4.5362792265128276 8.6925583225908465 0.0000000000000000
1.3422150231643499 8.7477864109811048 0.0000000000000000
8.8428904066969487 5.5747202123634310 0.0000000000000000
6.3544922306835288 8.5745550810995042 0.0000000000000000
1.9278928367285053 1.4378227324896173 0.0000000000000000
1.3873936852331539 5.7467989773036550 0.0000000000000000
4.4258558295189321 8.8408545571823467 0.0000000000000000
1.8917588461478092 8.3910578423810449 0.0000000000000000
7.3876824466626738 0.9991015307523546 0.0000000000000000
7.3844245888240145 9.0077040873989489 0.0000000000000000
2.6196478695378000 8.9541421459147887 0.0000000000000000
8.5510786323873713 1.2019302190686447 0.0000000000000000
8.7688326193121107 1.2524641640423246 0.0000000000000000
8.2412262459139551 8.7330842995265296 0.0000000000000000
3.0668490505916739 8.6852043916974644 0.0000000000000000
9.0505261594575384 2.4996941733198983 0.0000000000000000
3.5082160971960303 8.2724066833587386 0.0000000000000000
1.7582301263369224 1.2704767539418764 0.0000000000000000
9.0356958517615436 7.4538649899206177 0.0000000000000000
7.3961187062211380 8.7152915315127757 0.0000000000000000
8.4366766841884733 8.6470321192777426 0.0000000000000000
8.6460529954517114 8.6903498533435926 0.0000000000000000
8.7872364004796779 8.5445635579191155 0.0000000000000000
4.3488562486795139 8.6550598229019116 0.0000000000000000
7.9911616490708619 6.9539291809012811 0.0000000000000000
4.0745118851077384 1.2728920831688337 0.0000000000000000
6.7623659718952034 8.7124220857912267 0.0000000000000000
2.5730803222998215 8.7239946723498960 0.0000000000000000
2.9477341913709205 8.8343447583850594 0.0000000000000000
3.4029872672327137 8.5611956468536814 0.0000000000000000
6.6169133308629302 8.3492890394486228 0.0000000000000000
4.8799867619768804 8.5633767571034909 0.0000000000000000
7.5917740237670328 6.8456665473073954 0.0000000000000000
8.8143536493229426 1.4584859946064730 0.0000000000000000
4.9274581292363528 8.2901107021116207 0.0000000000000000
5.9659220680166127 8.7129455802981344 0.0000000000000000
1.4367238824696065 7.8318953563710094 0.0000000000000000
7.0833372630613027 1.1719438980431811 0.0000000000000000
8.3295681699498232 3.6507031969057882 0.0000000000000000
6.3757142646286544 8.3117285710325479 0.0000000000000000
1.6638403664300014 8.6057401892559842 0.0000000000000000
7.7925870911790529 6.9057653225099340 0.0000000000000000
0.9660970675721753 4.5340656324702664 0.0000000000000000
1.7022027864766627 4.9224249716448814 0.0000000000000000
1.4116761414013281 1.8144366204314308 0.0000000000000000
7.7949917557664303 0.6218876909873566 0.0000000000000000
7.8010213865766129 9.3968630753381763 0.0000000000000000
2.2048577159870808 9.3782721213933566 0.0000000000000000
0.6035473386561782 2.2026386566004104 0.0000000000000000
5.4597872686622200 9.0166268137803911 0.0000000000000000
9.0180102045101211 5.4577609720759321 0.0000000000000000
1.3416573114408037 4.3017346669912122 0.0000000000000000
4.8963143765433337 1.6883494805113894 0.0000000000000000
4.9113620479255617 0.5378395878058096 0.0000000000000000
5.1017241951245618 0.5404212606478827 0.0000000000000000
0.5379205436082108 5.0889282639949700 0.0000000000000000
0.5404019805760873 4.8987981460639283 0.0000000000000000
9.7348888249830203 6.3091781417595074 0.0000000000000000
6.3096319101753062 0.2654719467851318 0.0000000000000000
0.2651099326747361 6.3096356717806206 0.0000000000000000
0.2651170878327606 3.6916529079167582 0.0000000000000000
6.3100352317308959 9.7349788168538947 0.0000000000000000
3.6902323326401074 9.7347808921221333 0.0000000000000000
9.7348988891118147 3.6912053205631787 0.0000000000000000
3.6898611469166416 0.2654863946414563 0.0000000000000000
4.4238018152218812 1.1701537096756705 0.0000000000000000
5.5563253169826243 8.8403473807972972 0.0000000000000000
5.7168243345531264 1.3837184574316712 0.0000000000000000
9.7425366803026225 7.7998582588715788 0.0000000000000000
7.8014062799365798 0.2577661805211410 0.0000000000000000
0.2575472145526064 7.8003259857371363 0.0000000000000000
7.8019099606003364 9.7426404026950912 0.0000000000000000
0.2574725415457817 2.2009717299795226 0.0000000000000000
2.1985121368124898 9.7424842979628377 0.0000000000000000
9.7424463524260556 2.2005198989106058 0.0000000000000000
2.1980053607992511 0.2577940671662561 0.0000000000000000
1.3185712015006146 4.1102642249265111 0.0000000000000000
7.4988072857998889 1.3137482337455457 0.0000000000000000
1.3448259031778416 1.6239649260892288 0.0000000000000000
7.0576289078794980 8.8395993321654771 0.0000000000000000
9.0209877658085542 4.5399837566018730 0.0000000000000000
4.5412616095231453 9.0137452026365423 0.0000000000000000
9.4066036373764561 7.7851257547406085 0.0000000000000000
0.5924989207106711 7.7873873184449183 0.0000000000000000
2.2110506136756123 0.5933152696102945 0.0000000000000000
9.3993989295991192 2.2158519055169483 0.0000000000000000
1.2039087465463774 1.2116505520574228 0.0000000000000000
5.9408302260713137 1.2204944721220055 0.0000000000000000
3.2256352554666825 1.2624947072410153 0.0000000000000000
0.9194029627512008 7.4889405093772199 0.0000000000000000
2.4941960253858793 0.9209907423870315 0.0000000000000000
4.2966749259193495 1.3393609205833978 0.0000000000000000
8.8482417683585020 2.8773189507015910 0.0000000000000000
8.0484111250314978 8.3579042584125300 0.0000000000000000
8.7368351173592682 5.3016541655991887 0.0000000000000000
6.7901960535488870 1.0374069528586389 0.0000000000000000
8.9636374627388520 6.7896253566638149 0.0000000000000000
1.0367664714873648 6.7900847235027006 0.0000000000000000
1.0363575743938545 3.2110993859182519 0.0000000000000000
3.2095319184671451 8.9634290264527223 0.0000000000000000
6.7906674283796384 8.9626652757460974 0.0000000000000000
3.2093355104581724 1.0373995294903022 0.0000000000000000
8.9632233645575816 3.2107852045428649 0.0000000000000000
4.0611884512343028 8.7660621201631557 0.0000000000000000
6.9718801311343750 9.0038943688983473 0.0000000000000000
8.6958556075179416 2.4952977813675026 0.0000000000000000
8.7406433087344109 6.7626618953420206 0.0000000000000000
8.9733905863255679 1.7592868319037247 0.0000000000000000
1.7571127653984688 1.0271638796346472 0.0000000000000000
1.0259209602440766 1.7595714802230396 0.0000000000000000
1.0265680284543885 8.2416447338551766 0.0000000000000000
1.7573048948116430 8.9739910741678024 0.0000000000000000
8.2428817049976377 8.9731744162514424 0.0000000000000000
8.2423453838815668 1.0270166078152059 0.0000000000000000
8.9740884619095276 8.2411373506624823 0.0000000000000000
1.2653166209425861 7.6696409908101630 0.0000000000000000
8.7753871315795742 5.9284835500523823 0.0000000000000000
5.2121682570953496 9.3190032271173528 0.0000000000000000
5.0774323006916031 9.4871111013744827 0.0000000000000000
9.3192969804564054 5.2120721803967260 0.0000000000000000
9.4870679387532721 5.0774741294894410 0.0000000000000000
3.0321289549069141 0.9952962306665362 0.0000000000000000
9.0094937237329162 3.0319168057669090 0.0000000000000000
0.9942894939151952 3.0334714918105630 0.0000000000000000
0.9914660969109089 6.9578398167963407 0.0000000000000000
3.0319231868263845 9.0046100998772047 0.0000000000000000
6.9727403989659686 0.9972182050195286 0.0000000000000000
9.0033835993387736 6.9735110364977873 0.0000000000000000
7.8369469492552541 1.4187563962232566 0.0000000000000000
1.1195676298227133 5.5764563432495180 0.0000000000000000
9.3061658706499788 4.7267202895540299 0.0000000000000000
4.7263740904508094 9.3061411851136597 0.0000000000000000
3.6225665095187440 8.5840189123773225 0.0000000000000000
2.9495605163586580 1.1564857351992404 0.0000000000000000
1.1966559908576959 7.1865704087944327 0.0000000000000000
0.9270653523144575 2.4835898397830394 0.0000000000000000
1.2560341348390680 3.8093558625418740 0.0000000000000000
1.2537791516790573 8.2358010755356599 0.0000000000000000
1.2956475518978028 8.3488265299631248 0.0000000000000000
8.5791619295433055 2.1651100408781372 0.0000000000000000
1.2999033891285503 6.0148314575990041 0.0000000000000000
8.6866057707934843 5.6556544811253930 0.0000000000000000
5.7906600878432375 8.6343881644565563 0.0000000000000000
8.6373674444223756 4.2805523840323891 0.0000000000000000
5.2541243721934157 1.4074160031135869 0.0000000000000000
0.3683787105689713 4.9964225077703146 0.0000000000000000
5.0039812745530945 0.3680828698098944 0.0000000000000000
3.7856717846515164 1.4097424940966639 0.0000000000000000
8.7965965850405112 4.0666398142178375 0.0000000000000000
1.5473333989628735 6.2956280559657340 0.0000000000000000
5.5702658735352593 1.1205383180848398 0.0000000000000000
5.4728664366083235 0.9779880238700409 0.0000000000000000
8.7040800439493111 8.3979716450453008 0.0000000000000000
1.5547233103672764 8.7294795170131465 0.0000000000000000
1.1706308013404940 4.0761732516468028 0.0000000000000000
1.6982638287905283 3.4840161258030418 0.0000000000000000
1.1557509446962060 2.9521811538214560 0.0000000000000000
3.4617217719239783 1.6927095444146516 0.0000000000000000
1.1898226026189156 5.9228695361924331 0.0000000000000000
4.5338317013624172 0.9610830186776969 0.0000000000000000
0.9553510121748788 5.4661515422044831 0.0000000000000000
1.4470389638937020 1.9504724037643852 0.0000000000000000
6.0480428037434395 1.3006127341422975 0.0000000000000000
8.5186104582240407 8.8261732373701545 0.0000000000000000
5.4470250002549898 8.7200912540826447 0.0000000000000000
8.3664185286884880 5.1268947386624113 0.0000000000000000
7.2986474425705010 8.8572122053280733 0.0000000000000000
8.6136258148948297 8.1711694724833190 0.0000000000000000
8.5819191014811231 8.0625246086963500 0.0000000000000000
8.5992177099852647 4.7458745043440569 0.0000000000000000
1.2904039550402890 3.9498979931829896 0.0000000000000000
1.5314033640292679 1.0128608268078709 0.0000000000000000
8.9955096488629493 1.5445912005521309 0.0000000000000000
1.0105860218172988 1.5346770212396770 0.0000000000000000
1.5409871619421438 8.9603516450579921 0.0000000000000000
1.0122937927457734 8.4465868713936167 0.0000000000000000
8.4478433646320550 8.9948051679085950 0.0000000000000000
8.9923066324945289 8.4617302717735008 0.0000000000000000
8.4584760887264565 1.0069970887899664 0.0000000000000000
8.5989222831945753 3.2749842851692050 0.0000000000000000
1.4324579644435071 5.2612797228373349 0.0000000000000000
6.2431472822589891 8.6142703729094769 0.0000000000000000
0.9358674095279065 3.9632496258563270 0.0000000000000000
0.9337218040035382 6.0394484559588966 0.0000000000000000
6.0373245113667755 9.0672408206515236 0.0000000000000000
3.9611132544187115 0.9418145887744102 0.0000000000000000
2.3055855638205958 1.3984959338224754 0.0000000000000000
1.4358606708942645 6.5789241665640272 0.0000000000000000
8.6081233268293627 2.2731599876265678 0.0000000000000000
6.7030041163089589 1.4090522481038115 0.0000000000000000
7.7050640227289895 8.6131309485122802 0.0000000000000000
4.7001684849359906 1.0432917357929739 0.0000000000000000
1.0421511385746161 5.3001578145210200 0.0000000000000000
8.6338861689742377 1.8301996760186166 0.0000000000000000
1.0443355791807412 4.7006913070425957 0.0000000000000000
5.2999491390246831 1.0494066214960847 0.0000000000000000
6.0351822369533066 0.9374050240298554 0.0000000000000000
9.0542957685153329 6.0654406514111008 0.0000000000000000
3.9630213256494886 9.0672380058209399 0.0000000000000000
9.0635040165410370 3.9636135092930038 0.0000000000000000
1.4243413983588664 8.0676340651978702 0.0000000000000000
1.1231385463650481 7.0393164357612648 0.0000000000000000
8.9605950341921066 2.6669512019652788 0.0000000000000000
1.8132751668972646 8.6231907471130231 0.0000000000000000
9.4161473150858335 4.8821924686498601 0.0000000000000000
4.8819630904121212 9.4164948531699082 0.0000000000000000
6.3631302012603053 1.4154665449113122 0.0000000000000000
6.2533414258185323 1.3834646169169309 0.0000000000000000
1.3930189169240457 6.2548624652582818 0.0000000000000000
7.7253902842645692 1.3902552492699622 0.0000000000000000
7.5251515017297654 0.9220029140548055 0.0000000000000000
7.5254939758841228 9.0743844259866684 0.0000000000000000
2.4767919798826235 9.0692333780972110 0.0000000000000000
2.0168082366812650 1.6933346775379621 0.0000000000000000
6.9063764631416635 8.7217334673901146 0.0000000000000000
5.0982958729989223 8.5941591562981152 0.0000000000000000
8.8863135281556733 4.4343649784652905 0.0000000000000000
1.4288010515973213 6.9934168812991171 0.0000000000000000
5.0983415600083051 9.1541611974271682 0.0000000000000000
9.1541114505797587 5.0983952548734681 0.0000000000000000
9.1870132307967243 4.8951852499796598 0.0000000000000000
4.8949513543535366 9.1872389404834198 0.0000000000000000
4.5678354850504146 1.2836219396767536 0.0000000000000000
8.8221462187238817 8.7914005118958229 0.0000000000000000
1.6742602022418318 8.0157895528802801 0.0000000000000000
4.7743526740161366 8.6241862557854247 0.0000000000000000
4.9125489243223344 9.6954146733274555 0.0000000000000000
9.6950350886812036 4.9126954072374813 0.0000000000000000
1.5567772709004546 6.6175107104229260 0.0000000000000000
2.2699384048758726 8.6178007400561256 0.0000000000000000
8.3272655763113281 6.5384151619815478 0.0000000000000000
1.5583604171603374 5.1509260817955420 0.0000000000000000
1.5531074064311081 3.7023108360431016 0.0000000000000000
1.5653852788475093 4.8615358791041832 0.0000000000000000
2.7804815367735163 1.1419491688605918 0.0000000000000000
1.2375100367909833 2.3092850004331051 0.0000000000000000
5.9147329083301372 8.8467682510578260 0.0000000000000000
1.3050547332353288 5.8697203287357498 0.0000000000000000
1.2646285960576051 6.7416708331155677 0.0000000000000000
8.6243654005055355 6.2137181207650007 0.0000000000000000
1.3234725815615349 5.4031940916573094 0.0000000000000000
8.7181733820872296 3.9562488112619487 0.0000000000000000
9.0802837356805952 6.2225250057504828 0.0000000000000000

SCALARS v:x_e double 3
LOOKUP_TABLE default
-0.0065885465407602 0.0012318281692272 0.0000000000000000
10.0052151455948888 0.0002299051218996 0.0000000000000000
10.0062070893455317 10.0004846809847958 0.0000000000000000
-0.0054379071747627 10.0014382461197879 0.0000000000000000
2.2451281198794995 1.1443327920810766 0.0000000000000000
2.1868432221489402 1.2865721281909799 0.0000000000000000
2.0453139544578987 1.3461732687023953 0.0000000000000000
1.9037661191635407 1.2864891741425399 0.0000000000000000
1.8454927939326624 1.1440520115863670 0.0000000000000000
1.9036023570282758 1.0000420583968366 0.0000000000000000
2.0453599889978089 0.9414634146341463 0.0000000000000000
2.1871260847725940 1.0000420583968366 0.0000000000000000
2.4456295828658061 1.1465094937179408 0.0000000000000000
2.0451843543737644 1.5461694478222447 0.0000000000000000
1.6452469122119620 1.1463529535306123 0.0000000000000000
2.0452593888576232 0.7414808678236052 0.0000000000000000
2.2461879973870031 8.8563384529657654 0.0000000000000000
2.1878739230843065 8.9999579416031619 0.0000000000000000
2.0461081961328911 9.0585365853658519 0.0000000000000000
1.9044413279797883 8.9999579416031619 0.0000000000000000
1.8458693793337968 8.8585365853658526 0.0000000000000000
1.9046614327107267 8.7160624020738879 0.0000000000000000
2.0463164837417813 8.6554282051859310 0.0000000000000000
2.1879219895653423 8.7144322204573736 0.0000000000000000
2.4465525024212451 8.8547801113815066 0.0000000000000000
2.0460906818386224 9.2585410858118742 0.0000000000000000
1.6457918661235496 8.8559456225556463 0.0000000000000000
2.0459935138328564 8.4554468657770130 0.0000000000000000
1.3442611122748469 2.0490442610282869 0.0000000000000000
1.2853256982443038 2.1909021813776683 0.0000000000000000
1.1430463964193140 2.2500992600527474 0.0000000000000000
1.0000420583968366 2.1918713578458950 0.0000000000000000
0.9414634146341463 2.0505150290057550 0.0000000000000000
1.0000420583968366 1.9088631572798724 0.0000000000000000
1.1414634146341465 1.8496869105388873 0.0000000000000000
1.2848691482918135 1.9077424493427384 0.0000000000000000
1.5444292045210566 2.0480477998354760 0.0000000000000000
1.1436530023288152 2.4500996441131861 0.0000000000000000
0.7419905297142085 2.0508703462602389 0.0000000000000000
1.1435060549227243 1.6497105197068975 0.0000000000000000
9.0585365853658519 2.0498639248234456 0.0000000000000000
8.9999579416031619 2.1912226176393115 0.0000000000000000
8.8585365853658526 2.2494592382100582 0.0000000000000000
8.7151265382666629 2.1902216468151976 0.0000000000000000
8.6551998746159065 2.0484135676446273 0.0000000000000000
8.7137027053308653 1.9071166674661635 0.0000000000000000
8.8561125492818515 1.8491233026977092 0.0000000000000000
8.9999579416031619 1.9082465621837432 0.0000000000000000
9.2578779272270655 2.0501400547879318 0.0000000000000000
8.8565539395350221 2.4494475185400613 0.0000000000000000
8.4550218710930896 2.0474210764840319 0.0000000000000000
8.8553609327203162 1.6491253342532486 0.0000000000000000
3.7222732388737731 1.1445380673766123 0.0000000000000000
3.6640608384876079 1.2865208216161934 0.0000000000000000
3.5224500120203306 1.3459595680644745 0.0000000000000000
3.3807513228869541 1.2861306611081653 0.0000000000000000
3.3222142399209145 1.1436980745591425 0.0000000000000000
3.3803204316572515 1.0000420583968366 0.0000000000000000
3.5222539100063237 0.9414634146341463 0.0000000000000000
3.6641590083039053 1.0000420583968366 0.0000000000000000
3.9227649671481895 1.1463042751389168 0.0000000000000000
3.5223714190264723 1.5459378218399085 0.0000000000000000
3.1219350438982216 1.1457064580255309 0.0000000000000000
3.5223431029986036 0.7414092527317643 0.0000000000000000
3.7232438697143269 8.8563326789068455 0.0000000000000000
3.6648706699070601 8.9999579416031619 0.0000000000000000
3.5229724145281649 9.0585365853658519 0.0000000000000000
3.3812107657272459 8.9999579416031619 0.0000000000000000
3.3226510877264634 8.8585365853658526 0.0000000000000000
3.3815144729659283 8.7158775420720414 0.0000000000000000
3.5233060916234615 8.6554808183050547 0.0000000000000000
3.6649424051994379 8.7144512346102800 0.0000000000000000
3.9235954316839243 8.8547763412228697 0.0000000000000000
3.5230186972063544 9.2585820474344551 0.0000000000000000
3.1224844619162777 8.8560648953887142 0.0000000000000000
3.5230763336303168 8.4555474483557447 0.0000000000000000
1.3441149687749445 3.5250676198380608 0.0000000000000000
1.2852888501196420 3.6668568964436270 0.0000000000000000
1.1430445666080800 3.7257844999589369 0.0000000000000000
1.0000420583968366 3.6672620906412030 0.0000000000000000
0.9414634146341463 3.5257783496153556 0.0000000000000000
1.0000420583968366 3.3841461616249138 0.0000000000000000
1.1414634146341465 3.3251266116762519 0.0000000000000000
1.2847030210650499 3.3835373816011214 0.0000000000000000
1.5442736230346814 3.5246217664913022 0.0000000000000000
1.1435984090035423 3.9257773282344108 0.0000000000000000
0.7419324145697829 3.5260000352462351 0.0000000000000000
1.1432129762715855 3.1251483911338536 0.0000000000000000
9.0585365853658519 3.5250744041763449 0.0000000000000000
8.9999579416031619 3.6665456079977412 0.0000000000000000
8.8585365853658526 3.7250313837870812 0.0000000000000000
8.7152799177835032 3.6660096412789676 0.0000000000000000
8.6557780783882272 3.5242638852874841 0.0000000000000000
8.7144293078030906 3.3827509271740883 0.0000000000000000
8.8567498201184769 3.3245014135491671 0.0000000000000000
8.9999579416031619 3.3834677532948532 0.0000000000000000
9.2580588360032223 3.5252419545973961 0.0000000000000000
8.8567193997667353 3.9250279935018195 0.0000000000000000
8.4555356701130826 3.5238941924800948 0.0000000000000000
8.8562155520400143 3.1245038889581100 0.0000000000000000
5.1998014224635147 1.1438069991901592 0.0000000000000000
5.1413110376939812 1.2859781482430634 0.0000000000000000
4.9996123937409473 1.3456305593482916 0.0000000000000000
4.8579411430927379 1.2862388712591133 0.0000000000000000
4.7994659242448119 1.1437962803784667 0.0000000000000000
4.8576266330331510 1.0000420583968366 0.0000000000000000
4.9995749958033002 0.9414634146341463 0.0000000000000000
5.1415586151488029 1.0000420583968366 0.0000000000000000
5.4000908925175777 1.1457086581306113 0.0000000000000000
4.9996487362132367 1.5456821771853086 0.0000000000000000
4.5991520122182878 1.1457924852444754 0.0000000000000000
4.9995665731990844 0.7413765062572423 0.0000000000000000
5.2005941494180830 8.8567679848241259 0.0000000000000000
5.1421636664492292 8.9999579416031619 0.0000000000000000
5.0001515274477937 9.0585365853658519 0.0000000000000000
4.8584409343964365 8.9999579416031619 0.0000000000000000
4.7998040368997623 8.8585365853658526 0.0000000000000000
4.8586508040287120 8.7158628604121109 0.0000000000000000
5.0004396187278397 8.6556271467035728 0.0000000000000000
5.1421709908236988 8.7147095415845790 0.0000000000000000
5.4008231823168140 8.8553992360340281 0.0000000000000000
5.0001086234829053 9.2584112219017776 0.0000000000000000
4.5996224998057720 8.8559402340025208 0.0000000000000000
5.0003185876030134 8.4557004280313759 0.0000000000000000
1.3441443853253405 5.0012339136690622 0.0000000000000000
1.2853969167224690 5.1429055565896151 0.0000000000000000
1.1431208449177825 5.2015589244696256 0.0000000000000000
1.0000420583968366 5.1427767678223635 0.0000000000000000
0.9414634146341463 5.0011927531293017 0.0000000000000000
1.0000420583968366 4.8596061594207631 0.0000000000000000
1.1414634146341465 4.8008352580031248 0.0000000000000000
1.2846386625814714 4.8595721683513080 0.0000000000000000
1.5443032687900899 5.0011928011145805 0.0000000000000000
1.1436616776371429 5.4015509667015964 0.0000000000000000
0.7419170639709218 5.0012161207258190 0.0000000000000000
1.1432122910779094 4.6008517047543229 0.0000000000000000
9.0585365853658519 5.0004046581943218 0.0000000000000000
8.9999579416031619 5.1419421917373098 0.0000000000000000
8.8585365853658526 5.2006760543014909 0.0000000000000000
8.7153606690592689 5.1419226552217179 0.0000000000000000
8.6558363592489158 5.0002940883659415 0.0000000000000000
8.7146068184974208 4.8586606906957996 0.0000000000000000
8.8568184794844456 4.8000759626040272 0.0000000000000000
8.9999579416031619 4.8588735237395566 0.0000000000000000
9.2580415290841049 5.0004098575817979 0.0000000000000000
8.8567888515678845 5.4006571938035046 0.0000000000000000
8.4556500789774187 5.0003369025393276 0.0000000000000000
8.8563543334754851 4.6000770350872227 0.0000000000000000
6.6768574775873368 1.1437000821234833 0.0000000000000000
6.6184198264431418 1.2861487351459204 0.0000000000000000
6.4767960037838153 1.3459894465825235 0.0000000000000000
6.3351409489269992 1.2865851294654671 0.0000000000000000
6.2769023501911558 1.1442823437513432 0.0000000000000000
6.3349735601416253 1.0000420583968366 0.0000000000000000
6.4768315752819454 0.9414634146341463 0.0000000000000000
6.6187581642630180 1.0000420583968366 0.0000000000000000
6.8771605544771868 1.1457152589082711 0.0000000000000000
6.4768560038131673 1.5459318421829755 0.0000000000000000
6.0763963893831390 1.1464408507781394 0.0000000000000000
6.4767145904626195 0.7413826387944890 0.0000000000000000
6.6778374534707137 8.8568823300624810 0.0000000000000000
6.6194467172654949 8.9999579416031619 0.0000000000000000
6.4774393937258985 9.0585365853658519 0.0000000000000000
6.3356292470988995 8.9999579416031619 0.0000000000000000
6.2769866897807285 8.8585365853658526 0.0000000000000000
6.3358447738262642 8.7158492434425821 0.0000000000000000
6.4776527473040622 8.6558960843419435 0.0000000000000000
6.6193787948854590 8.7147500137192591 0.0000000000000000
6.8780386426382583 8.8552634001460788 0.0000000000000000
6.4774179239822001 9.2586032908767741 0.0000000000000000
6.0767663061333446 8.8560481846179950 0.0000000000000000
6.4775337386114238 8.4558771822333618 0.0000000000000000
1.3442807076964516 6.4773988222525949 0.0000000000000000
1.2856012572310287 6.6189206358563357 0.0000000000000000
1.1432037692859260 6.6772769384715129 0.0000000000000000
1.0000420583968366 6.6182490596031434 0.0000000000000000
0.9414634146341463 6.4766174126350711 0.0000000000000000
1.0000420583968366 6.3351201148067711 0.0000000000000000
1.1414634146341465 6.2765932783660379 0.0000000000000000
1.2846337489358723 6.3356271486635451 0.0000000000000000
1.5444119932819531 6.4777911386122753 0.0000000000000000
1.1437728794652160 6.8772687958047856 0.0000000000000000
0.7419482714663422 6.4764491194207769 0.0000000000000000
1.1432637595681545 6.0765988375855589 0.0000000000000000
9.0585365853658519 6.4757348226120035 0.0000000000000000
8.9999579416031619 6.6173213238231803 0.0000000000000000
8.8585365853658526 6.6762389659346351 0.0000000000000000
8.7152584166995197 6.6178037026125560 0.0000000000000000
8.6558417122163789 6.4763002821685651 0.0000000000000000
8.7146799727722559 6.3345773480917806 0.0000000000000000
8.8569521623198959 6.2757232562024319 0.0000000000000000
8.9999579416031619 6.3342586111678933 0.0000000000000000
9.2580728888229160 6.4755807195601118 0.0000000000000000
8.8567650828561373 6.8762145308024269 0.0000000000000000
8.4556711098299093 6.4767262602543321 0.0000000000000000
8.8563764095310002 6.0757269965052423 0.0000000000000000
8.1534232381918343 1.1438642951505527 0.0000000000000000
8.0951917601283832 1.2863438574086239 0.0000000000000000
7.9537238366596128 1.3459498078540226 0.0000000000000000
7.8121549488225748 1.2866165668488407 0.0000000000000000
7.7539097473062215 1.1443166679168155 0.0000000000000000
7.8119195410545084 1.0000420583968366 0.0000000000000000
7.9535903414705231 0.9414634146341463 0.0000000000000000
8.0953102488255819 1.0000420583968366 0.0000000000000000
8.3536955644572473 1.1459528950393152 0.0000000000000000
7.9538727498550008 1.5459895761934002 0.0000000000000000
7.5534180788606475 1.1463782759688623 0.0000000000000000
7.9536858412088804 0.7415434873712463 0.0000000000000000
8.1546637455760163 8.8564973196125152 0.0000000000000000
8.0962819674807509 8.9999579416031619 0.0000000000000000
7.9544042210442276 9.0585365853658519 0.0000000000000000
7.8127358222602794 8.9999579416031619 0.0000000000000000
7.7542041002045590 8.8585365853658526 0.0000000000000000
7.8130951846889447 8.7159080540639255 0.0000000000000000
7.9548465008588556 8.6555982393259310 0.0000000000000000
8.0964163110852247 8.7143767123332108 0.0000000000000000
8.3548687223697620 8.8545003852719688 0.0000000000000000
7.9545344011294725 9.2585194595804694 0.0000000000000000
7.5540153633280784 8.8557121265991263 0.0000000000000000
7.9547466241510660 8.4555921044193081 0.0000000000000000
1.3447418466742254 7.9533640607551979 0.0000000000000000
1.2862046867805814 8.0947039593534100 0.0000000000000000
1.1438134863344998 8.1527678029598203 0.0000000000000000
1.0000420583968366 8.0935950462966133 0.0000000000000000
0.9414634146341463 7.9519346627877994 0.0000000000000000
1.0000420583968366 7.8105584073230592 0.0000000000000000
1.1414634146341465 7.7522677046580641 0.0000000000000000
1.2848994261988123 7.8115273425780085 0.0000000000000000
1.5449218649463914 7.9543573088377171 0.0000000000000000
1.1445425067300463 8.3527629099644720 0.0000000000000000
0.7421134568998384 7.9516188226369131 0.0000000000000000
1.1434336905430533 7.5522797769735988 0.0000000000000000
9.0585365853658519 7.9509472113462225 0.0000000000000000
8.9999579416031619 8.0925610792229179 0.0000000000000000
8.8585365853658526 8.1516324725358231 0.0000000000000000
8.7151583670895132 8.0934723948088667 0.0000000000000000
8.6557418916431264 7.9521494014102174 0.0000000000000000
8.7146705354541787 7.8103376722636924 0.0000000000000000
8.8569617731277148 7.7512843504038758 0.0000000000000000
8.9999579416031619 7.8095572486423048 0.0000000000000000
9.2580241903961973 7.9506792883669801 0.0000000000000000
8.8565326195142671 8.3516145366100165 0.0000000000000000
8.4555600221492853 7.9530444427290563 0.0000000000000000
8.8563689713639153 7.5512770664156141 0.0000000000000000
0.4932853502317927 0.0011307820802068 0.0000000000000000
0.9928916482743850 0.0004602045474025 0.0000000000000000
1.4926084143075709 -0.0025489543352636 0.0000000000000000
1.9942343671120872 -0.0084323722445019 0.0000000000000000
2.4960357861401361 -0.0033359519391074 0.0000000000000000
2.9958015356875594 -0.0037614911109252 0.0000000000000000
3.4971303887446088 -0.0084336222867339 0.0000000000000000
3.9984411201560639 -0.0031948234420893 0.0000000000000000
4.4981301639173328 -0.0041030903909741 0.0000000000000000
4.9995245537644060 -0.0080706534293889 0.0000000000000000
5.5009081884002349 -0.0040982176970765 0.0000000000000000
6.0005798983732630 -0.0031833338956891 0.0000000000000000
6.5018755297226418 -0.0084742418700619 0.0000000000000000
7.0031244363977319 -0.0037405180496221 0.0000000000000000
7.5028355537896907 -0.0035308390754134 0.0000000000000000
8.0044294862196779 -0.0084050144782234 0.0000000000000000
8.5060129069803629 -0.0030489541105038 0.0000000000000000
9.0057559225099535 -0.0001871141880317 0.0000000000000000
9.5053419999894242 0.0003139147541969 0.0000000000000000
10.0049103475146914 0.5002196954562944 0.0000000000000000
10.0048724384608914 1.0001951181249160 0.0000000000000000
10.0057419271781676 1.5001758638167988 0.0000000000000000
10.0071264481280995 2.0002041774666628 0.0000000000000000
10.0070374409331535 2.5002568677784227 0.0000000000000000
10.0069342982643761 3.0002702585869070 0.0000000000000000
10.0075191851735745 3.5003009838056860 0.0000000000000000
10.0071571575723262 4.0003342909117610 0.0000000000000000
10.0070253355353174 4.5003417787612907 0.0000000000000000
10.0075457995551513 5.0003664686851792 0.0000000000000000
10.0071721925428552 5.5003936097194597 0.0000000000000000
10.0070994910782094 6.0003966115355007 0.0000000000000000
10.0075791113723209 6.5004204204180329 0.0000000000000000
10.0071365629689168 7.0004491485320317 0.0000000000000000
10.0071096007980049 7.5004555394507886 0.0000000000000000
10.0074637738598611 8.0004922568703112 0.0000000000000000
10.0065859265798949 8.5005230911742800 0.0000000000000000
10.0058539347187274 9.0005129552078245 0.0000000000000000
10.0058839034614397 9.5004934570940520 0.0000000000000000
9.5063123927366231 10.0004900685323950 0.0000000000000000
9.0066640468058452 10.0009779287374201 0.0000000000000000
8.5069176288903634 10.0035511447544270 0.0000000000000000
8.0055920548004611 10.0084016634325046 0.0000000000000000
7.5038307719983441 10.0057685318838345 0.0000000000000000
7.0037383644375444 10.0049236431964363 0.0000000000000000
6.5027602223210028 10.0084885952207667 0.0000000000000000
6.0013713484277913 10.0056514863603763 0.0000000000000000
5.5013896285138166 10.0053986831278987 0.0000000000000000
5.0003942452648831 10.0083246615922103 0.0000000000000000
4.4988638147898694 10.0055492595044626 0.0000000000000000
3.9990119837159108 10.0044728815823252 0.0000000000000000
3.4980291969414790 10.0086432867321733 0.0000000000000000
2.9967639955921888 10.0054106434752779 0.0000000000000000
2.4968621487052163 10.0046708321265676 0.0000000000000000
1.9956369872566946 10.0086860482427902 0.0000000000000000
1.4940879996028598 10.0049155419510871 0.0000000000000000
0.9941061215923973 10.0021141292315594 0.0000000000000000
0.4944445805591679 10.0014127977594605 0.0000000000000000
-0.0051131288598360 9.5014484046899454 0.0000000000000000
-0.0050798656800423 9.0014701393417003 0.0000000000000000
-0.0058651866383895 8.5014866646555269 0.0000000000000000
-0.0071554339469413 8.0014580587800559 0.0000000000000000
-0.0070338821982982 7.5014080296500714 0.0000000000000000
-0.0069250718754242 7.0013970765007008 0.0000000000000000
-0.0075045479555644 6.5013685962755279 0.0000000000000000
-0.0071363828506923 6.0013387652173513 0.0000000000000000
-0.0070372601034333 5.5013336364761818 0.0000000000000000
-0.0075200361856530 5.0013121917586245 0.0000000000000000
-0.0071421866362687 4.5012867310493476 0.0000000000000000
-0.0070824941509666 4.0012854964774300 0.0000000000000000
-0.0075684700052064 3.5012651518256672 0.0000000000000000
-0.0071225299963590 3.0012395260192530 0.0000000000000000
-0.0070992433604327 2.5012383430898093 0.0000000000000000
-0.0074458444354970 2.0012093761174858 0.0000000000000000
-0.0065921622597842 1.5011821772634617 0.0000000000000000
-0.0059541501289633 1.0011976426117317 0.0000000000000000
-0.0061181180359509 0.5012208170030249 0.0000000000000000
1.2834434662238057 0.4029776711471122 0.0000000000000000
9.6012380431954565 1.2896447925596013 0.0000000000000000
0.3977796707965386 1.2904956694963090 0.0000000000000000
1.2844904074416070 9.5995720354444227 0.0000000000000000
8.7162964393429156 9.5982562676439915 0.0000000000000000
0.3985918362390224 8.7120577104844106 0.0000000000000000
9.6021945872806871 8.7111392175571378 0.0000000000000000
8.7153456865211147 0.4023895721490233 0.0000000000000000
5.7081355220642536 0.4009988415548729 0.0000000000000000
9.6027198361824055 5.7079517694568089 0.0000000000000000
5.7087779347013097 9.6007699360974712 0.0000000000000000
0.3973543295872914 5.7088352881227058 0.0000000000000000
0.3973004006267400 4.2936975694134967 0.0000000000000000
4.2916012561148493 9.6005268208611891 0.0000000000000000
4.2909300289999290 0.4010069584621351 0.0000000000000000
9.6026626429378279 4.2928338627117588 0.0000000000000000
7.2096728695478092 0.4018006078071263 0.0000000000000000
9.6019810497843974 7.2073911667967590 0.0000000000000000
9.6018179799035099 2.7933915213817340 0.0000000000000000
2.7892538188985947 0.4018416475512624 0.0000000000000000
7.2105054579658336 9.5998448731733070 0.0000000000000000
0.3981864798443168 7.2083000442064824 0.0000000000000000
2.7901129096871178 9.5997540272091015 0.0000000000000000
0.3980338756522448 2.7942446411731483 0.0000000000000000
1.6651908988334769 0.3818973477485167 0.0000000000000000
1.4833466851989274 0.7402737446171589 0.0000000000000000
1.1357732481247926 0.7719224600575807 0.0000000000000000
9.6198766681579428 1.6711187615665009 0.0000000000000000
9.2627911390323501 1.4887545004879814 0.0000000000000000
9.2325967736053016 1.1414393802989453 0.0000000000000000
1.6662471224743627 9.6199302802749322 0.0000000000000000
1.4841264382974590 9.2620884139128830 0.0000000000000000
1.1366074400390362 9.2306278686186580 0.0000000000000000
0.3794003827958395 1.6719785268302132 0.0000000000000000
0.7362329658298669 1.4894827398805781 0.0000000000000000
8.3345713832338291 9.6187885964799680 0.0000000000000000
8.5165132146731253 9.2607419030572977 0.0000000000000000
8.8640909997963035 9.2294270798478841 0.0000000000000000
0.3800372495296203 8.3305790777614330 0.0000000000000000
0.7370731029060219 8.5130226710150012 0.0000000000000000
8.3336273748069036 0.3815493746127848 0.0000000000000000
8.5155402721747961 0.7397707987669477 0.0000000000000000
9.6206080394210840 8.3296570703532087 0.0000000000000000
9.2637782220475895 8.5120712589077296 0.0000000000000000
3.1640612987472547 0.3809221241872381 0.0000000000000000
2.9829156838101878 0.7317934271284838 0.0000000000000000
2.6379222447857953 0.7687779280066428 0.0000000000000000
2.4378858816202653 0.4813241903350444 0.0000000000000000
9.6210221327474663 3.1677397702398484 0.0000000000000000
9.2711642850057387 2.9866024644162112 0.0000000000000000
9.2236575365657085 2.6574540401954607 0.0000000000000000
9.5207939253045204 2.4442593951926446 0.0000000000000000
0.3787752129905409 3.1686019412855320 0.0000000000000000
0.7285493469607264 2.9873425151961586 0.0000000000000000
0.7650721476492504 2.6427208711948111 0.0000000000000000
0.4972539579805679 2.4247131338408363 0.0000000000000000
3.1648954563843614 9.6204135834135247 0.0000000000000000
2.9836063761543481 9.2698454217051705 0.0000000000000000
2.6382378590704980 9.2385795399807247 0.0000000000000000
2.4201929073674555 9.5008725025236824 0.0000000000000000
6.8356642965225465 9.6198448020174450 0.0000000000000000
7.0169187446860812 9.2693165550271921 0.0000000000000000
7.3622773517238125 9.2391047108966244 0.0000000000000000
7.5804345525312016 9.5020766712772673 0.0000000000000000
0.3789879938115495 6.8339451301695391 0.0000000000000000
0.7288407852328521 7.0151104726798108 0.0000000000000000
0.7714361054664988 7.3508535396127090 0.0000000000000000
0.4786248153910485 7.5582275906786940 0.0000000000000000
6.8348989908979467 0.3809393264242509 0.0000000000000000
7.0161049287758841 0.7317895539099709 0.0000000000000000
7.3615087482908113 0.7627876663504572 0.0000000000000000
7.5795790678908306 0.5001653966085163 0.0000000000000000
9.6212367833480723 6.8330390969070072 0.0000000000000000
9.2714606436662717 7.0142357843408742 0.0000000000000000
9.2680196929210936 7.3452692920147467 0.0000000000000000
9.5260714319686208 7.5567580940545200 0.0000000000000000
9.5673743091896863 4.6402195376146107 0.0000000000000000
9.2707384025240174 4.4958232949426185 0.0000000000000000
9.2396630429325679 4.1387081004128650 0.0000000000000000
9.5021367073239720 3.9224157553752690 0.0000000000000000
4.7046158267661013 0.3808999412166830 0.0000000000000000
4.4946301238169273 0.7275463115300929 0.0000000000000000
4.1361653812755126 0.7640726682170749 0.0000000000000000
3.9200122848463139 0.5014504433739502 0.0000000000000000
0.3809436850037233 4.6993894966131382 0.0000000000000000
0.7302939299822898 4.4952590574334446 0.0000000000000000
0.7612218941715295 4.1387252523762781 0.0000000000000000
0.4946786706780150 3.9263424457052518 0.0000000000000000
4.6394295533341916 9.5666593020434618 0.0000000000000000
4.4948130367920260 9.2693967696155166 0.0000000000000000
4.1373088642068723 9.2373401884089414 0.0000000000000000
3.9238699488149127 9.5030505880214413 0.0000000000000000
5.2953969967502248 9.6105813398693307 0.0000000000000000
5.5031055907819795 9.2828813098354779 0.0000000000000000
5.8632344829708281 9.2392450192837980 0.0000000000000000
6.0765194899830863 9.5044315854901207 0.0000000000000000
0.3793553395729544 5.2955976220327932 0.0000000000000000
0.7247344152092857 5.5054135044841326 0.0000000000000000
0.7603506099914957 5.8634459199186910 0.0000000000000000
0.4945091239444224 6.0761521141536665 0.0000000000000000
5.3020164445934306 0.3826793054187697 0.0000000000000000
5.5071627703295256 0.7347908675421084 0.0000000000000000
5.8627793075064991 0.7644568558739880 0.0000000000000000
6.0787427790465047 0.5011665192144882 0.0000000000000000
9.6114493508325847 5.2951199406081715 0.0000000000000000
9.2845513111543330 5.5026071620068917 0.0000000000000000
9.2415548131460135 5.8617841964550275 0.0000000000000000
9.5110440172856645 6.0695442203233636 0.0000000000000000
9.2336057445911734 8.8593885754852550 0.0000000000000000
8.8631165589749621 0.7712936167773767 0.0000000000000000
0.7671806503574811 8.8603659981461469 0.0000000000000000
0.7663663921499099 1.1421530926690575 0.0000000000000000
9.1308035861887813 0.4357976241053563 0.0000000000000000
9.5690161282563775 0.8743547607105420 0.0000000000000000
9.5700045118931314 9.1264379736092422 0.0000000000000000
9.1317611720945688 9.5650178430941555 0.0000000000000000
0.4298626757930514 0.8751946223447551 0.0000000000000000
0.8679773111594630 0.4364698971042532 0.0000000000000000
0.8690073367038357 9.5660746049614254 0.0000000000000000
0.4307580287953715 9.1273567407163601 0.0000000000000000
9.0537972085937835 2.8408253001180039 0.0000000000000000
2.8309792670271099 0.9739079575981543 0.0000000000000000
0.9818168311648022 2.8189740642622012 0.0000000000000000
2.8257504652666867 9.0232977591401653 0.0000000000000000
0.9909404795373651 7.1560912657670048 0.0000000000000000
7.1842776948820131 9.0369614631902202 0.0000000000000000
7.1936583473079949 0.9827346907570169 0.0000000000000000
9.0309933565264870 7.2118693827711082 0.0000000000000000
1.2993696288359751 1.0151594359001364 0.0000000000000000
9.0004116576357873 1.3226312133467595 0.0000000000000000
0.9998609913230557 1.3127449905926869 0.0000000000000000
1.0319506904947526 8.6830119863704862 0.0000000000000000
1.3061173261667449 9.0362804720752852 0.0000000000000000
8.6848648813820883 8.9565631743915173 0.0000000000000000
8.6884766420635611 1.0050141949914675 0.0000000000000000
9.0085091135356254 8.6880168646815665 0.0000000000000000
9.0366024484841123 4.3249743626216866 0.0000000000000000
4.3179732834139122 0.9637548452569067 0.0000000000000000
4.3182835263205366 9.0261972816304272 0.0000000000000000
0.9768718626894131 4.3225384860272893 0.0000000000000000
5.6811005322144501 9.0312239815734703 0.0000000000000000
0.9575681289956539 5.6801688180657335 0.0000000000000000
5.6786112316779169 0.9689921707585064 0.0000000000000000
9.0305216720180894 5.6800605364257013 0.0000000000000000
6.1352557521731574 0.7875002347631638 0.0000000000000000
9.2137803542783381 6.1443443763424748 0.0000000000000000
0.7834675145227669 6.1380421942148047 0.0000000000000000
6.1383606068543619 9.2160214905492968 0.0000000000000000
3.8637853916613838 9.2155267877285336 0.0000000000000000
0.7838979659723406 3.8643384418425284 0.0000000000000000
9.2140527143989672 3.8564839306003416 0.0000000000000000
3.8540788392991345 0.7891808295507443 0.0000000000000000
7.6406566793504238 0.7828222002426847 0.0000000000000000
9.2233140532912596 7.6044025610283228 0.0000000000000000
7.6414371368799934 9.2194656756669389 0.0000000000000000
0.7746472763386947 7.6108366535158138 0.0000000000000000
2.3590597428667923 9.2181145529307535 0.0000000000000000
0.7809076948554864 2.3682135704338014 0.0000000000000000
2.3837095100219541 0.7747123347935833 0.0000000000000000
9.2167071678867032 2.3851525261460504 0.0000000000000000
0.4409447762501083 9.5553417285481448 0.0000000000000000
9.5666253573504676 9.5612155002070605 0.0000000000000000
0.4331275076550162 0.4404221296458689 0.0000000000000000
9.5656552212489974 0.4395798332719175 0.0000000000000000
1.7909568486806469 0.6829411782629516 0.0000000000000000
9.3177147104262339 1.7962537344230456 0.0000000000000000
0.6816356948887737 1.7970128634173668 0.0000000000000000
0.6810978880370789 8.2059707737238785 0.0000000000000000
1.7918922511658251 9.3184502659975532 0.0000000000000000
8.2088430619528499 9.3175049035151076 0.0000000000000000
9.3183727404764660 8.2045583775441848 0.0000000000000000
8.2079231578739726 0.6827005201263425 0.0000000000000000
1.9851728099367734 0.4426937503368078 0.0000000000000000
9.5562632574317607 1.9904942893244864 0.0000000000000000
1.9678630565631288 9.5250363422239417 0.0000000000000000
0.4759229174764238 1.9729881114220880 0.0000000000000000
8.0329200012546824 9.5246960527659130 0.0000000000000000
0.4435238871539379 8.0112889013630753 0.0000000000000000
9.5565986447977025 8.0102878143757028 0.0000000000000000
8.0320084995474126 0.4753096391510944 0.0000000000000000
1.0545942981406893 8.9523089527622446 0.0000000000000000
8.9658924247266807 8.9499692990914319 0.0000000000000000
1.0466008159463671 1.0522058583998555 0.0000000000000000
8.9556663406934867 1.0531921585308941 0.0000000000000000
9.3201105264395121 3.2850435259958113 0.0000000000000000
9.1150703541068694 3.1967798813067536 0.0000000000000000
3.2812062971024902 0.6796524109905585 0.0000000000000000
3.1931055079583732 0.8859042891840297 0.0000000000000000
0.6796317664000256 3.2858140512806355 0.0000000000000000
0.8844006969810086 3.1974789229546974 0.0000000000000000
3.2824817400468005 9.3202738497451350 0.0000000000000000
3.1941055750046461 9.1150926373783090 0.0000000000000000
0.6798940801814271 6.7166552500510699 0.0000000000000000
0.8849211145487510 6.8049304270308069 0.0000000000000000
6.7180748194998152 9.3196543398434315 0.0000000000000000
6.8064269880376784 9.1141019916246453 0.0000000000000000
9.3203747963269024 6.7157790329582401 0.0000000000000000
9.1156011767695251 6.8040393983287251 0.0000000000000000
6.7178291266901722 0.6796767279551179 0.0000000000000000
6.8059546252736363 0.8859203947954039 0.0000000000000000
3.4679698603236906 0.4633878238998502 0.0000000000000000
9.5357654891309451 3.4711312570548571 0.0000000000000000
0.4630989184350584 3.4715394742803074 0.0000000000000000
3.4683954267528971 9.5377607751134423 0.0000000000000000
0.4631830370541601 6.5309855938768493 0.0000000000000000
6.5321657581998069 9.5375756156956975 0.0000000000000000
6.5231514079609374 0.4515941156469933 0.0000000000000000
9.5503456734269854 6.5213857130626796 0.0000000000000000
1.6870623495201067 0.8737084863112945 0.0000000000000000
9.1278910210498516 1.6920470306895603 0.0000000000000000
1.6877540696138540 9.1284284896527410 0.0000000000000000
8.3128182242024486 9.1270163682230585 0.0000000000000000
0.8710736017687780 1.6927102655942845 0.0000000000000000
0.8708884707072958 8.3102310539398410 0.0000000000000000
9.1289413079297166 8.3087782203773681 0.0000000000000000
8.3118462070367976 0.8733578922731484 0.0000000000000000
8.9648078243930467 5.8927276283090029 0.0000000000000000
8.8047679070348064 5.7656351500942220 0.0000000000000000
5.8931152253931050 1.0394683659679960 0.0000000000000000
5.7674721793208779 1.2028736430407792 0.0000000000000000
1.0256363359657665 5.8926789351157245 0.0000000000000000
1.1997296550664041 5.7683520827419263 0.0000000000000000
5.8930954252862744 9.0015536290677254 0.0000000000000000
5.7707337214252883 8.8106742864115741 0.0000000000000000
1.0126548759419838 4.1096122393115895 0.0000000000000000
1.1715162440552045 4.2280326805118218 0.0000000000000000
4.1063522754863975 8.9611415878871785 0.0000000000000000
4.2320983032054462 8.8110971780933802 0.0000000000000000
4.1064322162906732 1.0501327045609805 0.0000000000000000
4.2416212268486193 1.1746113131977547 0.0000000000000000
8.9688646342652074 4.1093135542981933 0.0000000000000000
8.8078286215140995 4.2412715747112344 0.0000000000000000
8.7010306804722237 7.6720152734546598 0.0000000000000000
8.6790360911372222 7.4816282737637136 0.0000000000000000
8.5286366702824008 7.6220822674765198 0.0000000000000000
8.4889334935027474 7.4247158143776995 0.0000000000000000
8.3454140420776479 7.5680282629645150 0.0000000000000000
8.2939516116900176 7.3744912969041598 0.0000000000000000
8.1532902931165516 7.5172879204485081 0.0000000000000000
8.1001742815013635 7.3245475084051206 0.0000000000000000
7.9596839073032797 7.4671535260714839 0.0000000000000000
7.9064602262056312 7.2743133030251208 0.0000000000000000
7.7658641481979087 7.4171133981555055 0.0000000000000000
7.7126572038889094 7.2239642538053461 0.0000000000000000
7.5720503506544938 7.3665310457831694 0.0000000000000000
7.5188258621616875 7.1733061302122669 0.0000000000000000
7.3781947541509503 7.3156311087280832 0.0000000000000000
7.3249468114167104 7.1225073544311241 0.0000000000000000
7.1842922557869446 7.2649246819893172 0.0000000000000000
7.1310412851046836 7.0719090600000873 0.0000000000000000
6.9903922010901054 7.2145601577070497 0.0000000000000000
6.9371459404403266 7.0215936364582801 0.0000000000000000
7.0777901902793605 6.8789046033109384 0.0000000000000000
6.8838985133259101 6.8286201649828993 0.0000000000000000
6.7432745112510917 6.9714345325369775 0.0000000000000000
6.6900315132715384 6.7784441870604537 0.0000000000000000
6.8306485521415157 6.6356362427426161 0.0000000000000000
6.6367864091885211 6.5854366871995493 0.0000000000000000
6.4961855176515613 6.7282347273612357 0.0000000000000000
6.4429410252871229 6.5351813813231887 0.0000000000000000
6.5835389709473029 6.3924143494112675 0.0000000000000000
6.3896936107844855 6.3421168672094321 0.0000000000000000
6.2490990336010812 6.4847850103414260 0.0000000000000000
6.1958467363753202 6.2916837510009094 0.0000000000000000
6.3364450627916575 6.1490443483967967 0.0000000000000000
6.1425927825596043 6.0985846777621564 0.0000000000000000
6.2831949235644755 5.9559668921943434 0.0000000000000000
6.0893367760204686 5.9054894945851775 0.0000000000000000
5.9487234662545809 6.0480188678305478 0.0000000000000000
5.8954618461178478 5.8549283713994100 0.0000000000000000
5.7548365042585150 5.9974286474290084 0.0000000000000000
5.7015725081953939 5.8043603781098900 0.0000000000000000
5.8421992204478261 5.6618472611698998 0.0000000000000000
5.6483087227601425 5.6112973180492816 0.0000000000000000
5.5076824678862621 5.7538597083696530 0.0000000000000000
5.4544217109213200 5.5608090699491450 0.0000000000000000
5.7889360811220349 5.4687730246543662 0.0000000000000000
5.3138048468751338 5.7034444073420874 0.0000000000000000
5.2605491764590520 5.5103926102794736 0.0000000000000000
5.1199434963348356 5.6530792310338134 0.0000000000000000
5.0666911396125949 5.4600163291201991 0.0000000000000000
4.9260929377959997 5.6027107977116470 0.0000000000000000
4.8728402672276347 5.4096360606326082 0.0000000000000000
5.0134386675993046 5.2669485929340656 0.0000000000000000
4.8195871608539358 5.2165623877150722 0.0000000000000000
4.9601868480487790 5.0738775818575341 0.0000000000000000
4.7663339732713110 5.0234921263202157 0.0000000000000000
4.9069346006846608 4.8808069846523177 0.0000000000000000
4.7130796851308405 4.8304273104952991 0.0000000000000000
4.6789844702504997 5.3592156728279123 0.0000000000000000
4.8536827817890797 4.6877391382651679 0.0000000000000000
4.6598251946476346 4.6373709591507195 0.0000000000000000
4.8004303152902246 4.4946763236537226 0.0000000000000000
4.6065694395445398 4.4443236188636055 0.0000000000000000
4.4659515273215629 4.5869782595903672 0.0000000000000000
4.4126908078285538 4.3939404721330817 0.0000000000000000
4.7471775036324511 4.3016220627576285 0.0000000000000000
4.9410289891692898 4.3519723205867944 0.0000000000000000
4.2720610452218200 4.5365357318369810 0.0000000000000000
4.2187972363597366 4.3434963446722357 0.0000000000000000
4.9793448950632424 5.7957826582165435 0.0000000000000000
4.8877775017074612 4.1589034563826175 0.0000000000000000
5.0816255699454782 4.2092957603929202 0.0000000000000000
4.0781627761252874 4.4860481972553581 0.0000000000000000
4.0248991657696154 4.2929981594732585 0.0000000000000000
5.0283720049266298 4.0162095542255685 0.0000000000000000
5.2222233898937676 4.0666775632034620 0.0000000000000000
5.1689660339493040 3.8735745201058553 0.0000000000000000
5.3628265306259939 3.9241291498196520 0.0000000000000000
3.8842701840235208 4.4355460640512119 0.0000000000000000
3.8310103197097152 4.2424819675125294 0.0000000000000000
5.3095638165979340 3.7310161667899271 0.0000000000000000
5.5034374421559651 3.7816404664286245 0.0000000000000000
5.1157100341619426 3.6804696254893434 0.0000000000000000
5.4501692003049467 3.5885300346148301 0.0000000000000000
5.6440571008877010 3.6391774837945441 0.0000000000000000
3.6903927542224317 4.3850679616132817 0.0000000000000000
3.6371384963609588 4.1919962038561653 0.0000000000000000
3.7777516398742002 4.0494079908705043 0.0000000000000000
3.5838856884186652 3.9989186925493696 0.0000000000000000
3.7244939715091889 3.8563250783088492 0.0000000000000000
3.5306337778467842 3.8058380162706640 0.0000000000000000
3.7436485793642396 4.5781325696958000 0.0000000000000000
3.6712375670926236 3.6632332760122237 0.0000000000000000
3.4773831309125676 3.6127572027815940 0.0000000000000000
5.5907836491597127 3.4460873024540200 0.0000000000000000
5.7846842972967716 3.4966853756427749 0.0000000000000000
5.8379570413559980 3.6897281782379925 0.0000000000000000
5.9785833986979009 3.5471135024332230 0.0000000000000000
6.0318506341994809 3.7401267745308693 0.0000000000000000
6.1724644215460049 3.5973993471485795 0.0000000000000000
6.2257262910090807 3.7904164340459072 0.0000000000000000
6.3663270031999204 3.6476523214705039 0.0000000000000000
6.4195861544034241 3.8406962572764534 0.0000000000000000
3.4432821448293973 4.1415803470186336 0.0000000000000000
3.6179832218194314 3.4701343475491253 0.0000000000000000
3.4241348849696926 3.4196799175366310 0.0000000000000000
6.3130657496872686 3.4546194339266818 0.0000000000000000
6.5069186735995146 3.5049075973918700 0.0000000000000000
5.7314079035470620 3.3036329391424371 0.0000000000000000
5.5375084434842501 3.2529800812429079 0.0000000000000000
6.4536547511654492 3.3118461603627516 0.0000000000000000
6.6475058254750516 3.3622303975327430 0.0000000000000000
3.2835366418235217 3.5624165364248990 0.0000000000000000
3.2302903220900299 3.3693852135810003 0.0000000000000000
5.6781290938415161 3.1105660880768036 0.0000000000000000
3.5647318274293367 3.2770305423855794 0.0000000000000000
5.4842331413831724 3.0598535824721727 0.0000000000000000
6.5942364381377221 3.1691368019834991 0.0000000000000000
6.7880920203762720 3.2196473490477167 0.0000000000000000
6.8413688832552983 3.4127636706061506 0.0000000000000000
5.6248472746687375 2.9174789409678286 0.0000000000000000
6.7348160615481101 3.0265258135201218 0.0000000000000000
6.9286828136111689 3.0771622419846469 0.0000000000000000
3.0896786126780014 3.5121772432706786 0.0000000000000000
3.0364286568932579 3.3191859665201902 0.0000000000000000
6.8753985471971051 2.8840243670069117 0.0000000000000000
7.0692870289224068 2.9347556760880824 0.0000000000000000
7.0159927622785778 2.7416334721929201 0.0000000000000000
6.0851146996638832 3.9331457884756817 0.0000000000000000
3.7585907621912793 3.3276025071536255 0.0000000000000000
3.7053351569277972 3.1344884834754074 0.0000000000000000
3.8992085486637484 3.1851344679057583 0.0000000000000000
3.8459477302512663 2.9920278955205903 0.0000000000000000
3.6520832118130562 2.9413646492927548 0.0000000000000000
5.4309576402951549 2.8667059513990396 0.0000000000000000
5.5715634319917111 2.7243662558608781 0.0000000000000000
7.2098660866940918 2.7925269492796159 0.0000000000000000
4.0398363924081240 3.0426873999436670 0.0000000000000000
3.9865697692680349 2.8496047065681145 0.0000000000000000
7.1566121185764704 2.5992943343798647 0.0000000000000000
5.2754810986796761 4.2597761457217755 0.0000000000000000
2.8957949002922438 3.4619188229703561 0.0000000000000000
2.8425375347278665 3.2689276802064411 0.0000000000000000
7.2631968974749732 2.9854145421422249 0.0000000000000000
7.4037802998204771 2.8429921697680003 0.0000000000000000
7.4314402179352479 7.5088810435406259 0.0000000000000000
6.6815417820922551 2.8334034913551380 0.0000000000000000
5.3776839293791951 2.6735376564361766 0.0000000000000000
5.5182788529444045 2.5312228962431913 0.0000000000000000
4.1804759783179266 2.9002117386165671 0.0000000000000000
4.1272070432286245 2.7071823811713416 0.0000000000000000
2.7018888902575209 3.4115191302163175 0.0000000000000000
2.6486273807009009 3.2184845168879792 0.0000000000000000
2.7551565534338009 3.6045437519448642 0.0000000000000000
2.7892856059311293 3.0759365578137032 0.0000000000000000
2.5953675033095860 3.0254675796183443 0.0000000000000000
2.7360365771196200 2.8829451554484895 0.0000000000000000
2.5421216821204395 2.8324014035165166 0.0000000000000000
2.6827879167964661 2.6899362660535067 0.0000000000000000
4.0931031444871806 3.2357496150833165 0.0000000000000000
7.6567923083405738 7.0353459642223939 0.0000000000000000
7.4571062031555133 3.0357957167238938 0.0000000000000000
7.5977187880351638 2.8930097718926775 0.0000000000000000
2.4890910374463786 2.6392130449864886 0.0000000000000000
2.6295702146728837 2.4968887304810412 0.0000000000000000
2.3481706946229157 2.7823476387736186 0.0000000000000000
2.8234580029430045 2.5473547501695784 0.0000000000000000
2.7702087005045888 2.3544065356421577 0.0000000000000000
2.9641052789228084 2.4045553293734159 0.0000000000000000
5.7121890326951386 2.5820119307220422 0.0000000000000000
5.6588987083216251 2.3889435840259945 0.0000000000000000
5.8528222659052398 2.4395035633831976 0.0000000000000000
4.3211199509844356 2.7576171290662779 0.0000000000000000
4.2678544733556789 2.5646519585880636 0.0000000000000000
4.0739371708861158 2.5141296132700175 0.0000000000000000
4.2146182756434500 2.3715368289629200 0.0000000000000000
4.4085025092925383 2.4218998822307509 0.0000000000000000
5.7996782899318600 2.2459678260356726 0.0000000000000000
5.9936165884766046 2.2961195123315061 0.0000000000000000
5.3244123312537024 2.4803510944700937 0.0000000000000000
2.5612504968838166 3.5540377016917275 0.0000000000000000
2.6145231185746716 3.7470915946581185 0.0000000000000000
5.1007863798421020 4.9311958300237837 0.0000000000000000
5.2903669424967363 3.0091222364016357 0.0000000000000000
4.3552752425062922 2.2288455630186688 0.0000000000000000
2.4352784197768718 2.4474201669464515 0.0000000000000000
2.9108439707671967 2.2116666583262754 0.0000000000000000
3.1046929525019977 2.2616330644166789 0.0000000000000000
2.4206293887715189 3.6965445466338696 0.0000000000000000
2.4738984515977038 3.8896146121165951 0.0000000000000000
7.6510351550940241 3.0859945216150306 0.0000000000000000
7.7916327673295971 2.9431611724151159 0.0000000000000000
7.7384700656100618 2.7502497214331560 0.0000000000000000
7.5104021872856546 3.2287395240925094 0.0000000000000000
7.9322135972463599 2.8003494782335379 0.0000000000000000
4.0205811793324262 2.3207614787017197 0.0000000000000000
2.2800224883290077 3.8390909008622107 0.0000000000000000
2.3332809183389434 4.0321629657443125 0.0000000000000000
2.5271576791803732 4.0826742611235893 0.0000000000000000
2.3865266656908690 4.2252267123147291 0.0000000000000000
2.5804083099327939 4.2757258389992181 0.0000000000000000
2.4397673797381945 4.4182818458310384 0.0000000000000000
2.6336565856767220 4.4687706824129085 0.0000000000000000
2.4930111348718160 4.6113300562450208 0.0000000000000000
2.6869102471799442 4.6618121208868901 0.0000000000000000
2.5462670596982178 4.8043735856202483 0.0000000000000000
2.7401734641748425 4.8548538162179744 0.0000000000000000
2.5995398073604878 4.9974129758139112 0.0000000000000000
2.7934446268043711 5.0478979716591521 0.0000000000000000
2.6528166925213488 5.1904523755041598 0.0000000000000000
2.8467164904153632 5.2409483647179158 0.0000000000000000
2.7060891738793842 5.3834936847108823 0.0000000000000000
2.8999843259173259 5.4340063850479421 0.0000000000000000
2.7593551403540637 5.5765408687706666 0.0000000000000000
2.9532474328554561 5.6270747695535839 0.0000000000000000
2.8126169426660415 5.7695960468810412 0.0000000000000000
3.0065079364004612 5.8201536559447193 0.0000000000000000
2.8658796816248380 5.9626626951848536 0.0000000000000000
3.0597692868051944 6.0132437679657285 0.0000000000000000
2.9191479358171724 6.1557440181727845 0.0000000000000000
3.1130342808803548 6.2063448009347937 0.0000000000000000
2.9724238924236008 6.3488412309571514 0.0000000000000000
3.1663033098834696 6.3994537663019679 0.0000000000000000
3.0257052864270606 6.5419564943441628 0.0000000000000000
3.2195743901290466 6.5925681198220225 0.0000000000000000
3.0789878880749453 6.7350886566612838 0.0000000000000000
3.2728451565901366 6.7856818146823672 0.0000000000000000
3.4134239838339231 6.6429928383325318 0.0000000000000000
3.4666885719477953 6.8360482166067893 0.0000000000000000
3.1322685663097705 6.9282361180801653 0.0000000000000000
3.6072769769938224 6.6932405590559245 0.0000000000000000
3.6605430231528078 6.8862388456820405 0.0000000000000000
2.9383875857472650 6.8774860061750047 0.0000000000000000
2.9916794637650774 7.0706294258625109 0.0000000000000000
2.7977644435446187 7.0198397484659267 0.0000000000000000
3.8011488605168151 6.7434115722990686 0.0000000000000000
3.8544206065410433 6.9363790946202650 0.0000000000000000
3.9950452438417976 6.7936382040837913 0.0000000000000000
4.0483239334201757 6.9866172770132797 0.0000000000000000
4.1889604540536807 6.8440555655111384 0.0000000000000000
4.2422445918680740 7.0370974699609992 0.0000000000000000
4.3828754200033115 6.8947260597315818 0.0000000000000000
4.4361579128916366 7.0878587664245636 0.0000000000000000
4.5767580269718309 6.9455054909150062 0.0000000000000000
3.7478804200857114 6.5504307438480396 0.0000000000000000
3.2003797402260155 5.8706700491277175 0.0000000000000000
2.8510605203293902 7.2129223258881234 0.0000000000000000
4.6300269946069639 7.1386764660749424 0.0000000000000000
4.7706012114510328 6.9961540280435992 0.0000000000000000
4.4894405518768332 7.2810245974531034 0.0000000000000000
4.8238565839040914 7.1892833081620973 0.0000000000000000
2.6571263298622987 7.1622991377543599 0.0000000000000000
4.9644297336336054 7.0465772854509776 0.0000000000000000
5.0176815082942428 7.2396394531896755 0.0000000000000000
3.7138116156026082 7.0792166179814435 0.0000000000000000
2.5654578461209057 5.5260585606208341 0.0000000000000000
2.7104207274851895 7.3553030117723983 0.0000000000000000
5.1582673148738536 7.0968306332472926 0.0000000000000000
5.2115209490957701 7.2898399639339466 0.0000000000000000
2.7785149239738436 6.2982125564254083 0.0000000000000000
2.9043630974963990 7.4060387529237683 0.0000000000000000
2.7637290118079245 7.5483255266298910 0.0000000000000000
2.5164852696064708 7.3049402401972356 0.0000000000000000
5.3521234610228081 7.1470136293304556 0.0000000000000000
5.4053813105091786 7.3399930471581474 0.0000000000000000
4.3295943021267398 6.7016229630365531 0.0000000000000000
5.1050146632444235 6.9038035369731814 0.0000000000000000
2.4632053000592036 7.1119939043967504 0.0000000000000000
2.3225770392962555 7.2548153916730902 0.0000000000000000
3.0406033144960252 5.2914403186278607 0.0000000000000000
5.5460031116932509 7.1972454583871484 0.0000000000000000
5.5992664721613190 7.3902320634973391 0.0000000000000000
5.4586397756317142 7.5329603920732824 0.0000000000000000
5.6525320875384706 7.5832196600384068 0.0000000000000000
5.7931768029966415 7.4407561794446071 0.0000000000000000
5.8472432710117186 7.6351802621672595 0.0000000000000000
5.7061298743476749 7.7779297762336101 0.0000000000000000
2.9576771152154779 7.5991959683369776 0.0000000000000000
2.8170562755869897 7.7413753418683537 0.0000000000000000
2.2458915089780191 4.3678296342705227 0.0000000000000000
5.9894931779467298 7.4941109997189530 0.0000000000000000
2.2694604040363044 7.0620136980467869 0.0000000000000000
2.1288761092080826 7.2049208421596900 0.0000000000000000
2.1819793278543194 7.3977475935191421 0.0000000000000000
6.0453690816112653 7.6906087844134321 0.0000000000000000
7.8790996232303891 2.6074272038591428 0.0000000000000000
7.8196600964859293 7.6100798901043394 0.0000000000000000
7.0436506074849703 7.4075396215652347 0.0000000000000000
6.8497585475356280 7.3573663104916820 0.0000000000000000
6.9030131646953921 7.5503201298684273 0.0000000000000000
5.0709329508344139 7.4326814456192078 0.0000000000000000
4.1016066763220902 7.1795988581868828 0.0000000000000000
2.1394247396419943 3.9817128249923797 0.0000000000000000
4.3743827768446000 2.9505817983833187 0.0000000000000000
6.4003894551277600 3.1187959027156480 0.0000000000000000
4.8345255685941746 3.9658429668246145 0.0000000000000000
6.9626926328490537 2.5484805866878997 0.0000000000000000
7.1031682968408010 2.4060791793407703 0.0000000000000000
6.9093636016244853 2.3552721637376863 0.0000000000000000
7.0494382106181384 2.2125517749258043 0.0000000000000000
7.2436799378575678 2.2636045717066509 0.0000000000000000
7.1899421328373254 2.0701965373363582 0.0000000000000000
7.3846769496589015 2.1213323387972141 0.0000000000000000
2.4589164724376640 5.1399997468806262 0.0000000000000000
5.8081016407505714 6.1905045632818680 0.0000000000000000
5.6142075987594353 6.1399534086168481 0.0000000000000000
5.6056306537434359 2.1957479568003455 0.0000000000000000
2.3673679942613517 3.5034594717697125 0.0000000000000000
4.7854953794042814 5.7453795006858819 0.0000000000000000
4.8387498336815424 5.9384658084236399 0.0000000000000000
4.6448952846580962 5.8879916984056475 0.0000000000000000
6.4770435591596431 6.0063317002106720 0.0000000000000000
6.4237958341460395 5.8132771364124354 0.0000000000000000
6.6176472790205914 5.8635858079658139 0.0000000000000000
6.5644003966633351 5.6705466961578761 0.0000000000000000
6.7582596946945950 5.7208509277901873 0.0000000000000000
6.7050111627075824 5.5278183710074709 0.0000000000000000
6.8988829238285652 5.5781664489457832 0.0000000000000000
6.8456303638917460 5.3851295758070030 0.0000000000000000
7.0395147966464329 5.4355489146698259 0.0000000000000000
6.9862569580603466 5.2425025008469790 0.0000000000000000
7.0927682698262986 5.6285945065672145 0.0000000000000000
6.7923757689558668 5.1920872490658345 0.0000000000000000
6.9329955205615086 5.0494526193460585 0.0000000000000000
7.1268872780614885 5.0999312477281107 0.0000000000000000
7.0736185111286938 4.9068739018785417 0.0000000000000000
6.7391185220406662 4.9990388781233870 0.0000000000000000
7.2675144638554965 4.9573848946662169 0.0000000000000000
7.2142419446730219 4.7643271539413492 0.0000000000000000
7.4081342440262219 4.8148222171441546 0.0000000000000000
7.3548647662852620 4.6217709825963489 0.0000000000000000
7.4614097027565389 5.0078755431379998 0.0000000000000000
7.5487460117344707 4.6722065868263964 0.0000000000000000
7.4954860601855327 4.4791671811028451 0.0000000000000000
7.6893536365307620 4.5295256254273477 0.0000000000000000
7.6361077505813606 4.3364949037557210 0.0000000000000000
7.3016019262960352 4.4287210602141664 0.0000000000000000
7.8299617571785536 4.3867941079770976 0.0000000000000000
7.7767348389811781 4.1937657126708778 0.0000000000000000
6.5985093753364019 5.1417318944762851 0.0000000000000000
6.5452556456636568 4.9486814798506735 0.0000000000000000
5.6674726693104542 6.3330034797366554 0.0000000000000000
2.7171948403102548 2.1613802652252763 0.0000000000000000
2.8576369329586733 2.0187767765057498 0.0000000000000000
4.3253249798210680 4.7295771178390176 0.0000000000000000
7.5828693822337288 4.1434702566885804 0.0000000000000000
7.7235099636070368 4.0007426124123500 0.0000000000000000
3.5497816408520633 4.5277102787254835 0.0000000000000000
3.9183726899748850 3.9068733325216529 0.0000000000000000
3.6030343961437907 4.7207715259909619 0.0000000000000000
4.5150095175966705 2.8077892927922701 0.0000000000000000
4.5682631612383542 3.0007517301319329 0.0000000000000000
4.5481010539003162 2.2792473989875006 0.0000000000000000
6.8115095158526708 5.9138758890208019 0.0000000000000000
4.7173422287052009 6.8030188148279809 0.0000000000000000
2.6719737077710541 5.9121203594622793 0.0000000000000000
5.4735808859080342 6.2825525242662685 0.0000000000000000
6.6858608708547340 4.8059846079520989 0.0000000000000000
6.4920018999634301 4.7556283861901516 0.0000000000000000
6.3513983367183320 4.8983434220041993 0.0000000000000000
6.6326049235539637 4.6129266919901761 0.0000000000000000
6.2981442826011627 4.7052921587117051 0.0000000000000000
6.1575357010225238 4.8479770561214508 0.0000000000000000
6.1042775367855056 4.6549257786518918 0.0000000000000000
5.9636592992919448 4.7975445738580751 0.0000000000000000
7.5296255407605006 3.9504514046460106 0.0000000000000000
5.9342143567817107 7.2988744691107366 0.0000000000000000
1.9878874459207276 7.3474260369052526 0.0000000000000000
5.7462410740798582 2.0535276360060255 0.0000000000000000
7.9705818396661003 4.2440518515532206 0.0000000000000000
7.7043257455407019 3.2789820944948169 0.0000000000000000
2.3523671740668295 4.7539334054627140 0.0000000000000000
3.0112598027659381 7.7923336466573936 0.0000000000000000
2.8706999294728641 7.9343780213551875 0.0000000000000000
2.6764906194615907 7.8837777357898435 0.0000000000000000
3.1516108929311826 7.6502431756889706 0.0000000000000000
2.7306544372509856 8.0775644440778898 0.0000000000000000
7.3325201872997745 1.9296260392569853 0.0000000000000000
8.0716116467616104 2.6564601558531158 0.0000000000000000
7.7426131806633354 4.7225600404873900 0.0000000000000000
1.9348013994665891 7.1555150027633916 0.0000000000000000
4.4948243001465995 2.0863543115501364 0.0000000000000000
4.3019731213142132 2.0361117658028451 0.0000000000000000
4.4403956186481341 1.8954142214126151 0.0000000000000000
4.6857998067564646 2.1379908739233175 0.0000000000000000
8.0494192104619877 7.1357608223300213 0.0000000000000000
4.2485966760171907 1.8458472342243541 0.0000000000000000
8.1243313566887139 2.8493606961098887 0.0000000000000000
7.1359634903148370 1.8812508288947896 0.0000000000000000
2.6639846999696535 1.9683852054759650 0.0000000000000000
2.8054060773398302 1.8256260806760702 0.0000000000000000
5.9103964728297207 4.6044885190982097 0.0000000000000000
4.6981542888756191 6.0810915803771808 0.0000000000000000
4.5042877863004867 6.0305312265222781 0.0000000000000000
4.4510219153578969 5.8374388134601194 0.0000000000000000
4.3103979816625380 5.9799356100596857 0.0000000000000000
4.2571279299361828 5.7868728937807923 0.0000000000000000
4.1164935754147738 5.9294028151496105 0.0000000000000000
4.0632250261490226 5.7363727227887971 0.0000000000000000
2.8084230487558561 3.7975633135380851 0.0000000000000000
3.9225923935142091 5.8789866691804766 0.0000000000000000
3.8693285511920452 5.6859708765101971 0.0000000000000000
4.0099580359107811 5.5433437690207077 0.0000000000000000
3.8160667836982314 5.4929479113085913 0.0000000000000000
3.0173419807759765 2.5974715004041666 0.0000000000000000
2.4099502047836023 6.9190656630122023 0.0000000000000000
2.2157029425807013 6.8696003085541895 0.0000000000000000
2.8275536502122489 4.5192434346689438 0.0000000000000000
6.1304203149103236 7.3520160307033073 0.0000000000000000
6.0467525326475231 2.4895898297396921 0.0000000000000000
6.1869921744737111 2.3480251010693256 0.0000000000000000
3.9566928938251600 5.3503136400208806 0.0000000000000000
6.8554732376394325 2.1614742493976586 0.0000000000000000
2.0410617066791779 7.5403784267826932 0.0000000000000000
5.5523184778361108 2.0026795305360650 0.0000000000000000
8.0238033641558459 4.4370863859161931 0.0000000000000000
6.1340470668375984 2.1538351237261555 0.0000000000000000
3.2051755542925382 7.8434417752437344 0.0000000000000000
3.3454272066926056 7.7008203346538799 0.0000000000000000
1.7948127521592936 7.2964112638664540 0.0000000000000000
1.7421668232217065 7.1071043272263790 0.0000000000000000
2.9237663658302844 8.1292592545342348 0.0000000000000000
5.7697710060716236 4.7470392949315858 0.0000000000000000
5.4927407328342248 7.0042551817109020 0.0000000000000000
2.9340726051027382 4.9053268808109927 0.0000000000000000
5.1838419562097942 2.6228085108489729 0.0000000000000000
2.5377810238792735 8.0321209850451112 0.0000000000000000
2.7831575928253440 8.2697813883808013 0.0000000000000000
5.6920476718055930 1.8607432901237317 0.0000000000000000
8.0195698319661783 2.4645441715559913 0.0000000000000000
8.2105066321698192 2.5137252201058735 0.0000000000000000
7.5247304864308688 1.9788816622798917 0.0000000000000000
7.4729324990369417 1.7878514013399633 0.0000000000000000
6.7109953268423004 7.4984065052324542 0.0000000000000000
6.7641513815976175 7.6925522973785148 0.0000000000000000
6.9565505620575623 7.7431477279143772 0.0000000000000000
6.8164679423224657 7.8865250255581723 0.0000000000000000
7.0096267191857180 7.9361767389156945 0.0000000000000000
6.6263812101824771 7.8385388187206164 0.0000000000000000
6.0749423399394242 7.1566348285788681 0.0000000000000000
6.2107917730043090 5.0410327761759506 0.0000000000000000
7.2334081458504880 5.4860447434713464 0.0000000000000000
7.2866585166510696 5.6791074785677269 0.0000000000000000
7.4272968782329301 5.5365734092068228 0.0000000000000000
7.4805379225428155 5.7296481046744407 0.0000000000000000
7.6211684426687238 5.5870594299195560 0.0000000000000000
7.6743781373433171 5.7801331724636702 0.0000000000000000
7.5337781951563203 5.9227307034430883 0.0000000000000000
7.8150317955100075 5.6375259298496800 0.0000000000000000
7.7276105014579075 5.9732038912781364 0.0000000000000000
7.5870291432490076 6.1158196229108466 0.0000000000000000
7.7826332881336402 6.1665612818538147 0.0000000000000000
7.9249233944817643 6.0236897105513680 0.0000000000000000
7.6403644278879526 6.3087427734606063 0.0000000000000000
7.4464393281173535 6.2583198668698907 0.0000000000000000
7.8327861437520845 6.3628465673603225 0.0000000000000000
4.1697650644489892 6.1224388154296223 0.0000000000000000
7.7618087201709924 5.4444082348844631 0.0000000000000000
7.9556679823606000 5.4946886732682181 0.0000000000000000
7.4994901528957216 6.4512000084494154 0.0000000000000000
3.3068972445012141 6.2568416532105147 0.0000000000000000
7.9024522363355043 5.3016660515441831 0.0000000000000000
3.1770481042104439 3.1763719643195363 0.0000000000000000
5.8187583034041177 2.9680795556737998 0.0000000000000000
5.4011625489252300 5.3677538563130751 0.0000000000000000
6.3705479575648454 5.6202169275939822 0.0000000000000000
5.5567057887090883 3.9747381637538064 0.0000000000000000
4.8920031723200834 6.1315501592193806 0.0000000000000000
4.3594294905361686 4.2009098742813720 0.0000000000000000
3.1855464526301929 7.1213948330026993 0.0000000000000000
6.2448889731006121 4.5122457654274992 0.0000000000000000
3.8800271908347619 2.4633176073353282 0.0000000000000000
3.8266423248793053 2.2700298282547267 0.0000000000000000
3.6861623355952768 2.4125895602808334 0.0000000000000000
2.3565861867684137 6.7262005459004079 0.0000000000000000
2.1621750738000021 6.6765812506358166 0.0000000000000000
3.7969066390756625 4.7711896090871750 0.0000000000000000
3.6562897052599590 4.9138272081179988 0.0000000000000000
3.6329389129315790 2.2195272145401299 0.0000000000000000
3.7732990875911865 2.0770010646352355 0.0000000000000000
2.3032352527985038 6.5332383557428102 0.0000000000000000
2.1056659219425353 6.4840699181174024 0.0000000000000000
2.2493943101247096 6.3403382433382909 0.0000000000000000
2.0517330587768123 6.2911496144786279 0.0000000000000000
2.1959275967590566 6.1473719184138211 0.0000000000000000
2.0002429325936371 6.0976146270206684 0.0000000000000000
2.1429582990384053 5.9542847437730133 0.0000000000000000
1.9473833235057290 5.9044844178148228 0.0000000000000000
2.0898468267394561 5.7612380732343658 0.0000000000000000
1.8960191756899794 5.7109352294904774 0.0000000000000000
2.0371005909818209 5.5680803047520735 0.0000000000000000
8.1646015155450566 4.2945427232081217 0.0000000000000000
8.1112655322373133 4.1013725871089015 0.0000000000000000
2.6098320515159048 1.7729060178036358 0.0000000000000000
2.4697544873463046 1.9175604092692238 0.0000000000000000
3.0010238563127221 1.8725747402965816 0.0000000000000000
3.3977110512194542 7.8966858839989094 0.0000000000000000
3.5390453113830889 7.7514495804115864 0.0000000000000000
3.5913034332152307 7.9472860873760833 0.0000000000000000
3.7328255614568002 7.8016122081080423 0.0000000000000000
3.7861041851070407 7.9949085146199979 0.0000000000000000
3.9268846598615221 7.8510809586896979 0.0000000000000000
3.9801718299245534 8.0443727994231757 0.0000000000000000
4.1208257265416828 7.9012164155957123 0.0000000000000000
4.1741647097353276 8.0942270327447154 0.0000000000000000
4.3147759092783859 7.9517236601087911 0.0000000000000000
4.3681160275454953 8.1448662229939437 0.0000000000000000
4.5087092108173410 8.0028290626188028 0.0000000000000000
4.0338741247895040 8.2376474510245181 0.0000000000000000
2.9750979468795928 8.3218992560382095 0.0000000000000000
2.0861649015227828 3.7886527885033332 0.0000000000000000
1.9437674994502996 3.9319058421263255 0.0000000000000000
8.4382277142190354 7.2284279748695921 0.0000000000000000
1.8431757449249921 5.5177886415167894 0.0000000000000000
1.9838337259381711 5.3750522951039255 0.0000000000000000
1.7536095774476892 5.8541006492430929 0.0000000000000000
6.8704188978861724 8.0792618109847378 0.0000000000000000
7.0606576156144643 8.1295075431588657 0.0000000000000000
7.2029473238346124 7.9866047957254445 0.0000000000000000
7.2536886235066547 8.1800965839813209 0.0000000000000000
7.3965384249509398 8.0375438412965146 0.0000000000000000
6.9191528657723511 8.2690826498051901 0.0000000000000000
2.7529222102921120 1.6315618616576242 0.0000000000000000
8.2178623533552173 4.4876029394595793 0.0000000000000000
4.3843409492285623 1.7044814296865429 0.0000000000000000
1.6047497040447889 7.2479045625599472 0.0000000000000000
5.4994962265029841 1.8072211306503261 0.0000000000000000
5.3580732681237144 1.9468584977854242 0.0000000000000000
7.4493969134077238 8.2329479762998989 0.0000000000000000
7.5903493958951103 8.0914408687999266 0.0000000000000000
7.3064808983631933 8.3730503347213538 0.0000000000000000
4.1888009108714801 1.6537119079067633 0.0000000000000000
3.5797026515123815 2.0266161347308116 0.0000000000000000
1.6557035892637735 7.4395390794639669 0.0000000000000000
5.8230356149177558 4.9401047572601948 0.0000000000000000
3.6754490445619168 5.6356385223974703 0.0000000000000000
3.6221923491755552 5.4426036981896591 0.0000000000000000
4.5575528273241641 6.2236374416635005 0.0000000000000000
6.2687968406492622 7.2072856540636279 0.0000000000000000
2.2351835720038431 7.5906274089010877 0.0000000000000000
2.0945769775218532 7.7335096786800603 0.0000000000000000
7.4375674259921984 2.3146930532723391 0.0000000000000000
5.5268424761123365 6.4755767519036498 0.0000000000000000
5.7207386805639349 6.5260601122660917 0.0000000000000000
5.3329630394803784 6.4252405538853825 0.0000000000000000
3.4624264220194458 4.8634522865167362 0.0000000000000000
4.7088637029265890 2.8578824733675487 0.0000000000000000
4.7621134203595918 3.0508972696849486 0.0000000000000000
4.6215166044958780 3.1937344380402211 0.0000000000000000
5.6291449143894319 4.8895651143645145 0.0000000000000000
5.7165055724098401 4.5539726752002077 0.0000000000000000
6.7154386890198916 2.3044508028511426 0.0000000000000000
6.6592056490128044 2.1119636447867900 0.0000000000000000
7.3057772125100202 6.4007763687522674 0.0000000000000000
7.2525372394953678 6.2077394193001121 0.0000000000000000
3.4859019710943917 7.5580620749078076 0.0000000000000000
6.2405380226932419 2.5399359939130761 0.0000000000000000
4.8153641882134641 3.2439324922593338 0.0000000000000000
4.6747690836276856 3.3867366795213782 0.0000000000000000
5.1313843748514429 2.4304424311894763 0.0000000000000000
7.6702626026152601 3.8077276882108029 0.0000000000000000
7.4763624188942144 3.7574378125595587 0.0000000000000000
7.3357240347068684 3.9000631571897380 0.0000000000000000
7.2824508663779959 3.7070258175888049 0.0000000000000000
7.1418163089193722 3.8495498549308733 0.0000000000000000
4.1505916157608942 5.4007755597958633 0.0000000000000000
4.0973250906138539 5.2077344905759819 0.0000000000000000
3.8735965884824033 7.6581638968554122 0.0000000000000000
5.8571326380544679 4.4114336761094819 0.0000000000000000
4.2614753963251566 7.7586467449887886 0.0000000000000000
8.0975253965687131 5.3530848173463372 0.0000000000000000
8.1491971063265840 5.5442403250840435 0.0000000000000000
8.2893425143342139 5.4046297127012348 0.0000000000000000
8.0440276018328039 5.1597478649587032 0.0000000000000000
8.3053001074394679 4.1519526975055987 0.0000000000000000
8.3400329190438942 5.5928068257869192 0.0000000000000000
2.5579499805265820 1.5779168364087910 0.0000000000000000
4.5613798990164875 8.1984735299660141 0.0000000000000000
4.7021381312726609 8.0558774480951829 0.0000000000000000
4.6492119608199918 7.8610576013118818 0.0000000000000000
4.8425739964090004 7.9139355949670911 0.0000000000000000
2.8366225446609015 8.4596485702496782 0.0000000000000000
2.6462731396986898 8.4152807504742348 0.0000000000000000
4.4218188468047170 8.3373386741674356 0.0000000000000000
1.9606024471791819 6.6320741795805347 0.0000000000000000
4.5750367737310045 1.7529071425846461 0.0000000000000000
8.2519936138647960 3.9587551668040666 0.0000000000000000
5.6393386076413172 1.6680085598309511 0.0000000000000000
5.8317068672090793 1.7177369770034507 0.0000000000000000
5.4502153703531588 1.6150015105982101 0.0000000000000000
7.5000490411598886 8.4261546318528531 0.0000000000000000
1.5620438502805276 7.0564902252862538 0.0000000000000000
4.6111119391532709 8.3909810609126847 0.0000000000000000
1.6888523661709474 6.9200707912405139 0.0000000000000000
7.6623952826664210 1.8361691877141730 0.0000000000000000
7.7184167492626337 2.0270784210988300 0.0000000000000000
7.6093987283811373 1.6499733831674124 0.0000000000000000
7.4224509654647681 1.6049117705694687 0.0000000000000000
3.7200966752571234 1.8843303033499454 0.0000000000000000
8.1590100163434762 2.3265342735821095 0.0000000000000000
4.5215192867686644 1.5660835643233626 0.0000000000000000
3.2551079104907568 8.0433804975946437 0.0000000000000000
1.9004626681650711 7.6830291896542136 0.0000000000000000
1.9540134895279535 7.8761896657329551 0.0000000000000000
8.2065190268988548 7.7118152059691099 0.0000000000000000
8.2030725002990739 5.7357986932068199 0.0000000000000000
8.3957751274951136 5.7828765804387086 0.0000000000000000
8.2597618070750407 5.9271798676040053 0.0000000000000000
8.4529662320036607 5.9738104996228021 0.0000000000000000
7.5376025680131917 7.8960365697142834 0.0000000000000000
7.7319315517713898 7.9470370581155985 0.0000000000000000
2.1479025886543699 7.9264779035766253 0.0000000000000000
6.3276918530654731 7.4002198327091762 0.0000000000000000
3.4815859739946262 5.5853170206421856 0.0000000000000000
6.2150061721337604 7.0136134367803260 0.0000000000000000
6.0212455420908952 6.9630402553400819 0.0000000000000000
3.4283314756277425 5.3922635317412899 0.0000000000000000
6.8017240577550355 1.9686852016201017 0.0000000000000000
5.6824087878660716 5.0826346385918537 0.0000000000000000
5.8762986750643087 5.1331720802143588 0.0000000000000000
7.8256711502214618 2.4142358614847517 0.0000000000000000
4.4809021253212604 3.3365310554780523 0.0000000000000000
4.5341593010250651 3.5295224592163894 0.0000000000000000
4.3402726195516701 3.4792321802832693 0.0000000000000000
4.3935353038431151 3.6722355466743899 0.0000000000000000
4.9909496500149748 2.5731982980536405 0.0000000000000000
7.3590400262588416 6.5938596979787603 0.0000000000000000
7.5472613794020802 6.6536458102180491 0.0000000000000000
1.9985259889429177 4.1245049209959381 0.0000000000000000
1.8028325587823990 4.0748042896811087 0.0000000000000000
1.8578031235422998 4.2673038534348873 0.0000000000000000
1.6647925367276566 4.2165652234748485 0.0000000000000000
1.7176678230662004 4.4094386128589660 0.0000000000000000
1.6104633738420684 4.0270958668959285 0.0000000000000000
1.9113444264343005 4.4601366061469108 0.0000000000000000
1.7691067344933760 4.6018625573478120 0.0000000000000000
1.5748852897311125 4.5501041985422788 0.0000000000000000
1.9643087164582522 4.6530462597110676 0.0000000000000000
3.1429301118154682 3.7051844200844228 0.0000000000000000
8.0770909119639711 4.6301466396022111 0.0000000000000000
2.4547249036944310 3.1679394954384965 0.0000000000000000
3.4923292212802353 2.3619989877233212 0.0000000000000000
7.1950836721145865 4.0426133880116906 0.0000000000000000
7.0011871247352575 3.9920569726676831 0.0000000000000000
4.1996367044845098 3.6218304133217774 0.0000000000000000
5.3862207113781873 6.6182550473981774 0.0000000000000000
5.1923564292165656 6.5679914038679943 0.0000000000000000
4.5724697900778901 4.9730792073530301 0.0000000000000000
7.8493401285940640 5.1087736414302922 0.0000000000000000
4.3977563554063996 5.6443590003321766 0.0000000000000000
5.9828209113203688 5.5193187104991130 0.0000000000000000
6.0999944779096298 2.6826586313725533 0.0000000000000000
6.2938477026700221 2.7327764392632981 0.0000000000000000
6.1532665706098042 2.8756193524575258 0.0000000000000000
2.9299396883274729 2.9332505565130815 0.0000000000000000
5.2797062693581491 6.2322158960702447 0.0000000000000000
2.7210485274960807 4.1331732456189680 0.0000000000000000
2.7444696818611094 6.8267833927643773 0.0000000000000000
2.1776993530376210 5.4253429027183824 0.0000000000000000
2.1244314036049459 5.2323160096585148 0.0000000000000000
1.9305698613974227 5.1820194921580791 0.0000000000000000
3.5455895849020274 2.5550939921040703 0.0000000000000000
2.4972236247286528 6.5833838306956487 0.0000000000000000
4.6011746548823886 2.4722492803775955 0.0000000000000000
2.0711423504422957 5.0392930545708765 0.0000000000000000
4.9026957149714354 2.9080962978645570 0.0000000000000000
3.5348401739847120 5.7783633550846032 0.0000000000000000
7.1119037092103214 6.3502717581742942 0.0000000000000000
7.0544500825351877 4.1851345556046491 0.0000000000000000
6.8605668647464304 4.1345977412835353 0.0000000000000000
6.8073058691864681 3.9415120463520052 0.0000000000000000
6.9138259164892446 4.3276762808240754 0.0000000000000000
6.7199554990947199 4.2771997619297935 0.0000000000000000
4.2529024600984888 3.8148580394824414 0.0000000000000000
2.3904249111819817 6.1974477228804155 0.0000000000000000
7.1460216264263821 5.8216410539525061 0.0000000000000000
2.2840085582743632 5.8114233876512538 0.0000000000000000
4.2912244759816245 5.2582340368913485 0.0000000000000000
6.8264707744446484 4.6633368955124954 0.0000000000000000
4.4467963216262918 3.8652440156933094 0.0000000000000000
4.7280216820884897 3.5797567397081886 0.0000000000000000
6.4344174966575123 2.5899441333300186 0.0000000000000000
5.4885217136197024 5.0321060582130652 0.0000000000000000
5.4352602374456378 4.8390341133784993 0.0000000000000000
5.6632398904600718 4.3609017033105850 0.0000000000000000
8.0580586878971978 3.9083105618006040 0.0000000000000000
6.4635878440891377 7.2557685897488478 0.0000000000000000
4.7897147934639301 7.7187000430557191 0.0000000000000000
5.8038666706485023 4.2183785971237153 0.0000000000000000
5.9977568979991505 4.2688394062817094 0.0000000000000000
5.5226168378517437 4.5034142306372482 0.0000000000000000
4.5959773186473125 7.6676013410447927 0.0000000000000000
4.9835113900224988 7.7690566955498017 0.0000000000000000
5.0364699816942098 7.9642794189386725 0.0000000000000000
5.1773578590613196 7.8192379854796465 0.0000000000000000
5.2307174047876934 8.0121988660818211 0.0000000000000000
8.4458978660394113 4.0092804227932612 0.0000000000000000
2.7002374041690693 1.4377259382250045 0.0000000000000000
2.8986540979319644 1.4882612285827426 0.0000000000000000
7.8620710340347379 1.8813883951188122 0.0000000000000000
8.3459073212075410 2.3755110639615200 0.0000000000000000
8.3957567020040180 2.5615480985379318 0.0000000000000000
1.8901995019411142 3.7389711332193909 0.0000000000000000
2.0325496579366029 3.5956933530844788 0.0000000000000000
8.3173846406938861 6.1172727439815153 0.0000000000000000
6.6063586292183727 1.9196118507736160 0.0000000000000000
6.7453196107163995 1.7787499366524635 0.0000000000000000
1.8555940425487902 6.2377090918073526 0.0000000000000000
7.3612411837662837 8.5621314027833844 0.0000000000000000
7.1638504937754002 8.5140647962728995 0.0000000000000000
2.0067781850312207 8.0687379075153665 0.0000000000000000
2.2050581398655158 8.1276798539730635 0.0000000000000000
1.4101726119455040 7.1728351904529477 0.0000000000000000
8.4769219423343944 5.4542886958274694 0.0000000000000000
4.4761828294107922 8.5251856432254645 0.0000000000000000
4.2830329653280481 8.4758467206340331 0.0000000000000000
1.5141611414257734 6.8708707363505983 0.0000000000000000
2.7014782932894046 8.5995346268618054 0.0000000000000000
8.2714964664078963 4.6784211883125133 0.0000000000000000
8.4104289048983247 4.5385497569973570 0.0000000000000000
3.0231556624864089 8.5074502881639500 0.0000000000000000
3.1617511464485100 8.3743381870387523 0.0000000000000000
1.8261937447908243 4.7936051310301506 0.0000000000000000
8.1975623134725062 3.7701714497708472 0.0000000000000000
8.0045930726805459 3.7160064601432348 0.0000000000000000
8.1436945419022990 3.5771812608249234 0.0000000000000000
6.7337301651850492 8.2205968812735275 0.0000000000000000
6.7837155124269026 8.4080292039974491 0.0000000000000000
8.5500242733495799 2.4179087634986511 0.0000000000000000
8.5866405486293225 2.6135430333418745 0.0000000000000000
8.4490140248083652 2.7545389875302666 0.0000000000000000
7.7844554525596461 8.1399054871047376 0.0000000000000000
7.9262153607928676 7.9973846641061979 0.0000000000000000
2.5132334430586578 8.5531448574620743 0.0000000000000000
2.4592633621204922 8.3734882909936488 0.0000000000000000
3.9138391379841604 1.9348156902821216 0.0000000000000000
3.8592736026387802 1.7426745533113530 0.0000000000000000
7.9135804694959306 2.0735203727325944 0.0000000000000000
8.0621744090911793 1.9310106537033256 0.0000000000000000
7.4111425178013279 6.7876675777604012 0.0000000000000000
3.2877290271823862 5.5349508499187747 0.0000000000000000
6.0552443503316269 6.4342306852896858 0.0000000000000000
5.3711293331610559 7.8687925795763363 0.0000000000000000
5.4240755971373833 8.0617271176338061 0.0000000000000000
5.2858219717238626 8.2039725873823848 0.0000000000000000
5.4768556722703243 8.2538567830284553 0.0000000000000000
5.3366945005636595 8.3914548696341669 0.0000000000000000
5.5246619340494272 8.4423948550034602 0.0000000000000000
5.6675991920346434 8.3046934795239977 0.0000000000000000
7.3740476799926054 5.3435060629649751 0.0000000000000000
7.0586462581211746 6.1572527452390746 0.0000000000000000
2.4827953927623474 7.8345322149498866 0.0000000000000000
3.8501669421794111 4.9642379727740087 0.0000000000000000
7.0885396852263227 3.6564755200489052 0.0000000000000000
7.2291644694435391 3.5139813134191842 0.0000000000000000
8.1312753930205055 4.8224021866659390 0.0000000000000000
3.9907945378144731 4.8216502606486413 0.0000000000000000
5.6866381100140311 7.0546532427519990 0.0000000000000000
6.9180168728317648 6.2998998139068583 0.0000000000000000
5.6333710938897470 6.8616232897359373 0.0000000000000000
5.2696610991115538 2.2855772775149239 0.0000000000000000
5.0737599400276148 2.2382868796482556 0.0000000000000000
7.9511526721235128 3.5230959970519438 0.0000000000000000
8.0920078300436558 3.3795201474598096 0.0000000000000000
6.5178918467773723 2.2562106923892071 0.0000000000000000
3.3517672304179311 2.5046446966122273 0.0000000000000000
3.4050037249986014 2.6977243758214984 0.0000000000000000
5.3670621942776293 5.8964876237374666 0.0000000000000000
4.2379583132073124 5.0651835106300087 0.0000000000000000
6.1085021036039162 6.6273517033502172 0.0000000000000000
7.6169854346396990 3.6147211714667482 0.0000000000000000
3.7095471847758836 5.1068760836717768 0.0000000000000000
4.7365332308531842 7.5251468351163888 0.0000000000000000
5.5860870699134191 1.4842030977996086 0.0000000000000000
5.3995116418704399 1.4300232075049757 0.0000000000000000
3.6481614409631460 8.1406479235773226 0.0000000000000000
8.6383743696847954 2.8039890787889474 0.0000000000000000
8.5019650470546537 2.9492699393007387 0.0000000000000000
7.5756492406789677 1.4487085268321125 0.0000000000000000
7.3722560537019888 1.4189604537279406 0.0000000000000000
7.2279821382325951 1.5574078172122188 0.0000000000000000
7.1705265146853074 1.3713721832690968 0.0000000000000000
7.0230068886096939 1.5092616149073832 0.0000000000000000
8.4619670841482062 4.7195572351203108 0.0000000000000000
5.7200497285399372 8.4876617972247068 0.0000000000000000
5.8606546574431855 8.3566080471895976 0.0000000000000000
5.8096695062961592 8.1651399931117030 0.0000000000000000
6.0020747044812648 8.2200192286381935 0.0000000000000000
6.0516709856148889 8.4095687403208412 0.0000000000000000
6.1900862242827976 8.2759572821686103 0.0000000000000000
6.1459413433529502 8.0828602727941838 0.0000000000000000
6.3340074960127675 8.1374951836610929 0.0000000000000000
6.2917562137356802 7.9394176875867304 0.0000000000000000
8.4909584574912707 4.2056024374819270 0.0000000000000000
1.8470089166935570 3.5431529126709607 0.0000000000000000
1.9809796372160500 3.4025728147382885 0.0000000000000000
1.7967479788573821 3.3493339945870964 0.0000000000000000
1.9287030641101859 3.2105337170659021 0.0000000000000000
1.7364832731091555 3.1598335470796690 0.0000000000000000
1.8744112119599532 3.0192840309798155 0.0000000000000000
1.6815244048699545 2.9700221220546759 0.0000000000000000
1.8210246220156545 2.8281212471814441 0.0000000000000000
1.6283819297412672 2.7784554776332637 0.0000000000000000
1.7682797219564725 2.6360289807287831 0.0000000000000000
1.5763448144723824 2.5860680856318683 0.0000000000000000
1.7155004463546761 2.4436279413323865 0.0000000000000000
1.9085902703927509 2.4935548240638554 0.0000000000000000
1.8556319516417767 2.3008911742366021 0.0000000000000000
1.5475866382772794 3.1128971573753406 0.0000000000000000
2.0677230889432865 3.0682985129094509 0.0000000000000000
2.0486288785535751 2.3507946637345856 0.0000000000000000
1.9959560020854590 2.1582139383016403 0.0000000000000000
2.1896236535122542 2.2089868014504703 0.0000000000000000
2.1369516843347265 2.0133865931931219 0.0000000000000000
1.9429125956518374 1.9648467728008132 0.0000000000000000
1.4351987162916726 2.7291054307734344 0.0000000000000000
1.5251256636566057 2.4003216098344704 0.0000000000000000
2.1011725477184680 2.5420903005554423 0.0000000000000000
3.5244112999572539 1.8421157755045674 0.0000000000000000
3.3855599524024056 1.9774337538562041 0.0000000000000000
3.3313311332934044 1.7868174411528472 0.0000000000000000
8.4941210686483792 6.1652057572519796 0.0000000000000000
2.3394949235687901 8.5197125607792206 0.0000000000000000
4.7075527407149007 1.6176059444754387 0.0000000000000000
4.7638779198215833 1.8004784562778580 0.0000000000000000
4.6344092342722325 1.4318957490353741 0.0000000000000000
4.4619982452372149 1.3824720212794068 0.0000000000000000
1.6340269222342825 6.7453545843073668 0.0000000000000000
1.4819062551396196 4.1685382792575707 0.0000000000000000
1.4390556701412258 3.9818814358945787 0.0000000000000000
1.5724127107194612 3.8493579888816734 0.0000000000000000
5.5835778488551941 8.6371050659142110 0.0000000000000000
7.9850141508747665 8.1854927154563359 0.0000000000000000
8.1189279230579121 8.0472138896250787 0.0000000000000000
8.1794448312339991 8.2327669163803190 0.0000000000000000
5.2770050358244491 1.5561081713078662 0.0000000000000000
4.6502236615152244 8.5701783391905106 0.0000000000000000
2.0815967895476715 1.8263399688945672 0.0000000000000000
1.8866968535879576 1.7829711677304032 0.0000000000000000
1.8227579388411836 8.0271308968712329 0.0000000000000000
1.8646317053348467 8.2099706505270849 0.0000000000000000
1.6915320490502912 8.1697298345859046 0.0000000000000000
1.7293556824442373 8.3414041366041225 0.0000000000000000
1.5565609513987611 8.2944990633863025 0.0000000000000000
1.6021646942307242 8.4640446737525501 0.0000000000000000
1.4328095785678387 8.4189291881666453 0.0000000000000000
1.4780710022062638 8.5880120331084999 0.0000000000000000
1.7708563869850040 8.5053053299874470 0.0000000000000000
1.2470331279921052 8.5184505196130402 0.0000000000000000
8.4266078224047938 5.2737673429956127 0.0000000000000000
3.2285514032912315 8.5730359106834602 0.0000000000000000
8.5897593295125780 4.5923981975196160 0.0000000000000000
7.2210768556402956 8.6962032193097194 0.0000000000000000
7.3250637564216081 1.2025536045832526 0.0000000000000000
2.8371390377590577 1.2976058785092921 0.0000000000000000
8.6426931105336262 4.0885064003033893 0.0000000000000000
8.5782797897417975 3.8967468393161044 0.0000000000000000
7.5526509727686495 8.6149183656061972 0.0000000000000000
7.6793945020346763 8.4736487980228627 0.0000000000000000
2.4797167954436108 1.3721482171556307 0.0000000000000000
2.3575119136258955 1.5264441770669359 0.0000000000000000
6.2401202419284303 8.4633248456922221 0.0000000000000000
6.1057016785967315 8.5949934645599537 0.0000000000000000
1.7383220500694663 1.9136376262630059 0.0000000000000000
1.6951281806652483 1.7226817051302310 0.0000000000000000
8.5976932615555803 5.2944892853558549 0.0000000000000000
8.6729139980721843 5.4721204546489401 0.0000000000000000
2.2398761219521139 8.3556823674998491 0.0000000000000000
7.0235594281534679 8.6382695554827791 0.0000000000000000
8.6485925073090737 6.0576491114399831 0.0000000000000000
7.7490716846406835 1.5219491517840531 0.0000000000000000
8.8368479025928472 7.3509613470687567 0.0000000000000000
6.9707957343892595 8.4596728131390222 0.0000000000000000
6.8515023798164316 8.5844340055704578 0.0000000000000000
2.3977185217891952 8.1861572277288506 0.0000000000000000
8.2959438602976867 2.1874222040777620 0.0000000000000000
6.6562745673948109 8.5584789441903624 0.0000000000000000
6.4828680501473706 7.9869120790555908 0.0000000000000000
4.7994083414647308 8.4527172465544602 0.0000000000000000
4.7492793122823711 8.2518089477424095 0.0000000000000000
2.4139570663048291 1.7117895019382745 0.0000000000000000
5.3099992371729154 1.7470756781831780 0.0000000000000000
5.1652733497163155 1.8902360769286530 0.0000000000000000
4.8914230998660786 8.1055905191166513 0.0000000000000000
5.9158633574373658 8.5332499860610742 0.0000000000000000
1.3899583183967481 8.2250742769193543 0.0000000000000000
2.1941302191754697 1.6567454239741339 0.0000000000000000
3.1137497977072428 8.1825895757547222 0.0000000000000000
3.3062989599558290 8.2338435472571234 0.0000000000000000
1.8557089212778357 1.5884943437067172 0.0000000000000000
1.6487691223653025 1.5387522132788600 0.0000000000000000
1.5031962222104673 1.6728297684733207 0.0000000000000000
1.4578895720834968 1.4830002498308346 0.0000000000000000
8.6325914645721209 7.2794993119855382 0.0000000000000000
8.5708021567152048 7.0773182319582428 0.0000000000000000
8.3797873140791506 7.0384614096390354 0.0000000000000000
8.5042497088193407 6.8916657858776045 0.0000000000000000
8.3196067413911834 6.8553072193760540 0.0000000000000000
8.4349361580453408 6.6844157077079700 0.0000000000000000
8.2450002306035728 6.6697023954365733 0.0000000000000000
8.1288230550506277 6.8209046374336229 0.0000000000000000
8.0625362633507685 6.6331217075289945 0.0000000000000000
7.9329755984451316 6.7806868609938391 0.0000000000000000
8.1994431315422407 6.4766535913368539 0.0000000000000000
7.8675262078802080 6.5942091190674859 0.0000000000000000
1.6931724563214037 3.6751530629277633 0.0000000000000000
1.7521465247089936 3.8828636544763424 0.0000000000000000
8.3075373395801009 8.0963583673905379 0.0000000000000000
8.3567136813367835 8.2794284728554626 0.0000000000000000
8.2382245247450694 8.4123144856752621 0.0000000000000000
8.4105972429276346 8.4549274235573844 0.0000000000000000
8.5576680551625959 8.3144054234427873 0.0000000000000000
8.5925205998053915 8.5032212524653357 0.0000000000000000
8.2613437332481645 8.5819684868424737 0.0000000000000000
7.1124335499636828 8.3207738695131575 0.0000000000000000
8.3891426908867999 3.8295872651296015 0.0000000000000000
7.6394893867298963 8.2851394779862506 0.0000000000000000
5.5332236627528921 1.2998403721363541 0.0000000000000000
1.4250549231333380 6.7122788686954618 0.0000000000000000
1.8210811425050837 6.7794751735631547 0.0000000000000000
1.7335127976674987 6.5791062045873661 0.0000000000000000
8.2363079129047190 5.2233676545882561 0.0000000000000000
1.6510520529235739 2.2543331223163490 0.0000000000000000
8.2219440163244268 5.0228378045648725 0.0000000000000000
1.4919299488442364 2.9237423231108743 0.0000000000000000
1.3350173199206017 2.8723945314461736 0.0000000000000000
1.2152915345950004 2.7015058390086404 0.0000000000000000
6.0998651964449184 7.8869693847074167 0.0000000000000000
6.2448506430979709 7.7424221460137881 0.0000000000000000
7.7366889947262560 6.7370050403408346 0.0000000000000000
5.9013548315998552 7.8314275376897315 0.0000000000000000
8.7662913739162782 2.6505315209717466 0.0000000000000000
6.9373598238663563 1.8303179692121883 0.0000000000000000
1.5961320668939707 3.3259676900699526 0.0000000000000000
1.4158459390945644 3.2505585534860124 0.0000000000000000
1.3350898721866715 3.0679138253124139 0.0000000000000000
6.5351773771838984 8.1744892330752243 0.0000000000000000
8.2595635234371958 7.9041874091399258 0.0000000000000000
8.1217449750530974 6.0719165676388229 0.0000000000000000
8.1799852449666783 6.2642812200640599 0.0000000000000000
3.4531049683364512 8.0889295891016513 0.0000000000000000
8.4731907365273607 2.2472220143011974 0.0000000000000000
8.2583213074927979 1.9892647270936901 0.0000000000000000
8.3977373794638090 1.8597984694655227 0.0000000000000000
8.2173368361372354 1.7993860420881957 0.0000000000000000
8.3526211162577120 1.6727220163421743 0.0000000000000000
8.5363098137133058 1.7281451787237816 0.0000000000000000
8.4841302481438650 1.5464416730030295 0.0000000000000000
8.3095556650415734 1.4956415333499475 0.0000000000000000
8.4307291565972253 1.3554550228582816 0.0000000000000000
8.6146904961299846 1.4044051146322019 0.0000000000000000
8.0183952426399294 1.7399900378765047 0.0000000000000000
7.9745941182798763 6.2229737262782505 0.0000000000000000
2.0193778802073941 6.8228233742284825 0.0000000000000000
6.5506560764439348 1.7297232179709519 0.0000000000000000
6.4032534590123840 1.8671652478905960 0.0000000000000000
6.6825873154543531 1.5676227911473435 0.0000000000000000
6.8768417447355894 1.6396484719578277 0.0000000000000000
6.8378413486963590 1.4477739632208242 0.0000000000000000
6.9629951153467102 1.3219780364305325 0.0000000000000000
5.7798245704159985 1.5348772112987397 0.0000000000000000
5.9728324427922121 1.5809277928233016 0.0000000000000000
6.0232229177021450 1.7638794658973544 0.0000000000000000
6.1576905195987690 1.6290203547761708 0.0000000000000000
6.1190983220237243 1.4375671365954521 0.0000000000000000
5.9192947571868109 1.3890444725793525 0.0000000000000000
6.2101238754131733 1.8143916751828000 0.0000000000000000
6.0752516689843645 1.9574257761937559 0.0000000000000000
6.2665379294204238 2.0115767127552040 0.0000000000000000
2.3301214870350115 2.0608346205319941 0.0000000000000000
6.9945728165270236 2.0196620547644195 0.0000000000000000
1.3734600441112734 2.5379689774361296 0.0000000000000000
1.3448814823215540 2.3605720942054229 0.0000000000000000
1.4491558138037985 2.2171802293272695 0.0000000000000000
3.0531345107398633 1.3241087052899452 0.0000000000000000
3.0935591581278690 1.5303199205009883 0.0000000000000000
3.2422936812913634 1.4011773843632327 0.0000000000000000
3.3141501600269816 1.5863509978284982 0.0000000000000000
8.0671547748999366 7.8546508286331047 0.0000000000000000
4.1075290129886719 1.9858762955427360 0.0000000000000000
5.9383956691262307 2.1033201549015805 0.0000000000000000
1.7880687821218220 2.1064772253828390 0.0000000000000000
1.9036762868873389 6.4315167606764785 0.0000000000000000
1.0153608247176453 2.6256626922522757 0.0000000000000000
6.4631631506471985 2.0630488359126766 0.0000000000000000
7.8091449883697504 1.6957510891236023 0.0000000000000000
8.2484795568337521 1.3114146319291562 0.0000000000000000
1.5293082550803758 4.3607821467732863 0.0000000000000000
1.3584312868576593 4.5223833617205820 0.0000000000000000
1.4445835060579086 4.7324825281209399 0.0000000000000000
1.6351551304758207 4.7430485975166734 0.0000000000000000
8.6840460712475185 3.0177958171750738 0.0000000000000000
8.5595713657869652 3.1397211671423562 0.0000000000000000
8.3720806587107237 3.0915011350591408 0.0000000000000000
8.4355784258712863 3.2912480951544612 0.0000000000000000
8.2359756141144871 3.2354262607650255 0.0000000000000000
8.1801344654455637 3.0433430035744449 0.0000000000000000
3.0633218052675351 7.9875990628407409 0.0000000000000000
5.7585998245495125 7.9719519671028749 0.0000000000000000
8.0640834351817556 5.8798782070298827 0.0000000000000000
1.8477585386347335 7.4900767618415536 0.0000000000000000
1.7074193985757831 7.6301705307926211 0.0000000000000000
1.5191279319849806 7.5716738380209110 0.0000000000000000
1.4671054314712346 7.3893269316090064 0.0000000000000000
1.2773261104900424 7.3545908633838080 0.0000000000000000
3.1475741042692680 1.7259810077903930 0.0000000000000000
5.0877703091497359 8.1539244316418369 0.0000000000000000
8.5377879669336600 4.4012254381988942 0.0000000000000000
6.1884152361118288 7.5445528359527980 0.0000000000000000
6.3824531412868932 7.5907608932568680 0.0000000000000000
5.2149148545326973 2.0920811157878130 0.0000000000000000
5.0205447945177815 2.0423870858559900 0.0000000000000000
4.9647662047944303 1.8510024228195461 0.0000000000000000
3.9672192325914124 2.1277485609015279 0.0000000000000000
4.8802612805695160 2.1868482052233857 0.0000000000000000
7.7735611379521874 2.2196202956214131 0.0000000000000000
6.2851632644556181 1.5116689655233539 0.0000000000000000
8.0091869115125647 5.6871277098799435 0.0000000000000000
1.7381920838850140 7.8507064189437141 0.0000000000000000
7.8727593978730104 7.8036968700353588 0.0000000000000000
8.3558605046236707 4.3463207719004009 0.0000000000000000
8.4006303606611326 7.7597160129894478 0.0000000000000000
7.6786574749531029 7.7533518489348223 0.0000000000000000
8.1044696210333562 8.5357383894536447 0.0000000000000000
4.1611975824455545 2.1785925717233954 0.0000000000000000
8.6067585913342928 5.8296232732528761 0.0000000000000000
7.4846406667232079 7.7023094974201349 0.0000000000000000
3.1937088693716733 1.9249798725204905 0.0000000000000000
2.9501728919804777 1.6797941927466193 0.0000000000000000
3.6482822815838398 1.6704681996831674 0.0000000000000000
3.8073541928505614 1.5499738128942504 0.0000000000000000
3.9965063339497413 1.6039482933535347 0.0000000000000000
3.9398145002117255 1.4257427724845626 0.0000000000000000
4.1394067752065489 1.4720057287663313 0.0000000000000000
4.0524124934037511 1.7945871379315035 0.0000000000000000
2.5924679511623006 8.2256039205667815 0.0000000000000000
7.5783847672694806 2.1713333916736537 0.0000000000000000
8.2426763742287434 7.1833805302252864 0.0000000000000000
7.1501444544234403 7.7935537095563694 0.0000000000000000
7.0969487463575316 7.6005254161402149 0.0000000000000000
7.8691971390083086 5.8302947739975304 0.0000000000000000
2.3421990830610304 7.9779737459816040 0.0000000000000000
7.6317006043767961 2.3642311128879880 0.0000000000000000
7.4904921585180881 2.5074324547142055 0.0000000000000000
7.2907844265687434 7.6511465251106117 0.0000000000000000
7.6253992201694443 7.5598207733123415 0.0000000000000000
8.8027060528394454 7.0979799559805690 0.0000000000000000
7.2375511622287725 7.4580084762015808 0.0000000000000000
7.8554554944411752 7.0887782851035048 0.0000000000000000
4.2281667703262622 8.2866378604269357 0.0000000000000000
4.0876806430946289 8.4293993633265174 0.0000000000000000
3.8945555618758778 8.3818510019681280 0.0000000000000000
3.9600735860281304 8.5772853224676187 0.0000000000000000
3.7534106991904799 8.5244392607904071 0.0000000000000000
3.6965454913913955 8.3272601233236667 0.0000000000000000
3.8396568449257820 8.1888933496503924 0.0000000000000000
7.4612965033333083 6.9820080724899265 0.0000000000000000
6.6568564586521557 7.3052525913393556 0.0000000000000000
6.7966744946331685 7.1640686469416677 0.0000000000000000
2.2885368998756226 7.7835912735103321 0.0000000000000000
7.2707813160837134 6.9298422190520128 0.0000000000000000
7.8981394157355886 3.3293553198448653 0.0000000000000000
8.0394573778777332 3.1861783312869121 0.0000000000000000
7.8450037925682086 3.1361416664861332 0.0000000000000000
7.9854572976297424 2.9930373776874171 0.0000000000000000
5.7356728937333754 5.2757027240103103 0.0000000000000000
5.9295608328150102 5.3262425108203146 0.0000000000000000
6.1234362772433659 5.3767377279678916 0.0000000000000000
6.0701795135551810 5.1836686886063044 0.0000000000000000
6.2640463096730201 5.2340928901854218 0.0000000000000000
7.0245349124577965 6.6859045106096788 0.0000000000000000
2.2650268386482177 5.0896165854934896 0.0000000000000000
7.0352553269974596 3.4633876465750957 0.0000000000000000
7.1758721505809850 3.3209246204235381 0.0000000000000000
6.3023483465245844 6.6778838662082061 0.0000000000000000
5.2456112907056323 6.7610129232008260 0.0000000000000000
5.0517618169733556 6.7107592098661843 0.0000000000000000
4.9985094846351990 6.5177005722717478 0.0000000000000000
4.8579234836637823 6.6604036261311421 0.0000000000000000
4.8046685399872491 6.4673018547255907 0.0000000000000000
4.6640806530972760 6.6098838396248949 0.0000000000000000
7.4230800415265241 3.5644276070279606 0.0000000000000000
7.9366340447082706 4.7727383186751693 0.0000000000000000
3.9758590454170539 6.0719977417875439 0.0000000000000000
3.7819675034798128 6.0216769124393812 0.0000000000000000
4.0291293020474521 6.2650059105083225 0.0000000000000000
4.2230387667525457 6.3154840483389236 0.0000000000000000
4.0824026798267194 6.4580156773151485 0.0000000000000000
4.2763155916414366 6.5085436394557767 0.0000000000000000
4.1356800963439637 6.6510303890543581 0.0000000000000000
3.8884989370642469 6.4076730235186741 0.0000000000000000
3.2344729725473611 5.3418832493055666 0.0000000000000000
3.3750764178156709 5.1992054779116472 0.0000000000000000
3.1812146083540487 5.1488185158977995 0.0000000000000000
6.5111525396305234 5.4775008787372386 0.0000000000000000
7.1609741947091887 4.5712674768083454 0.0000000000000000
1.7899780412282520 5.3247429784121980 0.0000000000000000
1.6495116517741879 5.4673271537523682 0.0000000000000000
1.6056833552463583 5.2863764619736413 0.0000000000000000
1.4609541201068179 5.4216600141520468 0.0000000000000000
1.5125132322621571 5.6098368414137569 0.0000000000000000
1.3088842709614910 5.5637543248390431 0.0000000000000000
1.7188942398466909 5.1216995084151495 0.0000000000000000
1.8772559660571724 4.9889910326904614 0.0000000000000000
2.0181720153862406 4.8458388171775795 0.0000000000000000
2.1584898443382494 4.7034486121785148 0.0000000000000000
2.1051981666451307 4.5104428421470484 0.0000000000000000
1.7028269099344961 5.6605344722171154 0.0000000000000000
1.5654064638403837 5.8022202101569533 0.0000000000000000
1.6125415664963676 5.9942637070345031 0.0000000000000000
1.4382576356195731 5.9285023230562430 0.0000000000000000
1.4596486755822566 6.1220273215402710 0.0000000000000000
1.6697626213919834 6.1789327788322090 0.0000000000000000
1.8065154258219118 6.0445577291420669 0.0000000000000000
6.8647616089848951 6.1068922672050183 0.0000000000000000
6.6708955904361966 6.0566152515553950 0.0000000000000000
7.1992775598108611 6.0146902741501451 0.0000000000000000
4.2870087864334412 3.2862304531767195 0.0000000000000000
3.5540131496109364 6.5002237786865384 0.0000000000000000
3.7287070794069526 5.8286629693987031 0.0000000000000000
3.5880956784417268 5.9714002365338130 0.0000000000000000
3.6413538112100672 6.1644244129165502 0.0000000000000000
3.4474930953259255 6.1141421078723077 0.0000000000000000
5.4693529131727114 4.3103278768045072 0.0000000000000000
3.5007515576481207 6.3071901442893576 0.0000000000000000
5.0325973515746334 5.9888496197268575 0.0000000000000000
7.5444553604147906 2.7001212190071660 0.0000000000000000
7.3399087491449251 5.8721771440471331 0.0000000000000000
4.2955314532150926 7.2301616900784573 0.0000000000000000
4.1548929085185220 7.3725892270930578 0.0000000000000000
3.9609753995448691 7.3222805577659580 0.0000000000000000
4.3488217561880314 7.4232560224594515 0.0000000000000000
2.3371115190734097 6.0044654277803033 0.0000000000000000
2.4779893324899285 5.8617148686502940 0.0000000000000000
7.7085940467737508 5.2513714875064412 0.0000000000000000
7.5679391822578204 5.3940008040569252 0.0000000000000000
4.8686150803559638 3.4369847920070025 0.0000000000000000
5.0092006523872090 3.2942667307762807 0.0000000000000000
3.3601598620638411 6.4499219553869542 0.0000000000000000
6.0169200922168589 4.9906041049185390 0.0000000000000000
4.8496012885623241 2.7151859643901313 0.0000000000000000
5.2647747335889683 7.4828318457262180 0.0000000000000000
3.4091743325552719 4.6703948015079533 0.0000000000000000
3.3559245775280027 4.4773384611442086 0.0000000000000000
3.2153142674709403 4.6200386960509050 0.0000000000000000
3.1620647397900190 4.4269945347196460 0.0000000000000000
3.0214420595506111 4.5696658038531135 0.0000000000000000
6.2598018487123461 3.2616001691481440 0.0000000000000000
6.1191998041951550 3.4043938909063813 0.0000000000000000
6.0659315563319982 3.2114001184473375 0.0000000000000000
3.1471229145745792 5.6775872186869361 0.0000000000000000
6.3555934511646015 6.8709763565887219 0.0000000000000000
2.8318024908262500 6.4912815441296701 0.0000000000000000
7.3207854687746394 5.1504436004004326 0.0000000000000000
3.3026768975019012 4.2842858931327017 0.0000000000000000
3.1088162273629525 4.2339589873346162 0.0000000000000000
3.2494294663011747 4.0912411332207990 0.0000000000000000
3.0555661629045914 4.0409341616691270 0.0000000000000000
3.3900335160484047 3.9485179987832475 0.0000000000000000
5.2371028035538476 2.8159668654767516 0.0000000000000000
3.2536372247012175 6.0637559076943441 0.0000000000000000
6.5743350104257550 2.4475215590882318 0.0000000000000000
4.5874156745943528 3.7225271019124255 0.0000000000000000
4.2337429121212500 3.0932255843227026 0.0000000000000000
4.1463704214901274 3.4287957278606305 0.0000000000000000
4.0057362118768260 3.5713000649980540 0.0000000000000000
3.9524716713363457 3.3782249049954625 0.0000000000000000
2.0519470290612731 4.3174676608570177 0.0000000000000000
6.7732117780349679 4.4702704488333511 0.0000000000000000
6.5793501551256623 4.4198660439522044 0.0000000000000000
6.5260967120554509 4.2268059281659403 0.0000000000000000
6.6666991818111780 4.0841258550358379 0.0000000000000000
6.6134413761601065 3.8910503547319810 0.0000000000000000
6.7540420634239267 3.7484211806492769 0.0000000000000000
3.2111847995095504 2.6475031037348629 0.0000000000000000
3.2644163003043642 2.8405153874915965 0.0000000000000000
4.9942811751867833 4.5450456116152269 0.0000000000000000
3.2685663986577227 4.8130901364856600 0.0000000000000000
4.7322406162114241 5.5522954941688081 0.0000000000000000
3.0449718736941573 7.2638046403893677 0.0000000000000000
3.2388222301828162 7.3145561616943935 0.0000000000000000
3.3793805939761996 7.1718812962365339 0.0000000000000000
2.4437829229207466 6.3904359026911264 0.0000000000000000
3.1961807325445979 3.8982063763982291 0.0000000000000000
5.9146320193495328 6.5766946826696318 0.0000000000000000
4.1655324931561193 4.1504567661294578 0.0000000000000000
2.1926002201802031 4.1747892328748639 0.0000000000000000
5.2072939971963486 5.3173334961369436 0.0000000000000000
5.3479038859967547 5.1746918822402179 0.0000000000000000
5.1540396096550731 5.1242670692025412 0.0000000000000000
6.9479195605195265 3.7989694164252237 0.0000000000000000
3.0938648013725167 5.4845097027845648 0.0000000000000000
4.9559475273683153 3.1011755448364586 0.0000000000000000
6.2789845059395022 3.9834440897479078 0.0000000000000000
6.6517610376076401 5.3347784306414541 0.0000000000000000
6.4579034533585657 5.2844501740889145 0.0000000000000000
3.9076959010085730 7.1293342064198573 0.0000000000000000
5.1391029040801302 6.3749556728902590 0.0000000000000000
5.2563023827810627 3.5378955389590252 0.0000000000000000
2.9149390403233304 4.1836037634130401 0.0000000000000000
7.8832390979353590 4.5798109713172463 0.0000000000000000
2.8766982634919924 2.7403010020005487 0.0000000000000000
7.2483432599117812 4.2356691552578338 0.0000000000000000
7.1077107830228279 4.3782043699137505 0.0000000000000000
3.4965311834698682 4.3346452923048400 0.0000000000000000
5.5609445342290105 5.9469067713662822 0.0000000000000000
2.4056380431916664 4.9469695798505970 0.0000000000000000
4.4169410991029263 6.3661063725618972 0.0000000000000000
6.5494274405607262 6.9212725044670602 0.0000000000000000
5.0475332778945257 4.7381213511755327 0.0000000000000000
5.1881343584563187 4.5954676995621657 0.0000000000000000
3.5114848334413349 3.0839247927789137 0.0000000000000000
3.3708905202093784 3.2266104375077904 0.0000000000000000
4.9751190121717617 3.8231266375144317 0.0000000000000000
6.8221139644837017 2.6908726116564896 0.0000000000000000
2.3758464280013945 7.4477441201805235 0.0000000000000000
2.4291484090315336 7.6406605673163517 0.0000000000000000
4.6257278411374116 5.1661432257480753 0.0000000000000000
4.0675386296275482 7.7081943662108579 0.0000000000000000
7.6553278460864664 5.0583249769908090 0.0000000000000000
3.9417702361656408 6.6006581464723935 0.0000000000000000
3.8118495014683060 3.5207050342308639 0.0000000000000000
2.8850949725162836 6.6843709739411148 0.0000000000000000
5.1348793303370890 4.4023829920891817 0.0000000000000000
2.9490545211628727 3.6549151790932854 0.0000000000000000
3.9716358256206914 4.0999403839367794 0.0000000000000000
2.5079826551738877 3.3609788486052405 0.0000000000000000
2.3142753816542179 3.3105470804119803 0.0000000000000000
2.2611748731053130 3.1178005130138007 0.0000000000000000
2.4015485737153459 2.9750546453076621 0.0000000000000000
2.2073942495167183 2.9260028627358081 0.0000000000000000
2.1738398292923589 3.4531383480241433 0.0000000000000000
2.5121919819795826 5.3330298972232839 0.0000000000000000
2.3715700347893844 5.4756640670516825 0.0000000000000000
4.6939245985348288 4.1085776457956822 0.0000000000000000
5.7654753896761406 2.7750545489939151 0.0000000000000000
2.3183045636723483 5.2826422214342159 0.0000000000000000
7.4422337524081037 4.2861308082768659 0.0000000000000000
7.3889832305115517 4.0930971387786945 0.0000000000000000
2.6231565176635048 7.6909920572373141 0.0000000000000000
6.5302909295802296 6.1993786854796031 0.0000000000000000
3.3367848256200223 3.7554621101243573 0.0000000000000000
5.8912269416115022 3.8827657766323735 0.0000000000000000
5.4647509621253656 2.3377668605292623 0.0000000000000000
3.7670835318384710 7.2721749066246293 0.0000000000000000
3.5732202448171169 7.2220961784261082 0.0000000000000000
3.6264878002182077 7.4150948442688440 0.0000000000000000
5.1731969430129094 5.8461341785021554 0.0000000000000000
3.9375315382178315 4.6286015179963949 0.0000000000000000
2.5762089394175463 2.3046497917670994 0.0000000000000000
3.3942373802892440 5.9210840753555400 0.0000000000000000
5.3436332714005523 3.2022698748854332 0.0000000000000000
6.5409673345747956 2.9760492665349649 0.0000000000000000
7.5146833533390218 5.2009353639121354 0.0000000000000000
3.2985155314673542 2.3116535164374672 0.0000000000000000
7.3931647132279990 6.0652498972485276 0.0000000000000000
2.9831824733937577 3.1262107678284701 0.0000000000000000
4.5533131891648377 4.2512870822990152 0.0000000000000000
4.5192113276925507 4.7800239091510024 0.0000000000000000
5.5950460136606157 5.4182358050547199 0.0000000000000000
6.4046517678626822 5.0913965510716137 0.0000000000000000
4.4553939032335048 7.8096574439921014 0.0000000000000000
5.8272892003024790 6.9122290496042469 0.0000000000000000
5.9679130257999455 6.7698314467175518 0.0000000000000000
6.3172980183521474 5.4271548262356930 0.0000000000000000
2.2267593682384139 3.6460628550857472 0.0000000000000000
4.4276430459604175 3.1435517227361638 0.0000000000000000
3.7394322899059831 2.6057607457376597 0.0000000000000000
6.3471218735210462 2.9257673392511250 0.0000000000000000
7.1801513226711986 5.2929871264846708 0.0000000000000000
3.7926896734260453 2.7989043552232316 0.0000000000000000
3.9333012276349759 2.6564881538345433 0.0000000000000000
4.1314275052782490 4.6790936771486731 0.0000000000000000
4.1122676849935189 3.9574129226268533 0.0000000000000000
2.5697881052195841 7.4979109771858772 0.0000000000000000
2.5845215945611741 6.2477353680394776 0.0000000000000000
2.6378334251739735 6.4407477975674734 0.0000000000000000
2.9873384067908058 5.0983790531276219 0.0000000000000000
3.8352312193374138 6.2146795965280788 0.0000000000000000
4.4615565826631096 2.6148967186975725 0.0000000000000000
3.8651104543897699 3.7137953508377235 0.0000000000000000
5.0434518704554474 2.7655701082108393 0.0000000000000000
2.6677895792092445 3.9401357174305862 0.0000000000000000
5.9061101509495870 2.6324578131377101 0.0000000000000000
6.0360798359836050 5.7124007872781348 0.0000000000000000
4.1846924158997112 4.8721380637762914 0.0000000000000000
4.2038595146204001 5.5938203825652657 0.0000000000000000
4.3444902104886483 5.4512915457476074 0.0000000000000000
2.6911615627649081 6.6337573467889914 0.0000000000000000
2.6038411166147397 6.9693120623057174 0.0000000000000000
6.3854947698090978 4.3695263092594576 0.0000000000000000
6.7241453003476011 6.2496339337996636 0.0000000000000000
6.2299441039442760 5.7628886436236328 0.0000000000000000
2.2308412257561581 5.6183924922093462 0.0000000000000000
4.5916358115336493 5.6948987052803925 0.0000000000000000
4.5234863205134728 6.7523525347829096 0.0000000000000000
3.5199536121933344 7.0290837686107190 0.0000000000000000
3.3261137004516748 6.9787886840897899 0.0000000000000000
4.0440590713570241 5.0146934048125695 0.0000000000000000
4.9111774948927751 6.8534973968567376 0.0000000000000000
5.3969006097582799 3.3954062563408978 0.0000000000000000
2.7252264431866902 6.1051647869383459 0.0000000000000000
4.3636692547176521 6.1730127867513938 0.0000000000000000
7.0053882260742766 5.9642256041272859 0.0000000000000000
3.2921112292398425 7.5077169818151592 0.0000000000000000
3.0982772612320342 7.4570127628640721 0.0000000000000000
6.0510178704065574 4.4618802058914788 0.0000000000000000
3.6946153459936393 6.3574351888554457 0.0000000000000000
5.2030416268539330 3.3447696492588483 0.0000000000000000
3.1238102808423664 2.9833804903591092 0.0000000000000000
5.5801062092206548 6.6685994674507425 0.0000000000000000
6.3799859602465911 2.3988920249059755 0.0000000000000000
3.0023124729282000 3.8479196901222892 0.0000000000000000
6.9521342578528023 5.7711977704905664 0.0000000000000000
6.9670867444077942 4.5207479329486508 0.0000000000000000
2.5505354832088023 6.7763577242966946 0.0000000000000000
6.8797321467653534 4.8563973286879447 0.0000000000000000
6.6281560620279203 2.6403492834963189 0.0000000000000000
4.4702140131062356 6.5592190693897470 0.0000000000000000
6.1766912222315735 5.5698117635055100 0.0000000000000000
3.5988339099946707 2.7482305345013862 0.0000000000000000
5.2988666314195161 6.9540206217793843 0.0000000000000000
5.6973292256620081 3.8322537772129803 0.0000000000000000
6.9712753003032004 6.4929029223788284 0.0000000000000000
6.7773966490451931 6.4426408630197551 0.0000000000000000
4.5383749582958606 5.5018153792099600 0.0000000000000000
6.4387479750644427 4.5625759826833523 0.0000000000000000
3.0705754076052809 2.7904130752821041 0.0000000000000000
5.7399736834064399 7.2477638184003768 0.0000000000000000
5.8807259938269505 7.1055081692908608 0.0000000000000000
5.5758805516125634 4.6964925529785786 0.0000000000000000
5.3819995211772422 4.6459550320235268 0.0000000000000000
5.2413897900699853 4.7885487306609393 0.0000000000000000
6.0019848121573807 6.2411191706483473 0.0000000000000000
4.5000552442779584 4.0582609574755963 0.0000000000000000
5.4108732539917890 2.1434044845659779 0.0000000000000000
4.7961095941435712 2.5224636656500654 0.0000000000000000
5.2946466185799359 4.9816235969891665 0.0000000000000000
5.0965559857634828 2.9585433671675574 0.0000000000000000
7.6020230110730740 4.8652546268843428 0.0000000000000000
3.9034291527454736 5.1572792000206338 0.0000000000000000
4.3061664278727658 4.0078835936362402 0.0000000000000000
7.1651625797954850 6.5432979277415173 0.0000000000000000
5.4203204976587465 6.0895231281480093 0.0000000000000000
3.4582421277189965 2.8908207109873199 0.0000000000000000
5.9253119632179470 3.3541036552500172 0.0000000000000000
2.9681904850955196 4.3766313496173064 0.0000000000000000
3.3176510304444298 3.0335538980096652 0.0000000000000000
5.8720367992024682 3.1610938040219367 0.0000000000000000
6.0126600351747452 3.0184185454589487 0.0000000000000000
2.5312025441234027 6.0547368989998107 0.0000000000000000
5.2264508005073322 6.0391799522527601 0.0000000000000000
2.8808103640163285 4.7122819475194584 0.0000000000000000
5.9593848299016949 2.8254441719040169 0.0000000000000000
5.1497876382315289 3.1516460228334275 0.0000000000000000
6.1916330995601774 4.3192053890018665 0.0000000000000000
7.9173848478727544 4.0510230115422079 0.0000000000000000
4.6553940803298905 2.6650578206578066 0.0000000000000000
6.9819689221432029 3.2702835088252193 0.0000000000000000
6.4876763114404072 2.7829951249734388 0.0000000000000000
3.0746969812582816 4.7627085242620071 0.0000000000000000
2.7743015041971608 4.3262083633790169 0.0000000000000000
7.0203505623122835 4.7138137185216760 0.0000000000000000
4.4851132402122964 5.3087416296044374 0.0000000000000000
4.7514117725323617 6.2741960386829891 0.0000000000000000
2.8616839958774851 3.9905822125106369 0.0000000000000000
3.1579490815501301 2.4545371353177732 0.0000000000000000
6.7686797472173286 2.4977594296299261 0.0000000000000000
4.0590019582490005 3.7643619092778646 0.0000000000000000
3.3409832900168754 5.7280187796588073 0.0000000000000000
2.6187030157136455 5.7190911494944725 0.0000000000000000
6.2065360033975416 3.0685980022065236 0.0000000000000000
5.0624545431347068 3.4873658213591212 0.0000000000000000
4.7812739828145663 3.7727930651959163 0.0000000000000000
7.2180784726074751 6.7365285979486913 0.0000000000000000
4.6406704057460475 3.9155458249128108 0.0000000000000000
5.5417833532694996 5.2251725244413381 0.0000000000000000
5.7505992502936651 4.0253194110559090 0.0000000000000000
4.9218670199303229 3.6300505008431823 0.0000000000000000
4.4318512197476787 5.1156783654006084 0.0000000000000000
5.4394802579865980 6.8112592618327596 0.0000000000000000
4.3785880906957839 4.9226242280632970 0.0000000000000000
6.4728421785925754 4.0337484832439747 0.0000000000000000
7.9965138656234798 4.9670195027929136 0.0000000000000000
4.9452564995006734 6.3246294556320999 0.0000000000000000
6.3322405032938134 4.1764813530462828 0.0000000000000000
6.8946458974977123 3.6058716749461128 0.0000000000000000
7.7970755253112074 4.9157958849996737 0.0000000000000000
6.7007745612633647 3.5553263147481919 0.0000000000000000
7.8641245374430708 3.8581139370528161 0.0000000000000000
5.4160897743932006 4.1172332483049265 0.0000000000000000
5.6099729856986889 4.1678246140181905 0.0000000000000000
5.0858496226049743 6.1819079392921994 0.0000000000000000
6.5601814818655440 3.6979768343743875 0.0000000000000000
5.5117835523216794 7.7260637841511324 0.0000000000000000
3.7628064750193624 5.2999161233179137 0.0000000000000000
4.6108176187283902 6.4167555868582582 0.0000000000000000
5.8613666887809552 6.3835924950915235 0.0000000000000000
2.4247600207879638 5.6686981268118961 0.0000000000000000
5.7740115950192461 6.7191342875100784 0.0000000000000000
7.8107925348594023 3.6652555735813275 0.0000000000000000
6.6031043237926559 7.1136704231514383 0.0000000000000000
3.4326470085357088 7.3649659536097118 0.0000000000000000
6.1383749778016341 4.1261716176345544 0.0000000000000000
5.3287401211169669 4.4528692809646389 0.0000000000000000
6.1617736999096051 6.8204981410280761 0.0000000000000000
3.1279551105810857 4.9557600291746953 0.0000000000000000
7.7575187219528230 3.4721801702243442 0.0000000000000000
3.5689362526757336 5.2495593504810421 0.0000000000000000
3.5156807114113642 5.0565083848463601 0.0000000000000000
5.9444931222680415 4.0758016416502540 0.0000000000000000
7.3164930292780648 3.1784142745092350 0.0000000000000000
7.3697875827326662 3.3714201900106189 0.0000000000000000
7.1225777951254488 3.1278575348631596 0.0000000000000000
7.5636892545077226 3.4217719803570970 0.0000000000000000
3.6796944401703353 7.6082610786317089 0.0000000000000000
4.9303243785063477 7.5756699516182593 0.0000000000000000
3.3218209316340910 5.0061469767839792 0.0000000000000000
4.0142503038616599 7.5152479115972364 0.0000000000000000
6.4088350654000585 7.0640580671896229 0.0000000000000000
4.2081801551468967 7.5656084889795450 0.0000000000000000
4.8770999586997670 7.3824446345711783 0.0000000000000000
3.8203389280244973 7.4651778265735533 0.0000000000000000
5.1241499983666845 7.6259059745222553 0.0000000000000000
4.6832893584480733 7.3318768863035455 0.0000000000000000
5.3179650914194028 7.6759589225374141 0.0000000000000000
4.5427231666467458 7.4742276552909273 0.0000000000000000
4.4021087104566980 7.6164200575978978 0.0000000000000000
7.3437812531555933 7.8444125234940216 0.0000000000000000
2.2117736850873095 4.8965439230898680 0.0000000000000000
2.2991144534783423 4.5608574238393196 0.0000000000000000
1.9608118547028317 2.6853334597138345 0.0000000000000000
3.0522090326447575 2.0681014061731959 0.0000000000000000
2.2734529873001481 1.8625705517013440 0.0000000000000000
1.8804399504279563 6.9663381361538832 0.0000000000000000
3.4390324212508472 2.1692261273253197 0.0000000000000000
3.2453807957315224 2.1188024243798211 0.0000000000000000
2.0747751620007380 7.0135712649822812 0.0000000000000000
2.0139570777875808 2.8769219514747539 0.0000000000000000
7.9690088456239128 2.2653119514686630 0.0000000000000000
2.1211233932407243 3.2605354236089545 0.0000000000000000
2.0419567450456708 8.2684049814231262 0.0000000000000000
8.1088648399507068 2.1262615974310957 0.0000000000000000
7.3502724775873345 2.6508673824759823 0.0000000000000000
7.2968273710893570 2.4568034993189554 0.0000000000000000
7.6852396646060326 2.5574434177728538 0.0000000000000000
5.5647962494586611 7.9197981477725632 0.0000000000000000
2.2955627106761876 2.5891808380417074 0.0000000000000000
1.3361263538542050 6.8529965214658439 0.0000000000000000
1.2836551336914752 7.0221709230306413 0.0000000000000000
4.6305200693108022 1.9435373938735738 0.0000000000000000
4.3349339940881553 1.5206327805950179 0.0000000000000000
8.0131703807174599 7.6608544369163845 0.0000000000000000
8.4813351068737148 8.1480214812660812 0.0000000000000000
1.5630456301335900 7.7609062803981583 0.0000000000000000
5.6169266141458127 8.1127715935483451 0.0000000000000000
2.5245171023082222 2.1103112184117863 0.0000000000000000
4.1626078275875260 8.6196211973646673 0.0000000000000000
8.3596788340568828 6.3391996342397228 0.0000000000000000
7.6897479617450433 6.5095186702742671 0.0000000000000000
1.3410908345550161 7.5388987988495408 0.0000000000000000
5.9530880709640162 8.0274060553193518 0.0000000000000000
8.2829712434144760 3.4378339800610771 0.0000000000000000
1.5429873253068924 8.1204179073531755 0.0000000000000000
8.1233819316995266 1.4326313991842123 0.0000000000000000
4.8237075650551171 1.9910226204744701 0.0000000000000000
1.9245380057407524 8.5636682980615255 0.0000000000000000
2.1545100906790648 2.7335899234781844 0.0000000000000000
1.5575538720973285 1.8564968232166579 0.0000000000000000
4.7069703762331185 8.7356908100783102 0.0000000000000000
6.6775047806532024 8.0311031191057012 0.0000000000000000
1.7140821859248214 6.3684268262533186 0.0000000000000000
2.2406581906666032 2.3993487823450117 0.0000000000000000
5.8836247272495088 1.9103888026898772 0.0000000000000000
2.3827187808081720 2.2552040305741512 0.0000000000000000
5.1053133425000299 1.6743708798983215 0.0000000000000000
1.7773727263206782 1.4116629140690256 0.0000000000000000
8.1625022990119724 1.6140496892863880 0.0000000000000000
5.1397574843318372 8.3380385688456773 0.0000000000000000
5.2002082794781090 8.5299625693422332 0.0000000000000000
5.3983866764532422 8.5727184048838811 0.0000000000000000
8.3144498424287541 2.8981023237165981 0.0000000000000000
1.0658091219721455 7.3582426276965709 0.0000000000000000
8.3496660963089244 4.8532306588542973 0.0000000000000000
3.3407793022921193 8.4250803809126769 0.0000000000000000
1.6068257890429234 1.3534748036338660 0.0000000000000000
1.4245544057983377 1.2396426185935570 0.0000000000000000
1.2353462702644606 1.4367875111877719 0.0000000000000000
4.7368124626842647 2.3306711390693455 0.0000000000000000
1.4369971970471553 3.4033231872184802 0.0000000000000000
6.3445662711908213 1.6804203172276539 0.0000000000000000
8.5293234293404634 5.6317655933515791 0.0000000000000000
4.9348796650210964 2.3802462182367470 0.0000000000000000
1.4053593456094495 3.7964751533100460 0.0000000000000000
2.3680235296169490 8.6927648922751359 0.0000000000000000
8.2601400046183642 2.7033174685317309 0.0000000000000000
8.5517375658962536 3.7014081917113990 0.0000000000000000
8.0194706485453651 6.4257174939000574 0.0000000000000000
8.6082134210469476 6.7416777491200666 0.0000000000000000
6.3247708226905708 2.2051951665553706 0.0000000000000000
6.4342620520142884 7.7898991555257666 0.0000000000000000
7.0812485852727871 1.6937756739148659 0.0000000000000000
1.2639259433966703 3.2304828882985133 0.0000000000000000
7.2788486376815928 1.7426314602888913 0.0000000000000000
6.5739765646662045 7.6416671149431563 0.0000000000000000
6.5192558632706294 7.4487266573082778 0.0000000000000000
2.6432065307486643 1.2410728716751451 0.0000000000000000
2.6339142726493465 1.0346010518454787 0.0000000000000000
8.7143568452550859 3.8114223949406587 0.0000000000000000
8.5444157409557135 6.3312858623574648 0.0000000000000000
8.7222987984985707 4.4656683272527635 0.0000000000000000
2.8865473228375391 8.6450905315070639 0.0000000000000000
2.7565815572449011 8.8042902154460094 0.0000000000000000
8.6813793605704763 6.9049351879762231 0.0000000000000000
7.6661716804761717 8.7353276069895482 0.0000000000000000
8.1891351541683921 6.9980719790058261 0.0000000000000000
4.8287053759397907 1.4538798063226490 0.0000000000000000
8.1279970479799761 0.8766230588400871 0.0000000000000000
9.1517114022199237 7.7904850920928927 0.0000000000000000
2.1771367059371678 8.5551426714990608 0.0000000000000000
8.5617839458389700 1.9264681339170153 0.0000000000000000
3.3807613510438745 9.1507442845746905 0.0000000000000000
8.5678889376782976 3.3988880063767786 0.0000000000000000
5.3221383212480440 1.2848697738593180 0.0000000000000000
6.1835344075012921 1.2668900372445546 0.0000000000000000
0.9721587419514297 6.2040164999165333 0.0000000000000000
7.6605442550268368 1.2668942332227191 0.0000000000000000
0.9707117570587787 7.6743055844142427 0.0000000000000000
5.2907154345093037 8.9745386267551606 0.0000000000000000
5.2997098989755616 9.1341945752448481 0.0000000000000000
6.2042659826759952 9.0275534382547544 0.0000000000000000
8.7348646055229935 6.1827388121295144 0.0000000000000000
7.6869779491962706 9.0309799823246149 0.0000000000000000
1.8718783706350146 9.1239420776284845 0.0000000000000000
2.2000642624746414 9.1431264288175047 0.0000000000000000
2.3390720251726842 8.9919135080676380 0.0000000000000000
9.0187848106544273 2.3285150039729330 0.0000000000000000
9.0270541506169657 3.7966256575714570 0.0000000000000000
8.7187080483020907 3.2159655527477864 0.0000000000000000
3.6817530543386789 9.1427899194723103 0.0000000000000000
3.6917922269462062 9.3998285353000419 0.0000000000000000
9.1505072875004370 3.3831436157875681 0.0000000000000000
8.7355197244094835 8.2451654887376034 0.0000000000000000
1.7449569564963727 8.7349486254273412 0.0000000000000000
5.1304971323353072 1.4683950418116352 0.0000000000000000
1.4372614674296358 4.8830108133480747 0.0000000000000000
6.6012878919066793 1.4452667998555928 0.0000000000000000
1.4249370477080818 6.3684256031703352 0.0000000000000000
4.8633384263537396 0.8607752926342459 0.0000000000000000
4.7132929061925957 0.9002862254223561 0.0000000000000000
4.7594061349370369 0.7033493890276101 0.0000000000000000
5.1382708661277317 0.8602990871641847 0.0000000000000000
5.2885689395173010 0.9026593800953454 0.0000000000000000
5.2523575723824276 0.7069775922803974 0.0000000000000000
0.8607211788235567 5.1371816036059101 0.0000000000000000
0.8987402726891222 5.2869033459764028 0.0000000000000000
0.7023048397322568 5.2408775059035051 0.0000000000000000
0.8601290294752783 4.8627692772072182 0.0000000000000000
0.9001268868983409 4.7130873690979280 0.0000000000000000
0.7054817415990543 4.7490115170360703 0.0000000000000000
6.3161733600100467 0.8579788839946653 0.0000000000000000
6.6140341594723200 0.8470919043899424 0.0000000000000000
0.8494968886456818 6.6185537992012398 0.0000000000000000
0.8497079588605317 6.3229704154835069 0.0000000000000000
0.5989670351137071 6.3091206945842391 0.0000000000000000
7.7996468111161459 0.8570297906744448 0.0000000000000000
0.8400376391232756 7.7960750473384364 0.0000000000000000
8.7339286272532224 1.7554351025749033 0.0000000000000000
8.6698187837628726 1.5931079284617435 0.0000000000000000
3.8488567956301414 8.7165844580698018 0.0000000000000000
1.4385628069781158 5.1164087926104864 0.0000000000000000
1.2743774754532040 4.7032563267447269 0.0000000000000000
1.1749910616352475 4.4219535877249845 0.0000000000000000
6.1839596450507619 1.0051849892631188 0.0000000000000000
1.2672400522568317 6.1769647958285132 0.0000000000000000
7.6607969362387811 1.0090097177816899 0.0000000000000000
2.3366787448251145 1.2677392467903663 0.0000000000000000
2.2045506175262108 0.8476455531932899 0.0000000000000000
0.9703785537554502 2.3203193355123064 0.0000000000000000
3.7934712376609716 0.9766477105244710 0.0000000000000000
3.8157970986819572 8.9958971949658064 0.0000000000000000
3.2233595902891032 8.7380655204878597 0.0000000000000000
3.8514685721112758 1.2843396097496462 0.0000000000000000
3.6753136822135319 0.8521383451475876 0.0000000000000000
0.8493982555916264 3.3838662865256688 0.0000000000000000
1.2645333480659529 1.7560477023832288 0.0000000000000000
3.6541626219041197 1.4592253547958944 0.0000000000000000
3.3850233505105440 0.8470892355850536 0.0000000000000000
0.8579294469529564 3.6828864478508936 0.0000000000000000
0.6004248332859525 3.6939292132569408 0.0000000000000000
1.8709262899855426 0.8767133243722063 0.0000000000000000
0.8762391366984540 1.8766412455329129 0.0000000000000000
4.7146379328253341 1.2902606162518075 0.0000000000000000
1.2678656216110693 5.2874172080935073 0.0000000000000000
6.7799460988130047 1.2866997321903997 0.0000000000000000
5.2977570889674528 8.7056941170463844 0.0000000000000000
4.7085690313826847 8.9747708424226076 0.0000000000000000
4.6991547417819941 9.1315458331196666 0.0000000000000000
8.9760521517729224 5.2906268918371788 0.0000000000000000
9.1354269467633564 5.2993207836967038 0.0000000000000000
8.7237003087214351 4.6771251105664691 0.0000000000000000
8.9743692363410563 4.7093218849552603 0.0000000000000000
9.1315518331044156 4.6999534554994193 0.0000000000000000
8.9811887673231272 6.1756852736284706 0.0000000000000000
9.0188128585281468 7.6624361347778596 0.0000000000000000
1.0047840322524990 3.8134711725763188 0.0000000000000000
2.3359015532152472 0.9958706805593492 0.0000000000000000
8.7354840580926290 2.3420837272627848 0.0000000000000000
2.1884025411555914 1.4601952729778520 0.0000000000000000
0.8490699347223527 2.2002011800378027 0.0000000000000000
3.3996318318847658 1.4369294864727877 0.0000000000000000
1.4349352789225780 3.6456410953788261 0.0000000000000000
0.8762142776254563 8.1259961697591034 0.0000000000000000
9.1233850430171248 1.8759573787586294 0.0000000000000000
9.1482635184442689 3.6779573244505794 0.0000000000000000
8.5496497433454319 5.1309089732209765 0.0000000000000000
8.5500166328936462 4.8712333167328357 0.0000000000000000
6.6196959993674387 9.1505618237068589 0.0000000000000000
6.3236288563816201 9.1505491499915337 0.0000000000000000
6.3098092149209934 9.4013300972245624 0.0000000000000000
9.1506059241628073 6.6176736428277243 0.0000000000000000
9.1580598324534623 6.3513587947291414 0.0000000000000000
9.3736523667274980 6.3006838658446274 0.0000000000000000
8.1288552353369390 9.1234804436360566 0.0000000000000000
7.8060592135202764 9.1515647780991820 0.0000000000000000
7.8253511245318919 8.5417002357922982 0.0000000000000000
9.1237686479950071 8.1248469627607065 0.0000000000000000
8.5760556166658954 7.7948954972326350 0.0000000000000000
9.1567812815201357 2.2049103453817120 0.0000000000000000
6.1841484804242564 8.7357011936857489 0.0000000000000000
0.8111601877156981 9.1861069513785854 0.0000000000000000
9.1797522275888852 9.1748885873054800 0.0000000000000000
0.7800115277013324 0.7866359876796610 0.0000000000000000
9.1787643369907208 0.8259357722931252 0.0000000000000000
7.8433142304778949 8.3418499325987909 0.0000000000000000
1.3992128547039047 7.7002333709488662 0.0000000000000000
8.5658366390347869 6.5983686901402487 0.0000000000000000
6.3066026524392962 0.5996798800301463 0.0000000000000000
3.6882158593229026 0.6010231299386645 0.0000000000000000
9.3995499180145039 3.6907980143121151 0.0000000000000000
4.5361568505497107 8.6952344894551050 0.0000000000000000
1.3399656922387411 8.7496255143245438 0.0000000000000000
8.8460758028975501 5.5750599439116453 0.0000000000000000
6.3556707597751920 8.5779024576613665 0.0000000000000000
1.9254361150816675 1.4355589511351874 0.0000000000000000
1.3844955555795986 5.7477388597774288 0.0000000000000000
4.4255490435679379 8.8433164926518870 0.0000000000000000
1.8896589173707588 8.3943046717556911 0.0000000000000000
7.3892104248312336 0.9975629160706125 0.0000000000000000
7.3862720706556182 9.0102156302574414 0.0000000000000000
2.6180320859251878 8.9563150482796505 0.0000000000000000
8.5531055342905322 1.2006994571977627 0.0000000000000000
8.7710304537632755 1.2518229818365905 0.0000000000000000
8.2436347965406984 8.7358173701857105 0.0000000000000000
3.0656698618791904 8.6879519847111233 0.0000000000000000
9.0538970202422142 2.4996538543149383 0.0000000000000000
3.5072009047602042 8.2751247082402468 0.0000000000000000
1.7559030797306667 1.2681121757530673 0.0000000000000000
9.0389614177939723 7.4543192520599035 0.0000000000000000
7.3981045070563551 8.7177672694670463 0.0000000000000000
8.4392552136521850 8.6488543970417009 0.0000000000000000
8.6487423609864251 8.6915661394863957 0.0000000000000000
8.7901405368705348 8.5454845845386842 0.0000000000000000
4.3485610651256108 8.6573148963555742 0.0000000000000000
7.9936413380115798 6.9556361598872671 0.0000000000000000
4.0735601319600496 1.2714318640334086 0.0000000000000000
6.7638226330465079 8.7154000558395648 0.0000000000000000
2.5714491000639779 8.7261385319054305 0.0000000000000000
2.9463609434717752 8.8368144006795859 0.0000000000000000
3.4019605322039745 8.5645613212609106 0.0000000000000000
6.6182904276700532 8.3520923439257242 0.0000000000000000
4.8800533225298022 8.5667050196866246 0.0000000000000000
7.5939585335676183 6.8473673634886376 0.0000000000000000
8.8167480948906753 1.4579594558612179 0.0000000000000000
4.9275325119115712 8.2929936388837557 0.0000000000000000
5.9668306928376182 8.7155003684353254 0.0000000000000000
1.4338339557549598 7.8337565169507677 0.0000000000000000
7.0846303562779660 1.1703189672737289 0.0000000000000000
8.3323278625838331 3.6501349573280137 0.0000000000000000
6.3768985628624710 8.3147110251023317 0.0000000000000000
1.6618098991429691 8.6087073513821597 0.0000000000000000
7.7949225003884672 6.9075433395446844 0.0000000000000000
0.9626558969278510 4.5345636011018371 0.0000000000000000
1.6994304607063242 4.9229323318795366 0.0000000000000000
1.4085494707741779 1.8137220812269155 0.0000000000000000
7.7966599375227315 0.6182385013558780 0.0000000000000000
7.8031796009902923 9.4008447411073650 0.0000000000000000
2.2030650600732335 9.3820849066964200 0.0000000000000000
0.5997410084304996 2.2031538104326867 0.0000000000000000
5.4602520431696666 9.0192653545307433 0.0000000000000000
9.0214484659386223 5.4580420247558186 0.0000000000000000
1.3386877831622368 4.3020816869498502 0.0000000000000000
4.8960579291655550 1.6861863266441717 0.0000000000000000
4.9110224670202269 0.5339488202571214 0.0000000000000000
5.1016327452398675 0.5365860278549981 0.0000000000000000
0.5340969874775316 5.0895573071758617 0.0000000000000000
0.5365522341796976 4.8994125071213448 0.0000000000000000
9.7386192515718548 6.3093945810929633 0.0000000000000000
6.3103299642816939 0.2621155438988305 0.0000000000000000
0.2613775921108693 6.3103090425663240 0.0000000000000000
0.2613914184267560 3.6922599822720699 0.0000000000000000
6.3111479929722085 9.7387892672053500 0.0000000000000000
3.6894298349594274 9.7383948507650295 0.0000000000000000
9.7386391505165246 3.6913669348482281 0.0000000000000000
3.6886753802510683 0.2621438865329812 0.0000000000000000
4.4232078275788957 1.1684426821247775 0.0000000000000000
5.5568633338813953 8.8428179426620215 0.0000000000000000
5.7171656055087130 1.3822676110635974 0.0000000000000000
9.7462459300798230 7.8000991091529235 0.0000000000000000
7.8032465225986432 0.2543775762169525 0.0000000000000000
0.2539196782123492 7.8010348099214148 0.0000000000000000
7.8042586254239517 9.7464387133976906 0.0000000000000000
0.2537723222372766 2.2015521277091157 0.0000000000000000
2.1966223959865356 9.7461285623479306 0.0000000000000000
9.7460684588602966 2.2006514097693266 0.0000000000000000
2.1955904981309891 0.2544350926765974 0.0000000000000000
1.3156058091690357 4.1105603801303348 0.0000000000000000
7.5005070044599123 1.3120829605480244 0.0000000000000000
1.3418147959175275 1.6233889470224494 0.0000000000000000
7.0593063165309680 8.8419218865021989 0.0000000000000000
9.0242607931563565 4.5401208044452082 0.0000000000000000
4.5409532734111613 9.0165307046052678 0.0000000000000000
9.4104042538647761 7.7854030866198354 0.0000000000000000
0.5887289642061001 7.7881223240233419 0.0000000000000000
2.2088261733930663 0.5897612040146397 0.0000000000000000
9.4031707743839785 2.2159740062258941 0.0000000000000000
1.2011963941978430 1.2113642978013208 0.0000000000000000
5.9414188456187347 1.2190186787300361 0.0000000000000000
3.2242499198860464 1.2599202848551523 0.0000000000000000
0.9160286749788256 7.4898354086282932 0.0000000000000000
2.4921439497155244 0.9192675175417723 0.0000000000000000
4.2959643312361813 1.3378774618637812 0.0000000000000000
8.8512264471464270 2.8770485078087722 0.0000000000000000
8.0509051754770660 8.3605398752297564 0.0000000000000000
8.7403719730637484 5.3019337782956475 0.0000000000000000
6.7912520576611000 1.0348227609366263 0.0000000000000000
8.9673983311018901 6.7901212549730827 0.0000000000000000
1.0334058274133890 6.7910375117592441 0.0000000000000000
1.0325904199577933 3.2113197174402521 0.0000000000000000
3.2081851115894398 8.9669758040359824 0.0000000000000000
6.7921480078658352 8.9656493103320294 0.0000000000000000
3.2078298131248459 1.0348091912877120 0.0000000000000000
8.9665718182516709 3.2106957661519635 0.0000000000000000
4.0606106771385395 8.7681981619826441 0.0000000000000000
6.9734838373816563 9.0063503289944702 0.0000000000000000
8.6989066181580608 2.4946995172388924 0.0000000000000000
8.7442195306877792 6.7633457519654119 0.0000000000000000
8.9764642986054088 1.7591022196537871 0.0000000000000000
1.7546999763296216 1.0246605146035475 0.0000000000000000
1.0221683120274734 1.7596626047957808 0.0000000000000000
1.0234539213552603 8.2427548249428835 0.0000000000000000
1.7551089720185562 8.9776398836541649 0.0000000000000000
8.2452984014333559 8.9760121458409703 0.0000000000000000
8.2442232599094254 1.0243686638933827 0.0000000000000000
8.9778497352652025 8.2417466221368763 0.0000000000000000
1.2618152838141541 7.6710550859751292 0.0000000000000000
8.7784302349826238 5.9288765597233697 0.0000000000000000
5.2125055164532661 9.3225556587182439 0.0000000000000000
5.0776123174116856 9.4909834331688110 0.0000000000000000
9.3231527002365553 5.2122905854826120 0.0000000000000000
9.4909048118335999 5.0776741799550269 0.0000000000000000
3.0304658932179462 0.9933934504037567 0.0000000000000000
9.0126767266915806 3.0318627402824769 0.0000000000000000
0.9909113856277768 3.0337357776571277 0.0000000000000000
0.9882721932340345 6.9587538532847919 0.0000000000000000
3.0305314834341650 9.0073314343093500 0.0000000000000000
6.9739565792227554 0.9953312216685156 0.0000000000000000
9.0067498448578025 6.9739747277370325 0.0000000000000000
7.8387752624946607 1.4165273772016975 0.0000000000000000
1.1164480706408215 5.5772291940471508 0.0000000000000000
9.3098163802818412 4.7269033048218168 0.0000000000000000
4.7262282633978785 9.3097566324714975 0.0000000000000000
3.6217654524166143 8.5868336055439549 0.0000000000000000
2.9478612771326715 1.1547967519170788 0.0000000000000000
1.1936980499314132 7.1877870147830105 0.0000000000000000
0.9237138477319083 2.4838925786021746 0.0000000000000000
1.2528419579142558 3.8096312091729541 0.0000000000000000
1.2510095186711276 8.2373822668296448 0.0000000000000000
1.2930737334620097 8.3505020407746446 0.0000000000000000
8.5820546388195655 2.1641718750060144 0.0000000000000000
1.2967663770471802 6.0157982710380500 0.0000000000000000
8.6896111693519327 5.6560184468173276 0.0000000000000000
5.7914290793623522 8.6367173971400728 0.0000000000000000
8.6402717323642992 4.2804314996742061 0.0000000000000000
5.2540775850151391 1.4049968045039321 0.0000000000000000
0.3645707679559793 4.9970560451468033 0.0000000000000000
5.0037559353663479 0.3639932826636279 0.0000000000000000
3.7844997870083330 1.4076282242642131 0.0000000000000000
8.7997304044838351 4.0666028455437599 0.0000000000000000
1.5443704175518422 6.2969261576049567 0.0000000000000000
5.5704770503647323 1.1188016701443466 0.0000000000000000
5.4730167030167181 0.9760010206215808 0.0000000000000000
8.7071253150776489 8.3990364762626104 0.0000000000000000
1.5526060997419542 8.7319425255175407 0.0000000000000000
1.1675364706335782 4.0765500416477920 0.0000000000000000
1.6954988609356991 3.4836313608431184 0.0000000000000000
1.1525735121702045 2.9522294868827030 0.0000000000000000
3.4603508543111139 1.6906790026056069 0.0000000000000000
1.1866830452804948 5.9236977917141118 0.0000000000000000
4.5332827083736413 0.9590873789987850 0.0000000000000000
0.9520588178312974 5.4668252089874887 0.0000000000000000
1.4440762751693750 1.9497095665340707 0.0000000000000000
6.0487644239032923 1.2989171230355461 0.0000000000000000
8.5211671234984898 8.8277818507902754 0.0000000000000000
5.4474921598748134 8.7226613341680945 0.0000000000000000
8.3692648048079619 5.1271519901164755 0.0000000000000000
7.3004845372849250 8.8595628256469254 0.0000000000000000
8.6168018435622002 8.1723922688238382 0.0000000000000000
8.5849410753730364 8.0637896680265584 0.0000000000000000
8.6021498200094175 4.7459132866942930 0.0000000000000000
1.2873605439268503 3.9501692107520228 0.0000000000000000
1.5288949298197567 1.0115505862803245 0.0000000000000000
8.9981478451061729 1.5444319522897449 0.0000000000000000
1.0074634971120320 1.5347992409611364 0.0000000000000000
1.5387942609818301 8.9628142462827149 0.0000000000000000
1.0095819284857306 8.4476859278682745 0.0000000000000000
8.4503370794785724 8.9966836955803977 0.0000000000000000
8.9954518158033085 8.4623089966348797 0.0000000000000000
8.4604479574811311 1.0054028659969605 0.0000000000000000
8.6017833849218608 3.2744555416138184 0.0000000000000000
1.4295314718356942 5.2620099661007620 0.0000000000000000
6.2442962396844086 8.6177863055430635 0.0000000000000000
0.9325135038574899 3.9637093524235740 0.0000000000000000
0.9302449400480830 6.0401720012845326 0.0000000000000000
6.0381105481067614 9.0701818381340775 0.0000000000000000
3.9601270260553618 0.9400145763153426 0.0000000000000000
2.3033134316690798 1.3963091411083286 0.0000000000000000
1.4330333318603501 6.5802571723344840 0.0000000000000000
8.6112307407333084 2.2723229476153226 0.0000000000000000
6.7040384311113135 1.4065783218750396 0.0000000000000000
7.7073296108831917 8.6165994335022678 0.0000000000000000
4.6997829656590566 1.0406969802245090 0.0000000000000000
1.0387336083370606 5.3008580322480094 0.0000000000000000
8.6364186409403096 1.8292878453940520 0.0000000000000000
1.0405194380845524 4.7011608084315739 0.0000000000000000
5.2999362267928287 1.0467992701764157 0.0000000000000000
6.0357541747702808 0.9356473676211171 0.0000000000000000
9.0576583047327350 6.0657528504586944 0.0000000000000000
3.9623754942545162 9.0696121150899067 0.0000000000000000
9.0669730452099895 3.9637180680676214 0.0000000000000000
1.4218027353418583 8.0695305131959998 0.0000000000000000
1.1200906531332155 7.0404256875078328 0.0000000000000000
8.9637209353481531 2.6668281576025006 0.0000000000000000
1.8112879609516690 8.6266890684558977 0.0000000000000000
9.4199980535257417 4.8823832525382498 0.0000000000000000
4.8819419516267661 9.4206872844316489 0.0000000000000000
6.3639477000140241 1.4132188055836858 0.0000000000000000
6.2541335724035632 1.3812038759774412 0.0000000000000000
1.3897936051646105 6.2560032477886667 0.0000000000000000
7.7272004011796476 1.3880016387087502 0.0000000000000000
7.5267412640806972 0.9201363702522386 0.0000000000000000
7.5273821626659005 9.0772772137745399 0.0000000000000000
2.4751097027306010 9.0716613088537006 0.0000000000000000
2.0143300396825965 1.6914524033263987 0.0000000000000000
6.9079492964912133 8.7242633019884135 0.0000000000000000
5.0986020639563634 8.5970991294068657 0.0000000000000000
8.8894364334023255 4.4344103759272997 0.0000000000000000
1.4260182041550133 6.9949267191471742 0.0000000000000000
5.0985221158109670 9.1583210493830816 0.0000000000000000
9.1582238838997743 5.0986134446041111 0.0000000000000000
9.1910737558892510 4.8953798003554461 0.0000000000000000
4.8949314333366170 9.1915234338884488 0.0000000000000000
4.5673883256615166 1.2816431139825601 0.0000000000000000
8.8248856180810495 8.7922774857154380 0.0000000000000000
1.6718440158528787 8.0183623746980928 0.0000000000000000
4.7743869559268397 8.6276944330525698 0.0000000000000000
4.9126108793625205 9.6995691983126218 0.0000000000000000
9.6988186245036943 4.9128843378469549 0.0000000000000000
1.5540384424955023 6.6189951791724608 0.0000000000000000
2.2681142377083434 8.6205177215541706 0.0000000000000000
8.3300274864779293 6.5394638951612318 0.0000000000000000
1.5555469609874177 5.1516009650481358 0.0000000000000000
1.5502595745108696 3.7022054770224417 0.0000000000000000
1.5624313988113399 4.8620488508226742 0.0000000000000000
2.7786337906674992 1.1404636635220966 0.0000000000000000
1.2342877818971230 2.3091332885463332 0.0000000000000000
5.9155459597504034 8.8492729350911148 0.0000000000000000
1.3020449080552090 5.8706451213686135 0.0000000000000000
1.2615307564379759 6.7429166857376703 0.0000000000000000
8.6273701409073489 6.2142894045800272 0.0000000000000000
1.3204726738444801 5.4039889258874760 0.0000000000000000
8.7213605887913666 3.9561045210564516 0.0000000000000000
9.0839956534876194 6.2228355250956042 0.0000000000000000

CELL_DATA 4666
SCALARS f:C2d double 3
LOOKUP_TABLE default
0.9946583034695229 1.0002511061574439 0.0097470202018498
0.9948641292466096 1.0005658012743164 -0.0049793089659367
1.0049880322475999 0.9981358972235564 0.0090607720815370
0.9992502198955144 0.9966939162897767 -0.0261618024449229
0.9949054666224003 1.0005153814148791 -0.0049105857917852
1.0047015753932644 1.0015338530294673 0.0045694256388378
0.9992984956017704 1.0032575832784241 -0.0008027684459968
0.9991981046723399 0.9960061216129454 -0.0263854681883275
0.9998648444109689 0.9971417112733397 -0.0208996366944462
1.0049517306732356 0.9976293220560150 0.0094608550066410
0.9996898022280367 0.9946277049701323 0.0285026420369119
0.9937129424156966 1.0001199261499121 0.0081872061140428
0.9947172533991177 1.0001047648625894 0.0085063833962340
0.9991648684504806 0.9959550755096573 0.0268473336154663
1.0068061324682414 1.0006057676949682 0.0043323067803363
0.9942528476672894 1.0004548082632592 -0.0043438570463415
0.9942594004190686 1.0003889211806922 -0.0045605309984120
1.0023626218636348 1.0031203245635780 0.0050688761127089
1.0013730424059160 1.0000236042927977 -0.0013895108998755
1.0027178020620511 1.0029209696442882 -0.0026310960995352
1.0019831326361832 1.0000481980967042 0.0011246929832202
1.0023804087713393 1.0020380533897488 0.0047874053386152
1.0013493887566731 1.0000336446975526 -0.0015751223673147
1.0020004221571668 1.0000198970570369 0.0010676607917101
1.0025666791151617 1.0030786919293464 -0.0050009799741089
1.0031435805341586 1.0038070600571307 0.0005796327773663
1.0003012414778605 0.9998281512761764 -0.0004051889576282
1.0000514458699996 0.9999445948955915 0.0003756807860906
1.0000641294021235 0.9999186818824767 0.0004634347011714
1.0003609395905251 0.9998083756375062 -0.0000561359601876
1.0016103391529769 1.0003989928512820 -0.0038531100317558
1.0010937045204225 0.9999367676905162 -0.0025903640017551
1.0014051547743750 1.0024335280725010 0.0071637222939386
1.0018932508003646 0.9999117194002975 0.0030325915580244
1.0014207736268139 1.0022722951915266 -0.0064326115994090
1.0015343471145584 1.0015711903553399 0.0064606629194418
1.0012056837998506 0.9999160335784147 -0.0027323580707121
1.0015882614487448 1.0026659451379549 -0.0075521993869812
1.0019459879047592 0.9999063182138546 0.0030304394068674
1.0044266991409292 0.9999654443896132 -0.0007447579099374
1.0028305897066543 1.0002814234578157 -0.0035177044482644
1.0023171243678470 1.0029458514301639 -0.0057623541672152
1.0018535661650343 1.0000886689330422 0.0008573711057004
1.0011603990788156 1.0001029917171427 -0.0013631873302072
1.0026860835945370 1.0020860877767512 0.0050807914655016
1.0027656745681839 1.0028005098408357 -0.0037279076735381
1.0017717541500868 1.0000978198627306 0.0008498942398015
1.0011956009778864 1.0000841510043608 -0.0012878260885695
1.0022665736377065 1.0027797311168620 0.0058821080384796
1.0000569816592966 0.9999547302546483 -0.0004303190001905
1.0003591085838577 0.9998560009504436 0.0003616814953367
1.0002990110534480 0.9998366214137886 0.0003668972374607
1.0000475152123929 0.9999355518890353 -0.0006032038025211
0.9983459993652987 1.0005779804280401 -0.0008077051375270
1.0005654545150200 0.9999220126581182 0.0000859943456313
1.0005728341945614 0.9999074121249349 0.0001719824445864
0.9986485898141414 1.0005955604409471 -0.0003326384108462
1.0034195991691059 1.0023039437177366 -0.0045216816493862
0.9942272343282196 1.0003391100519352 0.0183402391694685
1.0024362455578715 1.0038880912415666 -0.0044654732199819
1.0026253601051167 1.0022767759198223 -0.0046552289490982
0.9982777030715808 0.9963784394606949 -0.0225040423385208
0.9941030285585638 1.0002580879321117 0.0185237060820370
0.9953052900338661 1.0006162266696363 -0.0099181546968285
1.0030876291513746 0.9987522681603200 0.0085487430134680
0.9993256390916661 0.9971028917488010 -0.0189433479696841
0.9983444371014863 0.9967901940246757 0.0204590176789875
0.9953610348532818 1.0005577089025275 -0.0092695957242644
1.0005184003928196 0.9999130677083177 -0.0001794531530618
0.9985948303957678 1.0004776970262559 0.0007568590829649
0.9984276108722043 1.0004977277020677 0.0007851030833929
1.0006063053048337 0.9999016988390528 -0.0002922729728379
1.0035993348355456 1.0038153566278576 0.0020181198567388
1.0037048781434965 1.0010680452310809 -0.0028922868004910
1.0033050618323263 1.0001912918073657 0.0007589843853369
1.0027785215364626 1.0011297720641879 -0.0038301509224620
1.0045933859227281 1.0023673680326555 0.0059039906804270
1.0017336464025153 1.0043135908926226 0.0026309875166462
1.0025153256951786 1.0016252566169717 -0.0017948962389466
1.0030329994653593 0.9998365328098461 0.0012138712646188
1.0027542035650110 0.9999653620264783 -0.0022318032864393
1.0029199727802882 0.9999527764205153 0.0013082925167007
1.0021561691197298 1.0017819559815171 0.0025059050221149
1.0024393979013706 1.0017469234870864 0.0004042132271847
1.0023604836820519 1.0018020728086932 0.0017140061557546
1.0028169131886684 1.0000686448040466 -0.0017788946731995
1.0026302377208380 1.0001432362667877 0.0051082590150419
1.0028874507578132 1.0015440426225293 -0.0002508313477176
1.0038672763060852 1.0006109378877539 -0.0030137861306167
1.0003950735703488 1.0001907481502925 0.0023288868201100
1.0031393256932810 0.9991141190836599 0.0080195411760616
1.0014520117765393 1.0059648560319789 -0.0051357338764775
1.0051247805982928 0.9921449435432818 -0.0048017148549687
0.9948288530288406 1.0003606317120464 -0.0008967365294899
1.0007992820117400 1.0077845248828430 -0.0001333362735775
1.0045494373536028 0.9995766856361377 0.0054701800862234
0.9995904471579070 1.0031574464257422 -0.0012445289806957
1.0023859344481012 1.0006646026792108 0.0056289016910165
1.0029208786127377 1.0009169160893203 -0.0098439685599862
1.0035824418921833 1.0001333319492782 -0.0017305038448172
1.0022063118284934 0.9996691434241030 -0.0063699642610927
0.9994333321445328 1.0002363808219572 -0.0026263633147431
1.0013132034166095 1.0054672167408465 0.0016846745197440
1.0020140377618683 1.0035122657657329 0.0001859468283325
1.0088069022790145 1.0008937356478791 -0.0030835414088673
1.0032696777064765 1.0028415145490743 -0.0040827199794314
0.9986878764390600 1.0095587472209713 -0.0051798462138488
1.0001718417888661 1.0000759554320429 0.0003166425378000
1.0019120388068592 0.9989808275614834 -0.0014112858704562
1.0000124324249877 1.0001390894884261 -0.0008258282879896
1.0022037575803124 0.9994693458409565 0.0033930149964190
1.0020690053560217 0.9989610292592633 -0.0001696884852253
1.0001309267184608 1.0001197245755784 0.0002020999696021
1.0000190350615470 1.0001032942255608 -0.0008961881132622
1.0021232397327637 0.9991003922221797 0.0008637020443631
0.9978563674306267 1.0151025613953160 0.0021020406916402
1.0042506285018260 0.9991488464903053 0.0086090967218389
0.9994884730262892 1.0001554402263351 -0.0009158111102999
1.0028265219576147 1.0032423413526790 0.0110844983811183
0.9993327089283570 1.0000668915964441 -0.0012619437525244
1.0034771705086556 0.9993737759186756 0.0100977177525613
0.9993116731703496 1.0000815312956555 0.0016120100851238
1.0036531448901926 0.9994949649498273 0.0066513787541099
1.0034006853561306 0.9994571433245457 -0.0074391111250638
0.9992799306423781 1.0000644496183750 -0.0014143379639751
0.9993219242763984 1.0000580499314180 0.0015888130135214
1.0038028953479226 0.9990987648450095 -0.0100600762975097
1.0022471355546372 0.9985506628653873 0.0000905068747400
1.0000296483411890 1.0000998103838628 -0.0008717600617540
1.0001468621571958 1.0000985904056539 0.0002629060099890
1.0021248361918902 0.9985780889240627 0.0000613911322572
1.0001376583578172 1.0001348932348684 0.0001871836845663
1.0000113837336901 1.0001309444765221 -0.0008707920874465
1.0022570295948927 0.9991943176661592 0.0022255993736471
1.0022557276086455 0.9988174731106854 0.0007236430839960
1.0008170619249452 1.0036011616005243 -0.0030082151084136
1.0044848398918766 1.0028022697253107 0.0066956579344815
1.0035336165673161 0.9989860000267001 -0.0043391843373929
1.0013452082434933 1.0071894646068600 -0.0043330846024049
0.9978772688016233 1.0045559656063878 -0.0044673376316241
1.0034315344496678 0.9990405319140786 -0.0047629880576018
0.9996201410192977 1.0049839845444533 0.0018031123325618
1.0044028037980663 1.0019226809301216 -0.0067627115142788
1.0020460707047183 1.0022906306100698 -0.0019944647628720
0.9997755553623808 1.0026709515251326 -0.0035758238198122
1.0102538271085304 1.0014231117765773 0.0015093022490778
1.0030520127064013 1.0023106294661106 -0.0001226974180336
1.0029944201838032 1.0027861973299337 0.0009327701233960
0.9993360782376929 1.0025335062976066 -0.0011921117678770
1.0024605769587875 1.0007011332159492 0.0052557741820823
1.0028438671711326 1.0001161805251846 0.0003516317763378
1.0027630758306718 1.0017194238675158 -0.0022467528280781
1.0023722209262587 1.0018429031536529 0.0027524124091127
1.0025050334258454 1.0018318173850613 -0.0006510306963899
1.0026528499355367 1.0002153864878469 -0.0013251038159414
1.0027670306321876 1.0002054013516253 0.0003235480491053
1.0026199885847542 1.0018338097135973 0.0025125720444718
1.0027375932573472 1.0001448917339690 -0.0011215719836857
1.0032894276724351 1.0051700581652467 0.0050181729947980
1.0031883312067553 0.9995741814665985 0.0100107429474127
0.9993520089338825 0.9999807377811666 -0.0019589997336215
0.9993209636164367 0.9999471038974187 0.0029024017921301
0.9992156697779968 0.9999344539423142 -0.0022004156264626
1.0030479815597533 0.9996644712512276 -0.0084070267322571
1.0033569297571328 0.9997390084335179 0.0066716424866795
1.0032926405293374 1.0000726163892206 -0.0104265588205471
0.9992899766761112 0.9999536629466304 0.0030017105403149
1.0032468115475912 1.0020245738391607 0.0008809502564579
1.0029698989202847 1.0029181761837296 -0.0014557643383240
1.0024996859620008 0.9973501829183007 0.0038553556171507
0.9998881716068247 1.0000565620455277 -0.0011001664590273
0.9998862362932774 1.0000717457448398 -0.0012342373216681
1.0025152370500803 0.9984972484064490 0.0035398293245133
1.0027937674915521 0.9974167785514430 -0.0020166629042671
0.9998274241485894 1.0000818577306732 0.0008453072373316
1.0026860274094977 0.9975013123720833 -0.0039582537300492
0.9998340045289272 1.0000515256437417 0.0008086796814509
1.0044734701821494 1.0016747240403379 -0.0001935062753179
1.0025650573282094 1.0010853572379066 -0.0040609465972177
1.0016219396583290 0.9984940861478846 0.0049042212974119
0.9999673885747070 0.9999840377471704 -0.0021038445275578
0.9999033180593098 0.9999774420760352 0.0023659245420528
1.0017435678119968 0.9993594547489739 0.0042433373609985
0.9999621640485754 0.9999684764331881 -0.0021924561294228
1.0016342277529486 0.9986288257821174 -0.0042024053694486
1.0018265116801444 0.9982721976177741 -0.0050704476353728
0.9999076709728962 0.9999603671484505 0.0024914538922236
1.0029252029487865 1.0017768859990670 -0.0033524741851547
1.0028320290445292 1.0025856380935441 0.0021182803634635
1.0030354585857797 1.0025776298887734 -0.0013714856895079
1.0031949792830279 1.0002840949881602 0.0003083188548517
1.0041072336167454 1.0008531947554047 0.0004599530717807
1.0055384143047867 1.0014072397240494 -0.0045794212538769
0.9998941038608321 1.0000649620567312 0.0006412733672497
1.0024246359093838 0.9981244592259303 -0.0046055623610728
0.9998978709228270 1.0001168113160099 -0.0012118869339688
1.0023916366571832 0.9990071921746454 0.0034840194220947
1.0028087972514881 0.9980718040535916 -0.0026989032073311
0.9998425586671525 1.0001050432976866 0.0008064241116539
0.9999067981497815 1.0000890169367536 -0.0011792780935597
1.0023733506059693 0.9981351052132998 0.0046128138108853
1.0071998904041644 1.0018303378250732 0.0018612041073027
1.0045773592050824 1.0008305819402803 0.0034568639256628
1.0081229261724167 1.0024078099826361 0.0075296656481182
1.0015844850412003 1.0056754503391203 -0.0021202227841712
1.0031203855733890 1.0025329151557656 -0.0018440406015572
1.0034138998936826 1.0040482697718960 -0.0021368572439882
1.0017071686865691 1.0017282590109333 -0.0057672830227091
1.0033772779488856 0.9997858459668784 -0.0085388345722263
1.0031784252264873 1.0042149729325851 -0.0033105886617086
1.0073298097200738 1.0007284941381540 0.0015038592756315
1.0029877735504342 1.0001493122729803 0.0069045535017149
0.9935643347075002 1.0002970397932534 0.0082523677533632
0.9947866128889089 1.0004157634201067 -0.0061093431882861
1.0037512253487810 0.9966993737359799 0.0083027208556181
0.9935013137155501 1.0003847078474652 0.0083167586674389
1.0037666458481891 0.9946138622584799 -0.0138505053474643
0.9948482046134334 1.0003579068264865 -0.0056380532776963
1.0034125009794674 1.0022131925052933 -0.0018101517074228
1.0023366133960534 1.0060493949321605 0.0036933909660916
1.0048052160837038 1.0003075269129666 0.0117726501640398
0.9981348949481716 1.0047064939792218 -0.0165292471022872
1.0035597199043613 0.9992992588228048 0.0089617373388841
0.9995111609270371 1.0035377470243154 -0.0132270517049566
0.9997953671823849 1.0006748891766417 -0.0078815402468848
1.0045945588943817 1.0004343829869042 0.0118222773270381
0.9999828263675559 1.0005581821245886 -0.0074024771666406
0.9981224745551059 1.0046871863906575 0.0167562523618360
1.0036455606627730 0.9926217988878173 -0.0171283520913815
1.0036246708387011 0.9925835888437872 0.0173426886084657
1.0030151252988073 1.0011310011689318 0.0010587768524928
1.0029414906890450 1.0020241783370272 0.0025151050740573
1.0021747911776726 1.0031961401153957 -0.0102026482259119
1.0086859723321735 1.0011292395593727 -0.0024712160842366
1.0021792664610985 0.9989539052547489 -0.0090854508659936
0.9997751694746151 1.0002745354479363 0.0024372310138155
1.0031356843908672 1.0024863961056210 -0.0015899201654745
1.0042800247052841 1.0007835566099887 0.0013014878590958
1.0026882397983841 1.0001838792973385 -0.0031972049937682
1.0040988944123677 1.0005117331081561 -0.0021375276430627
1.0030480268491424 1.0027064991324770 -0.0006894765175525
1.0001051347861747 0.9999595333620075 -0.0008132451361863
0.9995788309069539 1.0000229243595240 0.0009114245959876
0.9994926750204813 1.0000312039616410 -0.0010836394175183
1.0001308356408967 0.9999653136675183 0.0006642275750178
0.9994956915395559 1.0000454156277403 0.0010664799363235
1.0001516969677295 0.9999568410320866 0.0007827645200635
0.9995300087627293 1.0000492064888351 -0.0010017488089156
1.0001329996391801 0.9999597880559715 -0.0007449624020727
1.0018171211914078 1.0000809090723874 -0.0008968746943426
1.0054682091302531 0.9996260923198147 0.0087759345208855
1.0020892881462342 1.0067848410248876 0.0210853097791665
1.0022803880626359 1.0005538930811351 0.0012165611897425
0.9992436841996231 1.0003191501174318 -0.0029391238442656
1.0022079979796086 0.9989763373940931 0.0091513441591195
1.0043318699713302 1.0013696740563596 0.0030900425596180
1.0060694442829690 1.0006448068037432 0.0109960310845597
1.0043124303686566 1.0002008326611433 0.0039288378037312
1.0009594419860137 1.0000829953913410 -0.0010532957104540
1.0024073325395040 0.9990137904575634 0.0015713068279447
1.0010320851038064 1.0002229821292219 0.0003627626903243
1.0024966444484493 0.9991986772547405 0.0006179623261741
1.0021777058909733 0.9994177194112163 0.0024880310098103
1.0009344932518485 1.0001890048545679 -0.0012658645758528
1.0025659235692943 0.9991972339581885 -0.0016825347357085
1.0011010723393721 1.0001312457333535 0.0003313780769921
1.0033628029426431 1.0021486858174580 0.0017674175286916
1.0002971651603787 1.0001034351635327 -0.0001557020552955
1.0009879991072559 0.9999088292061187 -0.0001385373104699
1.0009223389120130 0.9999352748285172 -0.0001938986162957
1.0003403186169952 1.0002198298416392 0.0003661175682750
1.0027027033023765 0.9989738181063004 -0.0026869684792692
1.0009517939197230 1.0001665257473769 0.0001442737513609
1.0008236384913680 1.0002618818064926 -0.0011332302458539
1.0023553555987790 0.9995987098773285 0.0029469614555862
1.0025001429824152 0.9991720494118467 -0.0008315397777346
1.0008361054950299 1.0002594525813640 0.0001474642052925
1.0025815828175928 0.9990423930952170 0.0028629745744881
1.0008644794694328 1.0001850454383239 -0.0010638960980984
1.0039283314465266 1.0021428764549549 0.0075811456356755
1.0030203712253050 1.0002152358585896 0.0035648974988873
1.0025000131161017 1.0001612455789459 -0.0042450979863357
1.0034039211192614 0.9926580481771934 -0.0091330837563456
0.9943550385923517 1.0004307003328186 0.0050135754359655
0.9956033655273384 1.0003739394940760 -0.0035070336892947
1.0023876283196453 0.9961186932809231 0.0038976343997621
1.0033806843018109 0.9939328725313551 -0.0074486038977442
1.0029319878222327 0.9932798370035461 0.0081515764598662
0.9956388707092856 1.0003345207700822 -0.0031038266863284
1.0040141237920637 1.0007798969161350 0.0016306254416567
0.9981907037108734 1.0005775284519758 -0.0032661456282878
1.0029849751355127 1.0004170172296982 0.0050244721588500
1.0048458221936349 0.9972951889460568 0.0095615796060013
1.0027833108874804 1.0000635068599268 -0.0004518178881225
1.0018608674983003 1.0046708618243034 -0.0206221404406001
0.9982531968433616 1.0004386624697810 -0.0032437450715132
0.9945485915935454 1.0005143325876478 0.0050793193976394
1.0012218940885094 1.0042156503648110 0.0025201668376894
1.0031886767968006 1.0028591356088465 -0.0016589618283763
1.0009301184283805 0.9999245244567090 0.0000713192565934
1.0002933291112890 1.0002875982094517 0.0000194131858469
1.0003537522054815 1.0000498856856872 0.0000330893083837
1.0007999260273956 0.9999121653397424 0.0004425023120577
1.0072727026144757 1.0012054118627915 0.0013129344164424
0.9996830259168384 1.0000362016874040 -0.0039436343121687
1.0014408196321067 0.9992207371205049 0.0102945685639239
1.0000546495580620 1.0000720687416318 0.0047885017069303
0.9996937616118551 1.0000728012362872 -0.0041699089247447
1.0017665138969802 0.9992628446306934 -0.0092854128102432
1.0022328608609465 0.9994649639916752 0.0083404715764649
1.0000568238465630 1.0000016433586154 0.0048524000173150
1.0014863843171236 0.9992182470216613 -0.0109478091477973
1.0022712905556037 1.0036247453074705 -0.0162962647546440
0.9997826952113397 1.0001910932692428 -0.0028804957104981
1.0023881263662853 0.9986508260083687 0.0093744970173329
1.0001347744112414 1.0002119301798913 0.0028655868548857
1.0032158463323684 0.9989912040989116 0.0075105657464600
1.0026887752842786 0.9986886888928866 -0.0067220529223486
0.9997539908158836 1.0002375311488414 -0.0030615543026691
1.0001714343178008 1.0001381095907818 0.0028016594724316
1.0025646266304187 0.9986756220830716 -0.0092496557021055
1.0016756606134796 1.0068344106695255 -0.0037993374612165
1.0026283131623257 1.0028706185155789 -0.0044847073093695
1.0032025776117826 1.0011661732351602 -0.0015707991828993
1.0027554718485299 1.0002467119677321 0.0030171068130906
1.0020021721051058 1.0020847159467887 0.0090495721850676
1.0025764897071388 1.0019147356964035 -0.0090630939288112
1.0015857774901824 1.0005818649319338 0.0045350060073641
1.0007746416935670 1.0050881540233636 -0.0007570404670495
1.0046266662710364 0.9974403681495949 0.0066922047750191
0.9986450992631321 1.0000562208222128 -0.0000523838772307
1.0031451300743908 1.0027690645883911 0.0006703280855130
1.0020606972237946 1.0039286522327264 0.0006448398205968
1.0028618357617061 1.0019535627557945 -0.0010399682536987
1.0032590682707525 1.0011230279632048 0.0095459104843256
1.0035838055597650 1.0021956918102539 -0.0048236558383584
0.9983752079465233 1.0001923135020299 -0.0022643774387886
0.9982926717591440 1.0000645765874772 -0.0024646951165149
1.0037086040471324 1.0027006944892229 -0.0078799238288472
1.0040574306759975 1.0020114030839280 -0.0001344772710510
1.0037179617994796 1.0000640928724291 -0.0026873295287755
1.0020892903590357 1.0049041836990427 -0.0035113773123714
1.0035108428195665 1.0011347475445209 -0.0010095513109798
1.0030957882100626 1.0001253942598620 0.0029942905528600
1.0018332069685689 0.9988132999071041 0.0103416072351048
1.0045830386607291 0.9999821427430265 0.0060263845968716
1.0038326694084614 1.0019836878245132 0.0024408721109510
1.0024660586271692 0.9999989004457949 0.0038663349137446
1.0032423541117637 0.9999748714284418 0.0041820544117102
1.0014681309881552 1.0048229079977153 0.0209113175974182
0.9987599817455550 0.9998704897723737 -0.0001512457011091
1.0032907983702830 0.9980019585437556 -0.0049744032584237
1.0035642203266650 0.9978928126870333 0.0026674600617048
1.0040714019409451 0.9969908327201510 -0.0055688049334126
1.0030940889881026 1.0005169936249738 0.0033821813098797
1.0021935749888757 1.0031833942481121 0.0030481698780276
1.0042463306649028 1.0009064188099128 0.0021382119465601
1.0040105019438967 1.0007665563402177 -0.0038560500382068
1.0015690305105516 1.0061412292449214 -0.0037026181439892
1.0024308805993021 1.0014342055799166 0.0050260659885076
1.0025138205437969 1.0029632697554309 -0.0009432507279323
1.0031598948989817 1.0031601754991870 -0.0002794486175838
1.0005766239877967 1.0022683423712964 -0.0056184373453200
1.0021964568564539 1.0003441230425660 -0.0040233377750866
1.0015469675128053 1.0029247368373986 -0.0215882896811025
1.0021001112280252 1.0021496411568604 -0.0171770597759350
1.0044077803845737 0.9971551260092745 0.0099696660346634
1.0016718315847302 1.0056510290311311 -0.0042668647561697
1.0041809986672581 1.0002803031706105 -0.0045219427965071
1.0016803103121201 1.0009668563463432 -0.0053169318616789
1.0026551404332853 0.9997048366142772 0.0037281347592284
1.0024754372460001 0.9997033974385795 -0.0040557319800759
1.0024807202135393 0.9997985411034135 0.0039035592423273
1.0012898642063637 1.0009238951780430 0.0051922683952929
1.0016217900105016 1.0010249448975970 -0.0048026178241495
1.0016678246774275 1.0008577144893827 0.0051241726444598
1.0022606020324436 0.9997284800712122 -0.0036360816119951
1.0027807896758014 1.0032323127694565 -0.0023992197451783
1.0034909870598783 1.0022106705292257 -0.0042639802409241
1.0004135763679340 1.0000628905884230 0.0012179178209525
1.0040519464520696 1.0021469253234945 -0.0116862303386411
1.0000798400930242 1.0001182687225390 -0.0010993701084689
1.0004256917244245 1.0000719427567712 0.0011481180618672
1.0047604240366697 1.0003212252087199 0.0061908641273486
1.0033343526520688 1.0017643803670535 -0.0092411715536338
1.0000989384864603 1.0001026080200459 -0.0010965310492301
1.0042782910571486 1.0020516113335887 0.0115900137714152
1.0000652559962444 1.0065241359669974 0.0002831840299875
0.9995344418122118 1.0001496186548791 0.0011135517192581
1.0042067403836372 0.9995327090329108 -0.0083277118300039
1.0003414745992740 1.0000211062148847 0.0010387835948892
1.0049406528453733 1.0019426006224130 -0.0114116290762391
0.9999751295575624 1.0000534485777386 -0.0006613373816403
1.0055327069854674 1.0002608358531979 0.0062563857145827
1.0038720331711053 1.0016707096350315 -0.0092455056425303
1.0003269051463310 1.0000224294899105 0.0008417453025258
0.9999722987220424 1.0000537777551142 -0.0006904867526832
1.0052072408606010 1.0016565108929554 0.0117598414751397
1.0025899569823693 1.0037777657955986 0.0067857063839715
1.0043587381339716 0.9973890459396507 -0.0068907476377362
1.0047624978572289 1.0003320254613330 0.0059440355926207
1.0003681334026644 1.0001215761137312 0.0013955949904923
1.0010938974562251 0.9988792118189956 0.0017338897887018
0.9999715968638651 0.9999800460850387 -0.0009329383366954
0.9999719717217426 0.9999653676521555 -0.0008590815930897
1.0012037403429692 0.9990076866465187 0.0020449875331624
1.0035968147915624 0.9997367217399787 0.0020745578214384
0.9995464112618934 1.0077288092657815 -0.0149158735355195
1.0067197930574434 1.0001072191289566 0.0107146083468861
0.9990278063355337 1.0003296008621065 -0.0077111614564279
1.0023362965990716 0.9982522273692401 0.0091617785575665
1.0005963305766890 1.0058129255617909 -0.0130012716323006
0.9993385390612695 1.0072365013488549 0.0135448306253774
0.9989483971969799 1.0002918618288172 -0.0071385791675443
1.0034763603902064 1.0028565550225619 -0.0013838569726404
1.0041368741097816 1.0002535154863310 -0.0038564172131154
1.0035149985121763 1.0020526027718812 -0.0017683846438400
1.0034573456050533 1.0021085504466920 -0.0043349494225452
1.0039570726666889 1.0000016345503524 -0.0029719487425656
1.0022504282758411 0.9974689622981210 0.0149247063178802
0.9986507976801995 1.0002109701147948 -0.0017839443299456
1.0026918033315282 1.0002450479585532 -0.0023128623594212
1.0064548316534891 1.0002651903346196 0.0107127608669117
0.9999524475003133 0.9999950951574204 0.0007877383032040
1.0011066924814329 0.9990034473565640 -0.0014304530726866
1.0011866383520185 0.9988780409483093 -0.0016180898251433
0.9999586559369333 0.9999701462331219 0.0008182132193904
0.9986255363629121 1.0000949219464950 -0.0000449120686731
0.9989565693170344 1.0000460460573233 0.0003942632334851
1.0035789100603445 0.9982317466601633 -0.0052846512315917
1.0039223642461277 0.9981786240198290 0.0029319557136803
1.0030284913422431 1.0005951819736363 -0.0014872321505780
1.0027942767647366 1.0023811020641584 -0.0022907138654950
1.0016151974703877 1.0043474384967626 0.0009617109433005
0.9955778755065674 1.0004125724256003 -0.0017196113344447
1.0045041590891948 0.9906858602717840 0.0087438412626494
1.0050914983367252 1.0009037256082935 0.0085143568682704
0.9997759643986904 1.0001156991535707 -0.0009836220805402
0.9997734975404562 1.0001033013023504 -0.0011110995264249
1.0000844578658508 1.0001152673152942 0.0011488944094977
1.0039672310459098 1.0009406836320505 -0.0063339458236481
1.0051090082646832 0.9999402201120305 0.0057659092368011
1.0054097908688826 1.0008164140458489 -0.0083709604674072
1.0000870225410390 1.0001242730220585 0.0011161672501792
0.9996183212960646 1.0001264234822802 -0.0017406449151358
1.0064584614586123 1.0004026265063146 0.0081315505944733
0.9996493197823707 1.0001117134682358 -0.0018704016314987
0.9999550338440323 1.0001210857275376 0.0024561589396244
1.0062624149371293 0.9996006438019445 0.0055151926838751
1.0054034350720660 1.0003613207530393 -0.0069946928551476
1.0066528445333345 1.0005511628281154 -0.0087143519254528
0.9999315340383460 1.0001209253991503 0.0025539358037824
1.0049867465195474 1.0005746701802576 -0.0006872105664030
1.0034773109421351 1.0003134784030787 -0.0024195385703571
1.0040118450324464 1.0004674538670033 -0.0013848687930871
1.0056483029063303 1.0001543286328494 -0.0073707272207256
1.0040197415468777 1.0002447566934147 -0.0051084428963706
0.9995681798113648 1.0001024165112264 -0.0008851510815150
0.9999262217034846 1.0000867130007149 0.0008801707707139
0.9995247358224625 1.0001091254124634 -0.0008160229869332
1.0056053173051269 1.0001665347969828 0.0074279734986066
1.0041809014899943 1.0032585034932890 0.0081080762538234
1.0036432257200076 0.9996634589327346 0.0010108732744801
1.0013380579387994 1.0028684888889012 -0.0012841059718542
1.0006984316762684 1.0001952479016061 0.0012357584357290
1.0024368764069775 0.9985252561580775 -0.0036498970680892
1.0025763583499609 0.9986443339931350 -0.0024561378128877
0.9999380350144292 1.0003523079947081 -0.0020819718798486
1.0007316926683669 1.0002816008346604 0.0009592069533985
1.0025915478014624 0.9986486502470920 0.0057983315196448
0.9999645782318765 1.0002682412175687 -0.0020996519416421
1.0028132644527934 0.9982752402427379 0.0039710670514424
1.0033243142937327 1.0020217415358204 -0.0000727096366221
1.0060230706028350 1.0018508282948830 0.0003904967154632
0.9987423713697001 1.0002305125455582 0.0016093735503112
1.0022867613687225 0.9977576291586342 -0.0121032493323842
1.0032213812014292 0.9978686437351044 0.0086200154946824
1.0023747243591710 0.9966515574344397 -0.0154697616638165
1.0040603330222493 1.0006610226869224 0.0039903253431101
1.0008796260321517 1.0000300211305884 -0.0003096188940174
0.9987598616156068 1.0024444293270298 -0.0013387672803518
0.9988449792415691 1.0024036274823473 -0.0001565831356427
1.0008698681098975 1.0000255667462374 -0.0001473473889288
1.0006833840026745 0.9999615997934685 -0.0014231518807090
0.9990050867934018 1.0014331308361859 0.0027683507533497
0.9986906190389599 1.0023664068791118 0.0014369876822342
1.0009032756545300 1.0000120284422198 -0.0002285086746689
0.9990124146401023 1.0013249679931113 -0.0023007418098835
1.0008956926766994 0.9999363667530677 0.0014250800068245
0.9994120464696820 1.0016634973755756 0.0016616912380528
1.0008831413321984 1.0000049525465382 -0.0002809841536096
0.9996096153673510 1.0018888051085550 0.0009629363006248
1.0008830146920484 1.0000047338924418 -0.0002758595176259
1.0007811092125423 0.9999397678015450 -0.0014146832782096
1.0003725197474045 1.0022738773709110 0.0021182176829213
0.9999271366304422 1.0024457748700049 0.0008215027109669
0.9999589050083764 1.0010880247820693 0.0030511798616106
1.0009314235469304 1.0000438604361137 -0.0002254141893376
1.0009569612245601 1.0000205543711700 -0.0002572737589599
0.9989036051673876 1.0015645903152202 -0.0026755618187047
1.0009539877094662 0.9999260082929634 0.0014971364339074
0.9990639420171382 1.0022686609397600 -0.0002179693059419
1.0009422136347479 1.0000536065048342 -0.0002764003422379
1.0027853306576759 1.0032713098151309 -0.0016011322457333
1.0051830934077750 1.0021108650825099 -0.0010054234721808
1.0019378014384128 1.0031006844315267 -0.0022899472338055
0.9947340337007707 1.0004247210511605 0.0029315027919310
1.0031068722743726 0.9957476318239293 0.0042766233336755
0.9955856589968575 1.0004725393372949 -0.0023051850295138
1.0038434395597209 0.9932019136285541 -0.0061324468581857
0.9947173003647617 1.0004961352056176 0.0029329652360325
0.9956075117999124 1.0004022896511660 -0.0019717361259059
1.0030573518438914 1.0029180099285779 -0.0041034113051337
1.0052500047103945 1.0018346229639510 -0.0008251702279888
1.0038187649452064 1.0013745117609576 0.0022972315940430
1.0037108365935661 1.0005447250430568 0.0026582811884987
0.9995264035909536 1.0001540659185031 0.0008584018653838
1.0045514984031840 1.0011145609014807 -0.0086742732424869
1.0036005005125308 1.0011672118475625 -0.0066398528402236
0.9995805324430063 1.0001796928430109 -0.0005282698614853
1.0043477409402606 1.0009467174957269 0.0044311415752194
0.9995488077026996 1.0001569940533086 0.0007259067203307
0.9995854272820275 1.0001653099141148 -0.0005450042692488
1.0044907888047390 1.0013888994579923 0.0084368989843669
1.0067293612021377 1.0010878976575190 -0.0021256648294605
1.0029355535712117 1.0024765381297227 0.0007602506994063
1.0029981731108650 1.0023784613787412 0.0006737704865089
1.0035966157508744 1.0029370697857931 0.0062200828527758
1.0040446876645392 0.9909723257398144 -0.0077042317248132
1.0039100355569017 0.9909763515658581 0.0080012651968487
1.0007496952861072 1.0001636178398297 0.0008221949032315
1.0018760218671816 0.9986781490881214 -0.0049723372640519
1.0020519005522861 0.9987255871976469 -0.0032578618821523
1.0020808913291364 0.9989468084286990 0.0066187192724705
0.9998763501201452 1.0002769135197014 -0.0019179084417089
1.0006222050511713 1.0001989434740113 0.0007911926893004
1.0022371503185241 0.9987772645521268 0.0046959058740753
0.9999199814590227 1.0001786890223916 -0.0020456607879521
1.0025027503693562 1.0001443517909558 -0.0006860853967247
1.0031445256932723 1.0000778297198434 -0.0028289825022406
1.0021883619168792 1.0000129829550506 0.0017846915018299
1.0016555865523888 1.0001964587905754 -0.0029820100228035
1.0020859254319685 1.0003508811033073 0.0019776217557655
1.0020665942431721 1.0001969802593043 0.0037709795193525
1.0030393169168665 1.0001050860522032 0.0026721042820276
1.0017785293856933 1.0000699654428682 -0.0024097775320238
1.0021750795872761 1.0003385042341402 -0.0020289767620715
1.0030488641213815 1.0028005811997249 -0.0000772872847637
1.0047402516112491 1.0002659134690024 -0.0077770583019331
1.0034699969344973 1.0009353529258831 0.0067170137252362
1.0024938122940732 1.0004491173211789 0.0012964717120205
1.0034754735702940 1.0000327114063183 0.0060937843110968
1.0030006772786006 1.0023478814712843 0.0020242183129162
1.0033182827371219 1.0026430647592102 -0.0005248231390085
1.0032690080757487 1.0025230664472407 -0.0038572584490714
1.0000946968822735 1.0001238210329932 -0.0004276565199006
0.9989418615366860 1.0002354668130811 0.0018040298302308
0.9986132963454183 1.0002526661730542 -0.0017610999362365
1.0023089945178398 0.9981453363379479 -0.0115561845651763
1.0033926395661950 0.9981423735629978 0.0079618412130967
1.0022605334848320 0.9972120786022057 -0.0150811613186571
1.0027975567319103 1.0021834284689182 -0.0019560302415303
1.0021792939223302 1.0045659143789643 0.0012945662470956
1.0030382923505345 1.0012352977841730 -0.0039275946383556
1.0017783086985186 0.9992223988185747 0.0045443518497084
1.0006859108481525 0.9999748502843345 -0.0022549824601153
1.0007684708893392 0.9999999285209992 -0.0023854500077585
1.0013771514759688 0.9995959902343260 0.0047357048178378
1.0008421755145491 1.0001010919547710 0.0021949884539572
1.0017693802050087 0.9992994405127050 -0.0040085274323830
1.0018103777563581 0.9991504310134968 -0.0046297099866885
1.0009282847399341 0.9999795300386964 0.0021870310457894
1.0004502205798687 1.0005754401534741 0.0052541386125564
1.0039321770711125 0.9990802361236847 0.0082319711911544
1.0029870817087387 1.0030650317452681 -0.0009546909715291
1.0017383225154066 1.0035565916522144 -0.0027301688647653
1.0021892830155923 1.0025408055830696 -0.0043850400361776
0.9989123441524388 1.0002014162396728 -0.0052956487930823
1.0032222715437424 1.0011211682446801 0.0011975698564988
1.0036355288073842 1.0009340802296329 0.0016921722293559
1.0047582378773217 1.0007129025192869 -0.0018034756858487
1.0037142383039657 1.0025921987609341 0.0015479643580633
1.0040272275926645 1.0012279455248996 -0.0055717434071225
1.0024960589348271 1.0030150067095700 0.0002955097003078
1.0048404262089909 1.0004601976105401 -0.0017403816061705
1.0029565530897755 1.0030305432317539 -0.0038749051733841
1.0033326587078235 1.0055506419992044 -0.0087214583783663
1.0011407920649247 1.0047096880847279 0.0038316802827609
1.0015247715541258 1.0027011662969791 -0.0035268114352817
1.0034568126843906 1.0028191560482318 0.0008112493752718
1.0029623058896728 1.0045843884055234 -0.0037039768951363
1.0037072749638638 1.0007645676008043 0.0028597536943835
0.9996670512647555 0.9994033922952215 -0.0165995660734256
0.9984235252287487 1.0000625864805794 0.0099033102234473
0.9982840727218749 1.0002672021545742 -0.0067566908446719
1.0023276741935037 1.0003642163654936 0.0090665501074706
1.0006590552034953 0.9996318946140579 -0.0138460611342025
0.9994687040262963 0.9997898841161142 0.0153868963656728
0.9982634345356979 1.0002361933524693 -0.0062866584928343
1.0005631525022984 1.0034049362358428 -0.0010905146004332
1.0038791227276798 1.0017163346757407 -0.0029239359800766
1.0083417702961932 1.0006700318054333 0.0013763009260150
1.0029947541588138 1.0026710279360438 -0.0008994622665494
1.0029543553254086 1.0009348671381570 -0.0064897888485047
1.0043784488764869 1.0009306611860305 -0.0005082361641354
1.0020022812540152 1.0027487772935633 0.0014068054168187
1.0036812092360119 1.0005350491306628 0.0064828425809038
1.0040098599895431 1.0013086363808521 0.0052200886416188
1.0054837850522707 0.9989901995360483 -0.0099063366730857
0.9983272797887588 1.0005582051302735 -0.0035104144600104
0.9974333872364026 0.9999605299407903 0.0044031416700022
1.0027407000832107 1.0024024869656849 -0.0089201246846328
1.0021504875986229 1.0025162602146482 0.0041710056214747
0.9979578853823097 0.9999152056132619 -0.0028335983495436
0.9974665779101917 1.0000165267403780 0.0044150304176889
1.0028208772051364 1.0022376875970418 -0.0072784105089099
1.0023486167118782 1.0030548194763105 0.0081086703496614
0.9979152682878210 0.9999485594343808 -0.0025726560372719
1.0021456089488234 1.0057679931866506 -0.0033940499054126
0.9990417863545588 1.0000366324281131 0.0005768627188630
1.0029163146875366 1.0027710636498710 0.0020856289870926
1.0070526771348620 1.0014572491422651 0.0014251450342244
1.0040024576939133 1.0012700464308026 -0.0012509055658183
1.0029374913922278 1.0017442264157417 -0.0035052720081951
1.0027990015734558 1.0032224077237895 -0.0019410492163057
1.0030352820635637 0.9999776406678862 -0.0017787966275523
1.0025525795056911 1.0051164971592355 -0.0074518897732813
1.0015473799214796 1.0012044050493636 0.0094851010011259
1.0060956143430300 1.0013075250427419 -0.0009707806265982
1.0033272461394360 1.0028969640055487 -0.0000652600394705
0.9962600001298825 1.0004473223126118 -0.0000150139008008
1.0040596171571532 0.9972263249901649 -0.0045737592968484
1.0042854132069921 0.9964448720515687 0.0023893651454125
1.0050594264216712 0.9949150123484699 -0.0053803820702035
1.0027176931692512 1.0033021493008039 -0.0000561836762531
1.0047724423372688 1.0016877072249692 -0.0082141869036552
0.9994615672193834 1.0001569085996305 0.0005704784991961
0.9994462988123276 1.0002020267150478 0.0000324972113486
1.0048720987260276 1.0012117241522369 0.0049542468566380
0.9995118612321725 1.0001402577931031 0.0003531829585646
1.0039013935602115 1.0013150437064733 -0.0069000579186637
1.0054430501420191 1.0009369818410285 0.0095373970150143
0.9994196103942145 1.0001956618377212 0.0000084771596613
1.0035470756128064 1.0022067883729888 -0.0035900485600688
1.0021993760232670 1.0005712376156308 0.0018282242302340
1.0022680718933272 1.0000582200517099 0.0014385770567810
1.0029878776638490 1.0000877975070819 0.0008284184700346
1.0058232200082089 1.0018397972972257 0.0000937511139457
1.0051722858709315 1.0017097520725211 0.0005973642934992
1.0029130150349419 1.0028265113117549 0.0060525503033145
1.0112536327048474 1.0010108698969136 0.0044732134003626
1.0016071730089224 1.0027977469983773 0.0002083534167896
1.0032603819270980 1.0015456444372186 -0.0040849174179506
1.0028606151104571 1.0027388924928622 -0.0020905301487692
1.0039620396978675 1.0021847209195378 -0.0033709458826491
1.0036390603923746 1.0004658100899553 -0.0031936713462928
1.0025729687860057 1.0034979173477454 0.0041676938694147
1.0035138336546716 1.0021214776950336 -0.0017311200655347
1.0030427608230243 1.0033133916254982 0.0002148739848956
1.0033567038276976 1.0022849560890184 -0.0009132032268654
1.0022905684297259 1.0048066543466307 0.0017265580842311
1.0017131985426773 1.0016555698077412 -0.0025271990808249
1.0001243040026693 1.0058868432495072 -0.0055682179734642
1.0014508647133529 1.0062539954613843 -0.0001683859146706
1.0017667879111862 1.0045238353697894 0.0040106175834153
1.0050989211563981 0.9982064150177629 -0.0056961158272653
0.9976191547899527 1.0003375477663441 -0.0012903645298556
1.0027495591298783 1.0003497299002841 -0.0017052491394279
1.0035368861936398 1.0018444960816719 0.0015912409878739
1.0034507153987247 1.0001904202203751 -0.0007673222751303
1.0027965399525112 1.0019599227608611 0.0011245924647631
1.0033808260365373 1.0002897357550109 -0.0010696797434093
1.0035148334240103 1.0001311290405146 0.0003037320762175
1.0023408831463456 1.0020232658098129 -0.0002388024300995
1.0037988405238776 1.0016632343991001 -0.0011886614360244
1.0035488865102493 1.0000509849307049 0.0004246165189158
1.0046301868978216 0.9906452093662313 -0.0083842669777224
0.9949309287341266 1.0004398045679836 0.0023095220220554
0.9984604080419923 1.0002076596568530 0.0097902757493187
1.0025567326336311 1.0038182579808488 0.0018858098431289
1.0026718297659156 1.0038459101746577 0.0009077482378206
1.0025267446288257 1.0037038778400627 0.0006721170801581
1.0018544080976199 1.0024399380513853 -0.0051992774173587
1.0039147833681967 1.0021496393937344 0.0006327363533786
1.0047533616522188 0.9962108894729448 -0.0070007298941556
1.0023637670094461 1.0049155831737044 -0.0001485540093924
1.0033275612406218 1.0029637408906298 -0.0002507337161853
1.0023183516056082 1.0021840036384375 -0.0084253243717273
1.0026180320411033 1.0035528066461699 -0.0012481175519775
1.0020879577372401 1.0000978528757116 -0.0058260006576811
1.0020528906754245 1.0001252810844452 0.0040709575718375
1.0017707177503803 1.0000066466529787 -0.0044804462728921
1.0019301757452366 1.0003965145072911 0.0042099690731650
1.0012376389144617 1.0004990316660500 0.0054812053614947
1.0021217047057731 0.9998940774520018 -0.0056824646931051
1.0021607102018830 0.9999283622855395 0.0056725995098407
1.0016202217660826 0.9999463987915640 -0.0040257126359966
1.0045983108661707 1.0003426592267599 0.0062512709335852
1.0034381532156698 1.0016960585235981 0.0033023393449709
1.0027699518078157 1.0018984694463580 0.0085814957039906
1.0030287205478523 1.0013292554265907 0.0007024283785865
1.0027494676517306 1.0035369795420981 -0.0022038640046349
1.0051886939295369 1.0024049382112690 0.0034818772342900
1.0021963099594577 1.0031302209026667 0.0037954294908130
1.0047489241766308 1.0025531144019857 -0.0011758940246781
1.0039328193498558 1.0013646441968693 -0.0025956654756466
1.0051182885648657 0.9955394800352531 0.0068865667039925
0.9966617554901394 1.0003755256340636 -0.0004103403864601
1.0027440945033590 1.0028587921935856 0.0024352708956975
1.0034969626772743 1.0019191245042183 -0.0045674528099986
1.0007466365719917 1.0058984560823518 0.0028061111272779
1.0067072911808219 1.0020646378682749 -0.0034123674487919
1.0019057691377835 0.9999341253724126 -0.0007527779850414
1.0025068402484323 1.0023029545881579 0.0020702064170942
1.0025268961890796 1.0023583868635646 0.0043827824187437
1.0018411930245006 0.9999590640730445 -0.0006467069367356
1.0022712762158559 1.0023326368594085 -0.0009989359146820
1.0020593701128324 0.9998909979715678 0.0000363160305602
1.0019918728540071 0.9999234848492308 0.0001645693851303
1.0022579233058375 1.0024846767646109 -0.0025259185066628
1.0028325628247328 1.0031767287770981 -0.0018843873272826
1.0027225720542932 1.0024557110126668 0.0002328338292440
1.0035739215926074 1.0012379813696426 -0.0046330324265032
1.0056091055416498 1.0020854688209038 0.0001921401461967
1.0035275150003553 1.0003818129285753 0.0009721982310525
1.0091710636110689 1.0016799276287847 0.0021894114733583
1.0038558607372621 1.0018170802817392 -0.0009823804320531
1.0032815883739932 1.0017619266895788 0.0001760543058955
1.0032426167887512 1.0030833336714937 -0.0004374344935561
1.0016806705588750 1.0057563264173450 -0.0004247903947581
1.0035658845229103 1.0029311639716996 -0.0002576772143073
1.0029402940032910 1.0032001369667098 0.0001506378116942
1.0023551521614888 1.0026733213588037 0.0056818056557058
1.0018650035351753 1.0053690727915032 -0.0038649690738490
1.0026963879198865 1.0025028450743212 0.0014535918284934
1.0019476825384490 1.0000266832016975 -0.0009985419543678
1.0020368104250212 1.0000302621978880 0.0002422327845553
1.0018498166266268 1.0000712286200701 -0.0010022028633934
1.0025172530930111 1.0022649736613631 -0.0002265432414481
1.0025815829162277 1.0026837265608253 0.0033002190243118
1.0021214918270158 1.0000299215117128 0.0003783751704517
1.0025174978131217 1.0025037886310444 -0.0011945792129639
1.0072910804935078 1.0008626102987048 -0.0003295978919925
1.0034084449605842 1.0029844252706419 -0.0001410812439882
1.0015338267307674 1.0058548026739658 -0.0007692056296555
1.0031166946810863 1.0028041040837050 0.0077798357568674
1.0029587885094102 1.0029551380889097 -0.0011564464165240
1.0039827171211519 1.0019868895108996 -0.0025470841261776
1.0027768163297244 1.0026290649608800 0.0063150252890253
1.0034739442292495 1.0008494470927192 0.0052149269885226
1.0036322342589732 1.0026370029023142 -0.0008252488219995
1.0033212514614558 1.0008931801878966 0.0001873775351880
1.0030911707361914 1.0023803930245390 -0.0041313666745304
1.0025833551623384 1.0028164360694811 -0.0014309802889735
1.0035178124257926 1.0022878899595777 -0.0029781436936780
1.0039484915039361 1.0019720867193409 -0.0008409670090516
1.0038733389929975 1.0023966913004352 0.0034567608127128
1.0023668064969580 0.9999154293764465 -0.0006206698085109
1.0028261491557935 1.0019936339321300 0.0028193884004189
1.0005889555909224 1.0022553899723148 0.0079807058087213
1.0025107758535468 1.0038825670533567 -0.0004630142864266
1.0015432095598842 1.0058303529618191 -0.0011690571138704
1.0018657908997364 1.0035232322817433 0.0039097160547491
1.0028517700929847 1.0026230646786172 -0.0001959061243050
1.0033777027564699 1.0028453186095496 -0.0040838441397729
1.0024906385889529 1.0039184549299121 0.0020169348931730
1.0038695176991141 1.0026463112650128 0.0053295228435415
1.0030502444740035 1.0027441086467732 -0.0020627107515652
1.0034747923532343 1.0029162227453281 0.0052965916033683
1.0034064937995995 1.0007529537072626 0.0014369083180920
1.0035614488517093 1.0017326792158914 -0.0045645536325833
1.0036577065014667 1.0002276873600553 -0.0032718473472350
1.0016609370875307 1.0030065256210348 -0.0014022865371605
1.0040719997996987 1.0018001633699267 -0.0009488837304291
1.0034864450724879 1.0005763157878367 -0.0011635386226048
1.0035372306349040 1.0026057533590076 0.0048647030448576
1.0040980815416500 1.0022088907702877 0.0022569807065801
1.0025507198490422 1.0038576396752821 0.0001909871906659
1.0027916840734532 1.0026927189439234 -0.0044030253057574
1.0027047984786397 1.0028356551331243 -0.0010299480497589
1.0035644409111080 1.0011902455803205 -0.0034735098582307
1.0025720054267053 1.0037634576097816 -0.0016752722655313
1.0036340054867907 1.0027242919189372 0.0055273950886384
1.0039737633889112 1.0020759723992763 -0.0015457640642437
1.0031162387389476 1.0023449217706344 -0.0000757448384239
1.0020583075193064 1.0042260277585211 0.0027734190027708
1.0022109418213199 1.0027468113563558 0.0015112022771791
1.0026256753777412 1.0028924886141122 0.0018715312330697
1.0040913041735486 1.0001360528620740 0.0025364419701751
1.0023394663599057 1.0005616633209458 0.0038337966219970
1.0013392743896126 1.0008592393298090 0.0056971343197228
1.0023677293607087 1.0023233796340412 -0.0039120998207473
1.0028650671167272 1.0019186103688564 -0.0011584022568991
1.0026958112242619 1.0029079751283809 0.0000368462381503
1.0024677983040122 1.0037910293472367 -0.0013547655924290
1.0023938973094100 1.0027872380927234 0.0010372238594374
1.0048090760399246 1.0019400445049644 0.0071613412323839
1.0028242579557207 1.0028037086647943 -0.0018235554079683
1.0044851680906102 1.0025215837255397 -0.0001356388750404
1.0028572679472032 1.0031541567362978 -0.0026040057779167
1.0039159780105069 1.0008294402773259 0.0008080910219779
1.0028632956843915 1.0031875845221945 0.0021385995930749
1.0026817952083249 1.0036207398770389 0.0007109546347314
1.0039780471367681 1.0031071836744181 0.0077382939530028
1.0030664611459343 1.0008050383100986 -0.0027432535795098
1.0018989456284815 1.0004079420651433 0.0008252796097000
1.0033952022157682 1.0021382817029136 0.0000825011862642
1.0034411914638581 1.0011797436442003 -0.0043743924088936
1.0035212980682988 1.0018790155386532 -0.0014925154407026
1.0030103636130387 1.0028671994623448 0.0041377456297713
1.0016393024344146 1.0061755508582795 -0.0042188807534389
1.0041025895174831 1.0021791432539842 0.0005081478753576
1.0025478020410066 1.0032551188416001 0.0046646100985595
1.0030280129157199 0.9983005551087438 -0.0008828188794862
0.9963702784758806 1.0003585622515203 0.0003878576240490
1.0033408157974735 1.0022019922561254 -0.0021868600197273
1.0037664247679652 1.0025866730193731 -0.0027918489700404
1.0015579006987012 1.0001447020342917 0.0012247020681389
1.0029502572134537 1.0031402540722125 -0.0034231066576933
1.0043612094832945 0.9996878208655485 0.0005025970667103
1.0031646235348342 1.0026444412735185 0.0029377535011323
1.0032683888775293 1.0020674287635023 -0.0043855839953495
1.0026495221129477 1.0029836938590151 -0.0003359277590690
1.0038622965863517 1.0010250881312683 0.0000456077409654
1.0025747394969140 1.0037699577030972 0.0000204632465739
1.0058320253597419 1.0021279285878737 -0.0017893091961782
1.0032893437333927 1.0026167724661881 -0.0004158182805269
1.0033156747191043 1.0030856765891187 0.0078514839242025
1.0028853475241646 1.0031151183667997 -0.0007362295686927
1.0085816177997950 1.0018727044716438 0.0041360044450874
1.0023428138494375 1.0041470924775144 -0.0019753334927576
1.0050296151110008 1.0015742142142903 -0.0064063799701774
1.0032352643614608 1.0028462442671284 -0.0044080059198716
1.0029787717046419 1.0025998851944162 0.0006567093116138
1.0015061880999403 1.0029615399984824 -0.0032200484267446
1.0035411399913483 1.0046199939933160 -0.0062643551454414
1.0030218823291535 1.0008180321890265 0.0030578135237296
1.0030412214720763 1.0024903088831205 -0.0013587494908879
1.0027180097624597 1.0033915313895347 -0.0032035070159404
1.0017478333267267 1.0030751587354794 -0.0002002597932954
1.0036916966152509 1.0019862853049610 -0.0008292986846109
1.0031942381123453 1.0021210094557336 -0.0036038017197260
1.0030842294535651 1.0029221254572114 -0.0047976354913018
1.0027953966039531 1.0029031447116439 -0.0002170443973067
1.0026165232298412 1.0022096160487437 0.0025018482996964
1.0012890577368103 1.0003446583246358 -0.0022524842532426
1.0019827781104205 1.0002924015798271 0.0008768221014567
1.0022083905504262 1.0002132095860812 0.0039325761580448
1.0016025527546060 1.0060915301235789 -0.0016335314664786
1.0041072893436711 0.9993899243329278 -0.0019275342444287
1.0031622142330867 1.0022322020572894 -0.0000079792317547
1.0040864469343203 1.0000479036975956 -0.0073915558013223
0.9970140110871351 1.0003635365654269 0.0011838058031933
1.0027937040178414 1.0029161729412599 -0.0014673613992571
1.0037841941445977 1.0023802894310467 0.0018072033204236
1.0036436984205286 1.0004160498728798 0.0007913363922059
1.0044962650148748 1.0030106884122714 -0.0076186760193571
1.0029198596359807 1.0026905706876359 -0.0007322081493939
1.0041618608486671 1.0024509484733530 -0.0000578583542237
1.0029682596660137 1.0029807883902102 -0.0025523489794148
0.9994618011640654 1.0005358047150026 0.0070610303992441
0.9987640979867675 1.0006486519234801 -0.0051106871234790
1.0037394779450965 0.9998813742380694 0.0080417542359732
1.0044174196845894 0.9993738235140635 -0.0116471575970244
0.9993866891178066 1.0006600715481846 0.0070271272279677
0.9988010714657717 1.0005401219670571 -0.0047792980941102
1.0035396665082570 1.0020391297482505 -0.0014432866066418
1.0034163890432146 1.0027275624379610 0.0037306916336796
1.0041816519664868 1.0027468970496303 -0.0035950423286982
1.0035730742438205 1.0004661163209196 0.0006758412610163
1.0054014690398612 1.0021777978872652 0.0001115643342862
1.0057478763510626 1.0020845050249452 0.0038174177532447
1.0037563234071101 1.0024474864883028 -0.0002671617009768
1.0032655749977712 1.0025786414369178 -0.0015463286490600
1.0039745479576934 1.0027881045303280 0.0006289414112949
1.0026088212009601 1.0036290095866796 -0.0031355368829103
1.0021660536112746 1.0021225587161375 -0.0036375850395914
0.9989816242110017 1.0001951567897998 0.0018262828294123
1.0038433584279323 1.0006423776438538 0.0037760839890958
1.0032656273819036 1.0019215888498616 -0.0038686652456451
1.0017602399170449 1.0028201132482337 -0.0032823323303066
1.0038353209424236 1.0010496071377193 -0.0012370032468037
1.0038355788277766 1.0012864582690584 -0.0042720031812677
1.0024594583533584 1.0008390987442950 -0.0013687111618239
1.0015024263278562 1.0002411807363356 -0.0019708756925914
1.0040911876885159 1.0019388693265789 -0.0036614351920253
1.0039138586592147 1.0011183411088960 0.0010423923689588
1.0024152281436098 1.0033609723079491 0.0054772767753320
1.0027128542217827 1.0039943332309502 -0.0048192759522195
1.0031663221970062 1.0027391808226032 0.0029215563977409
1.0037134678671131 1.0027931611119438 0.0061040696098056
1.0034952921445841 1.0035711805853971 -0.0042598854853882
0.9989483835094310 1.0001863569550304 -0.0036360006649895
1.0026106933974015 1.0036166397251649 0.0011150586429554
1.0042888358183462 1.0021174056656119 -0.0008505451750410
1.0024611990903936 1.0033313886053781 0.0027370624741515
1.0027033190458001 1.0025861960093012 -0.0027343728106602
1.0020143933284995 1.0005335208389410 -0.0044047923720721
1.0038874707479075 1.0017139472045649 -0.0088329420704229
0.9979090797872315 1.0001220858119435 0.0027665115167007
0.9979686670206872 1.0001721028987527 -0.0020409989180175
1.0029511150230739 1.0016212029819360 0.0047451954419966
1.0036977912437988 1.0011407710407425 -0.0068895143989345
0.9978762398035627 1.0002032732789270 0.0027845859372113
0.9979683555052163 1.0001740537182082 -0.0018429121856121
1.0037810682099693 1.0013959459597972 0.0091404935647319
1.0035768252148054 1.0001739066297404 -0.0017645069317716
1.0019934285770855 1.0004462203466691 0.0000405449881750
1.0024402597341511 1.0004116754570904 0.0019443724939633
1.0020395422862824 1.0003438440379071 -0.0010206456803606
1.0024975680840649 1.0003449504481146 0.0002022513995204
1.0019029165005531 1.0004952230083763 -0.0000057269560709
1.0034525013720090 1.0002178855064656 0.0019863779145063
1.0021688530841821 1.0002652616840628 -0.0008435864550729
1.0061773424008202 1.0006944182658148 0.0044544326262716
1.0031189516687815 1.0019029334500380 -0.0049460805087546
1.0041172714083646 1.0026180986272883 0.0051757169239832
1.0038978921966635 1.0009467817991280 -0.0030881764185071
1.0033975667593520 0.9999669095512965 0.0001837450720283
1.0015977019907309 1.0020491046572695 -0.0000142853786222
1.0036380614409350 1.0007174500141465 -0.0015122043675339
1.0020485364649476 1.0049036778525331 0.0006242933972311
1.0033842372874093 1.0012683870820813 0.0056865945106492
1.0037334624574532 1.0025074913453136 0.0041821416154778
1.0035428864093450 1.0028661605233165 -0.0006939724568838
1.0031977707818269 1.0028400804743201 -0.0009426703922346
1.0038885910765081 1.0020281259868620 -0.0044263748251052
1.0020715289523408 1.0017259490936836 -0.0067235864983555
1.0028584813632706 1.0026450084671754 0.0003906646432268
1.0037359977902864 1.0007268741453581 0.0021423966894047
1.0029585700107875 1.0025536237946850 -0.0011043766780299
1.0065934210011893 1.0016729815310990 -0.0019365991501310
1.0045661124219638 1.0024870560302974 0.0015892098245753
1.0036095803096257 1.0030724691265873 0.0010184690759488
1.0026961610914797 1.0034180991914297 0.0024549722435465
1.0019529197097066 1.0026046064785190 -0.0029481345119546
1.0039553909904730 1.0025590050232194 -0.0015741755774496
1.0029552100498973 1.0023815551370587 -0.0014305842457112
1.0039020959589700 1.0007633395572577 -0.0017062484990993
1.0023269854253385 1.0027607030582353 0.0001521361718656
1.0030552967917543 1.0003131479231120 0.0019546779803984
1.0032580097489745 1.0009828896685515 0.0082716956098900
1.0035346456879171 1.0018444433800766 -0.0022577709691641
1.0037944653226596 1.0024003328376332 0.0034741925398215
1.0036731582812466 0.9997647548035674 0.0008059692065698
1.0029535616444327 1.0023299577473193 -0.0038357242917721
1.0026563583723829 1.0028588954020927 -0.0011136347743432
1.0036415065752926 1.0033911201771311 -0.0004534742010828
1.0033555851791873 1.0025421030933199 0.0040813254078307
1.0032022685255562 1.0017902269363059 -0.0015490198519335
1.0039035355394310 1.0019093111693567 0.0025805463130363
0.9966271427259562 1.0004259491616974 -0.0003864794632566
0.9968706376309121 1.0004106464338482 0.0007423671680023
1.0042828127882122 0.9972840570276317 0.0029112476998412
1.0041088017505104 0.9977659683338328 -0.0049960168616956
1.0029188571169723 1.0029745444153699 -0.0013021583620085
1.0035066663656154 1.0016164611288509 0.0032312816617598
1.0042094222077169 1.0035317177489262 -0.0085108223104013
1.0028942048998890 1.0026488851583923 0.0003483544652978
1.0042237127271787 1.0026167688371501 -0.0009989572013464
1.0033723742121139 1.0031496594076679 -0.0003459614825066
1.0038163146893502 1.0021721600935574 -0.0017009449659606
1.0045377159496991 0.9992695931437080 0.0028289546315980
1.0040209400278048 1.0021050010559531 -0.0031947186270648
1.0047227356256669 1.0020028896578064 0.0043025681887640
1.0054395219336987 1.0001993137843315 0.0072473599444342
1.0031695877438611 1.0026813262719745 0.0025281086531149
1.0033128787430015 1.0026706104629448 -0.0004698509971163
1.0073723160105366 1.0000125630331063 -0.0012701131359311
1.0053238658522832 1.0017010686812426 0.0008226169911884
1.0037279626655486 1.0022520885757498 0.0033500308891480
1.0036091237514491 1.0015516871476726 -0.0015131216580627
1.0032139367645416 0.9998179175341084 -0.0100412064215474
1.0036110844799881 1.0026496825063396 0.0003738719146380
1.0039610293395336 1.0018602099629843 -0.0041365457818879
1.0043137044831136 0.9998189006541710 -0.0006266456016992
1.0038462848433329 1.0014844054413661 -0.0044885643237277
1.0022729497564526 1.0023262077879567 -0.0067744099426999
1.0036032754907092 1.0009421091727255 0.0058288496089023
1.0035765487212205 1.0019762965892063 0.0028173208625580
1.0031312322829626 1.0025312311422316 -0.0030405947417612
1.0022581043741015 1.0030839976940513 0.0037843364667735
1.0029390981486397 1.0030787077409780 0.0002059431327858
1.0037526815558462 1.0008127807227363 0.0043817204728328
1.0038629616537134 1.0023050312422190 0.0036890054221566
1.0031363824844861 1.0021553129411915 -0.0051797464753359
1.0027415114765410 1.0028744205657441 0.0039385365766835
1.0025457883685032 1.0057584750813986 -0.0047747259559146
1.0043515351371148 1.0027978931745984 0.0070430097763269
1.0040102315714476 1.0022373484983700 -0.0002477442604417
1.0048413925449922 1.0023052337660314 0.0002246055577809
1.0036243957282405 1.0055134515249378 0.0101460028681286
1.0034423489790809 1.0017330214667475 -0.0035472967314081
1.0035372409786085 1.0015284398898257 -0.0017274069213209
1.0026617251283552 1.0032147511752347 0.0040439949558829
1.0027052245428953 1.0035546507062489 -0.0001678956948993
1.0044207359822606 1.0005096291605278 0.0032014373872191
1.0038769831459116 1.0010405695274212 0.0001364295931923
1.0030034072265313 1.0029637135868403 0.0005619645932152
1.0036859735234427 1.0017898042654050 -0.0000139556151412
0.9993542662799292 1.0031979054855438 -0.0026894955740265
1.0035292610833126 1.0018245447666450 -0.0022174507422489
1.0035614657793326 1.0016243964361495 -0.0021096063818468
1.0040114096593731 1.0021709626122981 0.0010643055369730
1.0038468450940650 1.0023788076161761 -0.0052962274502381
1.0018980009158458 1.0045238857563286 0.0047207375284751
1.0026939527159355 1.0058045465845338 0.0084613086052495
1.0029411897277767 1.0025908648122142 -0.0013001974843520
1.0030953942492520 1.0022116683838524 -0.0037550565964948
1.0026370556759050 1.0018860752338725 0.0009355609122975
1.0039406921255383 1.0006501638764704 0.0002476128749293
1.0037977050250637 1.0010235993150618 0.0019672710850268
1.0042493391642426 1.0021187611586744 -0.0036357101678029
1.0028694580980806 1.0024705078780469 -0.0017942317030627
1.0028812326980447 1.0024280282790148 -0.0035998503035269
1.0037064871628651 1.0002050814236882 0.0053279429787794
1.0030461276577314 1.0026630165670660 0.0003065175038446
1.0038628456524168 1.0026721361781783 0.0047610113624243
1.0013178507540013 1.0018302989458585 0.0021301202803475
1.0042602158173732 1.0016783528257225 -0.0041285812203836
1.0021565444403246 1.0031646505512108 0.0082261420472767
1.0021714301188278 1.0025860862434925 0.0049836513321365
1.0026652119844273 1.0025858744424847 0.0015780003436281
1.0037813394139741 1.0022421868438480 -0.0042540385342399
1.0017864547021293 1.0061276359863851 -0.0017847623959395
1.0033439167164342 1.0011633633933381 0.0071601570382503
1.0025928957636856 1.0032230720355542 0.0054786131177533
1.0037660443248357 1.0022467515919613 0.0018943716161654
1.0036942756018477 1.0024984702093929 0.0039080706042490
1.0063421095954912 1.0009893571909996 0.0029245279931251
1.0036030026052822 1.0008694306932224 0.0069271870821302
1.0030654686067872 1.0030411252420730 -0.0009080461029652
1.0030531717247424 1.0005461408103271 -0.0006591118008767
1.0041529720071234 1.0024921880437061 0.0046623568789457
1.0041727449163420 0.9996126796145811 0.0054832139419639
1.0030186905334677 1.0026005043317654 -0.0011562189132197
1.0036189625883496 1.0019632386593049 0.0003585562377747
1.0024593682500336 1.0035612862282979 0.0047801880240433
1.0040639330571439 1.0020861129097924 0.0010327572201461
1.0031502620791191 1.0023574296839262 0.0023264460292143
1.0040546348034678 1.0001912918073657 -0.0059139809832994
1.0032148013667552 0.9994248438055051 -0.0052820176073831
1.0038332400841410 1.0024173041727975 0.0029639207111055
1.0030762688213757 1.0018446008835311 0.0032792300409023
1.0020896098214669 1.0032610718243840 0.0105989013434924
1.0032133061094193 1.0023146790881601 0.0017695693117988
1.0003875045226556 1.0026055039370225 -0.0079371499350581
1.0026727017516996 1.0004207437980961 0.0031006563389934
1.0066938285136868 1.0015560181852572 -0.0002076111023803
1.0027390476637605 1.0029564741885619 -0.0005765047083412
1.0020803382699885 1.0033915176074839 -0.0080084455748953
1.0026478788374427 1.0041551630118668 -0.0036354501106264
1.0027226225453796 1.0023722199580380 -0.0013809721691376
1.0038357782321523 1.0023611637691294 -0.0013259528796765
1.0025042354473388 1.0029456136677999 -0.0003324036856874
1.0034632284748570 1.0027324569801424 -0.0005187183316204
1.0028531909273088 1.0024239412776716 0.0044579538368125
1.0030298957213104 1.0023481956815630 -0.0028305746514792
1.0018263729918861 1.0008104768120134 0.0060857749450372
1.0067334634884029 0.9999567283345313 0.0074098355460506
1.0013511607799761 1.0057688806773031 0.0007813096500033
1.0030631606027571 1.0021207170158219 -0.0028202799712110
1.0029907739597486 1.0028030451369521 0.0009673040167517
1.0038424434406248 1.0021651843728143 -0.0047783946946235
1.0019599377987929 1.0038877849872860 0.0040427090547031
1.0042663921047918 0.9996183256667536 -0.0148201655149289
1.0042524936004904 0.9994658283868002 0.0150266711138001
1.0032304666868574 1.0032776874721092 -0.0015079655143162
1.0014884438673346 1.0055946034035723 -0.0000117630360215
1.0034613593269652 1.0018618078017771 0.0023795346717457
1.0036565513679447 1.0010572631565322 0.0031298406490524
1.0039981565870566 1.0022409549090303 0.0076175085527189
0.9966825586363469 1.0003595291822289 0.0004694361109114
0.9958604703864580 1.0005076236454364 0.0004498366247202
0.9957640758364765 1.0004332080591685 0.0002752270427602
1.0049105576284969 0.9958729821329112 0.0071941117175615
1.0027746500001664 1.0029889286254001 0.0048544499148629
1.0037906165360739 1.0026161238300548 0.0019106817421597
1.0037094443249202 1.0023697550473842 0.0025510181277854
1.0038236711138826 1.0019018557473509 -0.0075700491315607
1.0018073641221210 1.0006894244438362 0.0061875170035845
0.9981099285915178 1.0032397180948118 0.0022816074463153
1.0038561608786090 1.0022892807451382 -0.0017382723130895
1.0058602190554395 1.0020853106514203 0.0030772039535331
1.0026579186595981 1.0026998447774853 0.0026642079260627
1.0026803184882769 1.0034299813346741 -0.0010615818739263
1.0022578203674413 1.0045269148486511 -0.0003484237172839
1.0036493774496207 1.0015440784882288 -0.0006945838914341
1.0028551555403358 1.0033250229816948 -0.0031544998005186
1.0030868336281198 1.0027723588631812 0.0007970124146285
1.0028763522900832 1.0026668459054802 -0.0013081510730468
1.0029206421590200 1.0023235397614849 -0.0044094818475752
1.0108095015709628 0.9998360261683154 -0.0101011688640252
1.0031807713873599 1.0025123907896938 -0.0005692085158240
1.0040129162674720 1.0004202694260338 0.0012894933591628
1.0037373048897424 1.0007822062260960 0.0029075920063440
1.0042875746556501 1.0021853710987323 0.0026109834519071
1.0031180791661729 1.0023828857515034 0.0089789802383952
1.0080629484954753 1.0005467330590083 -0.0000442214589130
1.0034757559506275 1.0005099517829381 -0.0007373010249495
1.0036719525486448 1.0021621214532042 -0.0020316098828128
1.0106956492570758 1.0008175736446494 -0.0044511373530195
1.0031737809118664 1.0040887251029145 0.0006584578042062
1.0036831555042551 1.0012273335125006 0.0027505953334600
1.0019818541477377 1.0032141165270687 0.0094072889136091
1.0109850421687310 1.0000481746620868 -0.0063244170102931
1.0040031702470940 0.9992695931437080 -0.0075613321721002
1.0031693315638563 1.0019648519279474 -0.0014015681867998
1.0024450328533858 1.0037625940327828 0.0056673653037099
1.0018555233965016 1.0026572881440103 -0.0040167784383907
1.0032061957179066 1.0029681612805275 0.0002086609786947
1.0026528149435510 1.0034054950478311 -0.0003973496109790
1.0036724601656630 1.0021642334501484 -0.0019745097004776
1.0032251071267522 1.0025615663596423 -0.0018747304971993
1.0033711390600961 1.0017786291795481 0.0039436634560516
1.0017131985426773 1.0013854736167678 0.0010168465881758
1.0036423772976293 1.0015947142287451 -0.0027130283236287
1.0033863398553249 0.9993724131002936 -0.0004394668520612
1.0038072581827719 1.0020713933600078 -0.0018725149862405
1.0031814873884799 1.0040061234348032 0.0026177178210959
1.0028511477184276 1.0029158310828428 0.0018379157131763
1.0035311542993870 1.0018360341685102 -0.0013933351307367
1.0040728539460657 0.9993370362838007 0.0022003246967803
1.0071267185280384 0.9999285793617066 0.0046985160889087
1.0036957367695782 1.0013536810795693 -0.0019135105957719
1.0016219836243774 1.0029468194142186 -0.0005765432997747
1.0037523549102965 1.0010171148013327 0.0047145757928336
1.0034252749808235 1.0022775424206802 -0.0019804393841784
1.0032420927862589 1.0022282471103450 -0.0021290211817876
1.0098416819113234 0.9998849075530980 -0.0078590269519949
1.0030671162029197 1.0027905524368268 -0.0033962365817878
1.0018263729918861 1.0015248357192168 0.0100127944244185
1.0032151724341292 1.0029749775075769 0.0044374862094481
1.0038394695672879 1.0007604995512906 0.0007752535273744
1.0026255419732737 1.0024614558641649 -0.0033914542954189
1.0021428662357288 1.0025526968386818 -0.0103627770904029
1.0035324683533502 1.0022813618748370 0.0032382964040043
1.0033019818978171 1.0035417853441393 -0.0010635536987314
1.0022979208509537 1.0029275914482709 -0.0002181058191404
1.0122790356279083 0.9999782374733115 -0.0052381819597708
1.0052562715358795 1.0023767627119604 -0.0058769012928297
1.0069472102092298 1.0004408393738025 -0.0093654874980362
1.0029253886510527 1.0031502832418253 -0.0024900695049547
1.0018842714109439 1.0035318797174604 -0.0041176729598219
1.0037481522535607 0.9994248438055051 0.0041320042827170
1.0038342818188555 0.9993370362838007 -0.0087825225616110
1.0026851927108433 1.0027641386999762 -0.0021233150295983
1.0038877756586466 1.0027327125541365 0.0003383599877703
1.0035594840305284 1.0020893628546794 -0.0016348890756401
1.0034664157011615 0.9999969745167284 0.0003555887333355
1.0028438578433243 0.9997288666596048 0.0032586186841606
1.0033186948420976 1.0021399037502343 0.0035253082539527
1.0029344460414622 1.0024171718273782 -0.0032975011905527
1.0038878716169508 1.0007254484852302 0.0028821791463410
1.0037456433837708 1.0005760247254645 0.0063538427339399
1.0037975503318342 1.0009850479911346 0.0032170976793676
1.0054363067258587 1.0018833352332390 0.0041359306564826
1.0059289549564139 1.0029707801089831 0.0054055274293539
1.0042345459020128 1.0017460374045100 -0.0047613993201540
1.0025085170940999 1.0042609337812221 -0.0083094076615177
1.0029945174618107 1.0024328050595133 -0.0016489830155397
1.0019630799319299 1.0052173285242045 -0.0001209422022523
1.0049540917230348 1.0018867158656706 -0.0012962574195724
1.0028026539606612 1.0033230852116424 0.0006101513435051
1.0038647821047810 1.0024084680748553 0.0026850646142196
1.0032907450790449 1.0023467613663259 -0.0023825437238777
1.0029845497548959 1.0029018026211114 -0.0013386967841695
1.0036634237634572 1.0021061443650638 -0.0017835566877473
1.0023015562767130 1.0041344574499180 -0.0023537265922728
1.0035355982723444 1.0022725333981266 0.0026006920666457
1.0029108426232345 1.0027207353810419 -0.0015120722025489
1.0028901727621584 1.0026172559197293 0.0053379071311353
1.0037378533694270 1.0012075197324508 0.0019756659051961
1.0028322058328665 1.0013133102692551 -0.0031536030668715
1.0037876709476015 1.0017243957494781 0.0015024723505518
1.0063014243290906 0.9999354757691101 0.0007507702194205
1.0036794055800375 1.0023177482617351 0.0028533318752251
1.0037885586594553 1.0025608771399608 0.0044378198294975
1.0036947426726550 1.0020364373684771 0.0013862530122323
1.0029653321747891 1.0027064635103302 -0.0000428663052622
1.0037800111289756 1.0011622071605599 -0.0022427283760571
1.0036795505499900 1.0031702935568041 -0.0013926926326051
1.0031121426181699 1.0020353256453751 -0.0040298216685412
1.0033853716239225 1.0026470872976361 -0.0008102859065372
1.0037497180564099 1.0023166392882559 0.0018083943395629
1.0037375231548984 1.0022505562553603 -0.0002884498397226
1.0032988238849418 1.0023942963596573 -0.0021313648971965
1.0026445529293047 1.0023889970684243 -0.0029318523226031
1.0042380248917175 1.0003078621970392 -0.0020677729488862
1.0022198769051154 1.0029325897246357 -0.0011770780171347
1.0033385832641273 1.0021848487782663 0.0027857322655289
1.0025045022082109 1.0028073583282204 -0.0045655891601080
1.0031346584324490 1.0018412240022943 0.0045722950884797
1.0030637218931919 1.0029713903126416 -0.0012945945735949
1.0028143274366972 1.0026508646333101 -0.0007060185295708
1.0031909975614230 1.0019787061014125 0.0001113339695469
1.0034433647120062 1.0024733911178141 -0.0017610808207998
1.0037312217306409 1.0022063559181593 0.0019773678166678
1.0035265653856773 1.0031814525788747 0.0004697843984849
1.0045354380795308 1.0020886096041557 -0.0039417099634061
1.0019489697547608 1.0061219721464514 -0.0053274841155410
1.0018877840752811 1.0042903422224356 0.0051892939476160
1.0032700571677939 1.0026847486645090 -0.0004445760540372
1.0028862295336323 1.0032801020048912 -0.0003465216224440
1.0032249012499397 1.0021906691065039 0.0000787941678283
1.0028284070870297 1.0022889226809344 -0.0037031790535170
1.0103976578368885 0.9998582646610560 -0.0102880115513713
1.0026762651345091 1.0030923277400445 0.0040460715318714
1.0029945856585936 1.0021420924415638 0.0026431859146414
1.0028942708737942 1.0031723341107173 -0.0085979090999471
1.0028851604919253 1.0024826319261395 -0.0025731870592037
1.0023569863862980 1.0038734158956268 0.0087583582749371
1.0018073641221210 1.0014753431685410 0.0105969687748653
1.0026859582131622 1.0030811037588043 -0.0028410286389778
1.0016875647896193 1.0027054077394650 -0.0065595290907549
1.0038017512595998 1.0020634364922187 -0.0023980525289718
1.0028469775441218 1.0030022948504940 -0.0011334958769285
1.0015928579018043 1.0015802843592057 0.0008751047452489
1.0041254911979822 1.0012847847991941 -0.0036038308887940
1.0038104228841467 1.0011990044091537 -0.0006266485826971
1.0042119517508503 1.0004132452536449 0.0077144586230078
1.0025814111137763 1.0027023827261834 0.0001855694789275
1.0031106693076517 1.0024414313401160 -0.0003939121866219
1.0018386342267289 1.0042032881997340 0.0016305591786492
1.0025711543281566 1.0026561219350785 -0.0014642138308808
1.0029185540715275 1.0023337393587832 0.0082161016509277
1.0024995181757144 1.0029844593409394 0.0021379112736372
1.0035956022779997 1.0023124886493380 -0.0017332778115747
1.0027322581731108 1.0025942580834679 -0.0019908095164368
1.0033291675617033 1.0023252793552098 -0.0035175630748671
1.0029320975447629 1.0027314907308962 -0.0017193694411523
1.0036688899760595 1.0031074130785056 0.0014684443692440
1.0029332895911267 1.0027136783410000 0.0008934638132264
1.0035232239568277 1.0020884316852736 -0.0024534385098675
1.0024782742114045 1.0040723005249332 -0.0014559723675796
1.0029076797106125 1.0028960910642564 -0.0016949115054697
1.0029664568785885 1.0026312392231786 -0.0038449123254318
1.0033848640974572 1.0027186728120643 -0.0011145500254758
1.0040753499534130 1.0021815131097798 -0.0018902210357990
1.0035648262373174 1.0023193322035879 0.0041307028037547
1.0025323797601651 1.0029891155069197 0.0007522029829627
1.0029311753859609 1.0027873551630391 -0.0014959991973356
1.0034215540697831 1.0026645965063243 -0.0017437020580597
1.0030889590640470 1.0027999354824360 0.0015246123096105
1.0032001867119740 1.0025394777406595 -0.0043792391597854
1.0028860925635938 1.0032036927238546 -0.0017908178873438
1.0038325847640954 1.0014537130149648 0.0007987342162491
1.0034426329577553 1.0014851974135648 0.0035878295475540
1.0029243423533414 1.0026413726783292 -0.0012387545996611
1.0032011252989996 1.0024477030784416 -0.0001417538469908
1.0051659926324363 1.0017611149007259 0.0026581971865688
1.0033824052954781 1.0032058323895463 -0.0007281191947654
1.0031208518487862 1.0022664844226152 -0.0013503608285606
1.0018414601853207 1.0010336336319943 -0.0011846116479292
1.0039120189942459 1.0007977343241259 -0.0002034998748135
1.0033574733789998 1.0017436626246066 0.0028759724043345
1.0026450362414270 1.0036120002454354 -0.0011858231941804
1.0026643429222653 1.0024061940982605 -0.0030644680068931
1.0018656269559192 1.0017275623082584 -0.0003648834609323
1.0031740108622833 1.0024716245175733 -0.0000792655329612
1.0033592466092476 1.0020710022070265 0.0023068124051099
1.0029534664415136 1.0030186868496025 0.0009120460856673
1.0032596382229482 1.0026999098113503 -0.0017786028405880
1.0037519403015482 1.0012690071523946 0.0012786502251303
1.0029796039757493 1.0029601154693892 -0.0021244286800784
1.0034812163152764 1.0024769089066938 -0.0018513538987239
1.0029371357761361 1.0023975881767482 -0.0000676097221746
1.0031996085145705 1.0026710864963990 0.0002595090913087
1.0025614289254683 1.0029046258729246 0.0002818237515529
1.0028927377573964 1.0029874549805000 -0.0016126047780690
1.0039086048940227 0.9996010861216931 0.0047345894440642
1.0030561911904887 1.0026638762971152 -0.0011478951103561
1.0033589707860007 1.0042132223921292 0.0011019469652016
1.0033646318307536 1.0025547664279615 0.0026874382105046
1.0030120623563623 1.0026630591618850 0.0026773554567126
1.0016431010020841 1.0025574928665872 -0.0036202244065550
1.0032711128900085 1.0028154472612580 -0.0014501670115321
1.0045553918488044 0.9999242783923716 0.0074075189949743
1.0029776287192902 1.0021846862082813 0.0001164283869581
1.0029843334683266 1.0033277009900361 0.0085881252846391
1.0033289349450214 1.0021856145448804 -0.0024466259802581
1.0038533202284017 1.0019688622767842 -0.0008086722738566
1.0041967349526495 1.0015742988507632 -0.0029043662520800
1.0029174598676482 1.0024915867911968 -0.0022693157527482
1.0035321806927315 1.0028903742949673 0.0067784593254382
1.0038321067604450 1.0008794797484324 0.0014002487882861
1.0033977746299039 1.0023092005576921 -0.0015669542627882
1.0045208862251707 1.0012082760222498 -0.0040066560603884
1.0026960182512230 1.0056214802210013 0.0008107611643254
1.0029825080980845 1.0029683325147685 -0.0010432353672814
1.0030062105508908 1.0024451544470154 -0.0032332128143758
1.0037770708954910 1.0022030956891104 -0.0004136999591393
1.0024236014817056 1.0040588386614338 0.0004181432327183
1.0038698884884487 1.0020560304698527 -0.0002792611053255
1.0046518810143530 1.0019525939697747 -0.0048468164755167
1.0023859467568763 0.9998179175341084 0.0025954742818541
1.0040024254190256 1.0026959699685947 0.0004696686996894
1.0030186421983274 1.0030300990408849 -0.0001411033343720
1.0034371076949642 1.0021177271032045 -0.0009785637414277
1.0029628236258818 1.0031000152072103 -0.0004686773039140
1.0028729341567439 1.0031217572489608 0.0015556194399557
1.0029793454266773 1.0028241155633586 0.0027199733466369
1.0033797734091587 1.0022251946821801 -0.0023111968280031
1.0036337316674335 1.0026944668509488 -0.0013290941427629
1.0029262437398936 1.0024647983487480 -0.0024046485557746
1.0032437759001620 1.0022304996653022 0.0004108516396030
1.0026081355227139 1.0036118795619593 0.0009024725452864
1.0036520397057549 1.0025133498373890 0.0027042719738567
1.0036203653981663 1.0012692296074734 -0.0025465274748036
1.0030829281958173 1.0029515228681365 -0.0011723892071823
1.0029188763614496 1.0026997048159005 -0.0006940075058925
1.0029173265878768 1.0024436926254823 -0.0036610310675903
1.0031969624212458 1.0026523596840085 0.0009402511334920
1.0034044616213857 1.0025318224548949 0.0009400493109572
1.0038783277626908 1.0008630430277050 0.0018484119911923
1.0029700362784664 1.0028237600989913 0.0040533023346972
1.0027739689542656 1.0003989928512820 0.0041457901246639
1.0032298994007982 1.0025735441019485 0.0024980744531397
1.0026562979208846 1.0034413664575121 -0.0000971565997049
1.0028068828418863 1.0031194198170934 -0.0030760964147930
1.0026694271267869 1.0029449477669290 -0.0014459179722409
1.0030447878632942 1.0026383598460766 0.0025605309309049
1.0035290660670477 1.0024521309860313 0.0032967209626065
1.0031825768065712 1.0023746124582644 0.0026151021386077
1.0033593950217039 1.0024785669089922 0.0012313804209343
1.0034979765838823 1.0022466773500689 -0.0022425833508464
1.0029608660418108 1.0026686434903964 -0.0002453868743191
1.0026799959364199 1.0034574155089178 0.0012852489872212
1.0045403137476716 1.0028166963945613 -0.0025542725265536
1.0028844562104016 1.0028718022999012 0.0001798988923536
1.0035914941733386 1.0023121864516715 -0.0017257356971415
1.0031033772716700 1.0027269737890994 0.0024364403005948
1.0024756716039118 1.0028864056017919 0.0004686834233019
1.0036403459751015 1.0014078573330933 0.0021376743163159
1.0030473144794214 1.0026393055549883 -0.0010633006353529
1.0032326553003230 1.0025910567262335 0.0008770613637099
1.0030636275813534 1.0026621276132002 -0.0004242953567660
1.0035200014186298 1.0024446517968637 -0.0017033357880320
1.0028960773704243 1.0028300855845331 0.0025845418700673
1.0035282441083924 1.0022018869069829 -0.0018129427535332
1.0028900098557885 1.0026922452651201 -0.0000176735647172
1.0029652883562801 1.0031412171193756 -0.0008408780563989
1.0028914563041178 1.0024950250617708 -0.0036830218798234
1.0035234564686084 1.0023708809435374 0.0009167402249741
1.0034869070129599 1.0024798432585618 0.0009729875839109
1.0032307049314690 0.9997834190989631 0.0059534732600892
1.0030258301518038 1.0026326400564063 -0.0007734287141755
1.0035063024110216 1.0023237899144652 -0.0012418718903702
1.0036122563250625 1.0022539161639132 -0.0002848997080082
1.0026936397192050 1.0034796152358136 -0.0022338407351227
1.0029867909741299 1.0023749988698358 -0.0000462733708147
1.0034913731654878 1.0021289001181368 0.0011185409736273
1.0029300927803184 1.0026973040407119 -0.0003532949103999
1.0027206353217704 1.0027604412636164 0.0012970543242488
1.0051796109592757 1.0026491966157980 -0.0103685389639710
1.0037122010567536 1.0022938680494620 0.0005194337827951
1.0032323708355109 1.0026801432143408 0.0000383697618088
1.0034143407127272 1.0034916018166320 -0.0010144042201308
1.0040268422750740 1.0019492563903847 -0.0041551444835538
1.0036570708528130 1.0024741421203640 -0.0003488779405369
1.0036521627962529 1.0015620174383062 0.0001185103402210
1.0029585083260453 1.0027439058650511 -0.0006757085845590
1.0018414601853207 1.0014237726667188 -0.0054118378127828
1.0032800555801362 1.0024502963207167 -0.0019338951492471
1.0029283363584178 1.0026876484034610 -0.0005990796817538
1.0030046621089206 1.0026769927800949 -0.0005279961742113
1.0037773758980975 1.0022905387134626 0.0011224603507075
1.0032143975022800 1.0005169936249738 -0.0043650075766300
1.0035258216170420 1.0018815406058399 -0.0012218129317715
1.0029068234310816 1.0024239558756731 -0.0000597638355273
1.0032439830801521 1.0027067269812791 -0.0003534828544031
1.0030840794918188 1.0029414387350277 0.0000966393926626
1.0036420505587573 1.0013390968584099 0.0028768615740341
1.0032249489121825 1.0028460095405842 -0.0009481308270959
1.0028049311770209 1.0026090961476850 -0.0003641692165704
1.0033666223415068 1.0026798455249173 0.0006259496284950
1.0035996868937336 1.0026461418318888 -0.0003001852631834
1.0036874907154831 1.0022002830492323 0.0001162068094381
1.0037888730297255 1.0012032228139409 0.0012428120364044
1.0035379996137928 1.0026135726141840 -0.0002713058243813
1.0037936279052622 1.0023102880581212 -0.0007539342517937
1.0034618893853224 1.0026436138782615 -0.0005682180501929
1.0038734733150019 1.0027497186229808 -0.0008157016432293
1.0033572659961527 1.0025786289669196 -0.0003781251020142
1.0031565508801623 1.0026185397446106 -0.0005266916403542
1.0032623037163348 1.0026394816431952 -0.0009930160812670
1.0036226407699198 1.0022633592072661 -0.0009802736777149
1.0036440041594079 1.0015051995240176 0.0014936138429306
1.0036834374664525 1.0022802800669233 -0.0018951481231548
1.0038234166405335 1.0023064733304869 0.0018182043842343
1.0032716262208148 1.0027450627295516 -0.0004115766529501
1.0035758977394642 1.0023925118921726 -0.0018051863463267
1.0037187702406840 1.0013710034859191 0.0006272047974586
1.0036225098407854 1.0024430180251309 -0.0018426328955422
1.0036467539720300 1.0023111274530712 0.0000313496728237
1.0036529755261270 1.0024503076394762 0.0019776227199115
1.0029421561159726 1.0029781975696903 -0.0004456673401804
1.0036513313262749 1.0012980165071597 0.0036882898252436
1.0029127963456037 1.0025344899558528 0.0011185780869223
1.0029379336646727 1.0027587528275306 0.0012701231841454
1.0027935654083016 1.0034959848478211 -0.0001939913696460
1.0026395513988566 1.0028036486689313 -0.0006029514523139
1.0035419251696975 1.0027223710841053 -0.0004888225197836
1.0035596822249995 1.0027818363389434 -0.0007740637840688
1.0031073216024253 1.0028976373350411 0.0012687775152330
1.0035200727023961 1.0025174916411244 0.0014890574580420
1.0035115765643672 1.0019973885880633 0.0015755006228610
1.0028610160793403 1.0027670706769023 -0.0013729138897471
1.0030619898268314 1.0029311459102712 -0.0016936420226954
1.0030942368202946 1.0025782829096892 -0.0018555188890482
1.0036518613622620 1.0023930069458586 0.0008519626656922
1.0033532996343002 1.0023320607475326 -0.0014424090988622
1.0038078081182702 1.0011476639630537 0.0022450508037253
1.0033384917259549 1.0024486620587885 -0.0014294561583444
1.0033649304757779 1.0025183735274508 0.0003454293439949
1.0035939450965565 1.0019675459921940 0.0012463689690343
1.0028069608557431 1.0033917178950311 0.0000255589137447
1.0032188285220487 1.0024432181725529 -0.0020670003342320
1.0031038682835909 1.0027496508623748 -0.0000433504007401
1.0034121559128324 1.0024191947475392 0.0006562504103675
1.0032500118480763 1.0026406721267764 0.0012195604184030
1.0030621797932124 1.0027541461028016 0.0013047116160700
1.0032766355393148 1.0026263894113381 0.0001366705880532
1.0031813228800417 1.0028121430979673 -0.0005297690831160
1.0031343479378569 1.0027501341398712 0.0003298841694639
1.0029151208274498 1.0032044142183059 0.0005084011219166
1.0034165454420743 1.0024259859298159 0.0006469327283210
1.0037910366052201 1.0024738901861008 0.0037997074061734
1.0032136413164883 1.0027119186701801 0.0001343939517343
1.0034411989251151 1.0024270816117318 0.0006379434942777
1.0032227373432270 1.0026545316368161 0.0001243836173566
1.0032429060771204 1.0026966775901480 0.0000466016086875
1.0031078521054051 1.0027994975746621 0.0012959973839366
1.0034328912950141 1.0023701077573779 0.0006049479215598
1.0031806044481704 1.0026109456770145 -0.0010498057881707
1.0033285090101534 1.0025417995306656 0.0012080912741501
1.0034948175317737 1.0020910702181207 -0.0014658988875400
1.0030694711307315 1.0027282085448126 -0.0005888728202814
1.0033451299900429 1.0024879039864492 0.0004111308239818
1.0034833780540857 1.0023682620067322 -0.0000598785742540
1.0029788323406315 1.0027438501068928 -0.0006046234206457
1.0033371529489448 1.0025586690790786 0.0004172504728875
1.0028681009501346 1.0027698906452260 -0.0009784736587191
1.0031688965569165 1.0026974381853482 0.0001049967103295
1.0028965034659443 1.0033137551400220 -0.0014685078239613
1.0034047585438364 1.0024308802392452 0.0005543007403202
1.0034109081130769 1.0024314194965851 -0.0009200562219707
1.0033595414903307 1.0025160786888689 -0.0009024262816308
1.0032026730222974 1.0026603959541978 0.0000083688074686
1.0031629003378419 1.0028030508064931 0.0001027762769229
1.0028527278702861 1.0028699051116017 0.0003079644005298
1.0034774800717363 1.0021203688329032 0.0009553825667301
1.0030924177528056 1.0028922374340501 -0.0003856243357473
1.0033051892177638 1.0028021511757621 -0.0009538826615572
1.0031858566999603 1.0027004457115802 0.0003392215217816
1.0032367741290271 1.0026427967384848 0.0003343856521446
1.0030154282263779 1.0030077079805355 -0.0009018320729359
1.0031881231179862 1.0028266464832474 0.0007324013603145
1.0031465878522832 1.0023052569824320 0.0041942069753389
1.0033319987697622 1.0025077672678344 0.0003238193066089
1.0031938424728777 1.0027382512138916 -0.0001920533949535
1.0031931715897995 1.0025580579137376 -0.0004507035319488
1.0035756409326337 1.0017007006582628 0.0025369267780323
1.0030835185807176 1.0028070263224342 -0.0004332354453930
1.0033516577586048 1.0022457695302620 0.0017437286669979
1.0032750510699584 1.0026190875403314 0.0003412227747656
1.0033720415471228 1.0024562766648288 -0.0003582629418467
1.0036154636858454 1.0023989212630366 -0.0005447428163563
1.0030421837700341 1.0031243711559834 -0.0003784205931506
1.0030930177272661 1.0029631010713209 -0.0004289585459958
1.0028777598806822 1.0028465764541199 -0.0005906345748886
1.0030194959881000 1.0027966738928764 0.0006590470779050
1.0035510593485093 1.0025060946967810 -0.0005481472372948
1.0032254476052156 1.0026846224147064 0.0003507064104975
1.0029321151416692 1.0027383243603296 -0.0013821514615724
1.0035679440876968 1.0020773074198626 -0.0002995033128087
1.0034087193439689 1.0024760577257219 0.0009223195041607
1.0035926443885397 1.0019752460493039 0.0009681702463895
1.0035346860798604 1.0024165796830626 -0.0000104985322518
1.0029057824096683 1.0028100508498436 -0.0003993042701989
1.0035459794319643 1.0020805157041004 0.0004680585398816
1.0030216908909280 1.0030820482136513 -0.0011258311590800
1.0028871151805037 1.0032479670117960 -0.0003824092798759
1.0034589664016555 1.0023892675269670 -0.0000091405453794
1.0031791618739110 1.0027742813537008 -0.0000524636528549
1.0032751952712642 1.0025527544654296 -0.0008132081662054
1.0031309013550520 1.0026900219504864 0.0012659550909936
1.0036217894560002 1.0020787040135288 0.0000355840669810
1.0032914796115227 1.0025171052246027 -0.0007689993775960
1.0033976112068723 1.0023064885663342 0.0009657259079461
1.0037594925844835 1.0022857152695854 0.0008679525876205
1.0028177485029923 1.0028392810929365 0.0000767107909950
1.0031937753270486 1.0028001082052758 0.0002716778714816
1.0031338720852889 1.0027300717071592 -0.0013949969614540
1.0035165150169829 1.0022236471270094 -0.0003994973538172
1.0030712959372567 1.0030220055436785 -0.0014637087153325
1.0026874657893949 1.0027362993075382 -0.0016500799651809
1.0031496142531080 1.0029200353464871 -0.0009082863553800
1.0031047973046949 1.0027324541304170 -0.0005401540319385
1.0031784883349861 1.0027174019803109 -0.0005692289627017
1.0032158497383881 1.0026796081333906 0.0006982589434420
1.0030793366178692 1.0026863395319201 -0.0007549903787032
1.0037164605161784 1.0023061385452148 0.0000931863233660
1.0033442706481637 1.0024242930388254 0.0011490222852775
1.0031244196525426 1.0028958622723687 0.0000409470952972
1.0033244793223428 1.0025621559659552 0.0003272902926400
1.0035575628581512 1.0020294368095766 -0.0000041060047572
1.0030542398036928 1.0027579271678844 -0.0003539058275453
1.0035101529349839 1.0023955615493318 0.0005303917237421
1.0034941836574605 1.0023519626292565 0.0002287988309430
1.0034547640302556 1.0024629475784548 -0.0005032705968718
1.0034945348212465 1.0022232887472802 0.0015205833069409
1.0038059111661981 1.0010128546822044 0.0030660227440835
1.0030872422866715 1.0027471778030033 -0.0005835189468561
1.0031152192756816 1.0027590850300432 -0.0001527276562996
1.0032035471522229 1.0027833052172173 -0.0006459880621117
1.0034028403917490 1.0024962660662324 0.0000803723332924
1.0037284793795982 1.0018341873489438 0.0009468534544494
1.0030320011800273 1.0027455360680733 -0.0005756111882528
1.0032301309553431 1.0024611531738550 -0.0015618878682973
1.0034542580836563 1.0023842597627097 -0.0000140012547428
1.0030402241307517 1.0027103785144942 -0.0010404391828905
1.0034746818770175 1.0022161236286080 0.0003918217508747
1.0030632301017441 1.0029617758307225 -0.0006232071861337
1.0032270022919074 1.0025604507737760 0.0007152429378934
1.0030516609333915 1.0026685547666272 -0.0007745731006836
1.0036162918224241 1.0023174179582632 -0.0001538747135933
1.0036655724619690 1.0023579555772453 0.0009830398254642
1.0037151693437099 1.0018485098466474 0.0001551719242026
1.0031928276413811 1.0025887439481158 0.0007772124135749
1.0035314716203778 1.0022991202381542 0.0004099908159072
1.0034095090494302 1.0024687040829250 -0.0007803202088877
1.0034267759569480 1.0024810231448129 0.0003279344644664
1.0031153871979450 1.0026766642060994 -0.0010158962552701
1.0036291958499346 1.0016760291000568 0.0019916162720077
1.0031163881144221 1.0027538541557943 0.0001426311237093
1.0032664648657781 1.0025287526337159 -0.0009283745997528
1.0033928097673173 1.0023522106585576 -0.0001049120591903
1.0033966740691740 1.0024877909185601 -0.0000469355102117
1.0034008091669433 1.0024264095977877 -0.0000468952548942
1.0032859216710848 1.0025781372315836 0.0003256641313164
1.0035033761672081 1.0024820872154026 0.0013854166298190
1.0034348000212308 1.0022870676747828 -0.0008052810971212
1.0034627168806234 1.0022148250974097 0.0005825283109054
1.0035375059305371 1.0019693222863117 -0.0002873016925621
1.0031742940689996 1.0027586092243950 0.0003538700961657
1.0034950931127424 1.0024878632025949 0.0003650742762406
1.0031305944303148 1.0028157085177609 -0.0007254127671656
1.0032240823856957 1.0026204731237580 -0.0009027348722455
1.0033886273068957 1.0025123073585323 -0.0006031263505099
1.0031269937640015 1.0028461040683809 -0.0003179892552603
1.0035921088746091 1.0024555596115183 0.0013309037877072
1.0034616187815153 1.0021125103469752 0.0012003416549453
1.0028927361811857 1.0033694043763650 0.0007456692295320
1.0030214712997796 1.0027536554500440 -0.0008520125321315
1.0031020839654645 1.0028917842793401 -0.0003662981488537
1.0036505954162860 1.0018375444023020 0.0007116679784325
1.0033909184803018 1.0026394378607348 0.0000568567232749
1.0031225099350576 1.0026971472358743 -0.0006944527992529
1.0031003906819580 1.0028523198011283 -0.0004539156441337
1.0035761797200777 1.0024811502133626 -0.0001815607507117
1.0027772718954793 1.0033115668009249 -0.0011459426683894
1.0032518107792827 1.0026539540340742 0.0019005810354180
1.0035001269897514 1.0022829509022959 0.0002263586226320
1.0032588118910493 1.0025626545353068 0.0012730178984569
1.0035873535990032 1.0026771273099793 -0.0007663873094107
1.0035184149463037 1.0021749621335168 -0.0001020969440874
1.0033640526402363 1.0025602486808094 0.0010933235129130
1.0035732509766304 1.0022838483283600 0.0002536013104942
1.0030177199345414 1.0027395333009410 -0.0006787152364378
1.0035289851288933 1.0023808675247581 0.0008127251339960
1.0034343428724350 1.0025272928800006 0.0013973239535337
1.0032244583289691 1.0026960224990225 0.0012614572434879
1.0032842661861041 1.0026046052687920 0.0004931725259611
1.0034676062916930 1.0022148649200995 0.0000663759863953
1.0031674880029164 1.0027173564614991 0.0002167449134043
1.0033821438386445 1.0025068013386154 0.0005563571607697
1.0029040547744992 1.0032534899392860 -0.0004536822039560
1.0035267401200187 1.0025069510579812 0.0014217957073967
1.0034405213366064 1.0025504334596487 0.0002924947131417
1.0032912310052642 1.0025839259677867 0.0004824809628113
1.0037614909975452 1.0014543296318013 0.0009722873312674
1.0026371221345698 1.0028623836137640 -0.0006137228439368
1.0028289127075640 1.0027038183338675 -0.0018518375736132
1.0032329453259512 1.0026586914283100 -0.0007260241546009
1.0035291692340544 1.0023460085790870 0.0005146266462929
1.0036245728815825 1.0021422051072562 0.0001016551860266
1.0029414150450999 1.0031833771914198 -0.0001923649175851
1.0026810212327233 1.0037948958187473 -0.0001190276234116
1.0033337704222349 1.0025488957841631 -0.0004508747453160
1.0031961524064956 1.0026495089457514 -0.0006143711049730
1.0030956198879935 1.0029900673691996 0.0001518008286435
1.0030492907161002 1.0029654190075690 -0.0001442200329199
1.0030041473865272 1.0030842043907173 0.0011544431667198
1.0032808302812677 1.0025675170286252 0.0003084982167717
1.0030734141892457 1.0027895139243055 -0.0003418525787408
1.0030939907851373 1.0029851137888754 -0.0000550086247277
1.0033807131996419 1.0025701479981384 0.0000166897224397
1.0034491078470704 1.0028627597467066 -0.0006772330474509
1.0035311212065239 1.0022449898583778 0.0004177071782396
1.0035145928541673 1.0025829402646407 0.0029543753924825
1.0028741990928947 1.0028093234118005 -0.0006937091247123
1.0032401693187338 1.0025312376557840 -0.0005375173070313
1.0031479306652709 1.0027579608714958 -0.0019930069483741
1.0031385593968138 1.0028448944601649 -0.0000976963045104
1.0030869263476179 1.0027874017944416 -0.0004147780450044
1.0030655269851090 1.0027551077837349 -0.0004603860741446
1.0036029146795837 1.0018709963419663 0.0004077266122959
1.0035987910914985 1.0023323755965281 0.0003556181708809
1.0034282324393147 1.0025457155843291 -0.0009908169766248
1.0029373166552169 1.0025559950540512 -0.0001530796302067
1.0039255355407561 1.0021841101441558 -0.0009994640602150
1.0033248862370368 1.0025991496190449 0.0006942404188034
1.0036226756841318 1.0024397700698755 0.0014978074089106
1.0039529833448915 1.0013600749120595 0.0004907988297414
1.0028190404254997 1.0028518266821671 0.0007182189816731
1.0034802104003557 1.0024651920112400 0.0009052703650212
1.0035329556347850 1.0023389609292361 0.0002996619085936
1.0030224601543072 1.0027198147714955 -0.0010801790313975
1.0034280402510447 1.0024118206883459 0.0004910265678790
1.0030089876085733 1.0030757630239637 -0.0011954897370704
1.0035646958092199 1.0018829103800238 0.0026803681937029
1.0034810619142871 1.0024326733068951 0.0003640866103172
1.0032074073067760 1.0026735374157163 0.0002619538564928
1.0034043559583996 1.0026709618689911 -0.0004818175878895
1.0032357979117728 1.0026911921518218 -0.0003396783998176
1.0036142423472776 1.0016559966124590 0.0016159905122123
1.0032710735964538 1.0026390110231662 0.0019038195692445
1.0032063495018047 1.0027520358599060 -0.0002737016194769
1.0031167708392486 1.0026102907813133 0.0024998819417196
1.0028495389552257 1.0033630052906344 -0.0012974903579022
1.0027365850319729 1.0034539863320358 -0.0003735841003110
1.0031125939430905 1.0028033171806825 -0.0005066211223271
1.0031035316715446 1.0027934137780397 -0.0003562804788954
1.0035780474928035 1.0024675646712427 0.0012105210509874
1.0030580942761300 1.0027711947168025 -0.0002029787318066
1.0033832829965725 1.0022907342710572 -0.0016761152149647
1.0030121121225861 1.0027429298985879 -0.0005028507082614
1.0034399832288523 1.0024296703386655 0.0000075179552904
1.0035354167515609 1.0021316814123795 0.0003219031332268
1.0027866121925493 1.0028899331592036 0.0000214923541075
1.0030335267972563 1.0030058055225759 -0.0021864518225563
1.0031774429749669 1.0026146141396102 -0.0003574337841855
1.0030794643019862 1.0027592359572834 -0.0001767491594650
1.0034736979082928 1.0022639110097948 -0.0011249262959912
1.0032111685002918 1.0026383066690727 -0.0002682160404018
1.0035671411672880 1.0023409089405393 0.0001265901418850
1.0031713481395426 1.0027115707168881 -0.0004974567292573
1.0034073360773690 1.0024062484162801 0.0005525531814216
1.0033816473195469 1.0024786608116425 -0.0004629075545003
1.0032057092503242 1.0026286639534452 -0.0007594822779598
1.0034419466608033 1.0025024706984296 0.0010460715912543
1.0035939059765873 1.0025458912186840 0.0025379811132375
1.0030012170571940 1.0026458502893432 -0.0005288159313262
1.0033790471208734 1.0025101395618166 0.0004391257506337
1.0035742851971743 1.0019722061004708 0.0001608368231009
1.0031311869171748 1.0027291131748297 0.0000496403712657
1.0030540078834469 1.0028969223929238 -0.0001858363850166
1.0034578080205196 1.0024349874863590 0.0002339766490184
1.0034653269522567 1.0021625940848571 -0.0004844862917980
1.0028836204396367 1.0032840445732918 0.0001175973695198
1.0034276440973906 1.0027125048508800 -0.0000919816035944
1.0036142978945732 1.0023363253840092 0.0006493852270875
1.0034169107334863 1.0027869753637086 -0.0008049463111826
1.0031302062315344 1.0027732815868793 -0.0003146865392739
1.0028382294915841 1.0033390883601963 0.0002747747224863
1.0034609071177893 1.0026324863425375 -0.0008614870883698
1.0030647212171593 1.0029326805561669 -0.0005005174336261
1.0034192223048197 1.0023833676908280 -0.0009297789714358
1.0028262772968091 1.0027173655937258 -0.0016348883973938
1.0030786892387185 1.0029189593572523 -0.0003707821657555
1.0028019993273141 1.0028327401710231 0.0004287162597062
1.0034371269859648 1.0023813098525527 0.0005451073173587
1.0036404020838248 1.0021650584867692 -0.0011532643560589
1.0034281255506852 1.0022214108276224 0.0006254020426084
1.0033488421758729 1.0027422795693337 0.0035029449561017
1.0030623705768351 1.0027959711831658 -0.0005131658398990
1.0030585909412824 1.0029473782591392 0.0006809057180279
1.0030495371806212 1.0029784212836492 -0.0002135001068319
1.0036685827590250 1.0022958656853282 0.0000928567613901
1.0035460379252148 1.0023421527294787 0.0004339038866439
1.0035599795023251 1.0023884372677148 -0.0007770322487672
1.0031337481963276 1.0028270185855510 -0.0003363112599525
1.0031227087296348 1.0028391049678285 0.0003406715154689
1.0030156063957567 1.0025482639876286 -0.0020924862575643
1.0031491569040984 1.0026279508119751 -0.0009516290337113
1.0031443446383481 1.0027272114335060 -0.0000934999791142
1.0032963711005718 1.0025120733605410 0.0006223148948860
1.0033195611063606 1.0025339223007825 0.0002245017805113
1.0034599731171734 1.0024515014219486 0.0005570053919669
1.0034120282529435 1.0022980245284248 0.0000885125749476
1.0032939440345534 1.0026279448703550 0.0006935980535532
1.0034648600733147 1.0023516664400751 -0.0006429943339362
1.0030445205580083 1.0029603991217924 -0.0003957207771765
1.0035942501820272 1.0020327388162051 0.0002050064086566
1.0032062760650708 1.0026835715213056 0.0004763751593566
1.0032135649603944 1.0025912765775808 -0.0004238022209427
1.0035722119580675 1.0018594633340270 -0.0013419540609237
1.0035005400072612 1.0023267724564837 0.0003404404175553
1.0033534566012237 1.0024440698932655 0.0009488038602143
1.0036138544980131 1.0017952473128207 0.0007206387293872
1.0031486155442957 1.0028946545662309 0.0002299377141487
1.0034342392314348 1.0025899121788189 -0.0010081256357345
1.0028882707676052 1.0029008480437180 -0.0009736616177217
1.0030948640449131 1.0028053180437713 -0.0003790152935547
1.0029889777934899 1.0027674736478978 0.0005553375864968
1.0035218135005297 1.0022071776287984 0.0004615357070166
1.0035122842024653 1.0023509729906612 0.0005297829216447
1.0033978791012390 1.0023324533757330 -0.0005975014135494
1.0030417145406665 1.0029642702347741 0.0006623582144259
1.0034097858215461 1.0018160825013467 0.0033301317084505
1.0034351037890414 1.0023619801876527 0.0007056883320358
1.0035032352359927 1.0024900175858404 0.0008675726545560
1.0030375044872539 1.0026749279831624 -0.0013245518089982
1.0030588379018175 1.0027603109201730 -0.0001358767148551
1.0030642533667458 1.0027564738173722 0.0002857378567933
1.0031531651586327 1.0027079555536440 -0.0000399553590021
1.0030620653100746 1.0029492633465515 -0.0004789969945121
1.0028469706007375 1.0033257243798783 -0.0007984362817139
1.0028936361195149 1.0027364863249673 -0.0013878920537851
1.0034610086920099 1.0023001837547185 -0.0000014736188026
1.0036427717414833 1.0018191879495348 0.0009203601101758
1.0034337209734723 1.0022459295508408 0.0001262020441116
1.0029084051744026 1.0028252506399433 0.0016407595940368
1.0036717677372435 1.0023523036882980 0.0003452646598059
1.0034852264645346 1.0021033950448643 0.0014695623855545
1.0032604056363343 1.0024873636103375 0.0006946319301599
1.0036419156277836 1.0023648572067039 0.0005859890146496
1.0034227663810398 1.0023317327592396 0.0000265900562719
1.0029670843829352 1.0027094255722633 -0.0009890169666190
1.0032512697798130 1.0026028369678812 0.0000427414570446
1.0032970548689415 1.0025425352070250 -0.0008146035709046
1.0032131721084749 1.0025360596155783 0.0000230117342023
1.0028740318430598 1.0028521060051234 -0.0004531585171241
1.0035431215072255 1.0020524258606829 0.0006530831719878
1.0037919827538702 1.0023017010135020 0.0014171634919763
1.0033268949103793 1.0024895027782237 -0.0012016396879403
1.0035478830087861 1.0023012409235839 0.0002705520349764
1.0033417680932961 1.0024330838074045 -0.0014578306819444
1.0033856588380514 1.0024282987640043 0.0004370705935012
1.0035906525766494 1.0023387527077123 0.0001721024229029
1.0036074285719416 1.0023458937344678 0.0000284658560939
1.0034451527159687 1.0022493618013570 -0.0003046185398481
1.0030669494789677 1.0030640353111850 -0.0001923616172864
1.0034536545735040 1.0023583631251167 -0.0003042315476165
1.0034136311762598 1.0025700694349595 0.0016566229795801
1.0024150998454033 1.0041417115616766 0.0017181330349886
1.0033491819619564 1.0024519454924965 -0.0006600095460329
1.0030630633456625 1.0027252956298487 -0.0005921175899889
1.0034984051375824 1.0023244999567127 0.0003788642443929
1.0035720861907984 1.0023616849492061 0.0002161807024141
1.0035106103366105 1.0021868806462348 0.0002923874380451
1.0029810520294669 1.0031168192128235 -0.0009479850587572
1.0030809226704076 1.0028718092868714 -0.0002164079300715
1.0034585876230246 1.0020600051574640 0.0032109578410196
1.0031116816103791 1.0028544002932807 0.0003166009648857
1.0028583741842407 1.0033118618179950 -0.0010971499397206
1.0034548875734293 1.0024534559429163 0.0002157262016567
1.0035481053512949 1.0024314492743620 0.0011079453210482
1.0030306739363457 1.0027960137129612 -0.0005228843581188
1.0031451338870849 1.0028380118597195 -0.0000414460796358
1.0034762291586055 1.0021579433614796 0.0007474492487563
1.0035417072442634 1.0025264560131906 0.0025926851408844
1.0030582063257394 1.0029457381106510 -0.0007712527642036
1.0031241328597535 1.0027099163366815 0.0020698487648659
1.0035460326370500 1.0023562515962212 0.0006079579832709
1.0021309311765814 1.0030268370903446 0.0010129888785323
1.0031032828051316 1.0025218126741464 -0.0003282961318258
1.0033860862390866 1.0024755973120365 0.0005772592932180
1.0031171631526286 1.0028192391787618 -0.0000132414036327
1.0032624054490737 1.0025756883141148 -0.0007916170976403
1.0030840803760541 1.0029765070960368 -0.0002417393078068
1.0036798806995082 1.0015399919942229 0.0004353285547739
1.0027441079253829 1.0028964203694009 -0.0003231286683613
1.0031644482554785 1.0028271649172578 -0.0005398761156834
1.0035412789767950 1.0020167612121507 0.0007137544438534
1.0030395934403591 1.0031322214507592 0.0002842298235141
1.0034024896550020 1.0023274035197136 0.0001259598551000
1.0035365889647467 1.0023416000855732 -0.0007141427268377
1.0039802757128857 1.0011656936690398 0.0011742647048354
1.0033628787106277 1.0024397979332855 -0.0000587971016281
1.0030864912497544 1.0029506300397739 -0.0008031249958878
1.0030144718421197 1.0029059577814778 0.0017339731697824
1.0035536073362787 1.0022585568654843 -0.0007478995323256
1.0033700657302789 1.0024798872744265 -0.0001965866915675
1.0033746290247196 1.0024884874425288 0.0002580615545637
1.0036511877915870 1.0019995653820712 0.0007111366080662
1.0034913260444194 1.0023337030195962 0.0003103367626191
1.0036774585065220 1.0022350801379620 -0.0004320698790108
1.0035831632378962 1.0023910649020589 -0.0007642820997882
1.0035224692655516 1.0020559077541087 0.0008675262891403
1.0028847147883924 1.0030641391229698 -0.0005623279242207
1.0032543097847657 1.0025773315105373 0.0007599395489356
1.0031843870389201 1.0028480423427260 0.0004970330041378
1.0031028613288029 1.0028302859944775 -0.0004638751531824
1.0040109158876680 1.0025702411188202 -0.0001357056480281
1.0035655945868103 1.0021041174196006 0.0011036197593801
1.0038480554726179 1.0010807366783905 0.0037161366702349
1.0031671243844185 1.0028164940036870 -0.0009860516123515
1.0038478998325686 1.0010392306373241 0.0011078397433841
1.0035133395307176 1.0024616139905791 -0.0004243929898499
1.0030581147399606 1.0028890245289939 -0.0001926996780336
1.0040300121646686 1.0021824444871226 0.0009465118461116
1.0033432080878613 1.0024352834735653 -0.0012644879074075
1.0034269284994561 1.0025003874166638 0.0009439943655819
1.0036322556399064 1.0024347134194944 0.0007480963601226
1.0035103063926667 1.0024549125151321 0.0007204428103699
1.0029982252292247 1.0027315800243199 -0.0011300281129613
1.0033752297376386 1.0021795454086000 0.0020038474959419
1.0031466810701739 1.0029008190879591 -0.0014611335923423
1.0033909187738583 1.0026653577522802 0.0033182372737149
1.0030568165557061 1.0027547819479026 -0.0007437365411981
1.0032829090138953 1.0025390347168621 -0.0012415750614255
1.0028499019498858 1.0028330009675948 -0.0007399587794714
1.0036026149379549 1.0023933898877748 0.0002027563039320
1.0032325661091455 1.0026780803791484 -0.0005535304535229
1.0033335951535696 1.0025032599053734 0.0007218463400187
1.0033370537509285 1.0025263432339668 0.0004539320257420
1.0031006311251678 1.0028317201984289 -0.0004550153270942
1.0031928765489360 1.0024727162508626 -0.0003375166802806
1.0034863696721417 1.0022778704171196 0.0006188375844312
1.0029055951766992 1.0028602971472489 -0.0002123176248895
1.0030828416043909 1.0029238852891016 -0.0004471394761396
1.0028892477708560 1.0027843438807560 -0.0015803538827133
1.0030219716242639 1.0027217411752289 -0.0008356412718319
1.0036225880124923 1.0019297487995982 -0.0001155313734193
1.0035730039121085 1.0020569483017823 0.0006856010875426
1.0036008827845775 1.0023801993619079 -0.0000476418223230
1.0033821033078771 1.0024684580882777 0.0005996384861373
1.0031082484532781 1.0029134203006473 -0.0001594149415445
1.0031032421292103 1.0028018232304901 -0.0002409101114455
1.0035581678766141 1.0019578315161308 0.0003985260393031
1.0033198228135716 1.0025278051722464 0.0000713855336923
1.0036537592388604 1.0024224818824667 0.0002582158383996
1.0036276071408410 1.0019314156071231 0.0004239771560105
1.0033650331229154 1.0024760926793130 0.0002781118615018
1.0036795023435992 1.0015290374856265 -0.0008037590988859
1.0035169220973494 1.0023370390875033 0.0003475132782660
1.0029848295988855 1.0031358275949331 -0.0018096023480304
1.0034100578913723 1.0023575682727943 0.0003828102819272
1.0033654711420776 1.0025222226887021 0.0001209890231744
1.0032836015041691 1.0025381218357037 -0.0004282600845961
1.0033865744241470 1.0024670676721061 0.0006679275913525
1.0033973603327575 1.0023323917476616 0.0009381266072281
1.0033052554446207 1.0025817237547323 -0.0000092592511990
1.0030228234150884 1.0027642060829858 -0.0002593337344651
1.0036306758947864 1.0017845573592337 -0.0005906842880207
1.0031541602578451 1.0026394649008488 0.0022024908665403
1.0034409498819661 1.0024109501060348 0.0006561728259591
1.0037173390255407 1.0026652298491667 -0.0002367961851480
1.0029966160484187 1.0027771523091278 0.0000390657818551
1.0030536527599700 1.0027454505391014 0.0001784987898547
1.0034982782548396 1.0022247471547641 -0.0008746671445025
1.0037272804528161 1.0012930103683562 0.0012279249634218
1.0033085397109198 1.0025664853391529 -0.0000340327017490
1.0034025072231691 1.0024832393346872 0.0000586757376699
1.0027912082961856 1.0034318506894089 0.0006973218989431
1.0034827913590252 1.0022315319162460 -0.0009055222229711
1.0031247798953820 1.0027679338374405 -0.0005698337110946
1.0038587921502589 1.0022078617370711 0.0025093512821925
1.0027436977178479 1.0029311079553889 0.0005835979675897
1.0029807997263849 1.0030313466558454 0.0012367579371652
1.0034231643091465 1.0024222553720932 0.0002287199030334
1.0027461256979688 1.0029031608606951 -0.0003202123190287
1.0029588334711013 1.0028090723087568 0.0003691182195584
1.0033353319169540 1.0023933174041022 0.0010960356613250
1.0031859920037269 1.0031531195947461 -0.0004966974930449
1.0032053382156367 1.0027200361383874 -0.0003683704204003
1.0031154349829887 1.0028500640286715 -0.0003461788964786
1.0034975008360436 1.0022950544014824 0.0007658471071878
1.0038171672526415 1.0025154949460793 -0.0016957002054072
1.0030226559725413 1.0030088420270620 0.0002291458718852
1.0033840786850581 1.0024830385155858 0.0005889173005545
1.0030755423140032 1.0027352821555833 0.0002655460744875
1.0029688195353728 1.0027827923815245 0.0025150612545768
1.0031531896493409 1.0026157117182126 0.0001279819629698
1.0035465446479128 1.0023545885192382 0.0000343871861884
1.0034053433145393 1.0024824446513876 0.0009406251825406
1.0028531060818664 1.0028545682444980 -0.0001153740669663
1.0030566052170251 1.0028417453146941 -0.0000162000271257
1.0027265458576402 1.0028675302244101 0.0015561312394223
1.0032122593367216 1.0026154071413087 0.0012681823261503
1.0029938810025019 1.0028611538294119 -0.0002087539607149
1.0033095855935330 1.0025469268204972 -0.0008076684693600
1.0036175092222821 1.0021262441481806 -0.0014388972462415
1.0036182949875909 1.0018779099095183 -0.0006424101570569
1.0038782315318791 1.0011059412733794 0.0023198747871117
1.0034865108700002 1.0023627295457305 0.0005308814356032
1.0037647329252346 1.0010454279897762 0.0024547909780490
1.0031547252639839 1.0026490897671252 -0.0004124289283098
1.0031571238279005 1.0027199025666360 0.0008119850042396
1.0034842948233447 1.0024362075615514 0.0008896767327966
1.0032297240820391 1.0027466539542560 -0.0012551920875886
1.0031843088390413 1.0028484578910128 -0.0010878269182995
1.0036609128538490 1.0017575903877616 0.0010701084085935
1.0030333159427376 1.0030123605103982 -0.0014782055225307
1.0034192142697294 1.0023693766338000 0.0007712350114385
1.0029857250322960 1.0029465510145588 -0.0018872353048232
1.0035350891975809 1.0020511389014453 0.0011824380038814
1.0034973408533698 1.0023804464930794 -0.0000467451863562
1.0034429170064290 1.0024293299160383 -0.0004651688568081
1.0032664798960138 1.0025012742128017 -0.0012050949468200
1.0034514568454855 1.0023408163764334 -0.0004700605611953
1.0030932392077050 1.0028833952168998 -0.0000564853840028
1.0030252688444692 1.0030959921204530 -0.0006764830189420
1.0029842434161611 1.0031606181007506 -0.0001562829160154
1.0032490655747930 1.0025394677594510 -0.0015935675009238
1.0035044452660673 1.0024297596408303 -0.0019737697450070
1.0035284215557709 1.0026131413096040 0.0030539951958714
1.0034183795675324 1.0023711790221361 0.0004787497011365
1.0027080558015722 1.0028462509255067 0.0007514130248185
1.0036073785009714 1.0025716065892887 -0.0010370762859177
1.0029396650141211 1.0032260089302900 -0.0003843729554065
1.0035455029609606 1.0023520319185102 -0.0007868253230530
1.0030198683571387 1.0031537008125433 -0.0008878031161504
1.0033272419387798 1.0025346317581572 -0.0004085230715226
1.0029330810355452 1.0028381456459314 0.0005215486710189
1.0035453301201802 1.0016780661781022 0.0018702110014803
1.0030992875149878 1.0029052032286496 0.0019545339619668
1.0036562112428309 1.0015422120673896 0.0006655583332732
1.0034885482005478 1.0020826369271520 0.0004788729454349
1.0028107690149386 1.0028564532953521 -0.0004021778351367
1.0030306738456354 1.0029590589648230 -0.0002437943324045
1.0031052006180798 1.0025959661276851 -0.0013417647995133
1.0028364835592378 1.0033094241781286 0.0010551256522312
1.0030094964372887 1.0027578136121305 -0.0008579201584420
1.0030328799234163 1.0028813106838330 -0.0002258552963656
1.0030407176935934 1.0027450508300566 0.0007034519516901
1.0036067539612430 1.0023827941714778 0.0008836548698859
1.0034581615608902 1.0021832483624640 0.0004449743449979
1.0034397138683324 1.0025193302386242 0.0008422785971164
1.0035497235659814 1.0020625527073614 -0.0008145203354723
1.0034354980349010 1.0024552983579937 0.0000955459501759
1.0031904660085762 1.0027459165252832 -0.0003431622792264
1.0023327439760832 1.0045391596392144 0.0009425927891116
1.0035685754839474 1.0020964266704733 0.0004995421315921
1.0032672899000488 1.0025911245828685 -0.0000232010587325
1.0030311589254639 1.0028593822885170 -0.0002887443607438
1.0030647610699572 1.0029380038307407 0.0002598844403783
1.0030060229263917 1.0030591033903264 0.0001236692796671
1.0035961009666166 1.0025005237174418 0.0023935472641759
1.0030518335293039 1.0029586919435425 -0.0006427545887923
1.0031054674969015 1.0028759085143728 -0.0002972479971492
1.0038891775477421 1.0020875067849091 -0.0000131006924134
1.0027436826019773 1.0028110681782942 -0.0017818691572331
1.0030049803861256 1.0026338743636729 -0.0011641487764774
1.0031417344318505 1.0028327860502413 -0.0003828008095678
1.0030826307524094 1.0027751041483184 -0.0003596379482468
1.0034426057397097 1.0023341051534744 0.0006473379337417
1.0033765645333852 1.0024591099865989 -0.0008192060463164
1.0036613064166473 1.0025060261156473 0.0022190418986585
1.0036250282251937 1.0023562071751591 0.0007150097023681
1.0032866560815350 1.0026401370134324 0.0018253633753423
1.0039054391491062 1.0011744804275473 0.0027916835712043
1.0034437448041111 1.0023080181875548 0.0004743578474820
1.0031943595034827 1.0026361022376840 -0.0002968755132418
1.0031218407287905 1.0027907541492018 -0.0003507698769060
1.0035246221040146 1.0023608325594331 -0.0000373640876530
1.0036141874075046 1.0017283251575511 0.0011327277107133
1.0030324192117457 1.0026863771327874 -0.0011186780789918
1.0032433221653427 1.0026317056427707 0.0007311535106013
1.0037829777295191 1.0008936209149573 0.0040207127424778
1.0034057734721351 1.0024449422697199 0.0005993749295476
1.0035612222717984 1.0023476641015652 -0.0003217650138645
1.0033663146941951 1.0025303054040446 0.0010232222812355
1.0033166887316809 1.0025367414507518 -0.0001715036590478
1.0030174993913983 1.0031005043716197 -0.0008895105060724
1.0031939528205267 1.0026916559383707 0.0021192427009802
1.0033373647151405 1.0023539797311518 -0.0009480355966566
1.0037663055582757 1.0023686897337518 0.0022795397276408
1.0030663625269904 1.0025873566578645 -0.0016775110737053
1.0034153096876939 1.0024211560426426 0.0002439548241743
1.0027289310282193 1.0028796286722459 0.0003867016953416
1.0021336479678289 1.0029298325234057 0.0007019927311126
1.0030673916746475 1.0026752560701182 -0.0005957642788177
1.0030161681022951 1.0028618606632780 -0.0001119410054073
1.0035240177702140 1.0023073894432279 0.0003905730897356
1.0029967775522490 1.0030557698615763 -0.0001848030576259
1.0032679682439705 1.0026987645355270 0.0011096031185288
1.0037171365754260 1.0022846215146641 0.0004297915594025
1.0027847932409357 1.0028730953292522 0.0009901671580392
1.0031313963885244 1.0028336998240148 -0.0005911036900568
1.0020572054943147 1.0029853953720560 0.0000177763908574
1.0028935209430521 1.0026969605463409 -0.0005846306895944
1.0030161115155827 1.0025601282237528 -0.0023137159574805
1.0028535993046750 1.0028102196247508 0.0045887163002368
1.0029870095238764 1.0026902985174417 -0.0004477694564188
1.0033454144651845 1.0025756410309707 0.0006578561729581
1.0035741670756679 1.0018145186391194 0.0009969446710859
1.0030320600470695 1.0029643004542932 -0.0002350780757442
1.0034310004412113 1.0022630055108523 0.0010982612794861
1.0029245408059713 1.0028071778010057 0.0009746825541169
1.0035923264802149 1.0023125850394539 -0.0014147564263027
1.0035943483156111 1.0016182459114893 0.0019477875015858
1.0029180863067129 1.0029612114094972 -0.0004661202106872
1.0029571011744545 1.0026509186451222 -0.0005029844022025
1.0029899367663735 1.0030611076957940 -0.0002271921218629
1.0031143868916363 1.0028891605046499 -0.0003663345536584
1.0033894309874662 1.0022575967897458 0.0010004553807786
1.0033356621019411 1.0024947603062566 -0.0006396030528862
1.0030494785818627 1.0029474518642953 -0.0000162606956915
1.0030768354068706 1.0028891120741010 -0.0002460628657144
1.0030832904601057 1.0027911822176656 0.0002969350392423
1.0031089717887520 1.0028538536231022 0.0007134525388236
1.0033022382785224 1.0025156787148695 0.0010413772626210
1.0035174623566803 1.0023715035581056 -0.0002070229003714
1.0034615965148577 1.0024158396982696 0.0006177619248335
1.0036553751226380 1.0017000014971165 0.0014985418303206
1.0033008301235848 1.0023810769600103 0.0020143667235915
1.0033517402574943 1.0024713035223358 -0.0013849320435015
1.0034589756350030 1.0023856168228527 0.0004612257254382
1.0034856156236465 1.0022053686925891 -0.0001354501590826
1.0032869894162173 1.0026221548897474 0.0004003947829474
1.0030394984553714 1.0029351519220868 -0.0001952813365811
1.0036336677769293 1.0019694047149643 -0.0000719366190919
1.0036287351528785 1.0018669576578647 -0.0000825617645309
1.0035692066028705 1.0015757421848785 0.0025583694532486
1.0031368011950135 1.0027822266873352 -0.0002554997052056
1.0035527654366618 1.0021364650274525 0.0000508153270281
1.0034562902986213 1.0023357180504142 -0.0000896657163992
1.0031864609185561 1.0025871319197457 0.0001716771909176
1.0031991955596986 1.0028110434981872 0.0040274759149122
1.0027971406506526 1.0028986124747878 -0.0000169802314330
1.0031806570051391 1.0018156281649251 0.0001578052121835
1.0034061777183989 1.0024901838057818 0.0009006540197716
1.0029968538305059 1.0031119711641854 -0.0004856946416788
1.0032647423211274 1.0026395046294960 0.0015526374714258
1.0031299434971515 1.0029091609204559 -0.0010132407918133
1.0036231262703816 1.0017607888288536 0.0023893664699861
1.0030201883595455 1.0031240089827835 0.0009845695020163
1.0036224876507069 1.0017941837144859 0.0021707478954806
1.0034728346812072 1.0024453254648411 0.0007920266674489
1.0034342395081166 1.0023930850657907 0.0006438033074151
1.0031207118704626 1.0027628902220507 -0.0014123830988051
1.0030391369492446 1.0030365801663517 -0.0013747433113131
1.0033621143797349 1.0023880304216846 -0.0016480996219752
1.0034916805288168 1.0023112317670688 0.0003935113019581
1.0030753628856059 1.0028926521482018 -0.0000156848893138
1.0031452291850174 1.0028007434463515 -0.0000113550620530
1.0031126325964272 1.0029257534334608 -0.0007367147362873
1.0038361979209767 1.0023056541958293 0.0012137096530755
1.0032314098353381 1.0024346113577096 -0.0021780580329632
1.0029217655269629 1.0028772545707227 -0.0004057889369023
1.0034595711306507 1.0023840005628986 0.0003288049978291
1.0032938916108365 1.0025661231030334 -0.0003217130982510
1.0029469198330199 1.0027990385637595 -0.0001529348935351
1.0030745164906081 1.0027209163143791 0.0006797719844747
1.0033364240112370 1.0024766622581531 -0.0006469355725899
1.0031152241093060 1.0028810575597540 0.0012468178028170
1.0032965848347477 1.0026308438063911 0.0021940200312886
1.0036038038518338 1.0022469254108819 -0.0014420592746918
1.0037126381180144 1.0023683030432884 0.0011124211423897
1.0033624781350752 1.0023515130411664 -0.0012906137011221
1.0039211440021347 1.0023644539500678 0.0020733252207441
1.0031457777311674 1.0027940683984515 -0.0006590964714427
1.0034431763236098 1.0023198215705793 0.0005443791521418
1.0031678156775312 1.0027578585765333 0.0007619965835512
1.0034382126688224 1.0024284557485068 0.0006910655710184
1.0027760893140045 1.0036072377223513 0.0003777275299338
1.0034249321351507 1.0024569552293197 0.0007488535507344
1.0031544908532732 1.0027419085421709 0.0013439975787796
1.0035097125705270 1.0023471453841437 0.0002093662475470
1.0031976724741321 1.0026569539891816 0.0003397817312653
1.0030957335603921 1.0029437407331565 -0.0006246291698540
1.0036609978942648 1.0017207266699260 0.0018205290732470
1.0033691893696342 1.0022254964459378 -0.0022743223417653
1.0035846313550973 1.0022931628489451 0.0003236947721822
1.0033929028638626 1.0025756197755158 0.0009623425223010
1.0030326115502615 1.0029607273926504 0.0013346452130813
1.0032605659629770 1.0026328503517132 0.0006978722643939
1.0035005851311523 1.0022778144389899 0.0003845505764382
1.0034582803585301 1.0023687149075928 0.0005323251052893
1.0032479095737978 1.0026593549336467 -0.0010202348915091
1.0033457935197352 1.0025524415640197 -0.0006411008035754
1.0030193493234363 1.0026948060909158 -0.0005847850608184
1.0037073353540218 1.0023551842475207 -0.0019941003959504
1.0034590429263057 1.0022782441759541 0.0006396289695613
1.0028897967900670 1.0026072878412686 -0.0011217408988313
1.0029507276492353 1.0024704616325999 -0.0016444459173696
1.0036036794909786 1.0023412653056365 -0.0000627010952318
1.0037253777982300 1.0022792988846092 0.0005757560628993
1.0035730398616796 1.0024035448491007 0.0017236722266951
1.0034690474517480 1.0023170163111825 -0.0016205157509719
1.0032930778058406 1.0024883276488206 0.0005545574770229
1.0034654172901400 1.0022734275964458 0.0006289503623634
1.0033980049639002 1.0023997913893605 -0.0000782153808644
1.0032051678499425 1.0026155557932064 -0.0016902268671843
1.0034347721756756 1.0024214416598978 0.0004674703933890
1.0030403704585773 1.0026470590182128 -0.0005340768946864
1.0036266309878812 1.0023335059533522 0.0003735353543693
1.0033624309624818 1.0026679581250815 -0.0004852980816918
1.0033854230540182 1.0025416031332208 -0.0010068743906463
1.0030561452655908 1.0028287504900870 -0.0010305006387505
1.0032907357811129 1.0025649176812259 0.0007320010814487
1.0033288148509700 1.0025641162374284 -0.0006436942795181
1.0029506959273953 1.0028088006241374 -0.0003512834997461
1.0036287081017659 1.0022965464433682 -0.0007525048989819
1.0036639401700465 1.0023898481424343 0.0013923267737680
1.0029276564176310 1.0028166836777284 0.0012098506124905
1.0034131767628618 1.0024764361476461 0.0004750510526224
1.0036959559907130 1.0009715826682535 0.0033956003617701
1.0031601988270848 1.0028004696301382 -0.0009952919962140
1.0029888066250234 1.0027974247237712 -0.0006727084709461
1.0031830465212956 1.0027395876340857 -0.0006345766954447
1.0036427318808263 1.0023835856870789 0.0004762814465595
1.0029944227051197 1.0027896548240207 -0.0004793931384995
1.0032901562669638 1.0026337716717832 0.0000775982955417
1.0028053184892669 1.0032967649524032 0.0007998497441615
1.0032638849381399 1.0029185856547951 -0.0009163118842986
1.0038064464174594 1.0012478978883206 0.0004879809423891
1.0030830237674599 1.0027310904779518 -0.0005349972607206
1.0029064928872398 1.0031880570359031 0.0004122997707747
1.0031374001784228 1.0027487258596817 -0.0002911157667118
1.0030392616191379 1.0029604592771912 -0.0000505436209436
1.0030988715608546 1.0027958044851528 -0.0002825348225388
1.0031229838318074 1.0028244824643291 0.0003341755857319
1.0030145022513686 1.0027623147625799 0.0001459931807372
1.0031140909365890 1.0026389590750209 -0.0009476247953952
1.0031848450608014 1.0028299779171777 -0.0012376636256577
1.0034657446752693 1.0024031271269904 -0.0008353661685708
1.0036768483393266 1.0024576623795907 0.0016939439175800
1.0032591482427158 1.0025013673598160 0.0012013621107001
1.0034793434592704 1.0020998672216828 0.0010968202396741
1.0037162879738306 1.0023575502598709 0.0002092579144329
1.0036012200632070 1.0017599266072130 0.0010909770111916
1.0035115505237384 1.0023412912199878 0.0002729626418206
1.0033609784633530 1.0025382325818131 0.0010285466952384
1.0028819825666710 1.0028213419068743 -0.0008595307439359
1.0035208268609788 1.0019593938695215 -0.0000387113544025
1.0031409608845347 1.0027260600720287 -0.0006409925838751
1.0029572727813629 1.0027477599507733 -0.0007043277560127
1.0033376095846855 1.0025787262252017 0.0001134881274585
1.0034398938992928 1.0024569216855985 0.0005328474842933
1.0033228956574247 1.0025323190000455 -0.0004278230689451
1.0029493158207339 1.0028479486056414 0.0012709290977779
1.0029773803012501 1.0027586970514997 -0.0008943337726311
1.0036052310858981 1.0021036641405241 0.0008430953241408
1.0034011757170676 1.0024396534120281 -0.0006406208034918
1.0031744920084951 1.0027272920182249 -0.0008253128413344
1.0034224030178946 1.0023515596594588 0.0005411091510954
1.0034505803941900 1.0020796763084630 0.0016829036309273
1.0033993466414424 1.0025705086085539 0.0019066397125464
1.0033199325940410 1.0024911646227959 -0.0010472852465085
1.0038358013184705 1.0022533472086443 0.0007930761174369
1.0035314068454895 1.0018925644446799 -0.0010059136252988
1.0034796066154694 1.0023703707874769 0.0005360754951503
1.0033893181320594 1.0024341208568122 0.0004329078251851
1.0036108854200401 1.0024525164940368 0.0011495472946053
1.0032992042944986 1.0025360750304917 0.0000729249981766
1.0033061450729865 1.0026087171718603 -0.0012108465836917
1.0032744592640681 1.0024931050130359 -0.0011343006052061
1.0032158152122341 1.0026872006719412 -0.0011357487436372
1.0033934323938454 1.0023810201102406 0.0001698478470668
1.0034325826034987 1.0024069545530336 0.0006451822877958
1.0029923332775452 1.0030591198154535 -0.0007135346427871
1.0033715282117346 1.0025243829132249 0.0006137955976724
1.0029855061343735 1.0027620728265858 -0.0008854922793859
1.0030364561250231 1.0029342472514877 -0.0002083805840835
1.0035860304305173 1.0016343112079540 0.0021619685335939
1.0034008417541225 1.0021914858555425 -0.0008927249566076
1.0031727304265148 1.0025309221258163 -0.0014768692244106
1.0032354201815785 1.0031150132100262 -0.0018133621371769
1.0034396068193847 1.0024621780583660 0.0003569925861986
1.0031500708803067 1.0028003078606667 -0.0003320108408120
1.0032367086965590 1.0025335849832777 -0.0003649065833448
1.0031082002507214 1.0027844976528997 -0.0002906049640925
1.0035504895895762 1.0025553031986183 -0.0006760979509148
1.0035532009329748 1.0021507221198820 0.0003621705684091
1.0031107456512782 1.0027723166662910 -0.0002167921184116
1.0032419537062820 1.0026232707867970 0.0002899784902053
1.0034008932355267 1.0024942066607621 0.0008255287780572
1.0034531015234973 1.0021612690689365 0.0002786332296680
1.0033310084757532 1.0024828527059619 -0.0003650041646940
1.0028434728700051 1.0032903389930785 0.0002044908232000
1.0037764890549554 1.0019167460986544 -0.0012085296583556
1.0032241739290644 1.0026875567189999 -0.0001034940313562
1.0034269275111272 1.0024598198918142 0.0012535817129872
1.0032475227565032 1.0023743773237908 -0.0026685559398340
1.0032996030060521 1.0023914393354363 0.0005086245321721
1.0039432914340951 1.0023810180555872 0.0025619674853198
1.0030812273184115 1.0027306575105099 0.0021468344993990
1.0034677982380291 1.0022411700987055 0.0004794241952740
1.0033519422965289 1.0023989958991275 0.0001114081114227
1.0034206418387468 1.0025680488499054 -0.0007336255349656
1.0033547485609353 1.0024148446921182 0.0006017641350869
1.0035081651511120 1.0024761504353958 -0.0005844767812839
1.0031947970448767 1.0027656153069440 0.0000098113189603
1.0031100750444737 1.0028388633298462 -0.0002588583082875
1.0032203782223654 1.0026663557213458 -0.0000113813173362
1.0031742767793148 1.0027476827356478 -0.0000587385850034
1.0033866372765234 1.0024123076437295 -0.0008941643767542
1.0032732541132408 1.0026418758669933 -0.0008165318195129
1.0034295104700721 1.0026093239445788 -0.0007560362490583
1.0034464635557752 1.0024158702652528 -0.0000812131897552
1.0030334782807255 1.0028483246951385 0.0002198375078526
1.0029644901477222 1.0026466325514076 -0.0006011563393060
1.0035545121028431 1.0021877051887516 0.0003536020963924
1.0033219331059520 1.0025633763332775 0.0003359240427349
1.0029910350864819 1.0030807512989250 -0.0005107597505012
1.0030131750220550 1.0030370084521780 -0.0003446755240965
1.0030575658660084 1.0027881949960944 0.0006548112522212
1.0031824844299038 1.0026939523827929 0.0011331911954440
1.0035173191279199 1.0020429392396912 0.0010582537267229
1.0029423518186376 1.0031984041947961 0.0003501289264666
1.0032065213483021 1.0026693159745792 0.0019856015456296
1.0034556578515861 1.0023558353122466 -0.0007823397938778
1.0030103950234066 1.0028313067419476 0.0001867454302489
1.0034620544449822 1.0029795599687412 -0.0018207481057210
1.0029778503954145 1.0029698801095226 0.0001495840885767
1.0030411077044541 1.0028112168864014 0.0016670900177512
1.0031201042467870 1.0028553071667980 -0.0005278160144339
1.0037047882377492 1.0023779942691480 0.0012110332200695
1.0030842137978344 1.0028291874030462 -0.0000244334692287
1.0028783662329916 1.0031409440740879 0.0016574006652559
1.0033718064839321 1.0024843473008502 0.0001644941736185
1.0032573959982909 1.0026668494196651 -0.0008710951257521
1.0035638818552555 1.0025040468282862 -0.0008696695727931
1.0030710395798985 1.0026378567564904 -0.0006730535523179
1.0027998030313598 1.0029390477488782 -0.0009875996736245
1.0028931364630311 1.0032826986861492 0.0009733752611554
1.0034086997582790 1.0023389994554952 -0.0001572640700545
1.0032547492021151 1.0025949347290692 0.0018925513237408
1.0035127895360567 1.0026199910676910 -0.0009065216220470
1.0032446960891448 1.0026611357296480 -0.0010230289681487
1.0037414939133922 1.0021039597544075 -0.0008073381559899
1.0037745434680689 1.0012139570518734 -0.0007564302110973
1.0027695882474805 1.0027401081258080 -0.0013371577939133
1.0029119503013546 1.0032102698725018 -0.0001504079210702
1.0030467434049959 1.0028513787619207 -0.0000507263430063
1.0034630951803281 1.0022176622386225 -0.0000338890981679
1.0031352181914071 1.0027078176353943 -0.0008361366634306
1.0030329759244152 1.0027764845162230 -0.0006497191459421
1.0029987399308868 1.0028007065466256 -0.0001373073438693
1.0034047050451080 1.0024022756100426 -0.0008658804413165
1.0032770378587164 1.0024969642341719 -0.0013585353211815
1.0035398985653998 1.0023252726794809 -0.0008298258688042
1.0031233727960314 1.0025959574592158 -0.0013573735524657
1.0039805780990649 1.0021917322620053 0.0016950272969015
1.0031868002844664 1.0026923220205537 0.0007340466503655
1.0030702795216742 1.0028681377527802 0.0038548212401363
1.0032730046279466 1.0022772198799406 -0.0023391490135202
1.0034668728489637 1.0024568672519882 0.0007340982251477
1.0030600802179919 1.0027922839772261 -0.0004733328190679
1.0033077394594321 1.0025446639425819 0.0003167096360030
1.0032806554673339 1.0025950761750348 -0.0006517236321549
1.0031356651597367 1.0028846286206861 -0.0008600009093199
1.0029792647733144 1.0027388647770861 -0.0006836296805540
1.0031774221652385 1.0024730874973626 -0.0020159544550326
1.0036250276843377 1.0022821495801804 0.0003380165976359
1.0033039998601327 1.0026336121096135 0.0010488491061873
1.0037619902714781 1.0025916427403900 0.0048723995697829
1.0032707503259690 1.0026316293358735 -0.0003028154701714
1.0031042240019052 1.0029744947170331 -0.0005705451552891
1.0029733808429144 1.0026149910154061 -0.0017198369584912
1.0034652969353448 1.0023135289685905 0.0004700558906514
1.0033351189127939 1.0024141378715994 0.0018199858006124
1.0033565693924693 1.0024502310605385 -0.0011123554552734
1.0036319376253913 1.0016559579595936 -0.0014192171047063
1.0035017224693723 1.0022762516744324 0.0008770121996897
1.0034733288180464 1.0023771183620618 -0.0009062835724079
1.0033669220206007 1.0024942127130725 -0.0000361552851087
1.0034016738980800 1.0025210508918250 0.0011400757834029
1.0030732910763316 1.0026357819132974 0.0016280570177289
1.0029306957931512 1.0030409242922933 -0.0005848565789741
1.0035335623964210 1.0020867596072349 -0.0000188815000779
1.0032493307279950 1.0025182814797622 -0.0016248896748719
1.0030364306074715 1.0027278707141130 -0.0004450540355940
1.0034350422973088 1.0024622530339504 0.0004482271556853
1.0033790523703925 1.0024504433787687 0.0006845435363393
1.0035253134242954 1.0022338876711232 0.0003976471636973
1.0031139300675711 1.0027462350431899 -0.0007158499946049
1.0037648925721436 1.0012907922445178 0.0002697836199893
1.0034630188245961 1.0023969249050992 0.0007189853714897
1.0031231777024021 1.0025848263745081 0.0000975241502523
1.0034850660540853 1.0022437949345706 0.0005420548934838
1.0034608104755243 1.0023107632865929 -0.0014804960371901
1.0033916007525432 1.0024526213376193 -0.0004786440433481
1.0027083780381860 1.0034967704402662 0.0000805238856936
1.0029609140264484 1.0026770784132670 0.0000160004343426
1.0027406882576297 1.0027694576773767 -0.0011115268322992
1.0032757777030268 1.0026142715115836 -0.0001523369516045
1.0031549903020276 1.0027024742601314 0.0024144526216344
1.0035872376622741 1.0023419586031812 0.0005154005381082
1.0036986306189819 1.0017167791958739 0.0004347169619775
1.0036563659524993 1.0016378005604176 0.0008442370446411
1.0034920831484662 1.0022482119846674 -0.0022024649960841
1.0033395584842790 1.0024372773851165 0.0004258891054775
1.0035802819133188 1.0023003774740187 0.0004052667841451
1.0034548373198151 1.0024658295263766 0.0007213360686325
1.0029636313793286 1.0032638232954665 0.0000497517012611
1.0033845446126644 1.0023730888638578 0.0017381397918513
1.0029148343988830 1.0027903965074714 -0.0002144530089321
1.0032862703096284 1.0026169898269666 -0.0013918914993854
1.0030237142144580 1.0026532811395008 -0.0014130357639986
1.0035728218340263 1.0025815110147018 -0.0010108597824547
1.0036344031584519 1.0024363826073805 -0.0008691087546627
1.0035612949605610 1.0026199941294396 -0.0010803951907644
1.0031078511281379 1.0028844957105214 -0.0002258265663017
1.0031418741779663 1.0027339269327524 -0.0004328803611559
1.0031472668147383 1.0028226563548013 -0.0004547866643585
1.0030865203262100 1.0026194585301704 0.0001304482200986
1.0030498276616251 1.0027460950579721 0.0009767920051810
1.0029060278280795 1.0025442176695198 -0.0027881416304950
1.0028101735648254 1.0027288897169178 -0.0005311523687835
1.0035058105124719 1.0022385416594455 -0.0000445551358082
1.0033815049922221 1.0024657812579452 0.0005437266982935
1.0030408746769655 1.0026332190104437 -0.0007350255124120
1.0031573616608473 1.0027929331425287 -0.0005416438176554
1.0034256074649330 1.0023098005422952 0.0008187263305410
1.0031245946648184 1.0027426150192593 0.0006979082879566
1.0031042130103753 1.0027454437416738 -0.0000596211412665
1.0031835113393859 1.0027200684361268 0.0003587791409481
1.0033718053510441 1.0024082285364548 0.0006222330996540
1.0029843474072335 1.0031658910435548 -0.0007489572188200
1.0031116887251994 1.0028122165166682 0.0007725000376335
1.0030328428740864 1.0027547946376296 0.0011421680871809
1.0034905310685558 1.0024155924756868 0.0010342442805956
1.0034101022819681 1.0021926709755129 0.0013206693695527
1.0030437981738478 1.0027613027652416 0.0016964469577827
1.0035374699990587 1.0021118909082076 -0.0002116865519720
1.0036678081144927 1.0023221479076696 0.0001238254583111
1.0036885382503402 1.0023174356509406 0.0003760250598298
1.0035366709370479 1.0020633641501620 0.0003491565537242
1.0036686543644093 1.0023292932513939 0.0007307023671487
1.0033376741719919 1.0023401570225239 -0.0022297183016040
1.0036350790688806 1.0024747965590928 0.0020579979925395
1.0034959979724505 1.0025913868723275 -0.0019785529573245
1.0031050137702002 1.0028145448694743 -0.0019074650976515
1.0032353484203176 1.0026645216961840 -0.0007466461842351
1.0032604614647267 1.0026349497062710 -0.0000226829149074
1.0033414001061640 1.0024037980303921 -0.0003703795633481
1.0040045195558804 1.0020935704777558 0.0001249148206090
1.0024534514781291 1.0040993966100742 0.0014488109275355
1.0029069417431238 1.0027002163403491 0.0015446784615755
1.0033016036894378 1.0025755533802914 -0.0000325366678958
1.0029945862216707 1.0027104662877773 -0.0011474459004570
1.0028689847298478 1.0032873240795450 -0.0005000885792999
1.0032020985539387 1.0025659352692111 -0.0010936152985247
1.0026281369993775 1.0029228654246700 0.0011621471406896
1.0032460302003163 1.0026263304325902 0.0003480794712045
1.0031556013093230 1.0027196246722920 -0.0000207294834097
1.0031360806106346 1.0026999758504893 0.0003252113315511
1.0032087550668500 1.0026828226229481 -0.0000108155766887
1.0034680025830689 1.0025225984166521 0.0015917985619783
1.0036017195164515 1.0020144963211259 0.0005301822011842
1.0036215036559233 1.0020331057847824 0.0009007403986266
1.0037554190597282 1.0021813134843836 -0.0010918354111405
1.0036549948613627 1.0022488037655932 -0.0008506683465649
1.0037638084597353 1.0011639599261242 0.0016674774493323
1.0031989032644546 1.0026061948713887 -0.0020736457924217
1.0034526812477662 1.0022159959616526 0.0007623892788324
1.0035985111259800 1.0023983827665754 0.0001309485899820
1.0032520173460944 1.0026366136361324 0.0004935161810573
1.0035771502086086 1.0021314236214651 0.0012561446840475
1.0031416714995027 1.0027151823700529 0.0018978215462253
1.0033089946045097 1.0026113379568893 -0.0002017771187330
1.0036102822766202 1.0022380467289267 -0.0005138772310532
1.0031333016398896 1.0027371836555941 -0.0003556034890410
1.0030319875492153 1.0029819692744799 -0.0003062866641000
1.0034053494150141 1.0024344774305625 0.0001540340464910
1.0029834056780111 1.0028470074708715 -0.0002972923862745
1.0036749121333990 1.0022884739780242 0.0001222748617626
1.0035590284321665 1.0017820644957853 0.0015004526959268
1.0037355715992304 1.0013334721681211 0.0009892603118544
1.0027618651811665 1.0028890649522022 0.0014722139013404
1.0029200258028901 1.0027944712832284 0.0007680412082991
1.0034152272689507 1.0023774543866582 -0.0014013861522746
1.0034750841052245 1.0024169366086284 0.0004425555606947
1.0039298059390154 1.0009502816556304 -0.0004897868784493
1.0035922428636088 1.0021569007803721 -0.0026780318314873
1.0033083972918140 1.0024386379980439 -0.0012961870321252
1.0038648132309158 1.0021747551987239 0.0011698634419430
1.0034460932695970 1.0024287814049775 0.0005638971666666
1.0031418839125010 1.0028199687513524 -0.0003828649351766
1.0034854161227689 1.0022742643299027 0.0001604216759883
1.0031001187571398 1.0029568807908362 0.0006667592463267
1.0036009596646545 1.0024734278608272 0.0020241033072496
1.0034925020375864 1.0019966122260642 -0.0016238912902158
1.0037638513606235 1.0023410531880166 0.0015157448909210
1.0032381336272296 1.0027180985052682 0.0005095901610252
1.0028860274300009 1.0032138548279259 -0.0009183736644420
1.0030883131609343 1.0028387517392598 -0.0012514894410255
1.0030609459061166 1.0029516768986324 -0.0005306878370024
1.0029671004223017 1.0028024917375242 -0.0007398258925498
1.0031061638121046 1.0028627887821950 -0.0003052617241378
1.0032639940594776 1.0026006989666780 -0.0001279298429214
1.0033288116939005 1.0025388901451722 0.0006673254925660
1.0030345353497416 1.0027723913219329 0.0005408512317228
1.0036741374173088 1.0017748003566176 0.0001499815799740
1.0030224843684246 1.0027849309888532 -0.0008344617157461
1.0039806405713150 1.0007071140625166 0.0026323642471665
1.0038226094614440 1.0025238239353682 -0.0004205906180240
1.0035336437121452 1.0024259080058482 0.0006752296271936
1.0036514068998437 1.0024457583366615 0.0000105999463476
1.0026945710899953 1.0028951982346341 -0.0006749008969751
1.0030080348590475 1.0031141810241699 -0.0007456218087705
1.0031243389903339 1.0026996757399320 -0.0007000394421593
1.0031234343586775 1.0029613413917651 -0.0007323474284596
1.0029927802512051 1.0031037418800617 -0.0009439244438560
1.0029850144909087 1.0031044470578570 -0.0007120578520735
1.0031622295089666 1.0025841087877108 -0.0011622192107888
1.0031372829406213 1.0026984940766253 0.0017106581069178
1.0037573779277016 1.0022549209987421 0.0001587367218322
1.0037318388620859 1.0023379802828067 0.0008657326661919
1.0030025080686134 1.0026869968488688 -0.0010530011742209
1.0037059146139977 1.0022553671754382 -0.0004393668774905
1.0029018277564097 1.0027849274475928 -0.0011281694279320
1.0031648961543576 1.0026433295574186 -0.0007959507047132
1.0035323314200058 1.0023215999232564 0.0004571658494921
1.0032384769717531 1.0026112022803193 0.0011188094899591
1.0033881323664631 1.0023134947959083 0.0012836320983758
1.0030749269607457 1.0027151493150119 0.0001732759399422
1.0036002716751797 1.0022804410203321 0.0002952994815459
1.0031830074633632 1.0026913648800688 0.0010639781658204
1.0031494024388778 1.0028960202963115 0.0011019185208793
1.0039099992412679 1.0023331964961395 0.0018161487891356
1.0029780965159696 1.0032440721708538 -0.0014855257732623
1.0035171545548989 1.0018905385404697 0.0029841226308630
1.0031348654245087 1.0028243286866454 -0.0002572583439349
1.0035647304245034 1.0022530334090058 -0.0001298810244196
1.0038955826312765 1.0013826336450729 -0.0003869680569097
1.0034682975240592 1.0024900505358509 0.0011383861377853
1.0034158058508602 1.0023058068952111 -0.0006513160078545
1.0026851477603802 1.0036845616573460 -0.0017689791155535
1.0031379632895734 1.0028265380007473 -0.0001758733876204
1.0030262638263263 1.0029501058657446 0.0007045433101545
1.0036141692556546 1.0023087578656034 -0.0006271636810248
1.0036822142138955 1.0022756865513538 -0.0003161449283901
1.0035196142632030 1.0023310463302895 0.0004701512019453
1.0035505287360698 1.0025637802642151 -0.0019359475610274
1.0031658981629321 1.0026709862363448 -0.0020892515136826
1.0035824673460356 1.0022346034218033 -0.0015498456423898
1.0028620302613713 1.0027617589976607 -0.0012435919336962
1.0032816104783882 1.0024572630487325 -0.0015540659353383
1.0034487698505135 1.0023542737921849 0.0001412026103618
1.0032736131815720 1.0025847389636100 0.0011627213727679
1.0036281028250158 1.0023582130113320 0.0011958166220434
1.0032821001182506 1.0025364489897877 0.0006608712648484
1.0033817111392602 1.0023346495763374 0.0003946028924863
1.0035768247873271 1.0025750026569187 0.0027803738749589
1.0038595296033377 1.0022221432206919 0.0010381509432116
1.0030857739891248 1.0027156343250574 -0.0006742552227956
1.0029970042043672 1.0027155072882350 0.0000320741916003
1.0031571601653537 1.0026983643230152 -0.0005091140910611
1.0027153915046112 1.0034846873812371 0.0003406041293105
1.0034513003361327 1.0026276653550725 0.0001400313744162
1.0030332293573236 1.0029685851331043 -0.0003078440965912
1.0030372060436079 1.0028274911821244 -0.0003820771693646
1.0030014240662759 1.0028563429480017 -0.0001677828196477
1.0030102949452435 1.0030182019248552 -0.0001209983552895
1.0030337032384109 1.0028230860178164 0.0002320889138228
1.0032742632319434 1.0026166410231472 -0.0006422474353753
1.0034393194313576 1.0024326194227056 -0.0010805070890385
1.0037895721436538 1.0012936060229585 -0.0010414407207975
1.0028970792079048 1.0032115981562082 0.0012172182129147
1.0038413385255736 1.0014199959992187 0.0013190684300494
1.0038651577743785 1.0014201866028811 -0.0001343374341680
1.0030531413114332 1.0029573851907063 0.0002717682127843
1.0034958445649600 1.0024449960603485 0.0003641201799458
1.0039389189183643 1.0010006395817030 0.0019298505738882
1.0032810678039177 1.0026285668230792 -0.0003996135305239
1.0034705908538575 1.0023895878452871 -0.0005818165003907
1.0034325188953881 1.0024276187320313 0.0005117761744266
1.0032559617135839 1.0026397361233932 0.0010815016053098
1.0035243996186669 1.0024652078967282 0.0009897065257463
1.0036584449718318 1.0017462114627014 0.0013242952843312
1.0032621095236058 1.0024686400200638 0.0006166216832605
1.0032226829329114 1.0025566493832994 -0.0012169410821674
1.0036596025574345 1.0017683324456856 0.0017117147844286
1.0037329480266239 1.0017569446248960 -0.0004264587530053
1.0035771462347112 1.0023611635822198 0.0006380595949528
1.0032102321310969 1.0026930177768123 0.0000046443398731
1.0029523043715558 1.0028228048670325 0.0012684434163548
1.0034702579374839 1.0028035563295330 -0.0008335773937214
1.0038428003029125 1.0021650349238569 0.0009713740037356
1.0030931056909804 1.0027699467062006 -0.0002912010560139
1.0032771013367268 1.0025795983868260 0.0007562881371167
1.0034404159918389 1.0023123174076720 0.0007194011420400
1.0033151849798867 1.0025040178528093 -0.0000182273397636
1.0032571207656120 1.0026346993754063 -0.0000093317583575
1.0035084580440141 1.0024573154793865 0.0001100363141955
1.0033113208755391 1.0022984893996663 0.0013480889223318
1.0036038442626274 1.0016162085060887 0.0013390807039711
1.0037303884896642 1.0013998960844377 0.0006805506975509
1.0037537161017878 1.0022871722899671 0.0011424720625129
1.0030525955023109 1.0028252232909802 0.0001688586977989
1.0034189412159036 1.0023851030376749 0.0003165042882199
1.0031614883806923 1.0027625029831282 -0.0003490295608142
1.0032558787604267 1.0020612918810496 0.0038621062504241
1.0027333010701769 1.0033973901612532 0.0005439962199057
1.0035541198048932 1.0028190045528060 -0.0007862060409624
1.0029922939722713 1.0028922494353982 -0.0023065468785412
1.0032524138230416 1.0023637028573897 -0.0022122962032395
1.0034584589204134 1.0024507164473186 0.0006183101656914
1.0033039878437584 1.0025271789445638 -0.0016061595194633
1.0027340989717097 1.0028547427304535 0.0001146164776236
1.0034422775591483 1.0024373602866568 0.0006995545926079
1.0034781559162977 1.0023672582900081 0.0001622716631339
1.0036957352675453 1.0018329681904303 0.0001338149819964
1.0036850027518081 1.0015705003762401 0.0001963039981138
1.0032233049933952 1.0024281907734076 -0.0021242063732278
1.0027346561789381 1.0033943925820803 0.0014601140608110
1.0035629202464487 1.0022418402705788 0.0004462419929086
1.0033241931542256 1.0025260125690632 0.0001481987143410
1.0036163657253412 1.0024889460436752 -0.0009692019852286
1.0032271865051319 1.0026483324406774 -0.0003175557940833
1.0032031706054865 1.0026095827311912 -0.0010732472766905
1.0029870915639503 1.0030934525526840 0.0000162113363111
1.0030411456210349 1.0029927114709882 0.0001703581531966
1.0031020004041860 1.0028893473423057 0.0002753210133378
1.0031246691355358 1.0026978637832606 0.0007624382206969
1.0036078058235425 1.0023538881855567 0.0010010408757746
1.0036113020140254 1.0023117537208430 -0.0002157257365322
1.0038452032765668 1.0010670899991265 0.0009264807087371
1.0035197419415398 1.0016823904686087 0.0027450006316550
1.0034196244951070 1.0024156580999555 0.0008943674828166
1.0038938227302741 1.0012881470048660 0.0019832052435594
1.0031910201741836 1.0025955955810353 -0.0003190690561599
1.0034611760299272 1.0022593880896498 0.0008386205511599
1.0035073329069129 1.0024085983481748 -0.0000712314368640
1.0028332221214065 1.0033471707362811 -0.0011391529321808
1.0031341121959021 1.0027779537741468 -0.0003610210120579
1.0029831262622599 1.0027815769229762 -0.0006664201425593
1.0036246248659604 1.0017616547346231 -0.0001697491927869
1.0037212571983751 1.0016151986692612 0.0005089749106706
1.0035803254165327 1.0025431661997373 0.0024073361391630
1.0034506113715689 1.0024658139621205 0.0001926426312405
1.0030663999773617 1.0028001284735952 0.0002667541280039
1.0031661338222901 1.0026792134454223 -0.0007073272102531
1.0034593674954648 1.0021820211272379 0.0002127437657953
1.0031558834643746 1.0027943132689343 -0.0002913631859276
1.0031916756856207 1.0027392145888423 -0.0002806553468899
1.0031999857517908 1.0026899012251873 -0.0002902060241798
1.0033850912312445 1.0025328060662697 0.0001661251504855
1.0038704777139871 1.0021708730778394 0.0016936142691162
1.0033386409991185 1.0024203748855522 -0.0004155588581591
1.0032966508885055 1.0025473758448091 0.0003915609987360
1.0032770049880744 1.0026449089692178 -0.0002900696263446
1.0030201803276424 1.0027861599267893 -0.0003254968487402
1.0032126044652587 1.0026704326847391 -0.0000790364022244
1.0033195044351120 1.0025503846575161 0.0002933600493131
1.0035079986056392 1.0024875144252086 0.0012791810215467
1.0036172075612193 1.0024234527832621 0.0010364795108739
1.0032474838341419 1.0025200658405760 -0.0021821750246593
1.0030471486149510 1.0031765726535993 -0.0012025109477398
1.0033917135251085 1.0024961596073370 0.0021890941436265
1.0034816799298667 1.0023350863969640 0.0003800299239108
1.0030528654544042 1.0027804232944766 -0.0006215422336358
1.0031705418973436 1.0027347131567346 -0.0007230181477590
1.0033469923651304 1.0025787477504011 -0.0000088616059095
1.0034422476540308 1.0023433068962164 0.0004632733405553
1.0028645482429177 1.0028091313538938 0.0010663269432147
1.0031812930840114 1.0026058375829059 0.0007801975025334
1.0030037477506042 1.0028248600158980 0.0012948281493457
1.0030364797297202 1.0026527157636103 -0.0007302845339332
1.0033759785640695 1.0023743991931537 -0.0003551742046167
1.0030500788625467 1.0028969035800106 -0.0002038996262810
1.0035008785858173 1.0022977265266715 0.0003125606325710
1.0032975552531231 1.0027353472843892 -0.0019206119723361
1.0032435585301123 1.0026302889039138 -0.0000365607262446
1.0030980829286651 1.0028465776669366 -0.0004487343900288
1.0031633250557124 1.0027675943504464 -0.0002498504500838
1.0031866483918950 1.0026841620527347 -0.0000551225710518
1.0032861965535109 1.0028221355982736 -0.0011159443806895
1.0035298941998079 1.0022211426080374 0.0004749195549966
1.0032338724596495 1.0027111421203974 0.0002940725463037
1.0031837065770837 1.0027620178028906 -0.0012107975987882
1.0034962457226990 1.0020385573423347 0.0013601782921972
1.0029083275004542 1.0031451110891914 -0.0011875227011895
1.0034755791575665 1.0023724931663751 0.0005506152976528
1.0031185750637217 1.0028377427443400 -0.0004937740597715
1.0031541965674224 1.0026845010893675 -0.0005214539451501
1.0039102083885152 1.0022261488758983 0.0002947204658286
1.0030630133521818 1.0027351004352394 -0.0008397653347881
1.0030792760930978 1.0026339688250847 0.0001597551252514
1.0032509126414786 1.0027169727419996 -0.0007488567583080
1.0032269535774194 1.0026176309744155 0.0007508666838663
1.0032179187440182 1.0025230728719263 -0.0013770483375390
1.0029309392862200 1.0031025521240167 0.0005757357224123
1.0034165352230271 1.0024860526618526 0.0000184834973589
1.0025335341187780 1.0028549302080096 0.0014455979769226
1.0034630797870068 1.0024256439109791 0.0005156962499618
1.0030659481153830 1.0026190267650619 -0.0015733128962152
1.0027864111291496 1.0033800005776539 -0.0000590355429177
1.0032596069799791 1.0026068406661972 0.0003245288656988
1.0034032418511998 1.0025400576127190 0.0012251218625496
1.0027775046527405 1.0034374062025289 -0.0000322420567104
1.0032743195891258 1.0025913141882528 -0.0004150064459334
1.0026551216572224 1.0036865624308065 -0.0013762479921082
1.0035182691049933 1.0020807274588053 0.0007916495310807
1.0031881917307990 1.0026434028121700 0.0012384431568816
1.0033323365004350 1.0025098178144338 0.0004651459367933
1.0034397448611077 1.0026002053028535 0.0031695472937701
1.0028695996143528 1.0034210000262396 -0.0006474446651832
1.0035237104685075 1.0023241917939048 0.0004426658896698
1.0035731325252530 1.0023860625104570 0.0013947555194776
1.0034341591209759 1.0023696354839249 -0.0012460940152519
1.0037287489622087 1.0024185655476769 0.0031369176646959
1.0033130692623093 1.0025656522531385 -0.0014995892416259
1.0032551581868885 1.0024987179317015 -0.0022350060746703
1.0030183551441969 1.0026907376980225 -0.0013861855242518
1.0030320557740606 1.0028629847817552 -0.0002918491433078
1.0034983643389843 1.0022931806434838 0.0004198777327538
1.0030153676910782 1.0030850862027592 0.0005369943263307
1.0033641773809221 1.0025894532521087 0.0017413419792892
1.0035727691107625 1.0020169126328127 -0.0007956111816732
1.0031545716095120 1.0027152969862421 -0.0003792697005110
1.0038516216179207 1.0022199466836625 -0.0001331044468600
1.0032459445872071 1.0024975308892066 -0.0017903344420004
1.0029493831217138 1.0026870609726046 -0.0008069878381523
1.0031066721374657 1.0027111698378000 -0.0008726102492318
1.0036522461401935 1.0023395870520515 0.0006431744947662
1.0034460535686978 1.0022449958261443 0.0008235076611680
1.0032299532852769 1.0026887132009970 -0.0006275245560998
1.0031408598691907 1.0026981866259737 0.0012213550653815
1.0035038456151009 1.0024335128469162 0.0018036843975753
1.0035972639569037 1.0022617100511124 0.0003940212037828
1.0035605471952778 1.0023588323264994 0.0002090470541016
1.0030240156693528 1.0031570540032688 -0.0006138117008782
1.0030717835582013 1.0029235545425859 0.0003018209677414
1.0035147404687297 1.0023353963676860 0.0002810255105950
1.0035178236915774 1.0022347615210339 0.0004861195361824
1.0035162569709768 1.0022431509193663 0.0002766890277200
1.0036429650751340 1.0024367838761916 0.0018661758043810
1.0030145326095390 1.0026664532618972 0.0001182346038549
1.0036551568405070 1.0028189635143345 -0.0012017924285871
1.0036609849394607 1.0015748076964823 -0.0011160888574358
1.0028880353772762 1.0032554292410876 0.0003224511854201
1.0030710316697307 1.0028498569486854 -0.0002298039319429
1.0036913299565517 1.0015376807220655 -0.0002376503659149
1.0035114913649728 1.0023371750949521 0.0003690619973199
1.0034490450613738 1.0023289066094565 0.0007502808138534
1.0038913648160104 1.0021244476692011 -0.0005693670418533
1.0031617554924759 1.0027390958693310 -0.0002954611683450
1.0029684372082748 1.0026438860455245 -0.0005712178760069
1.0035297700797672 1.0022143541964084 0.0002727626847361
1.0036036210957138 1.0021344908074155 0.0005816901545281
1.0031791519702664 1.0026311316760284 -0.0006129821314361
1.0035174616764191 1.0022741667068757 0.0003704890820229
1.0038998730861046 1.0024541605543056 0.0034380880057488
1.0027722962485175 1.0035044734962302 0.0018942535957064
1.0033615432676837 1.0025136795284084 0.0006343735305641
1.0027319539643595 1.0035799585488097 -0.0012002011403538
1.0035073307354552 1.0021977810006222 0.0005592328431270
1.0038107865233485 1.0026387468189717 -0.0006657618322867
1.0036367143056373 1.0024125330450493 0.0008547928733696
1.0031998144338370 1.0027204320625509 0.0000014697180498
1.0031228879871474 1.0028198656978748 0.0000289628130041
1.0031171121070228 1.0029891531355264 0.0004298198235349
1.0034792176904379 1.0028100851314496 -0.0009439581019964
1.0037174717822037 1.0027576898671184 -0.0012706896584994
1.0034580073654789 1.0023798985989936 0.0002244053100220
1.0030419843010974 1.0028917112759068 -0.0001944054504471
1.0030396911395760 1.0029855704140282 -0.0004074202342250
1.0032524500680751 1.0026447963622538 -0.0000085709637569
1.0032650777836640 1.0023518708903412 0.0022908558030291
1.0034811031302162 1.0018793893592375 0.0019195053906239
1.0036218897979128 1.0024275234825639 0.0005084611817360
1.0033568939505539 1.0021240565959419 -0.0005318656795849
1.0025978111329197 1.0028747373103741 -0.0002894595869123
1.0034394032696081 1.0023998784719101 0.0001532658280916
1.0029803450594774 1.0030953282075898 -0.0003237215011105
1.0029804233447359 1.0031284409313637 -0.0002504464625796
1.0028782132840843 1.0032499161738542 -0.0006439855584990
1.0035565326082210 1.0019553523290250 -0.0004235099275741
1.0033430818336750 1.0023477435220784 -0.0022563838477175
1.0035027042428382 1.0023243423487214 0.0004074844749581
1.0030985061479196 1.0027033551246252 0.0012765956777689
1.0033106407295720 1.0025258828356103 0.0006682891638921
1.0034402050674178 1.0023708433137801 0.0006628223379106
1.0033587124804888 1.0027228845027660 -0.0009761924540373
1.0030010810636523 1.0030795623614466 -0.0012079493797274
1.0032407643080501 1.0026045854460335 0.0003687011077177
1.0031999314404181 1.0026472245284916 0.0007685949737959
1.0038816116876745 1.0011024220214144 0.0004968469988958
1.0035250392435258 1.0023367504270067 0.0002659271399197
1.0028341949355437 1.0028024949296199 -0.0010701524223317
1.0028408157418545 1.0031236062713498 -0.0014295796695605
1.0030542082818548 1.0029006619567491 -0.0002123229945472
1.0036272581854853 1.0019404786880355 -0.0006378587880150
1.0035111998025517 1.0027202885957249 -0.0005568347489250
1.0031213000886947 1.0028238792848743 -0.0018671119680426
1.0020517137172638 1.0049495188631488 0.0008964012280196
1.0034759874053363 1.0024524276212805 0.0007095974718003
1.0030388105302908 1.0028991119541502 -0.0002083327829747
1.0036089266066970 1.0022773510501450 -0.0006763821807675
1.0038331452727987 1.0009106154225682 0.0027300497942780
1.0029207260358883 1.0026112544531378 -0.0024122221090725
1.0033652572474281 1.0025382405360923 0.0009138772336409
1.0035481107548179 1.0023075896349400 0.0002532547624179
1.0035689406124697 1.0023418908623429 0.0004669023692787
1.0034191068832772 1.0023788757464245 0.0005096804568925
1.0030312460199093 1.0028860548775751 -0.0002353949166872
1.0029424551692308 1.0031863736278075 -0.0000833650797092
1.0026504483953926 1.0038602661522738 0.0015731370553515
1.0033692570250623 1.0024417146525666 0.0005895865735124
1.0035887057315098 1.0024556050778808 0.0010134807338358
1.0034112319898445 1.0023245831968270 0.0009970281500515
1.0032542878307380 1.0024878789564182 -0.0022282456458925
1.0028894575522813 1.0027899153828026 -0.0009068851433946
1.0031544307407494 1.0026702833198400 0.0007394844263443
1.0034029698450164 1.0024845819416817 0.0003799031316597
1.0032784649993134 1.0024961688852738 -0.0009471923896523
1.0037648267437396 1.0007681965617437 0.0051159948244718
1.0031011131126266 1.0026464031225615 0.0001021064698829
1.0034306598756764 1.0024969096780638 0.0002469822518422
1.0032403357394595 1.0026478670772470 -0.0013390381928515
1.0034309626090361 1.0024588023150149 0.0007890498403163
1.0030921944872380 1.0028167180701260 0.0000122393524458
1.0036159886761693 1.0023743665657723 0.0006448237541048
1.0033321400072963 1.0026129654728784 0.0019240360316087
1.0034050795930411 1.0024152934538657 -0.0000230564490914
1.0030803237961707 1.0027356215033114 -0.0007977105240863
1.0030856452416077 1.0029006374157305 0.0007443853990419
1.0029013421662918 1.0028077244439408 0.0003551140353185
1.0032113906536566 1.0026802654473888 0.0007726197800601
1.0029347737403016 1.0031676194410371 -0.0000420413669590
1.0029969866947996 1.0027570803195069 -0.0004397738951058
1.0026398110804902 1.0028459754738770 -0.0012366177153449
1.0032991410380978 1.0026335780547151 0.0002507703292554
1.0031370125807615 1.0028498660778291 -0.0004421909401434
1.0033714254863382 1.0025770647289769 0.0016626355061273
1.0034857883936159 1.0021390511966730 -0.0005784189971470
1.0032176984813328 1.0025720182735272 0.0015828230781383
1.0030833045147667 1.0027374329785268 0.0013013700218626
1.0032358754031772 1.0026832439813973 -0.0002758954635091
1.0031893845346473 1.0025474389073021 0.0016404240278649
1.0029314826532683 1.0029671376031957 0.0044233103176067
1.0034582022800793 1.0024483241918480 -0.0001801783483908
1.0034725588026714 1.0023741216707465 0.0004482190070308
1.0032974049765879 1.0025812893058952 -0.0004087144958884
1.0032639833874726 1.0026342729411055 -0.0004007359249142
1.0032906954583789 1.0026385755910208 -0.0000091265724049
1.0030805266980496 1.0028006137129664 -0.0004231703920930
1.0029207124385928 1.0028599858492806 0.0004276648225708
1.0035870113678593 1.0017638104234137 0.0002543023421822
1.0031410139743073 1.0026949493824115 -0.0007777021764822
1.0030706183679576 1.0029572155571687 -0.0016263042026552
1.0031774394198472 1.0026941051693838 -0.0003439704731978
1.0029481054257416 1.0027878236448675 0.0005837032117929
1.0032676837055119 1.0025655929285693 0.0006848091320208
1.0033897048515705 1.0025273847792184 -0.0000080999153561
1.0034897911258802 1.0026707674105240 -0.0009294424437701
1.0033098283153445 1.0025759361760738 -0.0000483893050754
1.0034903703015872 1.0024250772930106 0.0004308252451899
1.0034768745723885 1.0023421046072083 0.0009374674934725
1.0034647753501895 1.0023531089168030 0.0002148869870210
1.0035107212944052 1.0022150626302819 -0.0004139185743979
1.0035416457485213 1.0023462771099014 -0.0004457707187062
1.0032950105362788 1.0025906093031194 -0.0010091569345772
1.0035522169834761 1.0023141173800374 0.0002900776006941
1.0031088193554678 1.0028608449521250 -0.0004792990534964
1.0031405053479328 1.0027342686187994 0.0002408117630067
1.0024830842815644 1.0029507014722521 0.0017445354403424
1.0029888235140658 1.0025476944714884 -0.0020889869904503
1.0032126562022927 1.0026544442312140 -0.0007761845095997
1.0031109815486343 1.0025519207444957 -0.0018118013543436
1.0032899055611835 1.0027001335340464 0.0037114907916324
1.0034020518659179 1.0023294721053744 0.0011641954681794
1.0033772191052455 1.0025876632491906 0.0012833044817103
1.0032945411447367 1.0025038167515914 -0.0014231999783985
1.0032200274972931 1.0025706537788039 -0.0012899713842617
1.0037795262353009 1.0015617712097928 0.0008084292819477
1.0032313309968210 1.0027045974106656 -0.0000227352088471
1.0029621127319481 1.0027924544175082 0.0018297354822441
1.0033961970632801 1.0024456013194476 0.0012758211486482
1.0033969435468342 1.0022894103668460 -0.0002909802731393
1.0033373433051309 1.0025319715150460 -0.0003792616366192
1.0030279380924976 1.0027593425959858 -0.0005935530939820
1.0030638885983607 1.0027341147511826 -0.0006754847752721
1.0025026982580767 1.0038856960350215 -0.0006231772907242
1.0031238178048729 1.0027285261754544 0.0006509359273886
1.0037074708234692 1.0019853778005090 0.0002855592214044
1.0033978441089551 1.0024650846012422 0.0004124972017637
1.0034446242635469 1.0024445797764669 -0.0002519027226078
1.0030416212236153 1.0028312947810825 -0.0003733518080372
1.0033572425068937 1.0025850375720686 0.0011472567750599
1.0025672079690833 1.0029498543989503 -0.0010720531088728
1.0034563312440681 1.0021186270601401 -0.0012560361212807
1.0028721337961306 1.0033182438683190 -0.0003677652470017
1.0033131998747566 1.0023408373918532 0.0015126050914471
1.0032442134282726 1.0025971244139238 -0.0007203910120886
1.0029500997641134 1.0027804614250502 -0.0000452388266024
1.0033480650538744 1.0025285832817805 0.0010539702859796
1.0027392072346824 1.0035170447444974 -0.0003519551159406
1.0037178484938429 1.0022949006639046 0.0003829721509464
1.0035033478695798 1.0023853319452778 -0.0004219054820734
1.0033283145210197 1.0025280829362639 -0.0001927149122268
1.0035728332712235 1.0023815375725049 0.0002010612458402
1.0034625097328971 1.0023627602999485 0.0005381785744110
1.0033685625143747 1.0028072835551260 -0.0004117176124726
1.0036656152943975 1.0024193743557670 0.0016154526650589
1.0032740544279919 1.0023589633060546 0.0036965598563825
1.0031282160654245 1.0028490936104189 -0.0010629810477418
1.0036173024464161 1.0020860666182554 0.0009668205196123
1.0029822751421089 1.0027793284703006 0.0000769686589578
1.0031254046813278 1.0027591744047419 0.0003026236376687
1.0031281756123644 1.0025131115999577 -0.0019232059932095
1.0036993693945502 1.0021145150105579 -0.0002951954281679
1.0039691498664207 1.0022442337108017 -0.0001697078100966
1.0033443738179630 1.0025140713202350 0.0006997294619084
1.0032895889404121 1.0025794519310112 -0.0003155784827628
1.0032312892379773 1.0026317575601935 0.0012294907897715
1.0031319777648875 1.0027792731782643 0.0000167792979327
1.0030744910656928 1.0027396206730230 -0.0006433455343032
1.0029928413588658 1.0029705551038839 -0.0021143382181473
1.0031466758961833 1.0028081866963854 -0.0005388544555567
1.0031506909484542 1.0025100759150516 -0.0020394241983762
1.0032730690347480 1.0025858001277326 -0.0004142265280989
1.0029751626604457 1.0031965721488101 -0.0010679227914966
1.0035234382895497 1.0023545513379133 0.0005394120914045
1.0037335046557607 1.0023576408844530 -0.0003924824392371
1.0027443748456564 1.0028543360479898 -0.0002797485464095
1.0031271860877335 1.0027947772117500 -0.0000293166332972
1.0029887663553336 1.0028276955747417 0.0005669831017690
1.0031724845120029 1.0026214099531208 0.0012714847288447
1.0030776756608919 1.0027198713780816 -0.0008762334140333
1.0031433722290035 1.0027239483734758 0.0004138701501241
1.0035117798544586 1.0023602416227022 -0.0010288269008394
1.0030789444275301 1.0026560957023360 -0.0012097223603381
1.0033242022336881 1.0024701341799127 -0.0009378583744035
1.0033737353784589 1.0024334555660426 0.0003395605131424
1.0029791110393276 1.0025940844496917 -0.0004097486583021
1.0034720378766413 1.0021635805594327 -0.0001697217398292
1.0037705717289851 1.0023351599087775 0.0004940528758152
1.0034922048684836 1.0024176904975501 0.0003824527296200
1.0030794495191029 1.0029281552903009 -0.0004376955358484
1.0030953543279877 1.0029103999639082 -0.0001140007185166
1.0039811538769261 1.0021940966646175 0.0003281801950694
1.0034897183912279 1.0023861120369442 0.0006460878893837
1.0034284997053942 1.0021718801382262 -0.0011654465625592
1.0029765565256952 1.0030914271920297 0.0001160480640403
1.0035505410163725 1.0023335956558257 0.0003434870864334
1.0028787111789286 1.0033152927857363 -0.0009545831406146
1.0028278204549712 1.0033554306346526 -0.0015228590921636
1.0034567345610697 1.0024898275228855 -0.0000570800676952
1.0030621707403382 1.0030304976191824 -0.0003516044032444
1.0034414626028900 1.0021863954503538 0.0006015659869463
1.0037634276072385 1.0022939891975924 0.0007440968042885
1.0033360240192757 1.0025125224163978 0.0014464127327185
1.0031802959066249 1.0026024828901292 -0.0008912856652060
1.0034784943955923 1.0024182968649638 -0.0007171780910801
1.0030936369541532 1.0028844537084789 -0.0006136670917745
1.0035367540911573 1.0023381330222358 0.0003132457301298
1.0031218960925514 1.0025378462264170 -0.0003676802440732
1.0034962114035795 1.0022237653317372 0.0006911563211592
1.0034736287296180 1.0023613042989983 0.0000357507470352
1.0030557235432089 1.0029723336980925 -0.0005345460724778
1.0032439148622023 1.0026630427622629 -0.0003960321537913
1.0035146137486772 1.0021983732930475 0.0002193063129470
1.0030171496724387 1.0030431423920092 -0.0002847255292950
1.0030807311222389 1.0029392792461638 -0.0006813134162002
1.0035132248247032 1.0023023985453043 0.0003749564523228
1.0032239890621453 1.0025749427028128 -0.0006979187470829
1.0031039168487053 1.0027450143088386 -0.0001089342878609
1.0031782141082479 1.0022963852376361 0.0000543609458204
1.0030753424022627 1.0028518154604373 -0.0002030845193396
1.0029132016510314 1.0028501051006593 0.0009935504617763
1.0033736940756657 1.0024753591220532 0.0006148982659650
1.0031214831633100 1.0029008851479704 -0.0017174758584936
1.0035639133844387 1.0018413722200032 -0.0011022552110576
1.0034360621148257 1.0022677763471126 -0.0001341618748243
1.0034623396827966 1.0022843445879597 0.0005213904513738
1.0033850696205422 1.0024496960511191 0.0005825827237066
1.0031452717590035 1.0027893229486642 -0.0003115224706314
1.0031155785808179 1.0025827027079905 -0.0016647310409195
1.0030151198591748 1.0027634417762128 0.0012809638565007
1.0029867064965396 1.0028454597107601 0.0001285494783450
1.0033252823529790 1.0024009051591609 0.0014614385863127
1.0032415875015588 1.0025289375766253 0.0016115135369274
1.0030075527527971 1.0027505764010523 0.0012217744679232
1.0033967767819587 1.0022854522773399 -0.0003562043845861
1.0034710517017471 1.0024716978562740 0.0003655431108590
1.0031753110074584 1.0027613245726024 -0.0019269490309126
1.0030260824020847 1.0028547763530353 -0.0000748027517635
1.0034574443748796 1.0021324144933808 -0.0002359183603167
1.0034756407129337 1.0023911721379333 -0.0001404598007563
1.0030840197032742 1.0028847010252588 0.0000191009380844
1.0033902895441833 1.0024872745555129 -0.0003039399830198
1.0035221980565439 1.0022804336656099 0.0003959413334046
1.0032137509587136 1.0029644583285293 -0.0005445908670800
1.0034485007583889 1.0024150157754657 0.0005309785749289
1.0028905672439130 1.0028601021574310 -0.0003385757603525
1.0032291651800838 1.0026999099542970 0.0003785847458204
1.0034011595271113 1.0025302086498837 -0.0001676550742904
1.0029716221502860 1.0031292600719430 -0.0007091954797916
1.0033951753808803 1.0024454946092536 0.0003266323283635
1.0035204032108420 1.0022889944597082 0.0003982760796606
1.0031793833992992 1.0027620226499823 -0.0001673646859415
1.0030201127640395 1.0030054458550748 -0.0000829367520032
1.0031330164660279 1.0027766259340789 -0.0025209738334712
1.0037964171377614 1.0022464929454726 -0.0012897261896938
1.0033264347941662 1.0029226652928704 0.0003204996917938
1.0035409549371723 1.0023066573175390 -0.0011188912998242
1.0030839727584491 1.0029099096981426 -0.0009130590535568
1.0034727752442727 1.0024020951632790 0.0003587573682886
1.0034089762353080 1.0022083393308503 0.0017566480803411
1.0032423355925366 1.0027051844216179 -0.0014476581655024
1.0033525291875287 1.0024869324490702 -0.0008851605040143
1.0028370630526411 1.0033330335000334 -0.0001469002146728
1.0028560546714778 1.0028839694334717 0.0002331958926248
1.0033812769851849 1.0024298391184780 -0.0002116161187808
1.0034206591404740 1.0024511293758953 0.0007382500303543
1.0028807515657905 1.0027888260228548 -0.0003154395267117
1.0034687311029238 1.0024315978290841 0.0004230453973915
1.0032923934340130 1.0026006333855646 0.0001097445019603
1.0028261951504296 1.0032776159123389 0.0003745171568699
1.0033301803091137 1.0024535956247129 -0.0003771953435523
1.0034252194032898 1.0024638171336218 0.0000175636014639
1.0032312305167592 1.0026598101069197 0.0002996720426902
1.0035258547520782 1.0023466873255427 0.0005065813676022
1.0035041904994360 1.0023962827670161 0.0006533784615493
1.0033257351213412 1.0025705231366691 0.0006334784453661
1.0031652353911702 1.0027552985430601 0.0000210081867923
1.0035518343909908 1.0022363570716553 0.0002553684879792
1.0028469563868445 1.0028249391151842 0.0003935193436230
1.0031157259576138 1.0027051822722119 0.0002729109802780
1.0028993556599670 1.0028367950484498 0.0001455052443805
1.0030971721582673 1.0027762996743990 -0.0006056068934153
1.0033155169756909 1.0024837230876609 0.0007000480448846
1.0031639974523092 1.0026985610671362 0.0016593200166928
1.0031871260008809 1.0026874957693248 0.0007879595427262
1.0026666739730232 1.0026825721947306 -0.0022861964903987
1.0034831065002423 1.0024296881715939 0.0006053539019793
1.0032755412661170 1.0025534408103773 -0.0005955772902051
1.0030481219573264 1.0029327911309125 -0.0010845529457921
1.0031316484042434 1.0027422288162864 -0.0004178791629675
1.0029058569800162 1.0032763139759406 -0.0006520598955422
1.0033170846227981 1.0025872957360444 0.0010035331168381
1.0035584272046116 1.0022308301011513 -0.0013636353465759
1.0035136630803940 1.0020886236523141 0.0001480070006735
1.0033488078484059 1.0025138645618250 -0.0000606661700641
1.0035111301765651 1.0026345332253308 0.0030352469002525
1.0034342072318436 1.0025268182511760 -0.0002887837221834
1.0032666118521618 1.0027048931707170 0.0007361025306513
1.0029034764232079 1.0033214056993538 0.0018735757743353
1.0032675554525503 1.0025939513416078 0.0007323268374241
1.0034555503035065 1.0024282088877912 0.0007814221618659
1.0029222091761865 1.0029676004177925 0.0025784325442950
1.0031153607765060 1.0028831785500278 -0.0008388148397630
1.0039388640517715 1.0021297210778926 -0.0005671077075134
1.0032770089867287 1.0025109136302941 -0.0013904370144662
1.0031742114447568 1.0026761016800043 -0.0004399125522815
1.0030514734787905 1.0027871208302710 -0.0005022813463364
1.0038718077026705 1.0016784416421987 -0.0008305426205265
1.0038106027431104 1.0023915295934005 0.0028774039362250
1.0029734038301930 1.0030775412030601 0.0005639925129703
1.0032216275296419 1.0026143464846522 -0.0005242202814057
1.0031633167155423 1.0027441057729123 -0.0000372144628921
1.0030072380427351 1.0028009543910343 0.0011004922534940
1.0031630214263603 1.0027292094538127 0.0011660000818746
1.0033444887910581 1.0025861481663525 0.0014004327000861
1.0033335327327424 1.0025217480451576 -0.0008001868357511
1.0031381430796096 1.0028041661625251 0.0007533595642027
1.0035545550111360 1.0024342388945797 0.0003434809363944
1.0032926531228052 1.0028004567864681 -0.0008490771084302
1.0035422157324247 1.0023403931411141 0.0002984776353660
1.0033235572555146 1.0027974347430686 -0.0002539709111557
1.0035630538420004 1.0020390727521087 0.0009162716585499
1.0035331281117756 1.0021365545232610 0.0003535925253727
1.0033468153477845 1.0024614412524575 0.0001110601444955
1.0036420610353436 1.0024081379168759 0.0008773427182284
1.0037327571622268 1.0017062817030098 0.0004308383347750
1.0036028322572632 1.0023851041509386 -0.0001002362117474
1.0032211342484501 1.0026246580630476 -0.0020950016176061
1.0028087141339759 1.0027859230154617 -0.0006690529834686
1.0031293265149499 1.0028041667399621 -0.0009761661579013
1.0034001388208018 1.0022244150240414 0.0008071773474226
1.0029998174269683 1.0030531229185138 0.0006634901496097
1.0034555410101647 1.0022442008395942 0.0009217581343376
1.0032446623564535 1.0026505747982377 0.0002750656853715
1.0035214013722908 1.0024554010991420 0.0007368812019229
1.0032325416342975 1.0026600424454122 0.0007112771147396
1.0032754916665672 1.0026311066549867 0.0003104820049144
1.0034551186737684 1.0023768541459825 0.0003959669275195
1.0035185421076149 1.0022126235723681 0.0005672863082453
1.0034340962045754 1.0023212769817953 -0.0001963901173954
1.0035714512837788 1.0023910862813277 0.0008543351802665
1.0028222925132926 1.0028938964602554 0.0008194321897780
1.0035731394039149 1.0020976243565214 0.0004833223709573
1.0035304884298244 1.0023049052952047 -0.0005850589278742
1.0029620899736635 1.0026683897279591 -0.0013422969375883
1.0034600661285418 1.0023360168406901 0.0004409819472634
1.0034175849525258 1.0024236043082708 0.0010951048040192
1.0027963741584554 1.0033591698958841 -0.0004365358155013
1.0038555388951174 1.0015610796928911 -0.0000549038420062
1.0032455262714353 1.0026250940121169 -0.0002868726046593
1.0034978076669208 1.0023445223292000 0.0001470317314676
1.0030734381285102 1.0027234819883228 -0.0006763538070610
1.0037175392622251 1.0027915252392461 0.0003551933468118
1.0035088896720550 1.0023776438283052 0.0005494760199867
1.0031750140062614 1.0027291580268076 0.0000056207407206
1.0031853443677008 1.0027090884717220 0.0003020555255433
1.0029728197830965 1.0028273159447985 -0.0004633854345209
1.0031862162905107 1.0027227171744784 -0.0003645571878969
1.0031839663060171 1.0027589377230250 -0.0004694336244047
1.0032875249587339 1.0026285319512287 -0.0002644302477509
1.0032455840820207 1.0024617281680468 -0.0015916497955439
1.0034705532346400 1.0024458033150594 0.0004311494215896
1.0034772303795050 1.0022547776878445 0.0001986473001301
1.0033335601200113 1.0025212531264298 0.0006448411533615
1.0031636030339257 1.0026619705094371 -0.0009591801320485
1.0027988402955461 1.0034518248287785 -0.0007367237101458
1.0035009599062563 1.0022015129927904 0.0003217736030921
1.0037210997068509 1.0023340808259573 0.0002140243885647
1.0034640146486360 1.0022512297990940 0.0007663461255358
1.0032459259963209 1.0026379827568852 0.0006884306020554
1.0030779179856737 1.0028657014000593 0.0011681699583839
1.0037512354309326 1.0023498302067140 0.0008360543424205
1.0033438277524702 1.0025042877222143 0.0002130836473271
1.0029501335176529 1.0031435331816370 0.0000395628724458
1.0033031941459150 1.0025047830890776 -0.0004098833629397
1.0035431745608188 1.0019359803324446 0.0006568874926887
1.0029712869152583 1.0031921130763719 -0.0014281112883041
1.0032489948890937 1.0026693571505756 -0.0007481522347649
1.0033516212160012 1.0024632808876808 -0.0014806915324851
1.0036103884225069 1.0020778013621139 0.0006941708822593
1.0034066450613390 1.0024254565044897 -0.0000959741342826
1.0032295076252118 1.0026897461499447 -0.0003718241963271
1.0035519594669300 1.0024341099844307 0.0003264462308136
1.0032663207895340 1.0025450837693266 -0.0009481388155866
1.0033034283235027 1.0026277324723432 -0.0008379348384464
1.0032423528296655 1.0024293906352175 0.0019861414320820
1.0033316060707678 1.0025076076915032 0.0003206944291192
1.0035740869836882 1.0024379851473162 0.0009436647553222
1.0032132145856159 1.0025868385704444 -0.0008774771373500
1.0037190274880188 1.0019845723734824 -0.0000687115594856
1.0033541754112001 1.0023865591526615 0.0010652500315615
1.0033436822574049 1.0025243974059987 0.0006249833242622
1.0035211952740157 1.0024891318229339 0.0012770455663853
1.0027029270479659 1.0028567955226531 -0.0000390066549569
1.0028675505501401 1.0034074157044390 -0.0010603666323673
1.0036109368383104 1.0017583287552083 0.0000139564566850
1.0035935843559771 1.0017038265815652 0.0014261519589968
1.0033636222862643 1.0024059118292941 0.0000152103224749
1.0031490177768423 1.0026588939674432 -0.0008731623488682
1.0029156250983753 1.0028054245867746 -0.0006095714419563
1.0031405970403082 1.0027622790602952 -0.0005212013281967
1.0031068457266883 1.0026861976089561 -0.0007968241715101
1.0034912955498614 1.0021334422135266 0.0001870084447754
1.0030654306897033 1.0026397366060318 -0.0014027009782683
1.0033846045806560 1.0024871078754813 -0.0003590547169438
1.0033044520407062 1.0026625481943672 -0.0002698690904074
1.0028936389639818 1.0031619247579511 0.0009906003792907
1.0026278477497450 1.0038635537691556 -0.0007263841483777
1.0034122745261904 1.0023664149426952 -0.0014999372097096
1.0035160368204548 1.0023156572210503 0.0002779530892334
1.0033238874594219 1.0025920123488292 -0.0008590186245923
1.0037422844767505 1.0019024050112990 0.0006047095906792
1.0033943146582900 1.0024454820008499 0.0001738044343452
1.0034357467394535 1.0024103329462521 -0.0003074903245384
1.0030926716255673 1.0027562533964174 -0.0004013799365750
1.0031815155116008 1.0026889079748651 0.0012989685049517
1.0032325215860243 1.0026389407195555 -0.0004072527636695
1.0029865474498012 1.0030135168408467 0.0011125951097868
1.0030522456421687 1.0027884050292120 -0.0004793027091674
1.0031038385594202 1.0024677366179564 -0.0024247271559154
1.0033040045531920 1.0027072064606912 -0.0009392519909380
1.0034688991555711 1.0023817560416439 0.0004180588596349
1.0034400676237187 1.0022832749776793 0.0004618585642718
1.0031878353694446 1.0026921317223492 0.0007055222573623
1.0032102017776270 1.0027168683808003 -0.0011007162768619
1.0034234351997222 1.0024311064723288 -0.0001901962822866
1.0032972119996759 1.0025445476043788 -0.0002721154983328
1.0028985540512043 1.0032339017202003 -0.0002473993609508
1.0031568854291391 1.0026946696378982 -0.0002663732553535
1.0024177371729830 1.0029332460767424 0.0009881759588837
1.0030931121375710 1.0029315497471356 -0.0003122401276271
1.0032862732488665 1.0025829459821873 0.0006803962917986
1.0033580095746102 1.0025059163614103 -0.0000773122394457
1.0033922314348716 1.0023958951495213 0.0008549632209771
1.0034290047969980 1.0022448884399608 0.0015985027546867
1.0029033754287595 1.0033666944940562 -0.0002674197776420
1.0034806091732027 1.0028605918736655 -0.0005845736167213
1.0034487139092898 1.0025339954159245 0.0010209299441130
1.0031661576148814 1.0027900789033972 0.0003408309350901
1.0035029017905344 1.0021413849187812 0.0005684722616731
1.0035039029578148 1.0020602082630701 0.0003987027132770
1.0027344001387972 1.0028882112586297 -0.0006976464477421
1.0031793780696421 1.0026577270106238 0.0003326498236123
1.0030935938101058 1.0027797917440038 -0.0002344232001037
1.0033540544525432 1.0025352396632052 0.0000167667426130
1.0035205339253013 1.0023629646057541 -0.0004708724512610
1.0033401038875527 1.0024008634925858 -0.0012154811677664
1.0034821973852084 1.0022093559871756 0.0006835370623365
1.0033909793515521 1.0027539383982917 -0.0007438732747260
1.0034379377305140 1.0023923121874942 0.0005421180006580
1.0033560296425097 1.0025119315913038 0.0001886443169375
1.0032234769494910 1.0026949470914297 -0.0001994156318681
1.0031716312056269 1.0027536544031064 0.0003226054372745
1.0034299187922644 1.0024432648416037 0.0004805284533992
1.0033281146321442 1.0025777846808157 0.0001307603922029
1.0033966481031906 1.0024604729441451 -0.0000813220667966
1.0030354904571819 1.0031087567402979 -0.0011795363354499
1.0033028112969071 1.0025730113275777 -0.0003397476689495
1.0035696179696629 1.0024379722288714 0.0009245471579359
1.0031846829527835 1.0027591468056640 -0.0005865628789820
1.0032409478804654 1.0026995642961183 -0.0002335850698825
1.0035942206014170 1.0022969039393153 -0.0006207227665020
1.0030877968830627 1.0027247732421654 0.0019552221518574
1.0033020103555703 1.0025844803064068 0.0002331540902592
1.0032619878491578 1.0026287889559078 -0.0002591182070188
1.0035619108240861 1.0021078932434397 -0.0007325405803290
1.0029812229762463 1.0028497906380969 -0.0003386813551881
1.0036941839454609 1.0017862833191942 0.0013083820011359
1.0032877540055443 1.0025760391162466 -0.0006219831853837
1.0030857614165472 1.0027969553252893 -0.0005100886840642
1.0031266301873123 1.0028144621490971 -0.0003210009299638
1.0030800526330004 1.0029095392079703 -0.0017457354955838
1.0035980339589046 1.0024903753323962 0.0018266916510324
1.0030242031530296 1.0030262491238728 0.0020384589953770
1.0033818448824459 1.0025055839815114 0.0003444271843592
1.0035265796832897 1.0024180795407545 -0.0003246992622223
1.0033089851362282 1.0025779502400982 0.0011400660473495
1.0033269904922759 1.0025083982801177 -0.0003606078103355
1.0035600457285836 1.0023508234228813 0.0004755444150635
1.0032674291238306 1.0025804044034092 -0.0011848371949989
1.0030985112341733 1.0027482775633381 0.0011438801339023
1.0028496826836897 1.0027997154365698 0.0018375477076153
1.0032890575184537 1.0025760463295719 0.0002591390968808
1.0029435621954819 1.0028579709069552 -0.0000186381866655
1.0034221162032715 1.0021483111141596 0.0014701311882100
1.0029601485667716 1.0028520775150322 0.0000582421382275
1.0037458345194084 1.0023266136144047 -0.0001647347786956
1.0029705042681776 1.0027977477233831 -0.0006639134514777
1.0031024008094303 1.0028498260306253 -0.0004607714131400
1.0029438471206484 1.0026883846156895 -0.0017625255991967
1.0034331139364649 1.0025427604406212 0.0016667572078108
1.0032706227261436 1.0025022674761817 -0.0005371877936006
1.0035923239050439 1.0024223096507923 0.0006509761790481
1.0028748681761093 1.0027877151215252 -0.0005751688766543
1.0028251481517128 1.0027599018338642 -0.0014403968135132
1.0031730957906877 1.0027511863100935 0.0007261591652378
1.0034124934838351 1.0024248336639312 -0.0011676442967124
1.0030383240367016 1.0030806132790382 0.0000241895212039
1.0033254304658028 1.0024508263334979 -0.0006358567869412
1.0029190235388914 1.0028618421461208 -0.0001186634305816
1.0038104720635166 1.0023356372025287 0.0020853113675259
1.0036285479972060 1.0018907150298166 0.0002189317180926
1.0032705385964957 1.0025892539194385 -0.0003742675408086
1.0034231491037253 1.0029223102229035 -0.0003888604334455
1.0033443198363174 1.0025493887121448 0.0001093406474885
1.0027633432166467 1.0028653918361294 -0.0010611127221598
1.0035013087163058 1.0021258113354525 -0.0007229574002385
1.0035025027472126 1.0024577072297103 0.0005280812842817
1.0029795646002009 1.0030845541019924 -0.0003660407647427
1.0033666685029630 1.0025365719722716 0.0000680674531608
1.0030850063253856 1.0029420587883326 -0.0005275177213579
1.0032571649955795 1.0025516608153171 -0.0011613756610726
1.0036587838373427 1.0017520984000190 0.0005290830314869
1.0034274300743651 1.0021259773148099 -0.0013810889248978
1.0035506076840652 1.0020571518523191 -0.0002923123579391
1.0033389330534681 1.0024652160672407 0.0001246225511659
1.0032228743604448 1.0026393667763267 -0.0003887719799246
1.0036361102764402 1.0020289497643120 0.0003433302605922
1.0031652518240968 1.0026264042465665 -0.0011576934928616
1.0036350467855901 1.0024113847874421 0.0005368022857709
1.0035679336909586 1.0026802267252464 -0.0006325971480440
1.0032824532233637 1.0026236064849292 0.0012196626924244
1.0029716790445826 1.0031209241107557 -0.0004993960056886
1.0035933225940907 1.0018338570301881 0.0007256225557030
1.0034287197029488 1.0024485502802856 -0.0005860766626134
1.0032239400937979 1.0026682765523121 -0.0006133116874676
1.0034480352684156 1.0025340902074011 0.0015243084197778
1.0034122842359585 1.0024160676799447 0.0005906221255788
1.0033539074863758 1.0024299329412516 -0.0008273898167002
1.0031925915227202 1.0027082831517662 -0.0002722467774432
1.0029802256724218 1.0030846770536221 -0.0005312219925002
1.0036581003265377 1.0024271846368331 0.0012362984104527
1.0032980613012812 1.0025815427972002 0.0006579292517196
1.0030416392604844 1.0030715602475990 -0.0004957657884307
1.0035364105703153 1.0024351623808623 0.0006049276851751
1.0035036951444700 1.0021466862439852 0.0013552270972787
1.0029741131829020 1.0031021391413324 0.0005403541204367
1.0031138320227091 1.0028010404013705 -0.0004798853025822
1.0031230400832745 1.0028534824966533 -0.0003656856915467
1.0031662951326277 1.0027669076470958 -0.0002554678119264
1.0030569691231119 1.0027820198302240 0.0000272157169739
1.0029793225895640 1.0028283340334017 -0.0004961332004972
1.0032935317358689 1.0024789319936831 0.0011826418537126
1.0024845842088201 1.0029609187537993 -0.0004679968940164
1.0034286724653141 1.0024292076660366 0.0006053643216217
1.0031055625369492 1.0027474674894712 0.0007260450997206
1.0034623388727006 1.0024744261697776 0.0008787414237383
1.0029983181978672 1.0030563400553778 0.0001806699643685
1.0034370530125838 1.0022978493908856 0.0002605988184402
1.0030099957135368 1.0027220536257213 -0.0004896548171388
1.0032587744877453 1.0026805238795715 -0.0005924136769472
1.0025258190706983 1.0038922412916698 0.0000255214651664
1.0034710110770149 1.0020055313774789 -0.0007662603871141
1.0028542930360964 1.0027954154818475 -0.0010229740024078
1.0033437747842249 1.0025769612394737 -0.0002327253437594
1.0031847609882567 1.0026075031610879 -0.0015099489975977
1.0034843241536426 1.0022984137465241 -0.0014726777151692
1.0033525608363898 1.0024487543407319 -0.0002329254940201
1.0030110258595140 1.0027768369719698 0.0022016345149001
1.0031982394795134 1.0027370126787523 -0.0002868368663857
1.0029470532399607 1.0031478198319415 -0.0018286328467557
1.0031246263162905 1.0028084393059575 -0.0003250437237074
1.0033130296849817 1.0026909109320752 -0.0008511607519513
1.0028277341730583 1.0028293454565751 -0.0013661513166231
1.0036341468383558 1.0019180838969466 0.0006027187593956
1.0029930227294155 1.0026280855159841 -0.0020699571159764
1.0027409390037634 1.0034375102125315 -0.0007816233294335
1.0031463411118113 1.0027621368051649 -0.0001835910958049
1.0031211438862344 1.0028406727217989 -0.0003225465602468
1.0035270069961602 1.0024208747529535 -0.0002942806684079
1.0034858556703565 1.0017942103148971 0.0031122152967199
1.0037993278070410 1.0021761760505090 0.0003809033948940
1.0031216234814446 1.0027795056519326 -0.0003533384645959
1.0028751950128689 1.0032956767623895 -0.0007589036692177
1.0027422368835794 1.0034769291296710 -0.0003950647309892
1.0030302211216482 1.0030209927733900 -0.0014519553998563
1.0030511593878435 1.0026397189195084 -0.0016347921336079
1.0029391475076739 1.0030592150790023 -0.0014374156593769
1.0036860353697223 1.0016786431923199 -0.0003761496112398
1.0029616368139835 1.0030040374392282 0.0022669233279992
1.0026239997786557 1.0037231621046316 0.0005683552736428
1.0026463869338071 1.0029191948732465 0.0006300382299088
1.0037914945592292 1.0012966560904846 0.0015488698702521
1.0027559716589036 1.0034769095359501 0.0009669808807420
1.0029841194118170 1.0026194394559775 -0.0018419682582685
1.0027163918122821 1.0034968611822588 0.0021365942507726
1.0037502154311513 1.0014662632104392 -0.0000034552318009
1.0025343796560855 1.0029500391493624 0.0001318974242190
1.0031715050607375 1.0025166131739136 -0.0018877687056578
1.0034219519451311 1.0022885695240733 -0.0015084027279602
1.0027759080207965 1.0028650164982078 0.0021048666381203
1.0029686716719157 1.0029828959913425 -0.0016647163953588
1.0037422715521187 1.0022004768992649 -0.0000836924312171
1.0029638431945984 1.0026828199890052 -0.0016164206268412
1.0035352973176610 1.0023733773298851 -0.0005806235093840
1.0034123079849004 1.0023861336254920 -0.0013858982725429
1.0033490663815539 1.0019833566370531 0.0036815786445349
1.0033874978145321 1.0026861019742228 0.0035162629006284
1.0035954701043788 1.0017590564866194 -0.0002740209365438
1.0035493189162934 1.0019489982617045 -0.0005523463781507
1.0035879525223488 1.0023396777309679 -0.0003351258755720
1.0036498035297394 1.0016229922271644 0.0009561095365996
1.0034185169018353 1.0025426520173717 0.0018120162997750
1.0036533425222773 1.0024113148383338 0.0013577460096900
1.0033829856392185 1.0021129424861841 0.0019361949182683
1.0032222864314806 1.0023135227324069 0.0022851973924466
1.0029101382396053 1.0027275797474959 0.0010851747561428
1.0032734892748452 1.0026318286839710 0.0021454551719706
1.0028451934404543 1.0032148492857058 0.0011465856470680
1.0026767060606816 1.0028362582940722 0.0008714695199968
1.0027451877634259 1.0034588694870419 -0.0018085497718508
1.0025248486305847 1.0037526764947076 -0.0010913857518814
1.0025773637370925 1.0036514893030932 -0.0005937593892565
1.0026857137348306 1.0026685866887939 -0.0022215361430558
1.0025545456542926 1.0028183859729132 -0.0010276470542188
1.0026094621177075 1.0034490119634576 -0.0021776087479685
1.0038490672495424 1.0021491556709519 -0.0000766492481227
1.0041857741078206 1.0019323824761035 -0.0020646455337390
1.0032028876918446 1.0020695946721891 -0.0042460133328002
1.0027352303433148 1.0026081187383737 -0.0025412427011821
1.0031644814282410 1.0029885250631945 -0.0017901359196868
1.0027559051143857 1.0030454929211245 -0.0033382395912128
1.0031199986423818 1.0029515089465009 -0.0038313786963409
1.0034165576300973 1.0024996031265521 0.0009207842400680
1.0036638096593338 1.0025055027468401 -0.0019616190455586
1.0034254422759818 1.0026492950104187 -0.0002574317613899
1.0033550467755152 1.0026966118203497 -0.0003892206192465
1.0034757446204836 1.0025360659462237 -0.0001418281996989
1.0032772751029904 1.0026693762128078 -0.0003202642949405
1.0035105886435560 1.0025443241225862 -0.0001204660948570
1.0033569822688315 1.0024782843692746 0.0000064286232266
1.0034953788746326 1.0024176500295170 0.0000898990408101
1.0032414167602324 1.0029919170899402 -0.0028379284358805
1.0017474358241099 1.0026545985189699 -0.0013026045897683
1.0032890015112188 1.0026280205238105 -0.0011707763222482
1.0028314974220072 1.0031292187191050 0.0026694933018471
1.0020531798059924 1.0051563601970244 -0.0019676087050201
1.0035048030771154 1.0024541408491854 0.0000670490750335
1.0034598927757312 1.0024877763343698 -0.0000157862963002
1.0021902173275192 1.0029019938382189 -0.0025298067890965
1.0026379387770421 1.0029418661742466 0.0024790623071438
1.0022474419875784 1.0049217205745162 -0.0014889453312768
1.0022958808759836 1.0030529925709037 0.0019330378287394
1.0036480126083884 1.0016030111976519 -0.0009424191979735
1.0036340510692547 1.0027262868619158 0.0043994771823126
1.0022208856279367 1.0028252401835331 -0.0037975028967199
1.0036494013093622 1.0026027420525221 0.0035203609251965
1.0025791300678113 1.0038427711675395 0.0024750262340033
1.0031836820342572 1.0018854893714693 -0.0038108113599883
1.0030542525293287 1.0022163652741172 -0.0036102059505550
1.0029883808914573 1.0026343126443789 -0.0002611445336043
1.0031025052128364 1.0033666597148974 -0.0017299177653401
1.0028609117209961 1.0048753655406626 -0.0025335814034907
1.0038011312256894 1.0023398067879197 0.0025556950750542
1.0036579836961621 1.0012683723170499 0.0045554307067911
1.0029546296865730 1.0029388840301188 0.0013697745192619
1.0038387121648251 1.0010888141874792 0.0019482027868470
1.0025486313829439 1.0037310201989227 -0.0011087828457435
1.0033240970061568 1.0025814128668820 0.0007206298495856
1.0037624836948613 1.0027238610888798 0.0008078752256013
1.0031771396984186 1.0027805093594326 0.0008037811010300
1.0034806581514821 1.0028140756144295 -0.0016506093599652
1.0034263818748248 1.0024650963552146 -0.0011843757966013
1.0033571707978324 1.0024755548115891 0.0004810761142618
1.0031105952449910 1.0030069027243647 0.0016579377401376
1.0034773925710201 1.0020004725269369 -0.0028140586676224
1.0032893634407107 1.0024308059109770 -0.0027562086152944
1.0026872580831976 1.0027348889810559 0.0010121187323723
1.0022947347960627 1.0030265604817852 0.0013595335922710
1.0037458024227424 1.0022068151857333 -0.0005877844834729
1.0029366302865099 1.0028678563783091 0.0007316901079719
1.0029900980032185 1.0027190044959298 -0.0005798407711838
1.0030009785841134 1.0025249514211556 -0.0014925193723973
1.0023625160100509 1.0042953403756880 -0.0009795645851417
1.0027127146428199 1.0026033560914516 -0.0029964714212463
1.0028760784567632 1.0027925873511605 0.0008408570137220
1.0033992434193311 1.0028132909300653 0.0004298949175273
1.0040911178268004 1.0000923075817658 0.0006431512915789
1.0054763266229036 1.0013792523831195 -0.0076273834736516
1.0035099979679707 1.0024243862263293 0.0010443191255793
1.0021372733020801 1.0028742083805724 -0.0018065442250945
1.0037751575659957 1.0013235448853259 -0.0005283172429210
1.0031761086497086 1.0026384971284743 -0.0017067397702399
1.0098886368607163 1.0000225785348538 -0.0060807036723776
1.0030702962488995 1.0022305756435699 -0.0036391078292776
1.0029235093666680 1.0028183103978470 0.0007632603276395
1.0026425397529581 1.0034829524074429 -0.0004021288035528
1.0034348156984620 1.0022705541813748 -0.0027656486579043
1.0032507503354193 1.0022352266843242 0.0024454008394886
1.0038719762072772 1.0022037985264876 0.0025264137410292
1.0031056004848089 1.0026923881198813 -0.0005594875082474
1.0029264571613818 1.0028812213673342 0.0012765399169458
1.0028579880617410 1.0023295867529611 -0.0034403452029221
1.0030839310123816 1.0029728966019442 -0.0008761053768616
1.0027552155643003 1.0035762334853304 -0.0032056515468172
1.0031484624573681 1.0023169593640833 -0.0016100208584534
1.0026083589661545 1.0025744975120656 -0.0024951335947410
1.0028966546619071 1.0019353654988024 0.0009077740084932
1.0026445802359081 1.0037376330395513 -0.0008790655294235
1.0026788331908600 1.0027768428448085 -0.0003849304707265
1.0022249983900542 1.0045134268262212 0.0012855881686446
1.0051388879540020 1.0030060002844741 0.0105310324161229
1.0024673287038868 1.0028203236097786 0.0008573517206952
1.0027921055827527 1.0023253819084923 0.0003259691712258
1.0035166686940491 1.0026639433376301 -0.0013829305802013
1.0026470614038161 1.0027772289960935 -0.0007592990004858
1.0025865162388465 1.0037133564952359 -0.0016901770964303
1.0033440762596162 1.0032560937205592 -0.0014048868404412
1.0029970465097924 1.0024813717359315 0.0013432536591904
1.0030569305652077 1.0025112600170361 -0.0017102899572772
1.0026246625161057 1.0038408849311091 -0.0026917089020315
1.0025611879567664 1.0026306401688694 -0.0020896769450976
1.0026879425092410 1.0030519903849511 -0.0033772658812748
1.0034987493256144 1.0022903699023324 -0.0020656318756583
1.0031185883217801 1.0022464049287123 -0.0014889465982174
1.0026730339552752 1.0027381349473576 0.0025260038195312
1.0030810191063657 1.0025555753187712 -0.0014981841980349
1.0028845211266377 1.0026469751744047 -0.0012263004395401
1.0024642510944060 1.0039609702639787 0.0007419807202436
1.0019200361910432 1.0031004241738910 0.0004356977153209
1.0028654015200189 1.0034605437907618 -0.0004080479979271
1.0040533456565641 1.0020292570550144 0.0004924214562195
1.0040080489517780 1.0003362004821332 0.0040110241284261
1.0023356095130549 1.0033056302998795 -0.0069112631965307
1.0025638304528339 1.0038058614390593 -0.0003451824913592
1.0024516096830287 1.0036801617774429 -0.0020126294080862
1.0024113150065570 1.0028816998170960 -0.0008883389033833
1.0043967081950647 1.0018601345715781 -0.0035722019859139
1.0024308805993021 1.0016364592638369 0.0020699742911453
1.0026801762854649 1.0037202638021328 -0.0024472075889192
1.0027830351459497 1.0022799691107369 -0.0034557774698082
1.0037731799147622 1.0022850487073214 0.0012682362737015
1.0029690435395904 1.0024630772235772 -0.0016335040141754
1.0025782556428624 1.0031833126881964 -0.0030981583069676
1.0036305287334262 1.0015689285581626 -0.0002264203373501
1.0033404986559136 1.0030635875980074 -0.0002178885139678
1.0033850941825984 1.0020501554947063 -0.0025400646464038
1.0027772027116457 1.0023853093419597 -0.0033758775310724
1.0037994418696183 1.0011878887022592 -0.0003249941941777
1.0060465745643712 0.9999819052946680 0.0052488360241353
1.0031925284388541 1.0020541288225555 -0.0016176311231474
1.0036693263686682 1.0024530057494137 -0.0016328754363221
1.0031134516008391 0.9997834190989631 -0.0037644476398714
1.0032616714902520 1.0036161798339620 0.0023970627375678
1.0037923032268405 1.0008780242018955 0.0036845283731289
1.0014865019147448 1.0017871864748702 -0.0061090909206578
1.0037139586851112 1.0016757837475392 -0.0035917000666967
1.0033251486504058 1.0025730498713876 -0.0018016974522689
1.0032288033094379 1.0021608557026187 0.0004501957436650
1.0105982815007686 0.9999134170142153 -0.0130063750879091
1.0037579725460239 1.0021639754257099 0.0006092271584586
1.0036283715441892 1.0020230510117234 -0.0009815917421164
1.0033433772723945 1.0026126029625013 -0.0016389117141922
1.0036149086494504 1.0023733005444901 -0.0009998475404460
1.0038390882474375 1.0023413838275064 0.0006684230093330
1.0037746772926357 1.0017408003826731 -0.0006430752926884
1.0039230367839380 1.0023422430176379 0.0012953321941557
1.0039034116870724 1.0022592664632832 -0.0003176020600922
1.0031828182102733 1.0032168983001881 -0.0014101712538982
1.0032730236246297 1.0028102513681303 -0.0016748341094725
1.0016825886020930 1.0027020984187291 -0.0018425818374286
1.0030348493899299 1.0032286348176582 -0.0028209033849303
1.0027436224678186 1.0026455892590258 -0.0017374546755361
1.0035471022107831 1.0017948266292023 -0.0005478108823409
1.0033240832384938 1.0022678005750298 -0.0016243824914716
1.0030487944380140 1.0026567260376067 0.0008699794128591
1.0031973492241573 1.0025429814435749 0.0014164815917434
1.0024344139879267 1.0026900819900872 -0.0019439169176518
1.0024902688793695 1.0008351728809801 -0.0065830926391126
1.0031984434498733 1.0023088062219907 0.0000145163898520
1.0029228378532997 1.0023903488410832 -0.0015666800765544
1.0028411166492728 1.0025300284151148 -0.0030221708643688
1.0032785079609907 1.0030090920052870 -0.0012800096600878
1.0025764065834690 1.0028015388819234 -0.0015506948261592
1.0037095142396224 1.0013611299066323 0.0001897755711530
1.0031290277459197 1.0024330329985687 -0.0029011275876494
1.0036419849270855 1.0032137648090154 -0.0022518244501682
1.0037358667912191 1.0006117754031112 0.0014632552415383
1.0028706839037194 1.0033027774354957 -0.0009010385821170
1.0029242827562519 1.0036477690628582 -0.0008683135120414
1.0039075126315176 1.0022628350782559 0.0015660405936101
1.0039581843152245 1.0023159570210158 0.0024669700613985
1.0038478314286901 1.0018456466360208 -0.0028659632118906
1.0031170155723255 1.0021972231014544 -0.0019378986411012
1.0046242069003222 1.0019428666506431 0.0068988472355191
0.9967474964348534 1.0002564659803481 0.0037153390702542
1.0031531898744934 0.9992783610379812 0.0077535541569779
1.0022160397416122 1.0027025041647089 -0.0031210973596515
1.0027956966389600 1.0026188201910320 0.0007094706053698
1.0113656409386957 0.9999806020180965 -0.0053977126071153
1.0030653253384980 1.0026455085800343 -0.0011696750758227
1.0028709268640783 1.0019476227329629 -0.0013915317828020
1.0024602531284383 1.0027179438930252 -0.0009838910050729
1.0012299008625611 1.0065986207866695 0.0029887131084748
1.0034343368932690 1.0027279734915433 0.0007591263142271
1.0032650569767005 1.0032716302307907 -0.0001600563768503
1.0031909084703274 1.0028557841223880 0.0007368292961279
1.0029743923707710 1.0030668342763767 0.0000228405215265
1.0031396748588797 1.0028685116045388 -0.0016544360963277
1.0030460008385360 1.0033637971376235 -0.0012230831253576
1.0026190865902997 1.0035264805173156 -0.0016045195318942
1.0031365020555036 1.0031626277458980 0.0092893129126499
1.0062286115013110 0.9999680236699803 0.0012482336071840
1.0026983489442005 1.0024379411819357 0.0021783176289757
1.0028456561528323 1.0034643588759733 0.0011107746362256
1.0014041176381032 1.0030757269949286 -0.0039174026624272
1.0045275571556915 1.0038283009340077 -0.0062742032475862
0.9988714108391102 0.9998620925409051 0.0001407530258626
0.9983264238179888 0.9998378334218552 0.0007394417427889
0.9982942335322287 0.9998508984219739 0.0007075667258107
1.0042985590888451 0.9972151008199350 0.0072229761944965
1.0032383343409705 1.0040401657623867 -0.0094503652586223
1.0018031460127927 1.0054363696284372 0.0002986248629203
1.0032475751251135 1.0028921611891151 0.0010824313274748
1.0033329621975982 1.0026264078104643 0.0005822373125862
1.0040409827988495 1.0018223241191935 0.0028594905679603
1.0037319649571068 1.0016579020076959 0.0002702574943773
1.0038904192424982 1.0012631508425558 0.0014986776524794
1.0032084374644230 1.0026563144370881 -0.0013868471877869
1.0038626639411938 1.0007474688190594 0.0027334424508964
1.0111946609814726 0.9998677549642737 -0.0140990544611777
1.0015902243954584 1.0018064854423330 -0.0003684867649682
1.0039127965948491 1.0024122101295068 0.0046406754896498
1.0038280805100528 1.0020435841747914 0.0006511332534213
1.0033029265744025 1.0023884533961811 -0.0016004882950376
1.0037688795592048 1.0010698770281339 -0.0010000421532593
1.0018656269559192 1.0014399737569708 0.0031315703379308
1.0050008356862510 1.0030577855118221 0.0089736235506901
1.0031438861261619 1.0025520172037523 0.0015192786853704
1.0013178507540013 1.0018019540764216 0.0061974544066710
1.0025922089250119 1.0033411480441270 -0.0116322627081677
1.0033438518213742 1.0021608215440925 -0.0018712465901350
1.0009426322303165 1.0039393491229138 0.0100602026722085
1.0033339290052252 1.0015114948695811 0.0031051355942633
1.0039410386633763 1.0028803063905429 -0.0023459711465498
1.0027317841433250 1.0033892472010559 -0.0026367868333806
1.0038156161472229 1.0009725099268063 0.0005293824085183
1.0026247732440541 0.9999629266971108 0.0049809455764584
1.0037112953745382 1.0000635068599268 -0.0082326846217974
1.0018192057847715 1.0028195075369617 0.0089484663941065
1.0029263328877687 1.0025380936120831 -0.0028072734331579
1.0021448977569911 1.0030337342373630 0.0014043406741866
1.0037815203031120 1.0009892529520925 0.0027730865181388
1.0034907525021270 1.0024682880216467 0.0022446922088215
1.0029961976053046 1.0028882936359551 0.0015443486679324
1.0050309005396605 1.0028969078002223 -0.0099215829084663
1.0030669977186479 0.9999415130984357 0.0003849279705278
1.0039279627353515 1.0008651352509923 0.0017115663633032
1.0063672463940463 1.0022445213940607 0.0047782663955450
1.0049175020134540 1.0031632294617134 0.0087514760134365
1.0038938646186388 1.0021721387918598 0.0002201531847896
1.0030537447295966 1.0027135781907159 -0.0024424293405670
1.0040072226952066 1.0006128778697374 0.0053787099988297
1.0034343404750159 1.0019804770677578 -0.0015917638186098
1.0039760197696055 1.0021130624570533 -0.0019044303175572
1.0064814792977905 0.9999933309001410 0.0079201564772597
1.0028976047541276 1.0031260429777569 0.0000375133799593
1.0034281835327639 1.0020899038145963 0.0000114876524586
1.0037679928692753 1.0011355546284244 0.0007286832135659
1.0101620589684912 0.9999091427057522 -0.0080955532364081
1.0031456182241998 1.0020744639416608 0.0046878000606340
1.0029279231931700 1.0023050112579259 0.0021944797145197
1.0031714991387195 1.0026747513874525 0.0007962421556895
1.0034271752920061 1.0015725745916704 -0.0033053821138912
1.0033037787362948 1.0023281154240711 -0.0037338096132894
1.0037461191670893 1.0021728076124174 -0.0010796836998625
1.0028354960176027 1.0002026376363400 -0.0015763189457429
1.0034320014810085 1.0020824109570921 -0.0036858216638812
1.0025100312353785 1.0027850473985012 -0.0022245020436831
1.0034532997709218 1.0031715087990063 0.0066890677909930
1.0054997186019357 0.9999917999832076 0.0026776130682997
1.0029023643969259 1.0027709235384357 0.0008581877811111
1.0031894838589424 1.0026489867728983 0.0069474250296301
1.0030388313391860 1.0026015142406999 0.0014927500117855
1.0032936824452110 1.0015974871798690 -0.0010242996846338
1.0035787857223841 1.0029721249548686 -0.0080512567809069
1.0031115965026716 1.0027684523621789 0.0037454393000412
1.0031635943897996 1.0026825152275634 0.0008621166088692
1.0037536687342719 1.0008489277668939 0.0034908703633943
1.0039708405467731 1.0024857247334487 0.0037742069716066
1.0029737318552099 1.0020759735296696 0.0004568281756529
1.0020951679335588 1.0036026749106339 -0.0094048893341888
1.0015822114904238 1.0002430374859290 0.0025541594849813
1.0039556403137007 1.0002426050727968 0.0014829905551078
1.0028774169427808 1.0002082110846047 0.0013150609388707
1.0020292203126597 1.0002741713618195 -0.0075677711280827
1.0040052249502076 1.0036059473280654 0.0025193709194258
1.0023688690171237 1.0038882772831683 -0.0009172240751400
1.0027594867623935 1.0027485365553699 -0.0002227133690682
1.0038634372165660 1.0021253953314395 -0.0014313917796003
1.0029265702978112 1.0031391611600133 -0.0029070224037890
1.0061635050427948 0.9999248755935508 0.0026098977231771
1.0029758652233609 1.0026241457098111 -0.0040448216280919
1.0039136582559640 1.0008409870855814 0.0003538703488084
1.0016949262192627 1.0025559522369456 -0.0037338813361025
1.0032142974236580 1.0009643108800159 -0.0031269908564052
1.0067388724980479 1.0010874003751118 0.0001883954767116
1.0032470684587069 1.0016195094158129 0.0031259735351543
1.0015902243954584 1.0016571090585347 0.0034170948488378
1.0026030080416601 1.0025726785464395 -0.0044240716349766
1.0020537775032101 1.0026447720684992 -0.0067600585396967
0.9990810409457299 1.0002022734968270 -0.0027800063963928
1.0040345852447865 1.0019721227426535 -0.0017153259938636
1.0029701428864233 1.0021187590827754 -0.0018161652744922
1.0025887094916328 1.0028538950746693 -0.0015932814825842
1.0027655078293818 1.0020361552898187 0.0073744586734236
1.0028983091078079 1.0029334222586004 0.0009394262273516
1.0028963834320699 0.9999629266971108 -0.0051385138265340
1.0028397861319411 1.0030144148101745 -0.0015740718081815
1.0037328638365295 1.0019505293146236 0.0025142971246308
1.0061619021968047 0.9969277078805380 0.0056048800511694
0.9992983629614893 1.0000998456651069 0.0009807356544429
1.0027567676267470 1.0033448745376274 -0.0007434975860084
1.0031401317560593 1.0014098038842516 -0.0016935451205969
1.0025823769934130 1.0019836604057679 -0.0081653059634546
1.0039530711736466 1.0003929028838248 0.0007546839944606
1.0011456325952748 1.0029869682231110 -0.0032311308592292
1.0036519341994263 1.0021023931737547 0.0015528449573240
1.0026243179976080 1.0024526675008030 -0.0035271795104196
1.0023261941350758 1.0045224723833397 -0.0035691355991962
1.0026745080046500 1.0032989390538847 -0.0001207439224973
1.0037560879094323 1.0012059268936560 -0.0001884771199220
1.0034808593846323 1.0020747451180618 -0.0022739019179990
1.0028670510514914 1.0032781004687703 -0.0024317817495045
1.0028336148701047 1.0033560668654125 -0.0019455408686857
1.0031344398793700 1.0017431151146194 -0.0019592029698848
1.0035325013635665 1.0022229205050788 -0.0014210016292950
1.0018087185601610 1.0047658217785553 0.0021218480005283
1.0026754995521046 1.0034717285967798 0.0002399043712277
1.0026866300759916 1.0035500069197034 -0.0007451976668165
1.0027073550649730 1.0036677544993329 -0.0038451740921015
1.0026555104230397 1.0029594373157140 -0.0000315894480073
1.0015928579018043 1.0017471652187833 -0.0027300708532741
1.0052780150294600 1.0022472332366184 -0.0013421432231208
1.0030362800301682 1.0025525103404724 0.0039178831785542
1.0032722271545682 1.0024934553995521 -0.0017089595199152
1.0020614907091496 1.0044324256673405 0.0038810434220606
1.0024818147459187 1.0024003124568499 0.0020209205081232
1.0028634134752838 1.0034428656428085 -0.0022817522948289
1.0038797500905712 1.0021261303952709 0.0007058761024917
1.0027357395671936 1.0028508176828363 -0.0011471536783906
1.0016725429934290 1.0031132747339628 0.0005696767004015
1.0030364372157961 1.0023277776332964 0.0011284584701916
1.0039363820314069 1.0021472231542423 0.0014713423534677
1.0028918776035693 1.0027224824324346 -0.0003801394688678
1.0032253347824214 1.0026933177094035 -0.0010529380012900
1.0027709878984310 1.0033033129505324 -0.0035030691561480
1.0036743373897388 1.0009437365436120 0.0041442458391157
1.0004435619292154 1.0061485458038055 0.0047608586360616
1.0053071213658880 1.0011699749211771 -0.0079619213799364
1.0032015284753621 1.0030298536477467 0.0005488592098002
1.0030954373389631 1.0023733037244746 0.0015649022430674
1.0029047245452187 1.0029670595532960 0.0008287897852360
1.0042712554692999 1.0005585333271807 0.0037736803786140
1.0034508184729918 1.0032736330090550 -0.0073285234868920
1.0026621925399497 1.0001198653027894 -0.0010325336767072
1.0028661393003906 1.0026777667031876 0.0013733916565598
1.0027639628336273 1.0026589347853383 -0.0021112950246920
1.0027730554322387 1.0028535225680471 -0.0007090858487511
1.0028218542774374 1.0024956522089661 0.0012365470409286
1.0028282951346374 1.0033026171019823 0.0013785261253741
1.0048528989293652 1.0022737057867919 0.0011137949798494
1.0032036530633668 1.0022634735954767 -0.0013521547347868
1.0036146948167124 1.0021520500819003 0.0016765592465197
1.0024351539720349 1.0035434807237815 0.0030099017679112
1.0032483056548951 1.0021735757112014 -0.0019212808043408
1.0038070257165730 1.0022544887348950 -0.0028043068531759
1.0027197096731617 1.0035184397433214 -0.0008087325913697
1.0038168203763986 1.0022139482710248 0.0003661843491349
1.0037523555886712 1.0012348584538500 0.0017523006108756
1.0036000488327370 1.0024260677768742 0.0016900753871680
1.0030865256782313 1.0019436570749216 -0.0048912654677108
1.0010205410320347 1.0031729383145169 0.0093350098254449
1.0031961666253406 1.0024546266004213 -0.0059799876129583
1.0028809142143380 1.0027263402083904 -0.0017186314318922
1.0027143684108037 1.0028568944145846 -0.0007142168348632
1.0029087345213421 1.0031543827907317 -0.0021307543879644
1.0032000895521456 1.0051074083808851 -0.0075593616469332
1.0040295457457449 1.0006001347245650 0.0002798501066564
1.0035849623819513 1.0016062886728061 -0.0014361270633102
1.0031511669595738 1.0031337259055511 0.0003993157806844
1.0037022382486460 1.0022776375824622 0.0034199167174056
1.0029701483632767 1.0031688331386470 0.0051205293256200
1.0029306432035388 1.0019304476485549 -0.0042340234704707
1.0030009397802406 1.0005751767010225 -0.0022373513499347
1.0013115871957108 1.0001290075108391 0.0024375200185847
1.0029284335070738 0.9989727473143915 0.0086634942797917
1.0026960832369261 1.0036302514785631 -0.0028710550998572
1.0035170629007504 1.0017897399314262 0.0005542213376441
1.0036207363901768 1.0007924481333161 0.0084701233038071
1.0040476803871754 1.0008249692316289 -0.0015935457366382
1.0037474064112593 1.0025878059755327 0.0004134866304351
1.0024610921164490 1.0040550978220653 -0.0022834132492542
1.0028604383088313 1.0010121583087723 0.0022924835101734
1.0118658413817374 1.0003632652051837 -0.0079663883039133
1.0030493240083804 1.0013731717789298 -0.0039991357345900
1.0034020211515611 1.0016766524660925 -0.0032985546966701
1.0029649646984691 1.0009416902873010 0.0094532747182659
1.0044936406440748 1.0022399640849824 0.0037289511399736
1.0029570790099198 1.0004701162474661 0.0002372285296431
1.0046180020283990 0.9999489869010445 -0.0091298944117665
0.9979676020244381 1.0003993447158945 0.0024443583396264
1.0030262530041762 1.0025954674884225 0.0007180584982188
1.0025152989935768 1.0055901468105646 0.0024555873711309
1.0032454070016614 1.0001388953942330 0.0031860138735570
1.0037636656437552 1.0008603076137752 0.0014359517209381
1.0031860431113111 1.0024422258522931 -0.0003288243318296
1.0073963059986242 1.0014733959671362 -0.0034951282417376
1.0033290752271082 1.0011739555086894 0.0031050431438354
1.0037061252768338 1.0001886993337203 0.0016052026446060
1.0026434772163537 1.0002097987696605 -0.0029457941895551
1.0036961907097095 1.0026922565364644 -0.0004526122204357
0.9994189550571657 1.0039693941335388 -0.0023410720301743
1.0037622729104954 1.0007959305470735 -0.0011175156582993
1.0037005419323104 1.0021838754561057 -0.0011490757711768
1.0034962465985231 1.0014806920160404 -0.0012762836517307
1.0037409609505150 1.0013023547354787 -0.0020436277559366
1.0029268752621976 1.0032089417316652 -0.0028930412382602
1.0029266806096724 1.0024074217068311 -0.0032277484471966
1.0026488201688892 1.0024531262152927 -0.0037579761083150
0.9973376666185060 0.9999162387061189 0.0005329473794883
1.0045819072563840 0.9952484742831397 0.0067260401494909
0.9962795515907896 0.9999374292399948 0.0003308322141996
0.9964133115055991 1.0000180970750681 0.0004497568064767
1.0038475620798888 1.0008065666843877 0.0012364534180512
1.0052390423517876 0.9985931617814997 0.0070241626796114
1.0028534926470336 1.0026239785839424 -0.0023172044903067
1.0039537019388713 1.0020990811142663 -0.0003930641357213
1.0030302968499640 1.0018893746773039 0.0073079439971747
1.0027090694998566 1.0006942123409732 -0.0000830030638506
1.0026996928029890 1.0023811697973952 -0.0028924217284237
1.0017901780871314 1.0053959313576630 -0.0023867798355559
1.0026834568808087 1.0029481095874104 0.0002911430889193
1.0050502864882125 1.0022573467071410 -0.0030573626765923
1.0023634403974002 1.0052414634850564 -0.0031755253725390
1.0031852526919289 1.0027411670271413 0.0016574574385282
1.0030277243797681 1.0031126076502161 0.0010811355087648
1.0031743812775189 1.0017336666030123 -0.0038610724410130
1.0027454131607958 1.0020402339662613 -0.0005027968340984
1.0032336712513843 1.0025148713625975 0.0017051273354963
1.0028526166244014 1.0024217660877548 0.0102660474217549
1.0019583103299241 1.0054824002707643 -0.0026663723973618
1.0030972365523201 1.0017258391119246 0.0004874270659884
1.0041924669201892 1.0007270770455743 0.0011148699282838
1.0063330682903515 1.0015699634584248 0.0072541095741123
1.0080644306790347 1.0004455001162362 -0.0051624976640851
1.0020931955270256 1.0035242283380579 0.0045803340391194
1.0046427114372229 1.0008699347625412 -0.0029791315986205
1.0045446771553206 0.9999060816766062 -0.0033416487488749
1.0028260530497308 1.0030935680171476 0.0047603072816021
0.9991820073906823 1.0002822393577357 -0.0031360358107489
1.0021073799428200 1.0034650839778976 0.0094284622084313
1.0036458355888316 1.0011084150742429 -0.0019823596698318
1.0028579169593250 1.0012334491046373 -0.0011069528079405
1.0037092518365709 1.0009104126233515 0.0027275890227988
1.0018817384290015 1.0027773100603841 -0.0021532978409328
1.0030995189386398 1.0007602904825739 -0.0024816795389206
1.0011413952456159 1.0070037389774504 -0.0022644662403189
1.0024995254894922 1.0029514250652678 0.0008305361709471
1.0015797687836894 1.0004172285916748 0.0033196241426408
1.0024274809190914 0.9993222377158202 -0.0043375834569175
1.0021039637461380 0.9995274576836001 -0.0038158670766209
1.0013719087834101 1.0004536196913283 0.0032993482715917
1.0016189099747901 0.9997003315938915 0.0046298909698643
1.0014589744999076 1.0002451578855387 -0.0035612074316629
1.0014091019504203 1.0001512689091161 -0.0032395855576140
1.0023303941916129 0.9994770995418177 0.0044416337874270
1.0031446310832415 1.0019767022101433 -0.0000680168727887
1.0042783477601136 1.0007884943378573 0.0032165852843774
1.0031644977457186 1.0020844726431979 -0.0017527949684753
1.0094000054944505 1.0009802626421669 -0.0050412926719220
1.0031097181047770 1.0029280046214437 -0.0016073022895031
1.0028841633503642 1.0022147360962248 0.0034045716639045
1.0016129657487751 1.0068390642398151 -0.0069147672196372
1.0031868500435575 1.0024563242972351 -0.0013509367845062
1.0028108600393921 1.0034138238847579 -0.0016982740192777
1.0039068960040136 1.0021432871270142 0.0084391685692456
1.0034242043640065 1.0018897093558525 -0.0023594816253173
1.0019219147798668 1.0029015154649863 -0.0048587897825771
1.0039960125263934 1.0000547053833739 -0.0002284212134156
1.0036665085475744 0.9997660857781130 -0.0010849713673954
1.0012848646938701 1.0040846629834290 0.0035492701796897
1.0041971125582749 0.9999186483312964 0.0010069269315211
1.0027714976530202 1.0028385024342916 -0.0015188570373863
1.0016644106792154 1.0033082355844543 0.0034650717690874
1.0030452292658212 1.0012403895888193 -0.0005778344734066
1.0030365878408558 1.0013440738898294 -0.0012828818262350
1.0029046982584706 1.0026736854680229 -0.0020584542546577
1.0042380154844277 1.0023679884786814 -0.0012559607994227
1.0021749224833021 1.0019141851343683 0.0009701672949344
1.0044740828856518 0.9999853302139415 0.0026202077113417
0.9953709021449286 1.0005707003037543 0.0011917238259137
1.0036423458024191 1.0006690864975085 0.0016584244351884
1.0044657255338372 1.0004566341268739 -0.0032020623755788
0.9951581355289741 1.0007564877701143 -0.0006465989583013
0.9953168469311088 1.0007652533529676 0.0010900299137806
1.0043662979476971 1.0016408402277996 -0.0062654676797409
1.0047205691720384 1.0008083829568317 -0.0041803061458465
0.9952308125648659 1.0006815928538071 -0.0006363734840693
1.0048830393468646 1.0005420105202576 0.0044016154337871
1.0038507567031498 1.0048523111995182 -0.0067481838250037
1.0029795417542835 1.0016768996214611 -0.0038064781750777
1.0028651979264078 1.0032660430238909 -0.0014452644215154
1.0041833525973811 1.0015903879256556 0.0019508502832133
1.0062200108894361 1.0019472807516165 0.0014863754202176
1.0247619203928100 1.0003791447820949 0.0033038536483121
1.0038535779513202 0.9991997800389729 -0.0042414058849153
1.0031673919677200 0.9998310801753897 0.0022196045579529
1.0035762653170759 1.0000469200725595 -0.0030676076132974
0.9947390702979861 1.0007242052922021 0.0003150738202534
0.9948863061807818 1.0005940656368406 0.0008339395062267
0.9935127535277266 1.0008451958399311 0.0001928698822276
0.9934280653824271 1.0007557980740207 0.0000248886485219
1.0044080805180426 0.9998258479189867 0.0053387711469282
1.0040455816462905 1.0021232890649516 -0.0018231962170845
1.0033605374062822 1.0021020129239535 -0.0044561897358671
1.0027529744827683 1.0033115381456748 -0.0017052779870783
1.0049807524982937 0.9999917999832076 0.0039445314267287
1.0019818541477377 0.9990684801813345 0.0112049354502766
1.0023356095130549 1.0006725185571079 -0.0071524773990274
0.9992462933736953 0.9998849075530980 -0.0095384564899968
1.0031470935450386 1.0026207151664732 0.0012331654959781
1.0033033895101069 1.0026480681943599 0.0013286018420824
1.0042006977514335 0.9999680236699803 0.0025621768700642
1.0051796109592757 0.9979684011822393 -0.0096045728856767
1.0035787857223841 0.9984637239320108 -0.0077717993816011
0.9984944214610734 1.0000481746620868 -0.0082548107495984
1.0023569863862980 0.9976444937682574 0.0115235380319430
1.0045184408143526 0.9999354757691101 0.0022857956905505
0.9985368118654027 1.0000225785348538 -0.0084092516855799
1.0050008356862510 0.9998537267237887 0.0076010499589941
1.0022823744701614 1.0003165675628884 -0.0019767408363859
1.0028283259485380 1.0002452389544922 0.0008311570518084
1.0026878135167525 1.0019200584844414 0.0064790926808909
1.0028100894078384 1.0016505661051587 0.0041113058984244
0.9994307207282797 1.0102632443450421 -0.0024669353412080
1.0028328622824432 1.0023842122087505 0.0013959655742530
0.9934280653824271 1.0004796401571814 0.0053395428819421
1.0051400332427698 0.9998258479189867 -0.0052425044814158
1.0030770577962584 1.0000469200725595 0.0019352220277385
1.0052173553002302 0.9998310801753897 -0.0039827525710112
0.9947390702979861 1.0003907336798803 -0.0038296452599819
0.9948863061807818 1.0003602471720878 -0.0033775383661468
1.0048427146752539 0.9991997800389729 0.0046293534252400
0.9935127535277266 1.0006089814367942 0.0054159625288078
0.9952308125648517 1.0004361252980860 0.0027358366497930
1.0039330360491485 1.0006690864975085 -0.0032450115877653
0.9951581355289741 1.0005232397011972 0.0027481217836551
1.0035978492212301 1.0004566341268739 0.0021691440951034
0.9953168469311097 1.0005229128426469 -0.0023737351919568
0.9953709021449286 1.0004630103311731 -0.0020212608117259
1.0036551248191308 1.0005420105202567 -0.0042871548566197
1.0034362227379148 1.0008083829568317 0.0045384654430775
1.0008541304295822 1.0027396897992598 0.0003059896531742
1.0034518920199103 1.0014378445356533 0.0026038406000305
1.0034580525324344 1.0015922291141064 -0.0098091496581113
1.0037166147680368 1.0011818093490938 -0.0109384633666603
0.9983222549581096 0.9999782374733115 -0.0076790947257252
1.0046632436755334 1.0000125630331063 0.0006627128760845
0.9984217675341519 0.9999806020180965 -0.0074062780486132
1.0041024935672356 1.0000835340643599 0.0009295897514747
1.0050309005396605 0.9971501385692925 -0.0086300038818171
1.0037086040471324 0.9976642874098773 -0.0073666368645399
1.0020896098214811 0.9976149948069705 0.0125494342366111
1.0051388879540020 0.9981366675792648 0.0093095371275848
1.0043685650659011 1.0008693936821218 -0.0040667723291074
0.9954687838955005 1.0006175731748201 0.0019728042618861
0.9954687838955005 1.0006577166583701 -0.0016228082984066
1.0045276131868319 1.0008693936821218 0.0043785029989333
1.0033247717766558 1.0026056942721779 -0.0036282178149750
1.0039520247895943 1.0027487863827607 -0.0032454712497576
1.0042814452304518 1.0047440852864524 -0.0126267905779603
1.0019255026922793 1.0068782705083890 -0.0052083106763145
1.0034122332089657 1.0025032101637319 -0.0000450566364786
0.9998386864479796 1.0064240547585210 0.0047147082905241
1.0037459348548725 1.0007583725554490 -0.0013383403444583
1.0044815442484221 0.9999819052946645 0.0056053444740760
1.0028942708737942 1.0003443565060850 -0.0096777531909084
1.0020803382699885 1.0001388256232200 -0.0083719650264296
1.0044077697339511 0.9999285793617066 0.0061595885652383
1.0018192057847679 0.9994274543823495 0.0101498382678605
0.9998253890021337 0.9998582646610560 -0.0115631758630638
0.9998450566683991 0.9998360261683154 -0.0109721638682247
1.0031365020555036 1.0002045738564231 0.0097395708031440
1.0026279822445776 1.0037545745017504 0.0014702909441591
1.0037146235138499 1.0001643573810199 0.0007694420383477
1.0047493864046790 1.0054210811560234 -0.0112004989800970
1.0031517384342037 1.0031908464775168 -0.0027281010209479
1.0041845800523073 1.0024101685576532 0.0009748937883449
0.9978530904245750 1.0003889014558505 -0.0018051072302307
1.0044733226193219 1.0001141511089549 0.0093251497346005
1.0036102446372652 1.0019862309568357 0.0029630491271379
1.0023679455505807 1.0019580278034437 -0.0034122419381293
1.0032324460616882 1.0001617424493607 0.0011944069609455
1.0025922972215944 1.0014685516849320 -0.0026692197751196
1.0024604584296422 1.0002206351541969 -0.0019600522148479
1.0036481073292853 1.0008710220775778 0.0041488283180743
1.0029358153761021 1.0002776044376498 -0.0007674011098157
1.0017071686865691 1.0011719776720442 -0.0022602450514081
1.0011499122944596 1.0056148759558594 0.0035052567813990
1.0030155228793267 1.0002690717693918 0.0000048489027058
1.0052936699532944 1.0018249093469069 0.0000614691712901
1.0037315461223892 1.0026989241270508 -0.0048260461255789
1.0031187988123706 1.0015450440384865 0.0010592919602064
1.0040064078026403 1.0015462753403468 -0.0018656432320881
1.0011681625142199 1.0046822220433045 -0.0113862554209504
1.0031735562670505 0.9996092538841345 0.0057081873068575
1.0013955844062929 1.0036749036653894 -0.0099668182451887
0.9999471521675291 0.9996301069673141 -0.0054193981840213
1.0017340153275274 0.9997984287845069 0.0097442834708728
1.0031160595476203 0.9996466894751714 0.0057105630423352
0.9998842420483950 0.9996737124277159 -0.0049673006161421
1.0011399480724350 1.0044328238333069 0.0107051045430406
1.0020337706148275 1.0005840325612647 0.0051878161628419
1.0013663412969731 1.0036743821153231 0.0031550299114243
0.9988971747824233 1.0002663413624875 -0.0030881376480034
1.0044502511408966 1.0005407216047573 0.0070061968601010
1.0245138407659014 1.0006148957381897 0.0049626435718360
1.0037279677510753 1.0018034069506339 -0.0012741270301932
1.0021401791481095 1.0027256632347312 0.0063102872259721
1.0028032266116991 1.0026686499565600 -0.0018312915731975
1.0031860019157264 1.0002662264558728 -0.0001486934961002
1.0034578448864810 1.0009834069716264 0.0033671165740658
1.0028160185781925 1.0020143821538454 -0.0015856934328138
1.0036776073710245 1.0011210178752235 0.0025171901865547
1.0034924393694424 1.0021395834049889 -0.0040364242383210
1.0035990845830014 1.0005213958112806 0.0031163001937615
1.0033904209000963 1.0013171006418680 0.0057891074171779
1.0052770885219453 1.0061623398940271 -0.0087908766203030
0.9988739309849954 1.0195985636032840 0.0005116989966641
1.0033573875016406 1.0001855718635757 0.0077235933007172
1.0034889772295112 1.0004517291726338 -0.0012888869400645
1.0035151697353466 1.0003015430929303 0.0006269017826320
1.0036144374876426 1.0008494277366817 -0.0029358210305293
1.0028224725455108 1.0006713705096515 -0.0027071805869924
1.0028615280669806 1.0004668659495197 -0.0014133626163799
1.0041409998851267 1.0008002714710693 0.0033722320035002
1.0023591830626597 1.0013975341207886 -0.0027642536690368
1.0021634553828918 1.0018580102764545 0.0038786619551672
1.0029947520012992 1.0018255964434877 -0.0032758309231739
1.0093484468325535 1.0012471099781814 0.0074978250105075
1.0034303018663424 1.0021296705569465 -0.0038224645971607
1.0040522842436259 1.0006121697193602 -0.0003812053601831
1.0044029731181279 1.0024166443135105 -0.0000725970583357
1.0034778191582963 1.0013162729101486 0.0001565525217877
1.0023286192132896 1.0017701123151934 0.0052833368818945
1.0031659020395169 1.0024800047099649 -0.0014133856334459
1.0040861982820708 1.0004143942516952 0.0034360552351516
1.0035126645055998 1.0023349028319009 -0.0004240485395936
1.0052975922795937 1.0013442341806507 0.0023307334234330
1.0027436201475086 1.0033990757918569 -0.0012350954650430
1.0058854506952399 0.9999933309001410 0.0079509321297557
1.0025922089250119 1.0015554095918513 -0.0102134093675304
1.0021428662357288 1.0013183563773584 -0.0098531610929905
1.0009426322303165 0.9989500599588500 0.0112847580331867
1.0058456108471416 0.9999567283345313 0.0081100043061241
0.9980255977955697 0.9998677549642737 -0.0142764856424552
0.9980312020586493 0.9999134170142153 -0.0133585309608960
1.0028265219576147 1.0016887557039642 0.0091913022313097
0.9983139801260531 1.0197092536606507 0.0000660545197703
1.0017708411574482 1.0029668799541474 -0.0009594385415222
0.9998537470040865 1.0000868050618508 -0.0018564942045732
1.0032138663689041 0.9996011741845696 0.0080921899834333
1.0012270864726975 1.0000182257976460 0.0020892655913378
1.0021553879567819 1.0028317208756701 -0.0124594077072902
1.0026853078381843 1.0020152453602564 0.0045830700949066
1.0011844116303543 1.0068875615237047 -0.0011846999252535
1.0059084233760078 1.0023933747321605 0.0032518826784866
0.9974498230541321 1.0003402316684504 0.0035216300377148
0.9965991649585176 1.0006521941221698 -0.0025904905462550
1.0025135051872409 0.9957033763883197 0.0201792480197313
0.9965641918517745 1.0005626690231426 -0.0029127924191200
0.9998610181311811 1.0000258892095644 -0.0018453510154338
1.0018242412479315 1.0037508445873584 0.0158438012092819
1.0029001018065618 1.0001912658890926 0.0011380420478554
1.0023351557453664 1.0006293257020336 0.0052622220398639
1.0032293071136362 1.0003162729930157 0.0004659436693818
1.0027569076834244 1.0004378748375633 -0.0016121125620046
1.0038850276645808 1.0004220201274716 0.0035036462889093
1.0030019054234547 1.0034743855598616 -0.0013403796562405
1.0033868845963061 1.0008115790042236 -0.0007011283253798
1.0035356817297749 1.0018438056724437 -0.0020025681772500
1.0029427315120538 1.0005493840346251 0.0001944396355718
1.0055411175466609 1.0012157584169690 0.0007278267352176
1.0037716964767163 1.0012250574697377 -0.0085952728996696
1.0067166898817950 1.0000835340643599 -0.0002710081084469
1.0025503087270471 1.0038201002296567 -0.0029520205208801
1.0031126957718981 1.0021788456427494 -0.0021038139472471
1.0051875017369734 1.0020761134954683 0.0036876839690972
1.0029934913465306 1.0012329717745474 -0.0009517391457766
0.9985119977956576 1.0197751822945611 -0.0001282752195216
1.0057620391913284 1.0027719203756802 0.0032511521111314
1.0004743779181413 1.0037998696945241 0.0022962897548839
1.0035788489275763 0.9998594378607046 -0.0014247481335896
1.0007081527879167 1.0030925055414135 0.0039750438966936
1.0032624827995764 1.0029833091740961 0.0003528839144201
1.0038747341975292 1.0015251054166940 0.0071514024820113
1.0032383343409705 0.9995250587293755 -0.0093721490783373
1.0041373774104272 0.9999248755935508 0.0041482288431253
0.9992730021754859 0.9999091427057522 -0.0097383800631481
1.0029843334683266 0.9993382444535096 0.0096090640587079
1.0031719361716280 1.0024639756178779 -0.0026943806441327
1.0054699046926523 1.0045306127302152 -0.0118339299973385
1.0041365847045427 1.0003339041944352 -0.0020299531328992
1.0027777977928316 1.0020749959333974 0.0005276590568768
1.0022184471372488 1.0042701985033513 -0.0098326569243337
1.0027489255384370 0.9998829399588630 0.0033840088309218
0.9999861922685767 0.9999817979276754 -0.0038349349043700
1.0028742836036657 0.9996327275072807 0.0085167692079574
1.0023502911502442 1.0034270084555752 -0.0073851206989463
1.0026090018307945 0.9999637110241334 0.0034347365999009
1.0000455775701029 1.0000003286931056 -0.0034501668914634
1.0020635761323853 1.0042714938168196 0.0098899924051253
1.0039527036990397 1.0014765361742819 0.0033269463097025
1.0034208816920789 1.0000501483056787 0.0003475217672566
1.0023443616193555 0.9997657590824535 -0.0006969766795269
0.9981624260074775 1.0002904168292372 -0.0013713740536524
0.9981005231501200 1.0002475308788472 -0.0014505918891474
1.0027656469724919 0.9965887472135817 0.0154242507296095
0.9987371358530487 1.0002064324776703 0.0016608969571931
1.0033603560170392 1.0021405269938182 -0.0018291088562229
1.0046035398903492 1.0013553575214296 -0.0045456304484111
1.0252880833278792 1.0003751934124696 -0.0005497993971465
1.0038828512674520 0.9999406257490703 0.0087714352745466
0.9995610936783054 1.0136589361208621 0.0041871463679903
1.0034263177665406 1.0020192895677522 0.0020441988518416
1.0018601759928445 1.0047707919313071 0.0055540191168600
1.0039177914971369 1.0033480319140640 -0.0023899874418432
1.0031529279390434 1.0006233263525963 -0.0029821740970052
1.0009098850834302 1.0007129934665413 0.0028657521024211
1.0015823814197311 0.9998732802023563 -0.0013990012374979
1.0009913594683844 1.0007607069975939 0.0033652163693739
1.0013817966962280 0.9998995251050962 -0.0014049495272303
1.0039357145517922 1.0041532527777937 0.0080598552711312
0.9984845015588159 1.0148883973661671 -0.0049620212306999
1.0007470315093923 1.0060647592359000 -0.0015578676724366
1.0033875214083288 1.0007733206360669 -0.0100592103178040
0.9990272822686027 1.0143697875825310 0.0052141277818396
1.0048047789967423 1.0021010597544722 -0.0015212486197207
1.0028390588578688 1.0027125548911617 -0.0001731986760897
1.0039691018726480 1.0021098423932937 -0.0009744609706220
1.0051872790720566 1.0056261360605931 -0.0107320443240120
1.0059371409185980 1.0003049254272833 0.0025600999857997
1.0119038344242863 1.0003893286540366 0.0013705099561770
1.0056597741778113 1.0016017534875803 0.0021402427634104
1.0026249866143173 1.0040977790921930 -0.0053466974994870
1.0030001821831402 1.0005418503037022 -0.0066529869192718
1.0047797650022352 0.9992183025599022 0.0069409951989771
1.0272578330746904 0.9998373247372712 -0.0021799730440387
1.0012370731366298 1.0030808020241515 -0.0020130846525086
1.0036881266157072 1.0009607993046561 0.0016381566092905
1.0277758939650270 1.0000713066511242 0.0053302640646410
0.9987789711741573 1.0157809993349756 0.0021951699955662
1.0115794143851546 1.0004977928618142 -0.0024416767829370
0.9980491353927887 1.0043730494754570 -0.0037592051904946
1.0025673224266114 1.0026727116788066 -0.0024948435560755
0.9992679223108384 1.0150121298788741 -0.0012041213565755
1.0020405965940253 1.0003478942483550 -0.0047734406544086
1.0026423941010056 1.0009894007520732 0.0064976699462874
1.0011670802020018 1.0021613698600251 -0.0094364415920604
1.0042147531565346 0.9998502535344195 0.0076759891286685
1.0278322402077451 1.0000678826900244 -0.0031810198670705
1.0027300888175408 1.0028472531076289 -0.0014704668231711
1.0028046280966214 1.0032958838260677 -0.0020363349371448
1.0010506857532724 1.0002181152546072 0.0010730733387850
1.0036626999366849 0.9998289074573800 0.0009118030232988
1.0066746203691617 1.0025724725675098 0.0057880065783004
0.9997630289353145 1.0115366182188343 0.0068561370253826
1.0034438831542163 1.0032638968359708 -0.0021597327189398
1.0066021391350979 1.0028166738020856 0.0088442339435429
1.0017664195568632 1.0030573145100516 -0.0097635461403057
1.0048091327401283 1.0003984306422953 0.0083582366304785
1.0059766456980093 1.0000730642487443 -0.0098130275057400
1.0001886783079954 1.0026993376189739 0.0095670165563831
1.0049535284896709 1.0004192054978851 0.0083899487536494
1.0017012205323401 1.0022432438712310 -0.0095457115923250
1.0056099432168022 1.0000655819090885 -0.0091238914246212
1.0017485231221546 1.0027256725270868 0.0091117296881375
0.9982685085818681 1.0184845858375464 0.0024018028160040
1.0079136356163045 1.0017212435084131 0.0124179396231526
0.9988657152158781 1.0195843191630929 0.0001642888744367
0.9985349166118138 1.0146863217222155 -0.0047317016306157
1.0014276376279898 0.9998755105044557 0.0015124565097930
1.0009306998345289 1.0006342223044709 -0.0025176658653929
1.0009984833099954 1.0007738259482000 -0.0027746391168048
1.0016120629101088 0.9998779261507298 0.0013573368803829
0.9937244102478975 1.0011285221673667 0.0008758160148163
1.0047974999438640 0.9969230698251879 0.0014940833179218
1.0058619411928631 0.9930405452676099 -0.0025219997635895
0.9941983348812495 1.0013582353737540 -0.0008592491186526
0.9927277665988058 1.0013499219617916 0.0009423069348161
1.0134251024217023 1.0000068179843260 0.0033904088933043
1.0243541017602393 1.0006308898066607 0.0017180941539697
1.0034046084316031 0.9993695775027762 -0.0043562604135789
1.0029116695584130 0.9997748292534282 0.0051568502318963
1.0034072659343607 1.0014358885683667 0.0006650314367323
1.0030400636455767 0.9968982457410535 0.0011954090527400
1.0034394869713299 0.9917774491624112 -0.0018136215042649
1.0042760699523101 0.9938796330705698 -0.0019935623263928
0.9928028644128343 1.0006217728348128 -0.0003693345780910
1.0047819486494520 1.0022679784651864 0.0000886279131708
1.0107804996726486 1.0005790517109812 -0.0004406673978729
1.0038366016031182 1.0009335845514904 0.0033232394325710
1.0040192269385797 1.0020897599649961 -0.0031527420826161
1.0163787078146125 0.9999680399611907 0.0112964798163053
1.0049373375717734 0.9926822758590936 0.0082245939842822
1.0146984854617271 1.0000901211676867 0.0091337844461146
0.9992971975837098 1.0183090863729707 -0.0230755182523864
0.9998581866962851 1.0146335436649816 -0.0188329488287195
0.9954607385829007 1.0004162067083928 -0.0047387604407230
0.9998472057191147 1.0098459429046891 -0.0059400857251924
1.0040331557454298 1.0001265821318843 -0.0045777485665375
1.0038364361244410 1.0016727556408307 -0.0055797489406737
1.0037176631180125 1.0003965297007498 0.0026898756391174
1.0042101241759438 1.0024133001306339 -0.0070755309494887
1.0019829973174463 1.0034712190235011 -0.0161744977351201
0.9993491215860388 1.0113923120516779 -0.0022987547752441
0.9872432455180653 1.0013088057886581 0.0051465095502496
1.0037941916361381 1.0024385380627012 0.0040857768974433
1.0112977536822534 1.0007214497980734 -0.0013763868460851
0.9979061657489313 1.0126143865984543 -0.0051604521168314
1.0009029546218937 1.0056867979094144 0.0045507400335923
1.0056698968934188 0.9934142231048712 -0.0032744605017175
1.0054563327594990 0.9933797150473562 0.0034254686734382
1.0059226002853876 1.0029388841463465 0.0059412365437531
1.0038409939822812 0.9996181844411055 -0.0008370622899629
1.0012364227265007 1.0035753162106416 0.0032705851460541
1.0041845381779939 1.0006170544861344 -0.0032846008216723
1.0043188658309992 1.0024119453316522 0.0010509861282061
1.0016719108863774 1.0044869114911188 -0.0061895620758001
1.0019962951488470 1.0017171647629401 -0.0096862530185162
1.0130890660461267 0.9999160777653486 0.0090963500727412
0.9994187581813374 1.0187788308028307 -0.0226507221058210
1.0040446530286833 0.9931374570913146 0.0071162441929617
1.0000048343201677 1.0144688920734188 -0.0184830604692649
0.9987733824258936 1.0180548912490424 0.0238829778679547
0.9943378688098221 1.0015890757243755 -0.0020773775079298
1.0065234992814240 0.9919025294764060 0.0034204644798929
1.0027989319301536 1.0029438058541096 0.0074908577454696
1.0009495666687105 1.0018977212864415 -0.0058744685908639
1.0021299854942383 1.0036065827922596 0.0056849530614564
1.0031411649057016 1.0014547577055304 -0.0029482675986189
1.0036311817815626 1.0021353599850120 -0.0021963504386901
1.0025985938868309 1.0032907452580788 -0.0003402201825373
1.0026964752078700 1.0008911374835028 -0.0001256817476366
1.0028317246752443 0.9996449980996561 0.0048563648909711
1.0045069160950049 0.9992259403117459 0.0040445815966373
1.0031803953901357 1.0027882178057905 -0.0040191071796229
1.0035782787412282 1.0011554838871040 0.0036990843557281
1.0054673207989770 1.0020901858794056 0.0000965698175224
1.0030154418248380 1.0000871864257748 -0.0000803325718736
1.0029966138945730 1.0026744628991138 -0.0012322685103311
1.0003585524185221 1.0019378959129059 -0.0077136588942960
1.0028498817834626 1.0002690083153367 0.0036811871534126
1.0023828277032405 1.0004510907851702 -0.0050414318131606
1.0017148217341265 1.0019303095643788 0.0085910246682591
1.0028941645510514 1.0003938562525037 0.0038300322812447
1.0024329381933998 1.0003367017551130 -0.0045638206247597
1.0003626149819886 1.0018199499285796 0.0078340152732048
1.0017229086601258 1.0021173937451906 -0.0041044370374090
1.0020815001088430 1.0029101441945325 0.0067743406820959
1.0019955892793895 1.0016752044527979 -0.0030031975249050
1.0031741244024164 1.0008139911917482 -0.0067754975008625
1.0037154949998677 1.0022842813473154 0.0025051907886162
1.0033147429640139 1.0026206847997485 0.0013156097253866
1.0035696078519014 1.0002599966279642 -0.0022363482433227
1.0033461109019242 1.0015369099335047 -0.0023690668554059
1.0021960931965535 1.0020446004948824 0.0039977657520152
0.9980158416528782 1.0001261720751986 -0.0006597204212013
1.0031015241943391 0.9977132543582318 -0.0047730386745550
1.0033380159051042 0.9983465569238257 0.0060242461446174
1.0039888410944136 0.9983606684149230 -0.0013386838754520
0.9937548036060707 1.0004986775412770 0.0001132331957564
1.0006840933630108 1.0015183990018917 -0.0099692639773701
1.0028769310314318 1.0001480293420615 0.0060138805657293
1.0025285202376024 1.0002375388557849 -0.0067350372012916
1.0028628906061861 1.0003075787501943 0.0061259512693497
1.0006431461397336 1.0020461169443979 0.0096738445224705
1.0010189840939423 1.0016182926500607 -0.0089992207672235
1.0005815572363399 1.0014945817389078 0.0093074392019733
1.0024294539785819 1.0001981660612558 -0.0062086048677013
1.0032787724621595 1.0012355731207865 -0.0013390704879142
1.0033732154377191 1.0005261071189033 0.0026609796109278
1.0047675103611613 1.0010119504445552 0.0037319765369896
1.0019549799802425 1.0015545267682271 0.0053942594427950
1.0036567788529254 1.0011822240864769 -0.0082619732714333
1.0031557693433129 1.0013163245112775 0.0062850822062675
1.0037430852744622 1.0024894861194684 0.0050152873372903
0.9995174262605981 1.0002078887258021 0.0016702833104493
1.0040058595634367 0.9991585034033743 -0.0098443808558236
1.0041179884257461 0.9973442029930349 0.0067056705785738
0.9990106315501673 1.0003654005753484 -0.0044059140169326
1.0015076038979651 1.0003088574379171 0.0017940665565997
1.0028235615484860 0.9975624496154460 0.0095931388997573
1.0029307741162141 1.0021613134074250 0.0019836770394210
1.0024713481886185 1.0037286021904710 0.0062960665419214
1.0012762913843467 1.0000189209911203 0.0023634294637409
1.0041281812305549 1.0021586241654012 0.0029844813651654
1.0040781162261565 1.0026582763775258 0.0111105175447694
1.0106595845211712 1.0007392943604705 -0.0052191769710923
1.0013069109243515 1.0030952759880467 -0.0010837079098512
1.0068050741607772 1.0018271518333892 0.0077162257515814
1.0030524595189667 1.0016791207413116 0.0081159701697184
1.0039602320057597 1.0016218640860513 0.0068465490250415
1.0020860304623942 1.0019013384291098 0.0087854858292776
1.0039415717792479 1.0003825935877837 0.0024586850772737
1.0038458090260649 1.0002361287221859 -0.0047887491337010
1.0037694339401553 1.0003656813769881 0.0028003463640210
1.0038559735595096 1.0016045050483906 -0.0045244996011404
1.0031772936855048 1.0034030668860674 -0.0007993923430462
1.0035572268314299 1.0026297774346860 -0.0002632625601159
1.0028153506699546 1.0031215988736013 -0.0061774512542520
1.0026391675164670 1.0002468147726036 -0.0009215634036182
1.0075500459379625 1.0013032289951813 -0.0071103383930154
1.0037826432420800 1.0009776613337380 0.0020382272942226
1.0034507602017240 1.0032660242436773 -0.0075879019379854
1.0047845788562868 1.0006121794406273 0.0051651854124684
1.0056045340194473 1.0003114409593146 -0.0076885827007863
1.0003436478827283 1.0035279323535400 0.0081029053090121
1.0047300616777204 1.0007159266956021 0.0056457330287992
1.0059709102436212 1.0001963173433059 -0.0069120397817123
1.0034798873198321 1.0033939533616578 0.0075612320301928
0.9979853863871754 1.0165137581351722 -0.0042679248161571
1.0018132184962292 1.0065249168570340 -0.0111236370180042
1.0025641441421065 1.0007445276716989 0.0035011666868488
1.0000027886361562 1.0064176300130507 -0.0057683159464638
1.0043729073365322 1.0001140635606600 0.0071994647483744
1.0018531634635413 1.0034780157595162 0.0088278585320144
1.0054931284348589 1.0017049937225995 -0.0006821774050077
0.9995509297053223 1.0000961579400864 0.0008617206969298
1.0053012148686624 0.9979995061288582 -0.0105996551939522
1.0055954082023539 0.9983516261072352 0.0058137442026727
0.9992876225152596 1.0001198699744522 -0.0007556184314712
1.0040045796935591 0.9986465584971770 -0.0082698213527785
0.9995311216124680 1.0000823249527944 0.0007648816383957
0.9992914011417171 1.0001337571176894 -0.0007630935274278
1.0053595777664908 0.9980562547440476 0.0104730734411829
1.0013934163138178 1.0041791291490674 0.0079832558355576
1.0035443702923714 1.0017409774367880 -0.0018982365913486
1.0033214433734181 1.0015715357666857 0.0034410490721551
1.0036759849265389 1.0021257953595308 0.0015175327050867
1.0027904591686430 1.0001407970201635 -0.0009624628351139
1.0042541557626730 1.0032721369673419 -0.0091270464681895
1.0021209054156228 1.0046738463266949 0.0017422129570197
0.9991261405929698 1.0171826583642030 -0.0166497420414801
1.0160922116241453 1.0000249773601853 0.0104730389818347
0.9947012805707947 1.0004447164338492 -0.0076674637882687
0.9989477961642337 1.0178645083103179 0.0166264090519693
1.0026644475028217 0.9998183684873936 -0.0039058443754115
1.0020604962279922 0.9974024600432246 0.0101996890927948
1.0028630414872559 0.9999894420277462 -0.0049050831893531
1.0035498040258415 1.0009325041056909 -0.0027859222924272
1.0045667360729496 1.0006578904174563 0.0020082172119111
1.0007065033226121 1.0059186389671497 0.0021660127019955
1.0027652994741385 1.0001001580888029 -0.0054531547413523
1.0032073146775526 1.0019037038627838 -0.0000481310265521
1.0035459269397486 1.0022793959087026 0.0016485730753437
1.0058053948816281 0.9903351641322388 -0.0024601345396883
1.0062520594371869 0.9906847807250349 0.0026549302422248
0.9942616429541247 1.0011042417114984 -0.0007083435515828
0.9993203431916136 1.0001473768249971 0.0006661629670593
1.0064809225457436 0.9974344797819479 -0.0103303180826367
0.9989434748477199 1.0002001856309037 -0.0002958704746532
0.9993481468260180 1.0001163517748566 0.0004690375233616
1.0070852732039144 0.9980335521090135 0.0061762054993876
1.0049711377182264 0.9983436966335727 -0.0084259098226624
1.0073225505539709 0.9974028890186920 0.0111192948351100
0.9989102136164736 1.0002108040412385 -0.0003176580229507
1.0027824266120269 1.0029926806463925 0.0016081768878308
0.9926560640022067 1.0006368001806907 0.0002181551243817
0.9934282994486684 1.0007396295587285 0.0003010958062922
1.0044355822909241 0.9903418786228844 0.0025387562985272
0.9934364343820772 1.0004551725429340 0.0002578544299776
0.9993979020598400 1.0128033749551462 -0.0140057943282370
0.9950539543280806 1.0004146759283108 -0.0069852877079843
0.9955023603761574 1.0005250661446987 -0.0049559578450421
1.0139699152031050 1.0002378046506017 0.0098347345413897
1.0044071557885508 0.9936219775782318 0.0072401378344541
0.9984842518029654 1.0182300058358762 0.0280974738642335
1.0043766377887353 1.0014241700313089 0.0023728889896501
1.0051507688583228 0.9854603073866840 -0.0025416235408422
0.9868819733079017 1.0010273448773825 0.0048268055858442
1.0060654735328813 0.9882536093193600 -0.0029164527004030
0.9923105191114561 1.0010583816521927 -0.0042537841126396
1.0033008613530592 0.9949246984339847 0.0012631566316728
1.0047320757200657 0.9867613131599295 0.0021321384301612
0.9924202603218937 1.0009586425818524 -0.0037029812097257
1.0015432323294704 1.0046890979834815 -0.0040105536862133
0.9935247608348865 1.0013461624812470 0.0028790060653736
0.9947630874070958 1.0014638171051620 -0.0029158091033283
0.9934623010847130 1.0015964763907217 0.0030199085127023
1.0065465236389159 0.9945342681924699 -0.0032551863219581
1.0042235707093117 0.9966486188169668 0.0014095835336900
0.9948245265964331 1.0012186057229115 -0.0024234682223862
0.9949475012706839 1.0002735826576521 -0.0040129367571577
1.0122183733431365 0.9999012151599476 0.0099733557116218
0.9948429016855560 1.0001529845794042 -0.0037821120572354
1.0009267392969201 1.0050802176807276 0.0031816878129262
1.0062142485611025 0.9924097251354127 -0.0030845339551422
0.9931921948439310 1.0016696596275667 0.0021733036399706
1.0027056041510951 1.0026107277644853 -0.0030619507839117
1.0032063984889583 1.0020669403101641 -0.0094608110259597
1.0046184210103046 1.0037127921199143 0.0099960799098017
1.0027791878411643 1.0025796197731038 0.0046978904149059
0.9996969843537366 1.0032611663039863 0.0047060909728855
1.0034665150210009 1.0003662984949737 0.0016307748444647
0.9995566144067316 1.0036443867054146 0.0039075959179754
1.0071130165228126 0.9969497243720306 -0.0021536584595011
0.9955685955165843 1.0013768418444429 -0.0012415942958012
1.0038688451391848 1.0016308110860501 0.0023739595592845
0.9952864610905721 1.0012276977121417 0.0013707325744161
1.0040593951068346 1.0003776827897157 -0.0000339800740258
1.0037097651358011 1.0002616639268123 0.0076419564256105
1.0008557096279918 1.0022540306716734 -0.0015851829245271
1.0043026618353166 1.0005788668788245 0.0040470215863815
1.0031130364387315 1.0019136526103434 -0.0031882946950908
1.0051789334244756 0.9997032972767512 0.0085164776503351
1.0034586847585403 1.0002478549137042 0.0059331577935379
1.0034949029584068 1.0004848705922305 -0.0039963055321191
1.0027393071350175 1.0020037988345589 0.0070788214448034
1.0027726884868831 1.0019201489830356 -0.0012585709682872
0.9987620990927161 1.0002430580237966 -0.0013595250134077
1.0039526933520819 0.9992139521362917 0.0100625200945473
1.0037624942862124 1.0022791359722065 0.0098889423169585
1.0030384235286112 1.0013639929884166 -0.0014028352938500
1.0044544339852499 1.0005519007300270 0.0038859682572214
1.0087584677074228 1.0004300055822071 0.0006808455110137
0.9989558671125307 1.0003049309945642 -0.0043241301904135
1.0036217725572538 0.9984536291958478 -0.0045494318151847
1.0040026187064264 0.9979944780283797 -0.0058029553779653
1.0052264985543120 1.0006480125298030 -0.0035837589775356
1.0016831305672074 1.0038166087161104 -0.0168573542489301
1.0028089414749088 0.9997748699095487 0.0086159063460190
1.0009755219750536 0.9997761117877197 0.0016399343224135
1.0018190609412656 1.0030079165890851 -0.0131549242314214
1.0038492175012526 1.0011997510629467 -0.0000223412414367
1.0034907523324428 1.0013484135519941 -0.0096063935424468
1.0039481415847846 1.0006211330966548 -0.0018493560993830
1.0122858524628602 1.0010668055727714 0.0014495383323911
1.0040979929182146 1.0003208030251243 0.0091016348608644
1.0027236615239883 1.0020625989055052 0.0019229340703389
1.0033822142460043 1.0000954407223817 0.0064363396044733
1.0013193289248798 1.0043965049080983 0.0054071001852686
1.0064910593077137 1.0021125781545088 0.0075473084981710
0.9980094737540959 1.0003766608674931 0.0038521643938313
1.0021844863039600 1.0005966925826786 -0.0051027732114739
1.0031707622792225 1.0010388668674970 -0.0004883932776094
1.0026934023167693 1.0019673435023642 0.0066184351379531
1.0039349547166823 1.0004326436934086 -0.0051622726031682
1.0053301948169842 1.0014679477784585 -0.0033928646064828
1.0038515986013778 1.0020081846788520 -0.0025335665350785
1.0112021356263157 1.0002862183499637 -0.0046858556958439
1.0037224392542805 1.0015266652860659 0.0001931451185561
1.0016136473889070 1.0077605260054332 -0.0074578966050873
1.0029096588851878 1.0004243262761301 -0.0055499835017085
1.0074737222726358 1.0003747604485924 -0.0056531251291248
1.0035778574901693 1.0003383976033802 -0.0014111724009746
1.0021463859596464 1.0034842428249329 0.0048062178038075
1.0011414662480622 1.0043064780911697 0.0021745947611590
1.0025664456241361 0.9963153051425347 -0.0197636652611477
0.9982860017250170 1.0167794680138122 0.0152073945910776
0.9947216442001187 1.0002518046392663 -0.0087217138020689
0.9994221469491532 1.0120169416894593 -0.0126907411145309
1.0041263406412189 0.9925315066032638 0.0080283426042928
1.0172466343670787 0.9998400801670961 0.0122941677667630
0.9947837685510211 1.0002999940435329 -0.0093655824374372
1.0178433699677139 0.9998087641715496 0.0119477030656311
0.9982216651648433 1.0168192155888560 -0.0151896587717908
1.0028955580942800 1.0028221622415612 0.0042721233947365
1.0023490839150144 1.0030757513607291 0.0047367424232300
1.0010151944124044 1.0036395127723503 -0.0025971344568907
1.0223198227327117 0.9996331326908334 0.0187389349763116
0.9986299860577547 1.0181037791042049 -0.0197223846871301
1.0216865425283657 0.9997298164695672 0.0185536642940947
0.9938637466408612 1.0001633976381450 -0.0116214115116958
1.0033496754007363 0.9927191419134680 0.0080485841513124
0.9995012306733311 1.0137812955364622 -0.0171433180794948
0.9986895411738257 1.0169968341749496 0.0178101117729481
0.9939649679255290 1.0001666807196650 -0.0107510849982081
1.0030454160682329 1.0024085343956355 0.0027920974943343
0.9942036656129928 1.0005205832009447 -0.0051924118560430
1.0043813894623181 0.9912433669657857 0.0186869235913518
1.0015927495277634 1.0044237871607020 -0.0057510202790912
1.0042176146270245 1.0001373678486838 0.0033574490692757
1.0026509239657508 1.0010705806968387 0.0022221527686964
1.0038440206237793 1.0009254919067840 0.0018572702467085
1.0038493300362563 1.0006763312334117 0.0067536746720178
1.0032103218129123 1.0001307780402113 -0.0062156194738561
1.0030147743967444 1.0000705820456059 0.0057920406478913
1.0032716451696591 1.0014338299624308 -0.0008300573028527
1.0052302065456526 1.0019970925630493 0.0015376601481417
1.0011929140927842 0.9995010916393526 0.0026524085275374
1.0007110292661163 1.0000473057220505 -0.0010414335513901
1.0006417925348354 0.9999159281631748 -0.0008238881843860
1.0014506755939809 0.9994777531698167 0.0023030232184766
0.9966489796214366 1.0001769506455356 0.0009221050764930
1.0028946667645198 1.0017466452652386 0.0006313173943675
1.0018849385315478 1.0001569685671841 -0.0068280654848889
1.0024053771512260 0.9965588831520976 0.0196006715658438
0.9972667940484540 1.0004665711114142 -0.0030973696284605
1.0034517211705716 1.0020815360053892 -0.0001889307367994
1.0076181026651647 1.0003002313710827 -0.0027328186395044
1.0038837740623299 1.0017293574037331 -0.0043052474391133
1.0038920024002012 1.0006972429594829 0.0011959090396871
0.9975070222393935 1.0004208456010253 0.0038970000621088
0.9972599123575004 1.0005378194519781 -0.0030427219674090
1.0040133984750037 0.9980516665962033 0.0085531598489102
1.0024490213431452 0.9973733184171759 -0.0152093545809557
1.0037928175989281 1.0019476903714459 0.0020220418139621
1.0250293384221922 1.0003602015731377 0.0010896326415522
1.0031910868114020 1.0008951592986688 0.0035596386435029
1.0024945190272250 1.0022013907256020 -0.0017217216426783
0.9991180421009336 1.0163204490431581 -0.0024874734958188
1.0040156674552099 1.0005576168434016 -0.0068303057483500
1.0027675053896115 1.0014966798743161 0.0010533143224800
1.0020093495560360 1.0039952835106574 0.0046379551944498
1.0038285790110295 1.0019788885372052 0.0005673343561024
1.0007252466566108 1.0001034039743522 0.0008886877308799
1.0015088696183292 0.9995183319752468 -0.0020449098421010
1.0014465508628412 0.9992111055451367 -0.0019689485944151
1.0005924246624456 1.0001572123540017 0.0010986198169636
1.0012421959803008 1.0004172937765545 -0.0027520185579395
1.0016455322465450 0.9996260484779370 0.0029998313983224
1.0010368975431838 1.0006170415791977 0.0031617109500260
1.0020624773523654 0.9994443011430959 0.0027116160938536
1.0019250514024722 0.9994868389518385 -0.0025850173857994
1.0013822356331195 1.0004174609802985 -0.0027852394541267
1.0020101392999601 0.9997645962436320 -0.0027727589192141
1.0012162251977546 1.0006138260031003 0.0028952746508168
1.0021288737072462 1.0022539343335082 0.0031410996714540
1.0031789053886710 1.0010332413245777 -0.0074781855700758
1.0036706882777970 1.0024826421537631 0.0049801331610527
1.0009255627212741 1.0031162282509138 0.0081687781048175
1.0015073167951496 1.0051802842147766 -0.0041975487099907
1.0029277680452386 0.9996877149924501 -0.0049917842542237
1.0023378094567466 1.0019996418128894 0.0069166951392887
0.9988677448256493 1.0001508340916165 0.0034460681115120
1.0035094120410428 0.9987752082922023 -0.0108307736110901
0.9982902505451329 1.0002278138029257 -0.0025056101485456
1.0034242149877390 0.9976935319439499 0.0064458356235588
0.9989306401707130 1.0001854554243939 0.0034534137319171
1.0035385281422005 0.9987379789440297 -0.0090175562205781
1.0033716247736326 0.9987851000398454 0.0101674053919832
0.9982775248736955 1.0001499996363121 -0.0022684046617452
1.0010933200760683 0.9998326669851649 0.0018918445404570
0.9996817060171310 0.9999042056007792 -0.0013353130381844
0.9997189804606725 0.9998619377755585 -0.0014965413074469
1.0022153688777165 1.0031223824208364 0.0164590318454696
1.0054023778045351 1.0023350001490599 0.0014340092509123
1.0098859504395477 1.0002436357423568 0.0072800862162395
1.0036477124382075 0.9997038936528221 -0.0043673305444194
1.0031257151004531 1.0021713867729818 0.0035236712769491
1.0026453760179481 0.9995507310868993 0.0055033993632094
1.0020678553076172 1.0004036101220333 -0.0047291709611674
1.0019521233567144 1.0080301380497658 -0.0059648612996409
1.0085529998737779 1.0014526943724089 0.0127222424781655
1.0028317553713666 1.0026648319726883 0.0024766586814183
1.0024737371044670 1.0004307378434156 0.0057745600738485
1.0046309672149614 0.9911928424249031 -0.0186261074631714
0.9927562916576372 1.0004295453217380 0.0077536964234959
1.0027748504908118 1.0012940394166314 -0.0075682189686876
1.0030304105125458 1.0029411218976354 -0.0013328451922943
1.0009646089027155 1.0025142458479555 -0.0035507385540693
1.0020488706718991 1.0002507654422834 -0.0048782188030084
0.9988478444952358 1.0036463323016660 0.0038268977965671
1.0016818692022817 1.0021510392817479 -0.0091169298056613
1.0027218407442404 0.9999650217760040 0.0061863094685787
0.9995669102539853 0.9998787540457846 -0.0082173079946011
1.0000405337983422 1.0002724006883401 0.0109236828354859
1.0015122394517884 1.0017746685172051 -0.0086628356658448
1.0025974348563100 1.0001381100544198 0.0063437066149298
0.9995048245562944 0.9998615672804915 -0.0076687765839312
1.0016150479382135 1.0022146794234872 0.0084025518661612
1.0023805024466450 0.9998906271378850 -0.0004962593066176
1.0071363503799216 1.0008551221318791 -0.0028407720700477
1.0027757844812890 1.0001950647417686 -0.0057331514691523
1.0040622811211606 1.0003645544611206 0.0110452701547332
1.0046627645770612 0.9985947982258550 0.0086080867461358
1.0026991359193524 1.0037388155341926 0.0044101139520057
1.0036144246935519 1.0020110327332268 0.0005064241695362
1.0257825152893860 1.0001467515930960 -0.0002610165540060
1.0045141086098599 1.0003604286077010 0.0006898208615471
1.0008656273234449 1.0004487574645404 0.0043749095882699
1.0008849499003873 1.0080936117997112 0.0080661206238978
1.0028853277469729 1.0014224439834152 0.0022790752208183
1.0043549930671123 1.0005469726891258 -0.0009243081310677
1.0022620702151543 1.0019209629940580 -0.0048393316853647
1.0008322361797919 1.0043338202535643 0.0024469630817741
1.0276832875383917 1.0001863340551544 0.0060250304636166
1.0055112473134187 0.9989991573386768 0.0085633648476839
1.0042988231474013 0.9994537840419533 -0.0053620241231485
1.0133446754535187 1.0001516160938047 0.0031513232888256
1.0053438858817505 1.0005807882169728 -0.0079286721449639
1.0026126444402133 1.0025889899471578 -0.0057723713887808
1.0032828189858476 0.9999904658398345 0.0037726811962375
0.9995033468633694 1.0000047909890100 -0.0063179732997797
1.0013245504295460 0.9994592909798387 0.0096945540869272
1.0031197963568625 0.9999777283890758 0.0040654818346521
0.9996683469909273 0.9999785754264620 -0.0057254298825690
1.0027212990258902 1.0025246368176270 0.0057719816510667
1.0025852689220629 0.9996936757004609 -0.0045614125272550
1.0037403894385630 1.0011090448690081 0.0009725723182059
1.0030764923253777 1.0018942116691527 -0.0037565312110903
1.0112938396929176 1.0006989973276281 -0.0027860369440340
1.0044970863691534 1.0011655957150567 0.0059687866132503
1.0032369987714822 1.0016367526368741 -0.0037587220108442
1.0039492565838504 1.0001382753814159 0.0037123195551585
1.0043665261346442 0.9953361007611933 -0.0064024447411989
1.0020535408022735 1.0041364658368015 0.0057315790704982
1.0030776885691610 1.0023920153701882 -0.0002246856531512
1.0031618857534539 0.9997088798281044 0.0018380762806212
1.0024241792143420 1.0022304364371772 0.0029147430161845
1.0033229996656807 0.9998783100638531 0.0078155573019539
1.0083126448916990 1.0012705710317891 0.0041698182226829
1.0033418538699841 1.0007401768704027 0.0025562743219018
1.0013884786314318 1.0086570689176990 0.0090255271321734
1.0029938835015584 1.0015356851206472 0.0006940123407498
0.9995943052605463 1.0036151766937986 -0.0140864241948429
0.9990047989172320 1.0005797247927086 -0.0061470341056138
1.0023307304504285 1.0001957968153083 -0.0019373335919375
1.0024309494189065 1.0003244146477743 0.0006769100424201
1.0015580606898251 1.0017723529380651 0.0058263682349827
1.0027251706205027 1.0013637639779642 0.0039250228631630
1.0030638035975508 1.0005572880647875 -0.0066143616920179
1.0048998982741160 0.9987008966564547 -0.0074786808415315
1.0042252497794315 1.0025420637869105 -0.0076016435150993
1.0035460994156060 1.0012802094739255 -0.0022204418067807
1.0050986865332805 0.9914791512834409 0.0007570492412297
0.9959927924111556 1.0003046780045644 0.0000953129998783
1.0029366874875458 1.0026842919471683 -0.0057905229945933
1.0049618088748848 1.0002824782522100 -0.0062776524055759
1.0037456880537294 1.0005331579511139 0.0010886682141122
1.0018405239797805 1.0014256501453975 -0.0064071406676243
0.9988496388063984 1.0005964210896925 -0.0068456346165082
0.9990964300929968 1.0020762646978019 0.0185170322772305
1.0035203479932344 1.0012539029310927 -0.0029674513670210
1.0055855115112076 1.0021610313403739 0.0037052773937012
1.0047852613141797 1.0021095719958026 -0.0042813879176490
1.0053503495239773 1.0015107609172578 0.0002267047146530
1.0032491931046132 1.0025144727601134 -0.0017141873894094
0.9990810039004208 1.0019141083635552 -0.0185473571654767
1.0026489399294491 1.0003961410803670 0.0112529060413554
1.0031285684699305 1.0007797102517499 0.0068335471422055
1.0038115462018322 0.9992840140102660 -0.0018103819866391
0.9968549173609611 1.0004362836309504 0.0001722805787390
1.0046147723354422 1.0020279411623341 -0.0000667647275740
1.0051950621950227 1.0001717405140722 -0.0065997740651061
1.0041172603442130 1.0002803320703557 -0.0004390284187312
1.0038959096116848 0.9992499773404802 -0.0102461429823855
0.9994244132667169 1.0002005214798539 0.0018552569547421
0.9986357627231167 1.0002330737948764 -0.0016257964772502
1.0036652236743808 0.9981204684146922 0.0064808070565600
1.0036542722342703 0.9994538145573344 -0.0078920791385470
0.9993757646964619 1.0002354662287836 0.0018962252503546
0.9986563244960895 1.0001805505796915 -0.0014331058278952
1.0036402310228079 0.9992834331097918 0.0104303261180624
1.0022675287756657 1.0026538680974826 0.0012432859857608
1.0061205928234382 1.0018303686075158 0.0008060331386990
1.0020976903843326 1.0025821367956358 0.0009712065428093
1.0026538261526485 1.0021372874087116 0.0048120737301146
1.0041605393324742 1.0021983616850541 0.0033928978024966
1.0027588708241857 1.0013945420093195 -0.0033287134196074
1.0025663023749525 1.0002405427985002 0.0009375524544472
1.0025271352153675 1.0014323651076109 -0.0026179453499801
1.0024085712680388 1.0000723679873187 -0.0018594176649762
1.0041896067042497 0.9955338948037242 -0.0086016465789819
0.9982665865478358 1.0001481251608302 0.0011596355439279
1.0035701981526599 1.0012791203119595 -0.0012091363119753
1.0033603414490444 1.0036157079021168 0.0050680863202086
1.0035777289141463 1.0018116018428302 -0.0012831948171716
1.0019146980120766 1.0022837220308967 0.0029258971131600
1.0032399662396139 1.0020339689606290 -0.0002129651917525
1.0031650894577098 1.0011343729676985 -0.0014112240288832
1.0030400103953059 1.0021595670640611 -0.0018474479111765
1.0048369586628849 0.9992973599230675 -0.0083124419643839
1.0093475435242345 1.0001012465802972 0.0064295837942289
1.0047454917562153 0.9997806649478927 -0.0032822587562048
1.0037892166867020 1.0008999458586574 -0.0011076563049606
1.0118687006347680 1.0001109260154557 -0.0047347728476337
0.9991152575586849 1.0002769326261116 -0.0052772362011097
1.0036586835401384 1.0003535562183108 -0.0011374345112108
1.0023553112939343 1.0002131258044109 -0.0054324397375325
1.0037495562235470 1.0028518910293378 0.0074970785901025
0.9988208943260936 1.0007915305806085 -0.0040698417624184
1.0051442062035911 1.0009437820045697 0.0159632863198593
1.0041115314781730 1.0000508270483406 -0.0066071824720362
1.0053540604627171 1.0003135783174935 -0.0160372090924893
0.9998486521362072 1.0007692117162157 0.0061894787015320
0.9990252525390547 1.0002082408720734 0.0000099799369657
1.0038145465859389 1.0001953545065989 -0.0029238124663090
1.0041729667804979 1.0006670383911300 0.0040661511662189
1.0010570891190438 1.0031882145207445 0.0094153999491925
1.0029992026114734 1.0023420799044178 -0.0048527334078001
1.0123366729040155 1.0005113063162070 -0.0001506415765061
1.0026783822656979 1.0003088523102339 0.0068786764284364
0.9969947459954485 1.0001112232330573 -0.0003988746301732
1.0046538187432230 0.9952185021242286 0.0064780903335372
1.0045329004773935 1.0000004879525981 0.0006459094672263
1.0059831904140308 1.0001914321779204 0.0033334409459603
1.0038304736021459 1.0019186816682910 -0.0001306251458260
1.0046145868820746 1.0003975546276649 0.0066746093526331
1.0032731593954427 0.9996595108259638 -0.0035710030543578
0.9933328113270948 1.0004157752891525 0.0065866399470788
1.0042999269951960 0.9973619702267117 0.0078754691841025
0.9986266031260584 1.0000978406451959 0.0018387465993837
1.0035411502204814 0.9978508185902712 0.0078109727053720
1.0005742594441376 1.0066736351439523 -0.0004632860463289
1.0036879949611484 1.0019588335048284 0.0021375419406377
1.0035914328036464 1.0003721486774262 0.0045650430697982
1.0038956852655168 1.0006609641763857 0.0017149632330332
1.0050916024439924 0.9916824652359845 -0.0120861262391068
0.9941335618247785 1.0005030537923174 -0.0039916901483999
1.0038044662180077 0.9974104303529674 0.0026864497569480
0.9969722734676334 1.0002026055837243 -0.0004040824113958
1.0044083862393596 0.9965536482539437 -0.0046609386807091
0.9972440593012007 1.0001883307583912 0.0007689018990493
1.0029453654715736 1.0001207216780672 -0.0055188843029953
1.0028402103891931 1.0008282281696010 -0.0009240381694491
1.0009430836512214 1.0048249097945094 -0.0024335989543717
1.0000110725946816 1.0040333748488683 -0.0019211141514850
1.0041345573045022 1.0009262222642163 -0.0038912099684550
1.0056989293011684 1.0010122695810244 -0.0022227438503887
0.9992480762442965 1.0086387243896271 0.0018332615009466
1.0024815847604149 0.9999198769168650 -0.0080657238704401
1.0025911436708088 0.9953628972644771 -0.0208047189613068
1.0038337600036566 0.9975805665464932 0.0093809993907111
0.9971249097982752 1.0005218099451472 0.0034040299049216
1.0024286867008394 0.9966395248922177 -0.0161644388891065
1.0046025822468536 1.0018454759198867 -0.0021666106165386
1.0047579026381388 0.9949781183534810 -0.0052157001235236
1.0038434814273072 0.9974223224390391 0.0026178519419860
1.0039874196028473 0.9963437005536994 -0.0041776915940109
0.9970540042309326 0.9998967897826763 0.0000637447309748
1.0032087077506919 1.0017363312823124 -0.0010185472240456
0.9989920612884672 1.0039167949214804 0.0016018775646880
1.0000768004807441 1.0071983568929879 0.0021804178237084
1.0033323791731550 1.0008378218015306 -0.0070790828936589
1.0039426443947785 1.0006810639308288 0.0000353086953567
1.0000946796977175 1.0077036179388781 0.0049731633973355
1.0037038624780426 0.9998266157004464 0.0015384739072551
1.0079565054018145 1.0005333355570885 0.0035004180401557
1.0105366890840290 1.0011243161135803 0.0075831956045393
1.0039733464350133 0.9991089430296664 0.0090424088673722
0.9964915154090471 1.0002390424841729 0.0004277838727048
1.0038191638944647 0.9960105181327739 -0.0021700800426261
0.9989129126222367 1.0040705705174460 0.0041838939732347
1.0078291054180102 1.0001052670163841 -0.0019187360727647
1.0030960577246621 1.0002312909785338 0.0039686513860472
1.0002863502204700 1.0070594394388568 0.0002819342975193
1.0037302865042652 1.0020727249010817 0.0000836125629184
1.0006293346475765 1.0081261367023167 -0.0022888604883549
1.0033084081424191 1.0001791129695972 0.0062447583988717
0.9995700700754434 1.0040465769706102 0.0020736144142051
1.0037376189749407 0.9998685007983793 -0.0048279336913974
1.0020552869970423 1.0008704656024507 0.0041860331060017
1.0031604761913158 1.0020093279558409 0.0017925760360452
1.0039204874682679 1.0001490314294332 0.0019941472501032
1.0026284093245879 1.0007637888177439 -0.0088497476473528
0.9991235792790285 1.0031054066376903 0.0010972336769558
1.0006859932036216 1.0083621199507675 -0.0015282454017947
1.0024515029669665 1.0006021682473361 -0.0067252554821117
1.0030673060483695 1.0012704785215276 0.0005203089862362
1.0025553389921438 1.0012581440672277 -0.0020215468475841
1.0040189850218306 1.0010361452207026 -0.0009024615946917
0.9987786762157934 1.0036722657331760 0.0022824337246738
1.0030952205291861 1.0005358377176814 -0.0051518110177586
1.0023566029943556 1.0012337356015228 -0.0040122307120955
1.0010801410322101 1.0008728511870413 0.0052624674504679
1.0022376131203250 1.0012461317645303 -0.0029007151716775
1.0046772031744535 1.0001227013835998 0.0032547092169624
1.0034678483928634 1.0002917473230537 -0.0010446147715969
0.9981706221836637 1.0037354811152726 -0.0030357934586240
1.0087502662718444 1.0014520519759851 0.0043713358053715
1.0019618324192683 1.0033989132007455 0.0052652007866675
1.0000188856871892 1.0073116194999232 0.0001505076147094
1.0056634870867613 1.0010665577528064 -0.0009658617377596
0.9993335422277309 1.0003052489356035 0.0001389879398662
1.0050993788991982 1.0053467515252748 0.0006388759609233
1.0004598021583451 1.0001389613923994 0.0039449200596447
1.0016616522779815 1.0032514918809594 -0.0027841562417155
1.0010747561377578 1.0075335436501140 0.0059294061167287
1.0050959541728952 1.0005726138571758 -0.0043993498009652
1.0024907306357971 1.0002272546885833 -0.0050795371685441
1.0066296110157440 1.0004034615664144 0.0062948760667649
1.0026081179717186 1.0023099765742916 -0.0012048374446341
1.0037952143931430 1.0021535990623893 0.0012210868442795
0.9980627727202571 1.0001477047108691 -0.0010257989614980
1.0042145685613408 0.9961185948082244 0.0090238524126905
0.9981916858385983 1.0032846146270904 -0.0026776260722062
1.0050008770650753 1.0004739917967691 -0.0029651000751490
1.0030318951257913 1.0024706674239781 0.0032224278541153
1.0031421735803043 1.0019877985237022 -0.0029137873562003
1.0021735948972548 1.0014120655460572 0.0064764949953877
1.0056843002785862 1.0015340410394291 -0.0039655908854625
1.0032516091227175 1.0003390878522807 -0.0066036130088004
1.0036657181754063 0.9991530575146530 -0.0056807624101347
0.9984132015521144 1.0002107519049424 -0.0008462188008800
1.0041585488248015 1.0005230219837584 -0.0001618413247780
1.0035720227490177 1.0002809105625907 -0.0039907240623169
1.0042143132603381 1.0002433362491987 -0.0074429561230261
1.0035258990957843 1.0022725812168176 -0.0024741119337507
1.0037505940086426 1.0003430312579280 0.0028554258276345
1.0031914155654913 1.0023295835915016 -0.0062271701237940
0.9924617736142017 1.0004826279561652 0.0067456885749178
1.0002694768110221 1.0001735780055057 0.0095286910768536
1.0031980137071164 1.0009733592434140 -0.0017868273559257
1.0029068116018138 1.0002852751180460 0.0022325696139932
1.0004869008506490 1.0001636364704565 0.0024608233023789
1.0031593937877565 0.9989968229947613 0.0078485620487096
1.0034919702949567 1.0009516490711667 -0.0022220720657975
1.0028525727136057 1.0021718104823740 0.0004098552686586
1.0054279391637591 1.0021725454644153 0.0014006045433444
1.0029330618616921 1.0012921731221844 0.0002519390360986
1.0037417368776134 1.0012646431502819 -0.0001317742458527
1.0006149714096442 1.0059801887078659 -0.0000558013244314
1.0074633969490938 1.0006215043506141 -0.0019406683717658
1.0008621929358414 1.0062453183359354 -0.0004189228383408
1.0036551290677145 1.0003116870426239 0.0034914912581129
1.0070603260458004 1.0013159404945153 0.0076861711171460
1.0033379906381457 1.0011234981711317 -0.0002378677782689
1.0040242377758279 1.0005255826167103 -0.0000619290186763
1.0035582169622197 1.0003833424972217 0.0007174232306563
1.0035071003431597 1.0003949652691113 0.0018069326914346
1.0004469753626306 1.0032070297510360 0.0006272106360358
1.0063987676516843 1.0012274187220442 -0.0028297859530686
1.0007522681572085 1.0031207207957396 0.0002249847377837
0.9998327390117211 0.9974467004567806 -0.0207565884284619
1.0042407043967390 1.0005490452755861 -0.0056616861632340
1.0036574614048128 1.0002755518406543 -0.0034265203602229

SCALARS f:PK2stress double 3
LOOKUP_TABLE default
-0.2146881849378789 0.0923031898943832 0.1983918902923214
-0.1967936458438095 0.2936433318428355 -0.1015370019203269
0.1581153848474917 -1.1571864801853675 0.1751208283491905
-0.1258051615238461 -2.0902004381475554 -0.5103252060537454
-0.1961015115390486 0.2595135468159467 -0.1000546807730377
0.2164859180055037 1.1575326947442250 0.0926423893186602
0.0369226580779186 2.2387153716710770 -0.0168259808031930
-0.1425747717502210 -2.5576587855283637 -0.5098842178377563
-0.0810390267735446 -1.8406792175821856 -0.4066587187783571
0.1463066888766905 -1.5025791990389912 0.1815467152558495
-0.1559550724636765 -3.4542535825693714 0.5412836675427405
-0.2547023418997030 -0.0251688402793268 0.1665550288921573
-0.2142349266315019 -0.0137265991326940 0.1726514905607041
-0.1460639052443685 -2.5863396799602985 0.5188630999355820
0.2810750350713861 0.5579653035363158 0.0863564018184365
-0.2236682944827162 0.2030548359203523 -0.0885464238320371
-0.2248228299715860 0.1583028825886257 -0.0928823557009650
0.1552201413606064 2.2114990123150529 0.1055289931579848
0.0552067570143960 0.0442234378037991 -0.0277259845950188
0.1660294902466529 2.0747558145812630 -0.0545625641779872
0.0800079351191459 0.0731275424113582 0.0224228974547206
0.1345530728980418 1.4608223822806923 0.0981639266323240
0.0544432850088012 0.0508205241656343 -0.0314360919574101
0.0801364507806776 0.0539533445986780 0.0212764515157163
0.1625099955290629 2.1864458030886391 -0.1040160799472541
0.2006587633466968 2.6968157069781209 0.0121578700801287
0.0086021966512565 -0.1122074946935506 -0.0080791595014296
0.0009439839648940 -0.0370707605900438 0.0075069586329370
0.0009300566718762 -0.0546322206948607 0.0092568545401785
0.0105992092876137 -0.1246670128313418 -0.0011188542297484
0.0716439659226730 0.3111951835644116 -0.0772903879559311
0.0421533655482244 -0.0197641791134258 -0.0516589053908704
0.1025929989872699 1.7235093334092773 0.1480840543787040
0.0734083980018898 -0.0203448529428548 0.0603670209130300
0.1003833275939645 1.6092548319623099 -0.1326316040123321
0.0909400295900449 1.1264554282553867 0.1318827917529355
0.0461750936344023 -0.0315842484610330 -0.0544637988483704
0.1142845117459226 1.8899082763912036 -0.1565929276288847
0.0753996514985567 -0.0230143701722762 0.0603133623203435
0.1752595612447339 0.0645529882998760 -0.0147625953342597
0.1178974872960178 0.2537822886493575 -0.0702765038716932
0.1496802025599790 2.0916694613427151 -0.1197107297256343
0.0756807793231282 0.0982583372132737 0.0171072075225538
0.0483191962889381 0.0946189478721080 -0.0272427627723425
0.1475256057716399 1.5009739752666622 0.1042012325298078
0.1652853404532203 1.9941556073346329 -0.0771866174187913
0.0726084827464073 0.1029250421111389 0.0169628990671454
0.0493542193794326 0.0822914212259339 -0.0257278709902257
0.1443272458155814 1.9758223485096291 0.1219321579743926
0.0013663374298970 -0.0299709757592630 -0.0085999100797438
0.0114731036747602 -0.0918957995666313 0.0072136765888162
0.0086835800634899 -0.1064320666436551 0.0073165609850563
0.0005970004698477 -0.0433105780698380 -0.0120520110490945
-0.0547624147386420 0.3652943496353397 -0.0163413278136686
0.0210407269352465 -0.0423768232005568 0.0017160469733169
0.0210428313523469 -0.0522719367509540 0.0034312072793894
-0.0422354779435186 0.3833262854325541 -0.0067272949194366
0.1810971867740560 1.6648279488076110 -0.0928837912593862
-0.2414771898494817 0.2121660317397285 0.3767588351320986
0.1735615270260522 2.7448715654554676 -0.0939326090928042
0.1490541228438229 1.6306139323054409 -0.0957283043261712
-0.1642208374722256 -2.3751938274848285 -0.4355614283409980
-0.2485455553547378 0.1556522410617070 0.3802860302324233
-0.1810868765960073 0.3581356450969916 -0.2026312673439832
0.0953466037097534 -0.7750873700208636 0.1672822156717227
-0.1003824364178316 -1.9000025972844747 -0.3679425185085363
-0.1492108777223339 -2.1170572994201331 0.3971906168488191
-0.1794542741689237 0.3153796686664015 -0.1891362039902682
0.0189817171076864 -0.0494664515228192 -0.0035809300262469
-0.0467740969431371 0.3011170785989442 0.0152832732020196
-0.0530906276129990 0.3115869963005339 0.0158634900682354
0.0222631010988691 -0.0555193656905102 -0.0058302616140215
0.2187028892541981 2.7126838689517756 0.0423070254458066
0.1683141542467511 0.8124340819359971 -0.0583339124053797
0.1353587880529873 0.1977642589333757 0.0151247722740629
0.1326120298718364 0.8384653659590354 -0.0774614896050041
0.2282289789371444 1.7361727497880395 0.1211904328941853
0.1546039184469775 3.0233846619825893 0.0557158037480137
0.1324384249558714 1.1722800894458534 -0.0365610899329306
0.1174847765493503 -0.0515857092855901 0.0240794920617511
0.1088541970434528 0.0325212740807545 -0.0443821172078245
0.1153048470108159 0.0262245209034219 0.0260016493550451
0.1211845648727475 1.2743857406359234 0.0511947111194625
0.1319556958376318 1.2540230038120341 0.0082481623418932
0.1298171907898439 1.2913973493103685 0.0350100619704894
0.1134664840625395 0.1043468637187050 -0.0354218622243386
0.1066783381139586 0.1585391112777264 0.1019301559016066
0.1456959350812029 1.1226182609196538 -0.0050995430818327
0.1656421705076410 0.5005230587966600 -0.0603725839861284
0.0193903251223520 0.1407895233767759 0.0466749076803186
0.1049539780849690 -0.5281505904267103 0.1576947821203424
0.1754061364593159 4.1763912744202649 -0.1113380366344231
0.0458319726348085 -5.2436187005078230 -0.0845386748585394
-0.2013097959249262 0.1446871868842934 -0.0182226947808379
0.1864143597127575 5.4326353339338036 -0.0029628432709540
0.1713285761197434 -0.1920287714022093 0.1078909305959949
0.0465572520174841 2.1752450300743704 -0.0260358600312029
0.1071413004373765 0.5145558232949045 0.1132279791576916
0.1309775147259157 0.7179392873472322 -0.1989044244734098
0.1451056664474989 0.1640564660660385 -0.0344409103692228
0.0798263532960317 -0.1720554816285978 -0.1264014830510236
-0.0182329052039988 0.1534093234680430 -0.0527742190427722
0.1609062599611474 3.8187509451443313 0.0362631388525076
0.1501036251142143 2.4694122979835158 0.0038919154378015
0.3655232728544774 0.7933937289468174 -0.0615011788075362
0.1859518283382076 2.0333849902858039 -0.0845136856283630
0.1364966121990613 6.6504586566756414 -0.1182873158075695
0.0083863877777188 0.0557596600301630 0.0063375357398834
0.0558620454666285 -0.6618765124249577 -0.0277125344052975
0.0032513945181362 0.0962138530690493 -0.0165491430475598
0.0768526411211293 -0.3177599729910870 0.0670784061022513
0.0617915695805555 -0.6728915760445585 -0.0033298858372505
0.0076279986897351 0.0850645068492629 0.0040478276054539
0.0027948995916177 0.0717297857353397 -0.0179498203353673
0.0667033757089724 -0.5759197729153045 0.0169816186597246
0.2134712029643549 10.5823041428957847 0.0515209301383519
0.1493766983359300 -0.4793617132621469 0.1690656568155883
-0.0173992265374951 0.0970378157693898 -0.0183759590333607
0.1725091402380702 2.3335310178310178 0.2315961502189370
-0.0254436562032823 0.0331536156181528 -0.0252979632319743
0.1221400712770967 -0.3323004136331504 0.1994001777391475
-0.0260344506611693 0.0430989358458058 0.0323247150172284
0.1336879785104487 -0.2619479135014904 0.1313071919489820
0.1225070802319681 -0.2898094399961144 -0.1468959602058239
-0.0276246471565414 0.0305309676531687 -0.0283553725133227
-0.0260907890823418 0.0271141002317741 0.0318482324113484
0.1296187171737196 -0.5149626149864369 -0.1977422070500102
0.0606888014907144 -0.9508924678987838 0.0017649019069283
0.0031514282253256 0.0695306872163140 -0.0174592938179684
0.0078414815586985 0.0708375620968286 0.0052639591904447
0.0563689196085750 -0.9345286227810372 0.0011979071190313
0.0082005696630303 0.0956434574805202 0.0037498285283245
0.0030435520716445 0.0906052800415417 -0.0174482512806404
0.0737378606889085 -0.5075466162843426 0.0438119167132196
0.0663373485991738 -0.7675520926794074 0.0141659313281387
0.1039828079769571 2.5100697482609933 -0.0631895279765253
0.2322037395075174 2.0383718950506076 0.1383473612445393
0.1197605868015945 -0.6212051675189562 -0.0849870729094370
0.1956485302611009 5.0306301259416184 -0.0954891646537494
0.0051193585420485 3.1194727599169227 -0.0956086898300349
0.1166534700423578 -0.5847023469825654 -0.0933905251484139
0.0839713015760671 3.4478457770757056 0.0386731852584931
0.2115137638444246 1.4276676625644418 -0.1380366350999934
0.1270005569785353 1.6236166786642643 -0.0410435089721752
0.0438270837318764 1.8445830722846761 -0.0743044744629792
0.4327132285704553 1.1852602810229620 0.0302599157427788
0.1674191781386900 1.6562796064420970 -0.0025208478715291
0.1745315494617374 1.9849976234535220 0.0192944543592325
0.0239722910305644 1.7372715077503329 -0.0247372593138143
0.1109863188007619 0.5400720231180055 0.1057500740896603
0.1155955944187250 0.1367428781903843 0.0070055881332666
0.1440640741135066 1.2428348322539653 -0.0458078213386180
0.1309215768436637 1.3212077546015080 0.0562589476980823
0.1362345590090682 1.3141191080282804 -0.0132989979990099
0.1099275424773388 0.2017258934699096 -0.0264484593829619
0.1143223609184899 0.1966486542055789 0.0064552486786665
0.1406151579740903 1.3194728216584861 0.0513252094216955
0.1119071868798085 0.1547223786174620 -0.0223595772456668
0.2324937399438485 3.6567650395332629 0.1072940994002272
0.1147257974895881 -0.2007857313158595 0.1983524639040085
-0.0264866103679159 -0.0251397640593674 -0.0392248592345874
-0.0285911827817694 -0.0476134235090438 0.0580983067392819
-0.0329208921586358 -0.0594473562923196 -0.0440433043604008
0.1120584498562926 -0.1499089800371468 -0.1666921194336514
0.1267878616369746 -0.0999488081558247 0.1322462219015375
0.1284896216685832 0.1467004280905367 -0.2080852790462097
-0.0297260206912943 -0.0435527006906426 0.0600966096128557
0.1694322750145810 1.4623058098386776 0.0180208539052314
0.1761300941188270 2.0764235437556851 -0.0301705230634386
0.0461672106209467 -1.7635688379845651 0.0738670060476290
-0.0033909616350717 0.0370495021598548 -0.0220267253336640
-0.0031772264432073 0.0475545679857662 -0.0247166435596314
0.0698061173744248 -0.9786139767722267 0.0689631661996037
0.0596249939481229 -1.7152053506564606 -0.0386404548032829
-0.0052959029764161 0.0531111493913049 0.0169320109307572
0.0565785392005066 -1.6562805820895030 -0.0759805263600687
-0.0056369129827412 0.0323400632718988 0.0161911251317365
0.2110081207012892 1.2443884339672882 -0.0039303062039856
0.1231924263008169 0.8040814505718049 -0.0821139338923562
0.0337109334827351 -0.9953718823871273 0.0957435290831174
-0.0018010165124629 -0.0103831474235858 -0.0420755734176093
-0.0045435678767816 -0.0158725512189822 0.0473202818342542
0.0560907701870832 -0.4006249129527552 0.0838477114118927
-0.0023365899580328 -0.0210918217757423 -0.0438390051322482
0.0371470278446917 -0.9045322818996118 -0.0821847312684929
0.0373655200372275 -1.1429094008150191 -0.0986345147674764
-0.0047354612465319 -0.0273663613058132 0.0498193362527530
0.1514025250022263 1.2875731118395641 -0.0683992850235544
0.1639967520155592 1.8437646530800871 0.0437110707958230
0.1719874036287463 1.8414927133741001 -0.0282854794920546
0.1328585803423991 0.2593571081083146 0.0061534226360708
0.1802583980949754 0.6698105886597507 0.0092394514887769
0.2469736461083658 1.0866342232915736 -0.0925443633435177
-0.0029535628857257 0.0427248300654996 0.0128401816964842
0.0584179889129411 -1.2334411866631314 -0.0892790471464475
-0.0018081612628010 0.0788043519525740 -0.0242839800895054
0.0750829907798302 -0.6313224568262416 0.0683958782759701
0.0731869943355932 -1.2657738053335887 -0.0522160480454792
-0.0042239082800806 0.0693614485314561 0.0161579534084925
-0.0020037709247165 0.0598208109758290 -0.0236207650094775
0.0565863488143369 -1.2271549534710098 0.0894428705900964
0.3212409013237600 1.4068795256045887 0.0377170027618147
0.1979630779114056 0.6669040318639540 0.0693837011942857
0.3671004539321644 1.8402709005492324 0.1538527202747008
0.1757261974739387 3.9701653346374717 -0.0457484323575384
0.1744080366610567 1.8126220937854431 -0.0380035938170007
0.2159641315266275 2.8712123847388740 -0.0449553562516510
0.1012629863559624 1.2360709136564387 -0.1179223235592335
0.1274704131935212 -0.0592168057415153 -0.1695071347255162
0.2097272800274920 2.9844672601282811 -0.0698485508797311
0.3046207159211888 0.6481739833145520 0.0299890434540537
0.1201876312211946 0.1760049190793511 0.1377797446301198
-0.2572325513008957 0.0941781607448162 0.1683533173898034
-0.2035413530164456 0.1921460222335618 -0.1243884073088200
0.0808539670304791 -2.1678063588081868 0.1574149956510729
-0.2580791148674608 0.1536398231769317 0.1699014826594817
0.0347963036108422 -3.5527816603923217 -0.2554903684983949
-0.2019582757904391 0.1519428989922518 -0.1146666210163251
0.1796360443212228 1.5968850382213355 -0.0371189667437403
0.2125870519911587 4.2493251137747334 0.0800170290971504
0.1920579770074887 0.3471654811896587 0.2352943860048286
0.0083806685120897 3.3027370648854841 -0.3567501998628888
0.1247411944794896 -0.3880312393329103 0.1766367068537885
0.0442029813611917 2.4878471741135040 -0.2795422019577030
0.0028266297371467 0.4786416116903989 -0.1594967337129266
0.1861969347278614 0.4307301963794389 0.2368136093047547
0.0082899272835740 0.3998209960443445 -0.1494687525114562
0.0071916315714655 3.2911978961223642 0.3616385842437946
-0.0144335116511182 -4.8766245519754952 -0.3075880707249657
-0.0163497402656282 -4.9008316802463652 0.3113449228307307
0.1425171106137376 0.8401261279282474 0.0213956161624946
0.1571334348650763 1.4575768801334708 0.0514851146174782
0.1463927243141595 2.2830720019866582 -0.2131666658419028
0.3655459934005187 0.9525370432850467 -0.0494615069012758
0.0628502785256100 -0.6521554605886710 -0.1786714020569389
-0.0037426536147966 0.1862623216928985 0.0489653256268464
0.1741233340786021 1.7804347584347620 -0.0327434245772508
0.1856525755882946 0.6256263579714665 0.0261110565093812
0.1103874611077933 0.1831494609723503 -0.0637975080860090
0.1729978136265838 0.4354403385934653 -0.0427348960640179
0.1750887907378363 1.9306771134174685 -0.0142445300847400
0.0033691280515606 -0.0255664186137481 -0.0162524490587599
-0.0164321353010295 0.0075917291468081 0.0182502993663801
-0.0197313391858006 0.0116651490867442 -0.0217052563087671
0.0045212270193175 -0.0211361272940208 0.0132747036687786
-0.0193244924974446 0.0215001303334802 0.0213657040805591
0.0051791068259890 -0.0265024176921312 0.0156412276451151
-0.0178685129446886 0.0247592336758667 -0.0200685003336946
0.0044927247611778 -0.0248641222631561 -0.0148870187795316
0.0740734844009922 0.0922090130597564 -0.0178947312054543
0.2069294973609584 -0.1263393289941391 0.1731666760530684
0.2020217661843635 4.8861284664592963 0.4667625821343111
0.1018833219977635 0.4274840931218176 0.0244165648260114
-0.0242467178159501 0.2071335575041731 -0.0591535581448090
0.0643975324019507 -0.6358386430874290 0.1800217908442988
0.1990378658933955 1.0334988600224329 0.0625228659208518
0.2493433800332709 0.5996829224911034 0.2202343992723842
0.1748771523942845 0.2285965610648680 0.0781924259036867
0.0399364960481379 0.0766265978081064 -0.0210514977305784
0.0762095890792127 -0.6292265045819420 0.0308399104838066
0.0456650952569853 0.1742029529365022 0.0072635175590565
0.0835267835313341 -0.5010736644846455 0.0121583079265704
0.0749908657663885 -0.3552791598287596 0.0491454507483902
0.0410379621088206 0.1492720228961843 -0.0253397873618071
0.0861579017418348 -0.4999873957569309 -0.0331008740522256
0.0465860158548915 0.1123929526657284 0.0066255536376907
0.1763971832038681 1.5511926613541744 0.0362127884657105
0.0139476434042883 0.0771650761228871 -0.0031167792490436
0.0376413869169777 -0.0430074912112503 -0.0027617380836524
0.0355494457643750 -0.0261119493926620 -0.0038673246173653
0.0179932147937269 0.1582213393067802 0.0073403134800076
0.0869717051786351 -0.6494274423715546 -0.0526835422351164
0.0413411597339123 0.1336848972422676 0.0028868836495053
0.0380829669836758 0.1971674725183044 -0.0227129745635489
0.0855680011359957 -0.2266037959847558 0.0583467050535086
0.0831231534645326 -0.5192054318085247 -0.0163541522864895
0.0385812451045578 0.1953831533518520 0.0029552950635528
0.0834883425267768 -0.6044854495916638 0.0562051671434387
0.0381846118830862 0.1450135967236779 -0.0212982485610032
0.1967043990455600 1.5740566251804942 0.1554028958750263
0.1240977676309018 0.2120629827183291 0.0711273202540613
0.1021683680322864 0.1660429446466435 -0.0847293017267964
-0.0148462473835720 -4.9151330558842456 -0.1630494227070359
-0.2202729963767401 0.1902688259045397 0.1021597720952202
-0.1700875551314279 0.1727549023991171 -0.0711840430165572
0.0170071098097373 -2.6062660149756018 0.0733443181308064
0.0110766202664926 -4.0605895861543804 -0.1354970734449283
-0.0204675345557097 -4.5088833168462612 0.1470057719630582
-0.1693260895301215 0.1455475872866359 -0.0629556201229110
0.1750355332080287 0.6181055626852615 0.0327291836625516
-0.0614272304578530 0.3647142849885361 -0.0661198422955858
0.1262400330346269 0.3539563862900488 0.1005822129853855
0.1353712481281243 -1.7326323852746608 0.1826227137403552
0.1121418310023479 0.0992956610892999 -0.0089958532414353
0.1514111757648857 3.3963890907646559 -0.4437453413542061
-0.0616937668643839 0.2701853228385942 -0.0655297785710012
-0.2107232073207810 0.2520462901286761 0.1035771380253924
0.1323677873616953 2.9448679913805669 0.0533439696659574
0.1835955569486149 2.0399803208528966 -0.0343409887697894
0.0356464252270825 -0.0333650061335659 0.0014222274299625
0.0174750128817939 0.2039290824934565 0.0003896252616727
0.0151395408445115 0.0414173475783108 0.0006617892914085
0.0301972846290021 -0.0444167682207315 0.0088250054797861
0.3118177232016698 0.9759648028738397 0.0263645727380359
-0.0125869842172492 0.0230009357197015 -0.0789995491313275
0.0378060865544231 -0.4770153649422994 0.2036670016265490
0.0027111786025493 0.0572311039830390 0.0959222808271859
-0.0114983163257068 0.0489385737709778 -0.0835783861672469
0.0524251137093179 -0.4471745413348089 -0.1835869581821377
0.0756973585169943 -0.3036741798835772 0.1651513769897595
0.0013645429902602 0.0089600502700687 0.0971064791768852
0.0390323067627221 -0.4738762432864601 -0.2166526297061507
0.1528187931297485 2.6295522746234479 -0.3439691848517020
-0.0052050517429858 0.1296019470403633 -0.0578055332453676
0.0649077043148200 -0.8544619068247172 0.1835033178449161
0.0092997452939058 0.1509709947843894 0.0574828695972756
0.1058408003405740 -0.6132743611926472 0.1473673862382967
0.0792782520204064 -0.8345909123743939 -0.1314084745767700
-0.0054681921101620 0.1613220944339462 -0.0614848928906010
0.0093041689296820 0.1007564359887974 0.0561369824128716
0.0725253919803833 -0.8345812798001822 -0.1810490410468108
0.2018892560457622 4.7866435162008187 -0.0832768214840476
0.1610062363832708 2.0418604531292375 -0.0929855967957941
0.1505922179553115 0.8685183701957433 -0.0317487610309303
0.1143483218912476 0.2274427252798908 0.0602483848679712
0.1182591944160926 1.5025710443492883 0.1861173128047025
0.1376962530731387 1.3964081155058630 -0.1857600462494780
0.0740911406100725 0.4383913200576843 0.0912249340691822
0.1320969694582314 3.5426667835023942 -0.0162259444793765
0.1313155455539101 -1.6509623058145462 0.1279655956874507
-0.0531808946349944 0.0115752993903767 -0.0010513949833276
0.1801716404491151 1.9759791215998406 0.0138586873340475
0.1601882264590549 2.7599926796193772 0.0135734898775934
0.1527689169014871 1.4056184123055506 -0.0212672431092673
0.1487195469097902 0.8652945444199357 0.1932946131907010
0.1853470194850120 1.5939282355388509 -0.0989156673783960
-0.0615073112618690 0.1013457678421482 -0.0455677427642183
-0.0674283697411135 0.0119802391853946 -0.0495194145969699
0.1989045991159940 1.9575480574227875 -0.1628796474072350
0.2012485642497802 1.4690321129819421 -0.0027464060999538
0.1489407578392832 0.1202877531111831 -0.0534239033728388
0.1801995947823975 3.4437175611617978 -0.0749281792492220
0.1622263391163569 0.8525223702616128 -0.0203835742728808
0.1254414462125901 0.1506240937405233 0.0596506595482350
0.0452820270403042 -0.7486761874230454 0.2032495264757445
0.1804799281760043 0.0893852704327776 0.1195750872827555
0.1916070951898442 1.4471141500861029 0.0498579465427674
0.0977027288840195 0.0527141638053930 0.0769883066447014
0.1279425196351387 0.0523509149892233 0.0831307890828239
0.1382807225480981 3.4981428836015316 0.4513402186916348
-0.0522927950542695 -0.1139757871756405 -0.0030269679005902
0.0902797411377596 -1.2990351489065459 -0.0961013375219330
0.0996262691286863 -1.3732978056936871 0.0513953820181297
0.1008437735650911 -1.9731216695449141 -0.1058474469258809
0.1330680024848813 0.4210792804513757 0.0677619116430834
0.1503667076089202 2.2471948643361399 0.0635053314429046
0.1866541045550452 0.7105411167756921 0.0429794043600290
0.1741863077954441 0.6123362807600387 -0.0774099927822485
0.1839910705676813 4.2984701054265804 -0.0804176555661218
0.1244735094021352 1.0448785486121321 0.1021827808272019
0.1590058385494572 2.0983206347090428 -0.0195759680992108
0.1885131242158052 2.2475506215320888 -0.0058088621726560
0.0670515902231314 1.5868996494994025 -0.1159867728337156
0.0938162924838138 0.2854462150170176 -0.0805551380860715
0.1023546099070002 2.1864313495294385 -0.4544089943453748
0.1154575832019839 1.6107535506782937 -0.3556594708774307
0.1148981554829265 -1.8348473304546267 0.1902317450211262
0.1782128503156973 3.9588183915083501 -0.0920568124980792
0.1710760733155767 0.2821579890511526 -0.0901341195352013
0.0852292113076524 0.7080536232895189 -0.1075438354438288
0.0993971756896746 -0.1461597893417123 0.0738947836262217
0.0921318615490331 -0.1500030146532741 -0.0804200403056685
0.0942834293249831 -0.0847932557866398 0.0775049601179364
0.0688765702199782 0.6702505421207472 0.1050321677242027
0.0842555021774014 0.7454938377206218 -0.0972169136072081
0.0826352891764314 0.6319122835592926 0.1034813941172747
0.0842142540662521 -0.1379512504821370 -0.0721477551732741
0.1747340348167209 2.2917757153437917 -0.0499629483841757
0.1821546351474378 1.6009934229630529 -0.0874588385589931
0.0177308150457190 0.0519885957612640 0.0243611503938607
0.1988546499520406 1.6021296550966377 -0.2400484013575351
0.0055097485338000 0.0833727717343742 -0.0220216441782368
0.0184022228985587 0.0584164778119034 0.0229672895622365
0.1941498195970639 0.3269728025755752 0.1234078415681700
0.1646632115151611 1.3083838845623066 -0.1887707452482651
0.0059605668491287 0.0729683695301963 -0.0219590518980973
0.2060055547786768 1.5399854607370180 0.2376448887316293
0.1323361839628732 4.5330072751936887 0.0061955010030412
-0.0156907090507539 0.0940623720885770 0.0223400242120359
0.1554536195501042 -0.2178171202587823 -0.1644419351898641
0.0140310271870944 0.0216643789125734 0.0207684313647333
0.2301899484283862 1.4764939948164890 -0.2333345300370198
0.0000566191311747 0.0364252811078292 -0.0132376230212619
0.2234084315748928 0.3009265783558995 0.1244373089975808
0.1841049406133891 1.2543019631722641 -0.1884305102699070
0.0134899852645015 0.0221788311605526 0.0168296591046069
-0.0000516112121876 0.0366065174224075 -0.0138212485988188
0.2347680591530437 1.2862003594675320 0.2394290515379630
0.1765249377549676 2.6787414589710532 0.1425871065902029
0.1195716242281306 -1.6906321386241305 -0.1317416955685922
0.1945531395573652 0.3335956005660634 0.1184952303046686
0.0170695496829158 0.0916227818443989 0.0279412959351034
0.0211739075949098 -0.7476915782317063 0.0340539279816396
-0.0015701286057169 -0.0140573109224359 -0.0186550145379832
-0.0018434398456188 -0.0241918260433463 -0.0171745135348800
0.0280805050811448 -0.6569666210389121 0.0402309691566629
0.1377437526307819 -0.1082266172784294 0.0410537025700106
0.1272692789535464 5.4339530323925000 -0.3337933670866418
0.2645308987545540 0.2403972091910077 0.2126646551965510
-0.0347663671961237 0.2244509938502719 -0.1555184622492179
0.0550192443633992 -1.1299145854877137 0.1783020293017885
0.1331311223475210 4.0947275350388423 -0.2827577838070218
0.1106328822364884 5.0721915027582778 0.3009585228590818
-0.0383649624739914 0.1944371480271681 -0.1438814790748574
0.1949518477183527 2.0436440279427468 -0.0286302870430703
0.1690011898317394 0.2612335667631007 -0.0768325403883006
0.1805136546682648 1.4876979349599702 -0.0361739180876337
0.1787774822292257 1.5297986542381135 -0.0887936102304815
0.1571055547287769 0.0825046316767482 -0.0590057822281344
0.0304285513540080 -1.6287208575594803 0.2884253480962605
-0.0499799612876387 0.1191728693585294 -0.0358867475113146
0.1119289476578279 0.2239572601661197 -0.0461847336964285
0.2572232057320806 0.3439252553980474 0.2132114188409197
-0.0020251917885154 -0.0041513860054280 0.0157554549082809
0.0242072106785422 -0.6624233347500409 -0.0281432123464036
0.0248673228882761 -0.7467503411818818 -0.0317727587021617
-0.0022778211259218 -0.0211882028444999 0.0163589990340054
-0.0531905170903768 0.0378334104014540 -0.0009019578002120
-0.0408870240514055 0.0108567552235163 0.0079070998494006
0.1061835849273308 -1.1349927887963258 -0.1023915126991028
0.1194721460396453 -1.1700244551155197 0.0566922305477987
0.1323633090067930 0.4710333137939012 -0.0298255671752772
0.1584189569643510 1.7014964698863253 -0.0471382459651530
0.1507939885612790 3.0428756844459826 0.0203762028254942
-0.1699323297149778 0.1962322549524045 -0.0349149551513056
-0.0104987716561043 -6.2243262959744028 0.1509140716579137
0.2175710184767956 0.7449627722108502 0.1712164946922192
-0.0066885315755805 0.0754575611135157 -0.0197141796846143
-0.0070460072259394 0.0669464262972473 -0.0222655070770944
0.0056299518897474 0.0814298589350142 0.0230125557499594
0.1750173661429140 0.7388555910963794 -0.1275729522247979
0.2005381263502568 0.0700941961389717 0.1142185868694392
0.2284898905245731 0.6903398413699918 -0.1680173948428191
0.0059155047678677 0.0876618217104665 0.0223597209809263
-0.0128678966982299 0.0802750515747163 -0.0349052142723344
0.2617632101097196 0.4247042726630538 0.1619304042393868
-0.0119398857506665 0.0708982148428666 -0.0374975922588905
0.0003816311484360 0.0841888604377381 0.0492208606899007
0.2393848864060427 -0.1414228088820167 0.1084826177488280
0.2199573497530998 0.3703927258002919 -0.1393951298670521
0.2720224989766049 0.5337480908261858 -0.1738999774286027
-0.0005813429656835 0.0837477269981738 0.0511833073170276
0.2094569989772818 0.4952511358488069 -0.0137281231045745
0.1444160480005514 0.2868564677591449 -0.0482923401219996
0.1687729461200858 0.4024358667603098 -0.0276718875968079
0.2253227239444318 0.2342261046511282 -0.1464108274825647
0.1637852555601110 0.2560887281676617 -0.1018192913993951
-0.0152657619157219 0.0621006228039615 -0.0177445456908213
-0.0012481013189494 0.0584476879052867 0.0176281097495691
-0.0168667280991948 0.0658177510518406 -0.0163616705751601
0.2238394230068709 0.2420218369522490 0.1475888228348776
0.2284996606962280 2.3550641701884110 0.1687868847629007
0.1382468084206642 -0.1586279513619406 0.0199794934744373
0.1104356253660145 2.0094568591842408 -0.0266712471669901
0.0317471821705434 0.1488383224317411 0.0247507038221705
0.0672174610226756 -0.9607504024201513 -0.0711492095455640
0.0754225827210200 -0.8783712658222410 -0.0479379654388415
0.0043928026825433 0.2426487707048828 -0.0418585157504066
0.0348222839931203 0.2088129532205091 0.0192337206467309
0.0750542778374991 -0.8672795200833983 0.1132671834092044
0.0037708784445890 0.1852778489764883 -0.0421616160010938
0.0771010421635002 -1.1239173929758925 0.0770767359652227
0.1724710732233175 1.4616597203034232 -0.0014870636818074
0.2755342441746578 1.3968540008826991 0.0079303006262175
-0.0458868410892524 0.1343030460962653 0.0323773036657319
0.0406861592480019 -1.4519713616244536 -0.2343240552796632
0.0829659742748240 -1.3776632197900629 0.1664796218898981
0.0182912523455491 -2.1801481586997626 -0.2954758423614786
0.1740247730311018 0.5408486388251047 0.0799799965381533
0.0357348153034536 0.0382719127830683 -0.0061842538252448
-0.0008791199120236 1.6641471852181497 -0.0277771878289561
0.0017864263265588 1.6370635932011053 -0.0032463128849490
0.0352594894483839 0.0349893731361421 -0.0029429446762784
0.0264607848206115 -0.0121989008665808 -0.0284105763976414
-0.0114860122025699 0.9708283163621576 0.0566201131829359
-0.0052211550269897 1.6087770637808316 0.0297871804817473
0.0363207960012130 0.0263448312099249 -0.0045627896397237
-0.0132588906905553 0.8955551329710850 -0.0469813551386420
0.0344299794531951 -0.0253252605605645 0.0284269435793497
0.0096055178249964 1.1368151271212510 0.0340635382357689
0.0353752275126570 0.0210793232528679 -0.0056102638288619
0.0220744773982966 1.2960869851792050 0.0197930494699735
0.0353659214527331 0.0209254596763307 -0.0055079266383022
0.0299265691832078 -0.0252810598958059 -0.0282272663586983
0.0600668965320136 1.5788935441594554 0.0437149292123459
0.0458672722684227 1.6880264776452445 0.0170067558864679
0.0197270757401942 0.7519558754407164 0.0619909499894342
0.0380791717774875 0.0488210114081657 -0.0045027938604235
0.0386319731324663 0.0332900164813933 -0.0051372474140044
-0.0129051380973723 1.0595273441007962 -0.0548329031183137
0.0365406096599610 -0.0312307760377314 0.0298566470767151
0.0078591297747527 1.5479315066598878 -0.0045086531974624
0.0387031146621148 0.0557537050585121 -0.0055219295228581
0.1758013498951929 2.3180232380564547 -0.0333578949693195
0.2475839973134096 1.5604315799327622 -0.0205233905456969
0.1387288201314411 2.1835313607464575 -0.0476700046729498
-0.2042182196937786 0.1891505734984108 0.0596504707033363
0.0381089903204821 -2.8437149061120977 0.0799171088017696
-0.1685096998677705 0.2383992885206147 -0.0468459527027279
0.0155239384786668 -4.5512301348827098 -0.1101298803849853
-0.2034550812923187 0.2380563996294646 0.0597415524268511
-0.1689785262579331 0.1900046687512963 -0.0400268939262411
0.1790579276742834 2.0822960643404422 -0.0850644827147699
0.2447687408679551 1.3705159615390918 -0.0167760046457272
0.1790088092595892 1.0254418450847564 0.0465211329769370
0.1582106713431645 0.4511941470487724 0.0532126384883033
-0.0159033459143397 0.0968214794462462 0.0172223282579963
0.2003181788728769 0.8805630909906815 -0.1751379497726736
0.1648529622661521 0.8890865582433177 -0.1342698008439770
-0.0132043157660474 0.1154252601664453 -0.0106013606470633
0.1909205964561202 0.7446857816775975 0.0891426387798464
-0.0149389878606779 0.0992269017203628 0.0145639037042891
-0.0132968342362904 0.1056218616466109 -0.0109348583008700
0.2035057706685592 1.0676718803663012 0.1710094569214311
0.2880713068799693 0.8849128188096032 -0.0426546296997303
0.1660761067050090 1.7690748967332517 0.0156593814855129
0.1666161522611341 1.7023264666665663 0.0138574465175533
0.1999911920632909 2.1125231815926129 0.1289362775895524
-0.0223634111803854 -6.0456130633511371 -0.1336435925143615
-0.0278571330569831 -6.0443483278734771 0.1388713403035868
0.0331949618609703 0.1278347759202760 0.0164580689989687
0.0474964135870825 -0.8638626419455491 -0.0972851114711272
0.0559996370387523 -0.8318049935660182 -0.0637354702253222
0.0602874696652048 -0.6699888291445844 0.1300228813058991
0.0004441171960403 0.1892807474426024 -0.0385228226705363
0.0288137966380561 0.1496050891213234 0.0158493906597177
0.0639646372786209 -0.7894040848496130 0.0919354759374968
0.0002052341549035 0.1226345882229865 -0.0410287236791708
0.1026030495851295 0.1494525979111975 -0.0136833888789265
0.1264639852473150 0.1185693598262014 -0.0563123092517591
0.0873934001480610 0.0535211994575632 0.0355513343071640
0.0696370821367874 0.1708664669051235 -0.0596289033203918
0.0900231089055617 0.2843953631850508 0.0395938048925619
0.0857969947311823 0.1809362609419034 0.0753582916617898
0.1228659669026066 0.1349962326188265 0.0532195063146689
0.0721277068060270 0.0853315132891841 -0.0480837604601867
0.0933125279616425 0.2777016723859945 -0.0406081836443731
0.1770024626842228 1.9958024259306304 -0.0015988268969288
0.1914616366863624 0.2948209763344152 -0.1550091278066840
0.1550404472452098 0.7267371865142704 0.1354191155205102
0.1082668369815533 0.3595691245214850 0.0259712722232338
0.1376074912920328 0.1024150730576876 0.1212499361940457
0.1659769347212784 1.6822431109564950 0.0416183612824168
0.1845324740847854 1.8919913561120532 -0.0108280193515884
0.1796808300823324 1.8120552226548856 -0.0794877374497971
0.0062556972119426 0.0872016720292409 -0.0085666145841882
-0.0378081979534028 0.1419024246680222 0.0362819034156506
-0.0506468082714862 0.1471231170043930 -0.0354506731954867
0.0498564303445307 -1.1896703600364782 -0.2249006287464815
0.0956606992133245 -1.1898824168457325 0.1542825371229307
0.0254781796381228 -1.8028665429159416 -0.2903933629282712
0.1546809803234684 1.5642439084408826 -0.0401378310242767
0.1774568115353647 3.2064987701801395 0.0274847689228425
0.1449796273698926 0.9167110726207185 -0.0795151928824737
0.0546354361552455 -0.4933505655557098 0.0896196694896371
0.0267057760998592 -0.0021570088916588 -0.0450288534176477
0.0304786116054789 0.0169278848012999 -0.0476442248341675
0.0460383365291438 -0.2440798338646744 0.0939750217089087
0.0354743979316215 0.0878023299506867 0.0438958940900257
0.0559959507974773 -0.4418999408308168 -0.0791309649792676
0.0544453872211741 -0.5419231459358292 -0.0912047558049674
0.0364842596504784 0.0058190901596900 0.0436536507699261
0.0284025216615256 0.4133154806319183 0.1059347508458188
0.1356211697176807 -0.5346325493611673 0.1615650316933225
0.1797620797941903 2.1783240829453892 -0.0198251330674485
0.1397701331983081 2.4969021049610620 -0.0572175676781601
0.1370852006587282 1.8041937498779208 -0.0905701176224340
-0.0406889105487748 0.1248926193676908 -0.1065365444145245
0.1505167882954227 0.8375396745734097 0.0241880489926528
0.1631118884499042 0.7170212899082449 0.0340628319730026
0.2030810238247079 0.5868265583155133 -0.0361164097529958
0.1991040050492169 1.8651832804363764 0.0318944516515318
0.1834183569845199 0.9357479181877135 -0.1126397548320716
0.1593565267252416 2.1336396610294033 0.0061373999263951
0.2013240156309357 0.4141882938342478 -0.0347213078320436
0.1773624842338484 2.1578619562522690 -0.0804635940252004
0.2399544923455480 3.9383782209314875 -0.1876861242079561
0.1386282874460616 3.2899552726284962 0.0816838910488924
0.1141302823241467 1.9002198879162810 -0.0730802290939130
0.1934835359437325 2.0169522424302224 0.0167749457509824
0.2083877115566629 3.2383669420640495 -0.0785807696267659
0.1623934466654698 0.6030272520937293 0.0574281144470798
-0.0365166817236655 -0.3390616363197365 -0.3321042146309542
-0.0660228430131631 0.0393149112782797 0.1994516651652167
-0.0653488458844172 0.1626070692872338 -0.1363007704990510
0.0969323370416599 0.3207607359643903 0.1818868290682742
0.0113618004330945 -0.1856794618277948 -0.2766714627751359
-0.0351297298382622 -0.0881227819533358 0.3092987774783483
-0.0665476278512954 0.1390881029034539 -0.1267462526197695
0.0902772721915401 2.3663816336629773 -0.0228506510424236
0.1880532328106901 1.2638397944879802 -0.0594993780868265
0.3431476843828493 0.6277412752162425 0.0273759825143570
0.1722654021697033 1.9051237864632622 -0.0185755079376532
0.1346964320807510 0.7152933614943250 -0.1309490987318706
0.1925085430642915 0.7286478878804273 -0.0102157299781556
0.1344283006829493 1.9396986060292312 0.0291366443600676
0.1555676448887882 0.4539528338006462 0.1298923766517424
0.1844684558178969 0.9900435814445715 0.1056434995925051
0.1941529178614628 -0.5569101561016885 -0.1937878027204384
-0.0563924531316543 0.3545988613311324 -0.0710291727777052
-0.1046891737702068 -0.0731607596960998 0.0885293583110515
0.1540026011878327 1.7366781063464367 -0.1840151707247155
0.1351260731034338 1.7858835253544068 0.0861214108261154
-0.0839818204810595 -0.0970317081892429 -0.0568541591171822
-0.1022280225271318 -0.0339069973702940 0.0888324200771464
0.1548845744596266 1.6164423024568277 -0.1496685175653775
0.1518988902232716 2.1773232513693834 0.1688534706487433
-0.0849686034369753 -0.0753265853384164 -0.0516452766643812
0.1995400150181084 4.0480288273098424 -0.0732713227125287
-0.0376639139306118 0.0061330531615955 0.0115657120512890
0.1710139419907072 1.9739599461364661 0.0431424412280077
0.3081463384263226 1.1456498300756015 0.0287322380713484
0.1843334402997870 0.9558563704932499 -0.0252834896686015
0.1512029769369327 1.2655306270085303 -0.0714843841949158
0.1753307316094163 2.2846827462216917 -0.0404126263809330
0.1203193169668365 0.0460463477636756 -0.0353591467543588
0.2012115126274003 3.6136536325866202 -0.1595366726530566
0.0823138671551460 0.8870760086351609 0.1928868576843242
0.2676223773129363 1.0229969817023217 -0.0195605391895460
0.1899240681391582 2.0681715887675889 -0.0013511877009527
-0.1414680795641083 0.2331065209420867 -0.0003045175835650
0.1054597386016513 -1.8153346753000483 -0.0872137242054594
0.0993864403678499 -2.3485756834069558 0.0449922013961132
0.0986102895165509 -3.3678497217670080 -0.0989147849252356
0.1738265001899044 2.3373612678954570 -0.0011710828953617
0.2206918676732216 1.2787296116552040 -0.1671028529422541
-0.0184268897558387 0.0973647679723598 0.0114474669390890
-0.0181223858971185 0.1280435437461689 0.0006525335255696
0.2167055467937599 0.9394248769294966 0.0999655027749736
-0.0167374512015847 0.0868465450497016 0.0070846908823804
0.1795717563893725 0.9981725888628326 -0.1397636466130126
0.2314623584674056 0.7801953555591802 0.1918643297674927
-0.0193188949002445 0.1231248537962680 0.0001702124371918
0.1844867101434314 1.5978898125925225 -0.0736135088446152
0.0989397527127646 0.4383616627826110 0.0367093816574092
0.0915049702265559 0.0859324977330350 0.0286699478677496
0.1207227126576784 0.1202259713769912 0.0164937427732143
0.2674603135480563 1.3852332176535520 0.0019042508689135
0.2392481554882316 1.2825293315733808 0.0121245900767552
0.1708133608804373 2.0216801827989141 0.1254113648398039
0.4630371755313359 0.9254786928721387 0.0890572112564748
0.1197849411606763 1.9652636593087154 0.0043210179275121
0.1598927613082353 1.1359051056269776 -0.0830342445082163
0.1681702626783565 1.9505516603443329 -0.0432286387185116
0.2005088965076886 1.5903901683411859 -0.0690464019094153
0.1536877993696320 0.3962749440938794 -0.0638719050863331
0.1713438782278514 2.4755331762367567 0.0871706275491612
0.1818370182472516 1.5353127081939550 -0.0354459585706509
0.1869133597796606 2.3516178886402170 0.0044769883107658
0.1789386343110503 1.6447720658416507 -0.0187455919843576
0.1865796713894952 3.3769398209124364 0.0367716660510757
0.1010715762890716 1.1782101989244191 -0.0515801676236603
0.1209182418043606 4.0968622322568331 -0.1208731410748083
0.1820257218025058 4.3711040686083340 -0.0036621371675657
0.1597481312821857 3.1731925635632496 0.0851931829150589
0.1657191396235073 -1.1207857182254013 -0.1100170120802331
-0.0888725425145342 0.1852532504504627 -0.0260581302425396
0.1163948768776506 0.2965219481578584 -0.0340964212361221
0.1772765537836811 1.3439627790530535 0.0324530485087327
0.1411115008081193 0.2000622260033130 -0.0152866125972601
0.1503012581676318 1.4087768572768589 0.0230026674145271
0.1402959247460322 0.2672361118701296 -0.0213436801306886
0.1424912501725926 0.1603661967895174 0.0060450012661749
0.1335374623291946 1.4432240695134408 -0.0048927124058126
0.1840832268750189 1.2234774998978009 -0.0241684846299828
0.1422441351768672 0.1058909971701287 0.0084406513789390
-0.0060386801336356 -6.2508064344293235 -0.1445406180436105
-0.1957597122993456 0.2026113186977678 0.0469794516706749
-0.0615282773210851 0.1393608523517541 0.1975499324404491
0.1775429306722133 2.6939265304967854 0.0396043337876774
0.1827456544179832 2.7146464192130919 0.0190659218585842
0.1742030276598411 2.6128875845622730 0.0140925176504310
0.1214957399408376 1.7298887305048913 -0.1073247543161303
0.1983371362872033 1.5620015556918083 0.0129508546337224
0.1116334598026415 -2.4865428712497235 -0.1314177059706959
0.1917379477863910 3.4535154812748252 -0.0031679242197706
0.1912563775126900 2.1145256249748825 -0.0051962086519764
0.1332079988815976 1.5744688420769732 -0.1733667435720116
0.1747872897938637 2.5099930268731288 -0.0261117647665516
0.0839193061539546 0.1187245620720928 -0.1163229958117929
0.0837337430128779 0.1319574875618813 0.0812774192644436
0.0700060432007574 0.0456510028379110 -0.0893589820148470
0.0842126165608385 0.3166819812336474 0.0844012720872426
0.0582050002351250 0.3770503407344503 0.1102327543157651
0.0812625508049641 -0.0213497472611740 -0.1131141493505800
0.0835022699938864 0.0029918009639400 0.1129643875868676
0.0629606201079356 0.0000758008145161 -0.0802347927827580
0.1881420037272638 0.3387373219369475 0.1246894201458607
0.1701245418049314 1.2417556248018748 0.0672372390024625
0.1453679695957468 1.3865535090826981 0.1757452550527183
0.1470146146870235 0.9771303117723203 0.0142339479985449
0.1795591883492735 2.5025510199544874 -0.0460905150507656
0.2532355895942045 1.7674001675643991 0.0713922897319280
0.1492335524425727 2.2118092314959772 0.0790262184632855
0.2392055833703555 1.8582705793670531 -0.0241715218025216
0.1832701277088389 1.0213061286339553 -0.0525488799623277
0.1127390925417776 -2.9369227743299544 0.1278721284748496
-0.1266751727417399 0.1917521315378296 -0.0083072897958086
0.1658748537123171 2.0318538347362907 0.0504541442138824
0.1765151160672021 1.4000815915313716 -0.0933056147619424
0.1467578610815893 4.1105669055020053 0.0608215795792522
0.3062599976176993 1.5616285187019729 -0.0694543984279740
0.0746841586731819 -0.0071344383264628 -0.0149855030273575
0.1455127393067691 1.6413849163162251 0.0425746436863518
0.1468594190355457 1.6844815584793895 0.0902384749095746
0.0726176645426559 0.0087005710976870 -0.0128800962499936
0.1368809746330586 1.6563242326206342 -0.0205588321249305
0.0799558748669309 -0.0339146973917608 0.0007222688967457
0.0779178540583206 -0.0128953642433363 0.0032749782676104
0.1391692113705295 1.7629512869350648 -0.0521050654874356
0.1757626449857349 2.2535674188952899 -0.0392054982870464
0.1572469032589339 1.7502701550118120 0.0047961658693298
0.1660278999323608 0.9309317623765472 -0.0937260669424639
0.2638894161425556 1.5509924000541051 0.0039177639419575
0.1479422513778758 0.3335277192799977 0.0194188568347762
0.3954153372410421 1.3421351228539242 0.0441353336719429
0.1894016634766426 1.3308683520064555 -0.0200155450462255
0.1656285657433243 1.2810708972601146 0.0035877784521161
0.1902598583560005 2.1958782370379444 -0.0090818978998926
0.1812938427296964 4.0273664281149975 -0.0091732824056757
0.2000331417384589 2.0966404405684940 -0.0053354879978032
0.1806175896332693 2.2709325164885117 0.0031342135367951
0.1458156700051640 1.9031174005387110 0.1175794251153039
0.1804126188207787 3.7646171368908368 -0.0830339042234429
0.1570688329780021 1.7830073749048478 0.0299655629367747
0.0781795089719122 0.0575333537642654 -0.0199029071852793
0.0818313470611057 0.0615053795440582 0.0048274652982126
0.0751737397959009 0.0862526000528834 -0.0199923670445938
0.1453277683258444 1.6140656213262450 -0.0046558316742167
0.1557851213261613 1.9086506124306954 0.0682363818363202
0.0851883145111685 0.0629818901274055 0.0075394111676291
0.1500234025574753 1.7799164617461924 -0.0246337244272268
0.3058221347204357 0.7392850621063047 -0.0065854083301367
0.1948654933150525 2.1304670963052437 -0.0029242029157765
0.1774043646835165 4.0934685945771392 -0.0166372447815388
0.1775749767708057 2.0170792787970191 0.1612014200078396
0.1764506082027029 2.1016230307423522 -0.0239794977818435
0.1975813164785750 1.4524547393003651 -0.0520169559372331
0.1613822285472715 1.8829903338597707 0.1305330181689594
0.1541463472101942 0.6623998535600958 0.1049525309636209
0.1968111397257628 1.8941224805033710 -0.0170158090308368
0.1499622567317023 0.6817510761746699 0.0037714881766159
0.1697341985036528 1.7103009863200223 -0.0849980313430694
0.1588088450633649 1.9981659209925242 -0.0296348064375841
0.1850804998880768 1.6523145788992124 -0.0611323620667507
0.1961418471001982 1.4398663572596446 -0.0171689833942804
0.2011806976546841 1.7356115216712773 0.0710277861499048
0.0926486760861806 -0.0108678092077124 -0.0123413444988141
0.1518984251103482 1.4346172712028573 0.0577036528922717
0.0660480879098397 1.5873986627885555 0.1648695793709359
0.1771163813593770 2.7367821357372102 -0.0097323805299810
0.1772651098848476 4.0767757895938770 -0.0252774613676841
0.1438796575303591 2.4785090647901997 0.0818996177442927
0.1656819007605006 1.8688159790067174 -0.0040440267164202
0.1903005178945590 2.0381659558803804 -0.0845256640077358
0.1768903391027621 2.7624693631175812 0.0424221446380343
0.2053883838729062 1.9132885311604366 0.1099442584243681
0.1757851935690170 1.9578926086350734 -0.0426422029378973
0.1951387446172671 2.0925686185752639 0.1097516856827683
0.1504794027487351 0.5872928235654103 0.0288611577932489
0.1753708437879169 1.2723828671872193 -0.0929905852989527
0.1496774512431656 0.2327348199012741 -0.0652110648206555
0.1259916160941068 2.1117377347361610 -0.0291650856020720
0.1976092769508732 1.3234305033203280 -0.0193210791289369
0.1501638972499112 0.4668784834055256 -0.0233075696174362
0.1916155625778043 1.8772206519633516 0.1003425681771486
0.2065841374585749 1.6080092955035661 0.0462259451485063
0.1782111512734779 2.7201802642998247 0.0040128010458505
0.1639795768030942 1.9215037944789557 -0.0910377602641573
0.1640367595311674 2.0136185778325162 -0.0213302280010009
0.1650469870510949 0.8950780984308849 -0.0702035707637326
0.1770899649145860 2.6558975545812142 -0.0351545129358767
0.1975452472061973 1.9633148338199766 0.1142039922118764
0.1991377480578587 1.5127482904251686 -0.0316043897787067
0.1706414983128852 1.6813029975586331 -0.0015567684192442
0.1657174348378423 2.9690526451448878 0.0586299964487249
0.1426563249947468 1.9425619007321693 0.0312866054994010
0.1619398490490910 2.0521819763734821 0.0387981821607675
0.1651730653934410 0.1770210960877409 0.0504407312189637
0.1038862701183453 0.4377959410196013 0.0769744314704642
0.0693449400185963 0.6281904993180700 0.1151470784068545
0.1399954013865185 1.6559474294661574 -0.0805220301176236
0.1521940880919032 1.3815727449194246 -0.0236775885799621
0.1651522543432504 2.0633042117644269 0.0007638450911241
0.1735437739523570 2.6727285492958388 -0.0284440505339883
0.1507569034385460 1.9738782402594357 0.0214781806547196
0.2277063541883629 1.4493324473156000 0.1461297223933523
0.1680527280415195 1.9944811758459231 -0.0377434948560661
0.2282285333876627 1.8308082131585972 -0.0027880765753285
0.1761771611719489 2.2393198320202310 -0.0541630120216989
0.1722100317134868 0.6497569601278621 0.0162330577860325
0.1771574224645304 2.2620093361520826 0.0445001085350201
0.1786948518866697 2.5581709638668841 0.0148857526047106
0.2176921526648605 2.2442788517567753 0.1607786547245567
0.1378414737817846 0.6180304740443910 -0.0551838827029952
0.0838480237054738 0.3190678253442937 0.0165406207207154
0.1775852049551327 1.5437330034807937 0.0016898818428635
0.1597018994671588 0.8874110307276426 -0.0884358275451673
0.1773551200346012 1.3674458286435500 -0.0304549780413330
0.1761808265529929 2.0461960773385388 0.0857231493684552
0.1873092070990116 4.3250886837807565 -0.0916720928759947
0.2063445841095966 1.5861053785233428 0.0104016728783129
0.1653768878776540 2.3076280475332260 0.0972522951227369
0.0867129484209978 -1.1065342563599854 -0.0171264689524174
-0.1388009785937125 0.1741855500127524 0.0078551218598339
0.1765237892017277 1.5881433660647530 -0.0448442401900129
0.2008649512380981 1.8639465643941775 -0.0575226791784892
0.0650008637509560 0.1311667207186859 0.0244706312532016
0.1794051904187203 2.2329380436234199 -0.0711847491628938
0.1671702725981612 -0.1278279874207833 0.0099236770285508
0.1781797798020185 1.8923157130271688 0.0606426069601777
0.1704673571387481 1.4977140816949639 -0.0898098492285746
0.1648149651040131 2.1149576836148363 -0.0069719261833896
0.1739915135355224 0.7835040945982316 0.0009188086250387
0.1774280320540936 2.6596584852086784 0.0004294114449186
0.2733917284277658 1.5857031465927482 -0.0364959053565711
0.1828707551793144 1.8731617306229742 -0.0085763072760026
0.1909983095147273 2.2167371038406638 0.1632741967005209
0.1767406373029138 2.2109694261788237 -0.0153017683329737
0.3757732326915775 1.4673969518721071 0.0837134349193224
0.1755665731638960 2.9186225745971210 -0.0416885619007250
0.2295223080910255 1.1977390927123939 -0.1299609809615919
0.1845846535574477 2.0367827288867950 -0.0912657313107254
0.1702368202803496 1.8553776529364119 0.0135489685118025
0.1186385799266376 2.0798725656020771 -0.0669638071967572
0.2310796062451748 3.2820655698518904 -0.1329294485871143
0.1362650860333725 0.6266313087928143 0.0615313124813010
0.1704865166722799 1.7810776824939070 -0.0279882468644791
0.1752386879970371 2.4024262581007876 -0.0668752310382460
0.1308748874776711 2.1605418042662148 -0.0041681485588148
0.1862745801574227 1.4445992555063771 -0.0169417669170685
0.1688204606788914 1.5315344123015884 -0.0738524635544636
0.1799809180291623 2.0874706778006291 -0.0994741029342339
0.1689987340762216 2.0619391710969124 -0.0044983821184931
0.1479368805218249 1.5794873879680214 0.0513770424449581
0.0581419900497642 0.2645614845637256 -0.0451631757193162
0.0848772938202338 0.2411547256841260 0.0175419738169871
0.0917108918976597 0.1952940059077292 0.0785874653474692
0.1847337488418073 4.2611074346881370 -0.0354427918095698
0.1510822277913689 -0.3366706889232103 -0.0379165295698847
0.1702275290072994 1.6041436531621711 -0.0001637228192000
0.1614740765813157 0.1300272901708028 -0.1470136522665990
-0.1127419555235266 0.1909258710095332 0.0239450474671103
0.1691135164995115 2.0715532119450586 -0.0304193963905922
0.1976421389289353 1.7199755081917707 0.0371216012844492
0.1532336670084883 0.3593343877452920 0.0158105306931641
0.2363191838369101 2.1870273106194271 -0.1579339914783926
0.1696975366945088 1.9171110083590428 -0.0151274123102441
0.2140733697817997 1.7754619318755753 -0.0011887610767098
0.1771468497385511 2.1211064829640285 -0.0529499476002542
-0.0128314327574713 0.3725580766442075 0.1426563178554131
-0.0375982950930711 0.4296498818902170 -0.1034901747993378
0.1440462290516578 0.0113723831948278 0.1597122024735386
0.1582110867613715 -0.3039193254188289 -0.2298208204784077
-0.0133353137940300 0.4566141451385569 0.1422391850389453
-0.0381546370059306 0.3546164699578644 -0.0966156902410772
0.1812598933990227 1.4785607137364927 -0.0295159812992108
0.1895973551600287 1.9564637484214165 0.0770781282093326
0.2202557892516209 1.9847326373832286 -0.0741960149697135
0.1514383075302000 0.3923849780713989 0.0135143646798820
0.2575417264283003 1.6107950970034128 0.0022785838446027
0.2688354800544582 1.5572730396615917 0.0778504759021893
0.1979849703149580 1.7650561746441404 -0.0054927017254055
0.1810954735229605 1.8469000297170961 -0.0318795087016202
0.2133348844155721 2.0055861718637846 0.0129878970453350
0.1756327533617908 2.5651781335007051 -0.0656835950822439
0.1280826204355503 1.5122767134083783 -0.0746841758690849
-0.0370237934092444 0.1149535766440205 0.0367056617934127
0.1651317707537868 0.5232089317760980 0.0756917221035621
0.1676206719999056 1.3955012938523743 -0.0790524343221290
0.1259087907258248 1.9869102072747733 -0.0680948500599866
0.1733557973370468 0.8003313975684327 -0.0249315492392048
0.1774598199232787 0.9686802091062225 -0.0864335334214618
0.1146516524439640 0.6278442809527773 -0.0275730407904263
0.0646234488580286 0.1971885341129988 -0.0394410301358023
0.2006695909151772 1.4233704827544682 -0.0747242231412557
0.1778404851814080 0.8492087621103547 0.0210265658553584
0.1619199111913502 2.3809106569836844 0.1144158562639370
0.1865037050398307 2.8252267158819495 -0.1014846901041370
0.1801272581368139 1.9580117263625900 0.0603878869579873
0.2018129466524182 2.0145905038005933 0.1262468950641679
0.2092662046189837 2.5449361069561411 -0.0890507127504919
-0.0389377888520424 0.1110327673125446 -0.0730954481181450
0.1757718335425422 2.5541269729437355 0.0233487680741303
0.2124595288694336 1.5471854804964935 -0.0173899344687241
0.1639744947617401 2.3547573823228385 0.0571113220293907
0.1588002406914626 1.8424628626905308 -0.0564422335141523
0.0902272495985005 0.4132683799659355 -0.0884696708606303
0.1858427235778661 1.2823616810264498 -0.1800890137559852
-0.0817748767553452 0.0443314682423897 0.0556752624223074
-0.0782257527979044 0.0789911938481271 -0.0410941631350657
0.1489259338604131 1.1836756455299111 0.0966285802827757
0.1680579693488450 0.8737312632396478 -0.1392552410766695
-0.0814706041620551 0.0996244446412826 0.0561070674902636
-0.0781669950258394 0.0801106530668236 -0.0371060220103970
0.1751157091163810 1.0620105063843639 0.1855875474295802
0.1456850429427120 0.1919181749538105 -0.0351386136084911
0.0883928830219669 0.3471343277081172 0.0008129019840856
0.1053164731651293 0.3333014305267151 0.0389356858282956
0.0881481865465273 0.2778038680350663 -0.0204323012587342
0.1064052658741240 0.2873967938445398 0.0040453104184156
0.0857698850125611 0.3791055262296120 -0.0001149218308371
0.1416042249523989 0.2199728921869875 0.0395920269887275
0.0917360461644541 0.2261479179259848 -0.0168645157119473
0.2580635440980902 0.6069544136930614 0.0890027186255338
0.1610966304320934 1.3824189949161390 -0.1010954348797278
0.2146763410063600 1.8981679782097554 0.1066789439480143
0.1735012108144975 0.7329072115037982 -0.0621577429749741
0.1345842012973380 0.0449704698719529 0.0036491341735682
0.1045433496219271 1.4463331267829607 -0.0002931885239361
0.1589337596861719 0.5674680261827324 -0.0303455185020658
0.1790043432765435 3.4390821785958692 0.0133181219001091
0.1587242646658471 0.9512900939972087 0.1151644526219941
0.1976491836957623 1.8112162575014881 0.0861006363501393
0.1978228570149094 2.0512093132933109 -0.0143571387785736
0.1836449127064795 2.0264037039694749 -0.0195070312931518
0.1942107965083571 1.4829077097652668 -0.0904972107505210
0.1152544376478194 1.2451497050723010 -0.1374258570652392
0.1663783630709641 1.8841946991468632 0.0080667695980077
0.1629125308369173 0.5765716163131787 0.0429926477584965
0.1684917925368462 1.8231389624963164 -0.0227716287125063
0.2943164414845052 1.2861776439460411 -0.0391960553178482
0.2306508302609555 1.8092077925407817 0.0326483684131572
0.2045216863996440 2.1958445079668238 0.0211291673762396
0.1750524997819837 2.4192251849795938 0.0512639027665301
0.1293597477403062 1.8406908178603778 -0.0609537547100076
0.2079714211659432 1.8469728200698814 -0.0324060090337309
0.1649185336537028 1.7040775948383213 -0.0294276742315614
0.1702678744047051 0.6045355132436070 -0.0342461151946238
0.1476166621834015 1.9538445866191938 0.0031494553128404
0.1277605516661350 0.2776597657756600 0.0390420515105265
0.1467259428829301 0.7620153252928282 0.1670516845471005
0.1770943502010967 1.3446209250456653 -0.0460503030787684
0.1981314049165986 1.7366073859132840 0.0713996114547650
0.1414597055228994 -0.0884699946821284 0.0159518963051028
0.1633699314383285 1.6719546626512862 -0.0788736604229951
0.1625719753760312 2.0288316927898595 -0.0230729343896583
0.2121160721106089 2.4175032870220972 -0.0094489238945333
0.1834199088832663 1.8274781058754606 0.0841190840486592
0.1629637826382203 1.2997527715524018 -0.0315864054245357
0.1929094712144873 1.3972567199238908 0.0526501439976487
-0.1270581777300017 0.2258074991397361 -0.0078303145543700
-0.1175466060787313 0.2202724634357240 0.0150300545776956
0.1159288289613687 -1.7749478862385815 0.0555143433029883
0.1180245570144658 -1.4441929176773272 -0.0960311816289697
0.1752414327490662 2.1144016610788134 -0.0270103614277719
0.1712741789561610 1.1879471277067490 0.0657075609227148
0.2348010887000175 2.5473935337912863 -0.1778698828022190
0.1678708479371056 1.8875812009322703 0.0071930459646147
0.2197606381973468 1.8918925132542326 -0.0205709349502171
0.1967060837647856 2.2444673449362682 -0.0071877861183935
0.1948033357422306 1.5763628134633445 -0.0348344384882850
0.1655593931764415 -0.4095686448453905 0.0555138206255788
0.2012984301946610 1.5360318384900886 -0.0653544408302957
0.2266908053431788 1.4816494587799787 0.0878050635876221
0.2180413921420609 0.2605461826616453 0.1440994515718110
0.1791876199859260 1.9173401740560667 0.0522097174317873
0.1848662003079380 1.9109657334668895 -0.0096976639120011
0.2921615348253617 0.1556297633380065 -0.0250636812985444
0.2450370366067040 1.2796158851449544 0.0166902693217794
0.1925967565505139 1.6323624034340822 0.0687108275460047
0.1743382186086784 1.1428577178226060 -0.0307281053065761
0.1205805575228060 -0.0324394414586089 -0.1996479049589682
0.1962455065648510 1.9023375638856337 0.0077104017394721
0.1938356380989760 1.3674396150226922 -0.0843547410010421
0.1678899102972939 -0.0385706945802636 -0.0123976064473912
0.1817406336280186 1.1061979233534069 -0.0910738715876032
0.1351598007774267 1.6648359509242787 -0.1395860618461282
0.1608612367725682 0.7308499316627024 0.1174583492201219
0.1812628525995632 1.4374952133839978 0.0575705040555455
0.1745928777076911 1.8133573062283685 -0.0626708481821937
0.1507710267467361 2.1809218828036268 0.0787359380513456
0.1781651343438262 2.1866149665228858 0.0042776865881648
0.1647464204517768 0.6403461341891722 0.0880728990169064
0.1988964118729814 1.6723916742186939 0.0757070793902546
0.1667074620135915 1.5581261771488755 -0.1062518556011473
0.1657343727577431 2.0454128447885482 0.0816389454767386
0.2147951738052533 4.0525764321368554 -0.1030276799594698
0.2266865994710576 2.0340794176735950 0.1455677208347478
0.2038562487779558 1.6245224452278262 -0.0050762160022313
0.2379955449600389 1.6879767879829051 0.0045999597993633
0.2498260887590831 3.9260088429400688 0.2182860878505840
0.1709628267915850 1.2678820913324480 -0.0722653464581987
0.1710084603995280 1.1255644553786976 -0.0350733915455790
0.1692871624118088 2.2802887596328509 0.0842365137047335
0.1783313165020845 2.5125577277112772 -0.0035119453630245
0.1854724672430160 0.4420044038373017 0.0639767859453025
0.1748787055001585 0.7944854724195033 0.0027490314285622
0.1784232163821865 2.1081616688437603 0.0116527757959686
0.1821798656870968 1.3083585056213347 -0.0002843067666245
0.0377056723055469 2.2002754545345478 -0.0563299602511810
0.1764934242788556 1.3306978070075108 -0.0452154064363942
0.1738164356808084 1.1927956016288215 -0.0428917898847530
0.2025504582311763 1.5788888310332188 0.0217875621319062
0.1992065390788523 1.7273477017928600 -0.1088511766468356
0.1647286150428284 3.1776275309760189 0.1002719519078479
0.2198541057989713 4.1020002138649172 0.1828830034143620
0.1685245732587076 1.8487437445589443 -0.0268244963046924
0.1666639223147345 1.5926655831287988 -0.0770661400503867
0.1425294312679685 1.3544044776796187 0.0191215596350954
0.1696520317805772 0.5264378642145509 0.0049610430061841
0.1712675244576014 0.7823062734229381 0.0396406045633209
0.2104855881266857 1.5509493532656027 -0.0743671529724004
0.1632432293614144 1.7643483025569269 -0.0369608991437935
0.1625131952891588 1.7379567594871570 -0.0741310378122766
0.1505112197208087 0.2231943651615764 0.1062018727360056
0.1741660017286456 1.9003805928657183 0.0063287305088336
0.2058394663173207 1.9294023747107107 0.0982371665892812
0.0888934640078066 1.2906632270279605 0.0436122065086133
0.2020568835853380 1.2475756897407866 -0.0839317694798002
0.1463824768560258 2.2503175888309350 0.1716278828013948
0.1370681315035912 1.8368434724788578 0.1030186189926176
0.1574658844396966 1.8400454404074584 0.0325701683963418
0.1942652617674099 1.6285467264994562 -0.0872491372082120
0.1927169818905244 4.2901713684443381 -0.0387316929474943
0.1543486900824231 0.8833946478543598 0.1448803012924438
0.1662291170631198 2.2886550743365253 0.1141898479012404
0.1942689935259475 1.6272172613253535 0.0388406557055793
0.1960003909823774 1.8035478562842384 0.0804484080824555
0.2707660637220404 0.8104126147166633 0.0586470582087419
0.1588956208136739 0.6847139548530669 0.1395032124191253
0.1823937395020921 2.1632585528608423 -0.0188476187860725
0.1324330128404518 0.4372071859893365 -0.0132075602876174
0.2137720258541758 1.8101450728993680 0.0959086398915774
0.1571357486430688 -0.1747259173124918 0.1082800394554495
0.1717965587137744 1.8568592599742320 -0.0238537973581198
0.1829622463621819 1.4270490891802803 0.0073233937764513
0.1678991629124411 2.5189125274564685 0.1001039949526106
0.2029474361941870 1.5211710782115471 0.0211144736773225
0.1720404173354846 1.6922014802379701 0.0478277973164873
0.1637808547296566 0.2225010180834974 -0.1178074398881426
0.1155133972552418 -0.3235332256919332 -0.1042044899036876
0.2001167897151944 1.7481842817146465 0.0609176056735430
0.1587484962779004 1.3372691842071036 0.0669497777612795
0.1439933256821838 2.3288599184929946 0.2217284720152711
0.1737708514738435 1.6631800149361919 0.0363511560390546
0.0650099010420034 1.8258220829761760 -0.1648266073242126
0.1145061257914457 0.3458426226971721 0.0620815704039977
0.2960744084007711 1.2062399640793278 -0.0041938094911747
0.1678134900971145 2.0979068401899230 -0.0119585830297819
0.1479889562463741 2.4053647731425025 -0.1676171497686713
0.1874728987749179 2.9329838007820968 -0.0767128216462472
0.1555259157604155 1.6929592218288223 -0.0284150055475635
0.1993554852749879 1.7073123439740394 -0.0272253634664552
0.1583045346812090 2.0856542457045850 -0.0068968854900120
0.1920346922253668 1.9568395741865472 -0.0107127738013505
0.1610694838513793 1.7365633579732187 0.0918189722643515
0.1669980107728238 1.6841690895447605 -0.0582008988550097
0.0875931429942808 0.6055620021419790 0.1228200505767466
0.2641395705227086 0.1198736151853925 0.1464910930278343
0.1684601769220803 4.0297575942280099 0.0168846040561080
0.1638074187947481 1.5272823597566036 -0.0578007567927992
0.1747185925607128 1.9966293992749851 0.0200136653561190
0.1949863571834325 1.5778046640375989 -0.0979000229504583
0.1548019499339441 2.7341805183718018 0.0851008293536397
0.1540096647892889 -0.1148581484113943 -0.2942715287279030
0.1501855299132803 -0.2182518572720356 0.2977799471182681
0.1935517713213498 2.3311808897840534 -0.0313953086409074
0.1704810833106803 3.9104284593066025 -0.0002535459352314
0.1745188696689796 1.3553429234418366 0.0485528153459482
0.1661360688881579 0.8044434050969917 0.0631234851575036
0.2013908108784527 1.6435154992237841 0.1563473712588973
-0.1261587301700320 0.1811600709608108 0.0095011456607975
-0.1564383771623220 0.2666883245414053 0.0091392748041105
-0.1618398758232486 0.2134007260329288 0.0055870968143927
0.1110087619043339 -2.7128407291781569 0.1343322568282832
0.1690245757020309 2.1278493917578132 0.1008016838627802
0.2025511129521884 1.8836423056880742 0.0393773393452829
0.1943636180983096 1.7121338300761615 0.0524040565911676
0.1877898590257389 1.4051132605996852 -0.1546769601222920
0.0843773947561896 0.5220396295947436 0.1246682096497196
-0.0111986841721177 2.2039326114662456 0.0479242758208117
0.1986926359597503 1.6582912190536667 -0.0356553111923785
0.2734456951808317 1.5585743568376713 0.0627348388334889
0.1592681706059937 1.9202450937960016 0.0550851285492711
0.1748373223062684 2.4257480088598551 -0.0221688454664223
0.1798519260731694 3.1804180637329642 -0.0073920899792459
0.1758448073017249 1.1378768392550218 -0.0141021815996248
0.1793631539951562 2.3588508346545978 -0.0657752596345981
0.1779233964042566 1.9771628443789404 0.0164803383019334
0.1674622005164732 1.9001388335362612 -0.0270203772537072
0.1617664383742130 1.6682203217905409 -0.0906810059944788
0.4200328820030453 0.1310064763688968 -0.1982776842233651
0.1765021768474727 1.7987060263113399 -0.0117251165871142
0.1678881217472081 0.3698687447433766 0.0257484560054059
0.1639218510349273 0.6158684490787119 0.0584007784881092
0.2135399833087491 1.5959731061587179 0.0534437652373332
0.1685445440174587 1.7308937753556928 0.1850604770025512
0.3298534712328612 0.5366997053869598 -0.0008783893446931
0.1484524510373163 0.4206888198234590 -0.0147552624489258
0.1888541146572098 1.5669093283058275 -0.0416123287538848
0.4374823782579261 0.7810814020128821 -0.0884427805682369
0.2074195629482986 2.8934218266239209 0.0138644364580539
0.1706436655719407 0.9217517012114457 0.0556029251584779
0.1396566142072893 2.2872176014174390 0.1965796707476488
0.4329866147487072 0.2625320152766827 -0.1242723907641375
0.1425983861300027 -0.4061743472258013 -0.1487441045014493
0.1651383267669903 1.4197824999515991 -0.0286514848537669
0.1709834913385149 2.6612806601675163 0.1190466741241425
0.1262617052851978 1.8774272022495559 -0.0831412626554161
0.1865445703773751 2.1151845956949824 0.0043254637404838
0.1732983884376664 2.4079103451536055 -0.0082951429810687
0.1889242114413927 1.5683156184199292 -0.0404436833740527
0.1791156904325851 1.8345876169801831 -0.0386446306528382
0.1689411943055249 1.2988666089506598 0.0804088555889042
0.0959030396839790 0.9899873760367116 0.0206718965495248
0.1763235444763461 1.1747179686997191 -0.0551338309850239
0.1223093850615467 -0.3640464724139849 -0.0086533750723185
0.1924277136700569 1.5066033789752691 -0.0382949305180737
0.2058635668196773 2.8379494182091514 0.0550646086998439
0.1713370038456282 2.0728080673323341 0.0380985382393466
0.1769034109545637 1.3378256272647908 -0.0284132119788895
0.1486267987119115 -0.3733749667210732 0.0432536133113801
0.2801646666686736 0.0988593919816979 0.0926987906422825
0.1737884919748315 1.0081471701393077 -0.0387456568831382
0.1233207403133030 2.0690600592529433 -0.0119814369266401
0.1686792838018391 0.7822021612182488 0.0950481495130797
0.1813931025535032 1.6418871479793862 -0.0406474814419118
0.1731465408091398 1.6042951701512247 -0.0436815874893146
0.3844245369906876 0.1339021795920104 -0.1544344941115809
0.1771104952513949 1.9925400437990826 -0.0702678697246616
0.0994249011936183 1.1170051030753816 0.2044909898531507
0.1863301812018199 2.1257757933619450 0.0920451772084671
0.1678182846686761 0.6006713383468062 0.0155602025759738
0.1530975135271739 1.7556287233727448 -0.0699010519311452
0.1322126189372777 1.8369223470411697 -0.2146204099995799
0.1854727734106360 1.6485503774267534 0.0664677458430052
0.2016458785056394 2.5157452930880213 -0.0222208142199177
0.1497720772579449 2.0690420366352993 -0.0045258749504522
0.4824077841594890 0.2362713120853929 -0.1025804375751907
0.2545696272205625 1.7557049659745958 -0.1205140823605263
0.2810222634757620 0.4669281398318774 -0.1865662851234937
0.1788180865595737 2.2378117813272689 -0.0517834093838257
0.1447231608814355 2.4853686832933568 -0.0862673295745763
0.1370644457987915 -0.3160036771460739 0.0814086707553669
0.1365071331040249 -0.3575076129461700 -0.1730929379221705
0.1617174635086870 1.9646231763221167 -0.0439357565377753
0.2088220181680115 1.9653750568896613 0.0069828308667936
0.1830177580419514 1.5138927036666572 -0.0334574272907670
0.1379060914015648 0.0670584913443534 0.0070640779095870
0.1074933353903772 -0.1268083713622002 0.0645814588488734
0.1741417653589825 1.5469210454039333 0.0722460788570017
0.1644815560492185 1.7308880987419888 -0.0678841244857523
0.1687577771224252 0.5796686860737386 0.0578274098901801
0.1589944477867185 0.4830061367082439 0.1273612056180010
0.1702618862086221 0.7575571273193770 0.0648011771132962
0.2525037557647524 1.4126410713522257 0.0841557197788879
0.2929755164007211 2.1792964267497852 0.1116386660902365
0.2021838591431015 1.2954919191066563 -0.0969093353466675
0.1820410139574534 3.0200955059438197 -0.1759043332197470
0.1674663026024207 1.7405579968645448 -0.0339428928319599
0.1818349449722552 3.6562146325250588 -0.0025914699305715
0.2341035117340183 1.4009857724683292 -0.0263869400997176
0.1775913946720794 2.3536918578192894 0.0127198480251387
0.2012442263941880 1.7422319172075698 0.0551739517563368
0.1773791110640154 1.6876714680634672 -0.0489620134737285
0.1763974863397311 2.0652593733180220 -0.0277370154516629
0.1874419334961274 1.5277150291554720 -0.0365023612609223
0.1736228603629224 2.9094850666924121 -0.0496714850909414
0.1855552524864640 1.6414236885072155 0.0533680554816055
0.1698748165456108 1.9383539740412941 -0.0312545960645114
0.1660546231484179 1.8737649108170262 0.1102603249901220
0.1725470123547770 0.9081014351004119 0.0399184665061554
0.1385614586051082 0.9649282504071565 -0.0639300577449993
0.1848233801264471 1.2657894097211237 0.0305768546864251
0.2485879064912884 0.0810930652351038 0.0148255861251787
0.1920877970038961 1.6759859463655931 0.0585772227053841
0.2008058926336475 1.8499442030852078 0.0914298755313509
0.1873443385291194 1.4797232824588931 0.0283406884836936
0.1718319546574582 1.9288773891268536 -0.0008857303540724
0.1732750388074009 0.8779730343352784 -0.0452833261461091
0.2091897757181264 2.2653977308498332 -0.0289295508455549
0.1637525202822575 1.4715323351971716 -0.0825029778136883
0.1872518527074398 1.8962187609079382 -0.0167167864023311
0.1950191093375107 1.6752039852325256 0.0371150536332025
0.1933422386905841 1.6282753350199139 -0.0059141663567401
0.1786814909300656 1.7204342477008177 -0.0438274282851992
0.1525203216502634 1.7049625626857332 -0.0603599832521825
0.1744633716247871 0.2976407494233630 -0.0412087333274124
0.1467275386222092 2.0713492620315512 -0.0244313182962433
0.1759882397393573 1.5770875518561813 0.0571161071679226
0.1548173591745068 1.9957343227773023 -0.0946017439456658
0.1606241359331355 1.3390138956352460 0.0933621613969293
0.1809131391897589 2.1150763204727649 -0.0268455144914399
0.1647333285522453 1.8874795721076230 -0.0145809269380343
0.1663415466036339 1.4292367308669935 0.0022761695462296
0.1860177309372427 1.7776836864673902 -0.0362428405203444
0.1920810810191924 1.5986478175389431 0.0405221154988304
0.2034264246466386 2.2696205981898854 0.0097621414200499
0.2211013101427977 1.5364110066599852 -0.0805574981716842
0.1981467909650045 4.2967888240153478 -0.1156510087252116
0.1595287601930498 3.0160515381858617 0.1098883258572739
0.1834532080911008 1.9199134861953189 -0.0091784862072742
0.1800575880280441 2.3254198543608067 -0.0072185434150138
0.1718851332369962 1.5766285356582852 0.0016156253782705
0.1576343972712212 1.6407614551030858 -0.0761190705952321
0.4042531981432733 0.1392691932484507 -0.2021657513052400
0.1674367937251413 2.1955853105063499 0.0841344019697868
0.1615507743515445 1.5404421180407626 0.0541926622492685
0.1755788868658548 2.2720995084132514 -0.1792033298922495
0.1639817708281520 1.7740426829256044 -0.0530198683791808
0.1680717968049034 2.7495514635886265 0.1845102268461091
0.0972253428852494 1.0858653010415926 0.2163532499263129
0.1678993616416845 2.1855863196244858 -0.0590527490186531
0.1195415999520819 1.9152104859416168 -0.1360069489798456
0.1919722259943062 1.5016342420417021 -0.0490408182445040
0.1729603461227186 2.1321163034202764 -0.0235236043681344
0.0950027753063147 1.1221541892792115 0.0178431078824887
0.1890785667527810 0.9717599047603317 -0.0728644046942404
0.1753751176698260 0.9026516034480704 -0.0126570239637066
0.1735258878532441 0.3855577084453678 0.1542295971828695
0.1565446130488299 1.9184491224015028 0.0038367259467359
0.1723280894238716 1.7480968818376639 -0.0081070807299516
0.1567397103868920 2.9474073313548970 0.0344674970150855
0.1551440945741591 1.8867795559672689 -0.0302560159740750
0.1601343580440784 1.6891007907298103 0.1692179761164648
0.1587248401602129 2.1138048587886114 0.0443883934543391
0.1888541886709127 1.6692000980729713 -0.0355805835511626
0.1602346403694688 1.8476110887407049 -0.0410922642123951
0.1782323569610942 1.6754848174311237 -0.0722739833821006
0.1709051938404441 1.9464267630900858 -0.0355441245727139
0.2075169148536461 2.2215972768803773 0.0304770834360438
0.1706775779310380 1.9334754005361707 0.0184646170448685
0.1814449015061045 1.5134946486058587 -0.0502160485960718
0.1795157953116064 2.8687211772577554 -0.0306874486602088
0.1732024391369482 2.0600866197663130 -0.0351205423728834
0.1698507938779384 1.8810131791628470 -0.0793952164718215
0.1886283149774211 1.9460110929415646 -0.0230174331758119
0.2051982490071211 1.5881639275758883 -0.0386991414931262
0.1872689951882501 1.6773884166467414 0.0848410576331714
0.1602651929215571 2.1165298324165325 0.0156159838796555
0.1720014677784525 1.9849430219828024 -0.0309500156654982
0.1889440654250093 1.9097631278957539 -0.0359828075868799
0.1784928494717558 1.9968188066393511 0.0315389144307467
0.1771272085174212 1.8233070183488125 -0.0902868759824563
0.1784280881230690 2.2732498960637328 -0.0372689072003636
0.1812924249979855 1.0791033308589248 0.0161907821332670
0.1660481922199063 1.0966467448156259 0.0728358189309827
0.1688640280886837 1.8833781839061652 -0.0255755717770479
0.1760369752298182 1.7541957693702925 -0.0029172089053884
0.2397832915539912 1.3198586499463214 0.0540032114286583
0.1981996578635372 2.2837851485433647 -0.0151393525745550
0.1692037435683711 1.6275909004227420 -0.0277243405220784
0.0939892815470325 0.7496632868848114 -0.0239575501103621
0.1714466307716725 0.6276322325303252 -0.0040860422333254
0.1679708852571748 1.2723166211923547 0.0585996239231720
0.1770339856049708 2.5516288942346295 -0.0248275909217195
0.1536166280036194 1.7174988545963903 -0.0631046200281030
0.1087953970462873 1.2292279365387324 -0.0074513941402974
0.1754384701256226 1.7702301687927193 -0.0016318612535794
0.1746375356042059 1.4979791065461610 0.0472160722111088
0.1775167640493439 2.1454701460024057 0.0189284037368880
0.1832347783309567 1.9310763348984898 -0.0367316211233164
0.1744055895981742 0.9501918672278381 0.0258554792059277
0.1772585819814227 2.1064073417048488 -0.0440564649921188
0.1875726093867781 1.7809651841052925 -0.0381003680419397
0.1645948139902751 1.7142378563306180 -0.0013910353154341
0.1804003202342662 1.9090081386493651 0.0053573031056352
0.1597595958915676 2.0583402803473434 0.0058434964869298
0.1744305049549626 2.1231049573168881 -0.0334582633336455
0.1467281523509657 -0.1901335590708834 0.0935056288641607
0.1745371466729840 1.9015294801931526 -0.0237015099583306
0.2171723927053354 2.9839834433318222 0.0232356948504730
0.1843675803611047 1.8337092363843421 0.0553843332171587
0.1725627362742756 1.9017784536461457 0.0552942134425110
0.1159546361973032 1.8031529720660058 -0.0748513822068298
0.1860148055183037 2.0111209734123388 -0.0299957227229873
0.1775675566574748 0.0543210495548427 0.1469440655337597
0.1619775739353233 1.5675866694353267 0.0023881358810621
0.1822358984963648 2.3817440775422267 0.1793568124443729
0.1756856799874326 1.5769148747579531 -0.0501622586294151
0.1923191801166731 1.4357347550955510 -0.0165116319217535
0.1977940110391560 1.1719024795710959 -0.0589491768257075
0.1654919004188230 1.7804638925791034 -0.0467599419401837
0.1962585670664275 2.0809478807508319 0.1404633091851210
0.1698383639941171 0.6829894189494364 0.0281538420733903
0.1809852789391194 1.6628454419565819 -0.0321754488401091
0.2030730955301519 0.9276410801495523 -0.0808713804504837
0.2188106376365055 3.9532751859060342 0.0174472952355080
0.1776597259128504 2.1111762257990447 -0.0216349476216154
0.1678935466063669 1.7515782480750490 -0.0665775412868658
0.1939622110768627 1.5962194011573447 -0.0084759738899243
0.1771542225559977 2.8577045546204354 0.0088119009196400
0.1947209743916371 1.4962215018536946 -0.0057087714103668
0.2227248158296248 1.4468804469952443 -0.0988674633772728
0.0912258767310037 -0.0757738396885971 0.0515437720765564
0.2126189835273532 1.9421974984224504 0.0096858200258643
0.1803514024494151 2.1544460901698805 -0.0029284958509619
0.1788013295402271 1.5306079793863268 -0.0200373015161561
0.1795196805492867 2.2019262399514132 -0.0097375282065762
0.1763130025752179 2.2158755666813028 0.0323373123834146
0.1744502246047305 2.0128851830139540 0.0563045205029424
0.1785047626277665 1.6051432040688201 -0.0474068879755219
0.1979692147165848 1.9343057700419592 -0.0274274414113823
0.1652857990484819 1.7622570253506142 -0.0495300425305552
0.1734155297638120 1.6046298250132649 0.0084287346234484
0.1755917777868111 2.5506429750519848 0.0188959363546888
0.1949093041231471 1.8107234213186416 0.0556712224167213
0.1690296326353232 0.9491299740756910 -0.0515125776373367
0.1812905488968791 2.1015837709017005 -0.0243036374699907
0.1698415579342907 1.9234091700541487 -0.0143400211420390
0.1642373350472501 1.7496542857161923 -0.0754036025855124
0.1798953151090887 1.8962083124842888 0.0194059821534599
0.1857160035700600 1.8167653447012775 0.0193620755230671
0.1712876382057973 0.6729844518663387 0.0371544997929847
0.1737483305747826 2.0150640156069488 0.0839271001431399
0.1178092697420338 0.3350340769157920 0.0829841339381824
0.1794444319508166 1.8437718628129722 0.0515060422037850
0.1741519604000063 2.4328592151227832 -0.0020292476169904
0.1733972962681528 2.2149820229872152 -0.0639618977342968
0.1647638882931629 2.0890378379003223 -0.0299933508612899
0.1733909691586908 1.8851262494790169 0.0528592872053104
0.1887075283957534 1.7668925114781517 0.0678305917549163
0.1736084082043414 1.7051567611544303 0.0537741497025637
0.1828560286200131 1.7791492968852520 0.0253460898495781
0.1836173774587327 1.6222716706464173 -0.0460034546549244
0.1709037467280691 1.9025829122970490 -0.0050677041623273
0.1753488145238281 2.4449555883419296 0.0268502677464144
0.2360128271447020 2.0383806327359739 -0.0527263300693255
0.1719045748296420 2.0419555255775137 0.0037263069537373
0.1886867121458556 1.6689018883500901 -0.0354258369244983
0.1774880317319804 1.9475487720904210 0.0503539150286087
0.1559951927811176 2.0440405324089452 0.0097169898642468
0.1726389200668317 1.0447385166049596 0.0433233392066420
0.1737057844503669 1.8842649607554969 -0.0219474998462602
0.1800973581359779 1.8543852411352384 0.0180850828030223
0.1748379050447039 1.9001358159230133 -0.0087601583446485
0.1884862738950566 1.7592299449267770 -0.0350354419230201
0.1712977502008256 2.0151688732309885 0.0535121993522303
0.1839896355903014 1.5913527814997339 -0.0371627517518311
0.1685682942414520 1.9175259220461649 -0.0003651578263634
0.1804155228731473 2.2307181094209207 -0.0174807879091430
0.1642244338328790 1.7847593140012885 -0.0759148870922924
0.1872356493767109 1.7075939706992778 0.0188354415572591
0.1879446374252256 1.7823947651989409 0.0200230533630069
0.1230019744218052 -0.0744979264890944 0.1180825324545959
0.1727425836622180 1.8790646315306432 -0.0159631508198822
0.1855994250319844 1.6748370205894112 -0.0255000182508120
0.1884571850229705 1.6281206165655131 -0.0058429292611522
0.1762081948913137 2.4616187083895595 -0.0466849733443306
0.1661132770359900 1.6995718326215528 -0.0009516658056829
0.1811585444788268 1.5395026192046253 0.0229051171845598
0.1702509768365346 1.9218636849274242 -0.0072995409382404
0.1631509885613364 1.9619451771997054 0.0268335407313424
0.2544247337272399 1.9641241523546566 -0.2139024085187463
0.1931924610346444 1.6578231695696826 0.0106571137637228
0.1818782206370327 1.9159172805950064 0.0007921587092154
0.2050981775358594 2.4830633400605686 -0.0211750676210169
0.1981954986936708 1.4303959138521714 -0.0848313090904941
0.1945884052322062 1.7815754955070371 -0.0071766748038570
0.1763275028905079 1.1501964425909035 0.0024066907522301
0.1722871592950336 1.9548372723654697 -0.0139695659390899
0.1006963386894018 1.0271036401367346 -0.1101418748477596
0.1790773253050247 1.7586301746098179 -0.0397985105534908
0.1699816570226562 1.9152015668928868 -0.0123762285907092
0.1727949446218208 1.9093025477102221 -0.0109046256842527
0.1956670278838186 1.6570937831859855 0.0230262367277548
0.1375556422993179 0.4256502277176348 -0.0874527335749790
0.1776105907882342 1.3690706611408283 -0.0249314261154225
0.1639171567245814 1.7319051257370315 -0.0012301306183839
0.1828596463082126 1.9346151440804991 -0.0073003846023046
0.1811855082797545 2.0942148509128602 0.0020029731897301
0.1712085195699233 0.9983344112231437 0.0582532667205288
0.1848370957031970 2.0310575775196398 -0.0196207320777969
0.1635467294674064 1.8582315966385603 -0.0075165982892979
0.1871685369698666 1.9184823440895287 0.0129200455649288
0.1957266878243590 1.8996429411410871 -0.0061905598950981
0.1903715046155129 1.5924522893679878 0.0023811372164007
0.1745649498576084 0.9054682288753944 0.0251055747148181
0.1926440063003753 1.8758388333357203 -0.0055930353942221
0.1967249827812312 1.6708943210973788 -0.0154698250407326
0.1902207948759879 1.8952294835776056 -0.0117205140343501
0.2085741371907660 1.9770440922402694 -0.0168385512074200
0.1848029958921306 1.8480580649422849 -0.0077937850248685
0.1776482650187054 1.8717867692298729 -0.0108659028314090
0.1822216466674714 1.8886039694637164 -0.0204890358893941
0.1890232605157979 1.6351197304989149 -0.0201069678196874
0.1747983377040967 1.1114027539007207 0.0303100346204462
0.1916677235962265 1.6488016971455419 -0.0388805131416585
0.1977290654487234 1.6696324516181233 0.0373063166902080
0.1847107139245505 1.9617583841826776 -0.0085043420004216
0.1896509486512855 1.7243159053749602 -0.0370999597279893
0.1751610696920335 1.0196309592526946 0.0127013487733594
0.1924890873178189 1.7602706643033643 -0.0378935062166823
0.1909569198465517 1.6684034315288845 0.0006434192930434
0.1938193488683456 1.7660737771582311 0.0406721566457886
0.1762900512559950 2.1169652091292419 -0.0092440816555081
0.1705679206117529 0.9716731881968251 0.0746504008354466
0.1662990837327011 1.8089795543518121 0.0230601535183890
0.1717249661640314 1.9650599315002848 0.0262657080414954
0.1806667063834972 2.4735376999979297 -0.0040538861930016
0.1608432384786458 1.9899238357538100 -0.0124827395384246
0.1949472525545052 1.9513950629922459 -0.0100925465355302
0.1968134628302614 1.9930879970522140 -0.0159948043693102
0.1811802060581185 2.0647484423286508 0.0262810567018008
0.1899561073246251 1.8095083519631081 0.0306587439278082
0.1793073837617054 1.4492312617519720 0.0322028285104550
0.1688345586976002 1.9693829705365227 -0.0283987226382424
0.1800047068583274 2.0874626782555792 -0.0351019721956217
0.1742704449982343 1.8435609673616014 -0.0382662522582412
0.1927543734869037 1.7254318384462957 0.0175059871257605
0.1796923289676226 1.6776902654194321 -0.0296295804069469
0.1740856255080117 0.8684861045844157 0.0453185942923095
0.1814178458145143 1.7581656496356994 -0.0294123449971260
0.1839136057535977 1.8064410249121063 0.0071137595352341
0.1820070853049963 1.4299446204603272 0.0254603754993427
0.1791341230876925 2.4013453977637886 0.0005333261536108
0.1764952267040334 1.7526664045190365 -0.0425387191603039
0.1781705432454522 1.9615692971284231 -0.0008960571374836
0.1838058314303680 1.7387423679652951 0.0134950086920037
0.1817409336830816 1.8893306436094102 0.0251646682726572
0.1765485005501556 1.9643522603125285 0.0269734602166798
0.1825640635923216 1.8795321849729261 0.0028192789574440
0.1824628104153377 2.0065243140032116 -0.0109585577669150
0.1793823409059258 1.9625390348597151 0.0068184432550049
0.1796975140064503 2.2734722489249477 0.0105790989068702
0.1841143891667502 1.7435310188079691 0.0133045635637231
0.1993682492315825 1.7881895125445422 0.0781758134265002
0.1817659785486229 1.9375832337764980 0.0027759413639010
0.1851115139365948 1.7447751351739444 0.0131193275068497
0.1809893467721425 1.8979736773155285 0.0025670720049036
0.1826224303924997 1.9275902991595231 0.0009623134229654
0.1792550427398293 1.9967029159128216 0.0268081387863161
0.1836559271010806 1.7051275491606510 0.0124309884533992
0.1784198951972179 1.8672371220614290 -0.0216552889246468
0.1828888349263775 1.8223420586664920 0.0248900798622693
0.1805129039499751 1.5136421473637320 -0.0300027887055526
0.1763721734226084 1.9461183595524030 -0.0121692596371584
0.1825251407810791 1.7849479194897786 0.0084635001560208
0.1856289728376016 1.7047443408582805 -0.0012302832879074
0.1730938741582337 1.9551749442371209 -0.0124994689200025
0.1836110469926758 1.8338340802035606 0.0085981268759630
0.1692045652868299 1.9712111070227676 -0.0202397470085591
0.1797091532102397 1.9266544360546984 0.0021684631024468
0.1810572496657867 2.3495861758218006 -0.0306066247743830
0.1837491544578336 1.7466564597045531 0.0114005127815583
0.1839836886711485 1.7473075886593528 -0.0189233712920783
0.1836300432050200 1.8049446458196918 -0.0185844741867578
0.1803122438682858 1.9016375279059283 0.0001727384813972
0.1815636025058282 1.9997751387970149 0.0021257643061733
0.1706085627785654 2.0400289462417271 0.0063791671935601
0.1804521894705277 1.5332237837318641 0.0195619523909382
0.1805361007622358 2.0602846201593872 -0.0079869792577115
0.1871421272704064 2.0022288097510845 -0.0197249263182461
0.1804360138497838 1.9291057604371775 0.0070059405379482
0.1813087782139209 1.8901439832759601 0.0068998826113268
0.1797522696191421 2.1390726751403459 -0.0187115382095786
0.1830098632324031 2.0167925590516309 0.0151531154293071
0.1704199557166920 1.6595024786863199 0.0861928453393280
0.1824014774335279 1.7984342815789145 0.0066681117407777
0.1815035260276009 1.9554561955752336 -0.0039685121715629
0.1779018812706827 1.8305669314396282 -0.0092897444872606
0.1758182769055095 1.2464050800233824 0.0516372649688362
0.1784949745036502 2.0010115303496918 -0.0089625681731920
0.1778830545842092 1.6181702233349700 0.0357768659881961
0.1823532536787576 1.8744671911687443 0.0070381573803884
0.1829646029830652 1.7635534868040157 -0.0073715402645085
0.1914480395656136 1.7286845117797680 -0.0111947884015371
0.1831451266989356 2.2203827263288014 -0.0078638696468206
0.1819618507527980 2.1094730739453524 -0.0088932993343038
0.1711282946629132 2.0244154086282395 -0.0122299602066552
0.1757473117982461 1.9926345261551124 0.0136336949869960
0.1910240927223273 1.8016700509434591 -0.0112829820652518
0.1816886736444289 1.9189208962176276 0.0072410366023303
0.1710791339959824 1.9508637854234070 -0.0285747859194422
0.1832062844741676 1.5049707401761572 -0.0061276490714339
0.1847811182686863 1.7781953287559022 0.0189818842585728
0.1821303782627542 1.4350695500594566 0.0197792809114975
0.1886148395368497 1.7392330769983022 -0.0002158331460428
0.1715209827791856 1.9995805191724709 -0.0082635207171000
0.1823966071086082 1.5067935908870325 0.0095770204029918
0.1814558334791172 2.1909235539737444 -0.0233834067651681
0.1794554531560163 2.3031281709037925 -0.0079625708705352
0.1850797867098887 1.7188115048863055 -0.0001878678242965
0.1816375005484225 1.9801419461264631 -0.0010846602718466
0.1810255222901486 1.8286482097446972 -0.0167581324977946
0.1780014968183678 1.9212195341028127 0.0261455475375576
0.1853662412330875 1.5069786937875580 0.0007279712979320
0.1809661072828206 1.8042435271834751 -0.0158387042744033
0.1809798700436908 1.6605244115934894 0.0198283736420171
0.1948828362298825 1.6532528032727680 0.0178043357276208
0.1686200774072839 2.0180669056238987 0.0015883998347122
0.1827245561153840 1.9983639489015657 0.0056187032925839
0.1788999811327775 1.9491480849274234 -0.0288268971462694
0.1840691848598955 1.6052858790278994 -0.0081910811598722
0.1821983648291280 2.1504857768757080 -0.0303737961565344
0.1613207442348981 1.9448461824622476 -0.0341284391041076
0.1833252984860917 2.0808983051488088 -0.0188180464525292
0.1778562433025431 1.9497462534647092 -0.0111624265297046
0.1804728003307166 1.9407775843140012 -0.0117592919566321
0.1811965413337671 1.9153595309865565 0.0144163317880866
0.1759251761507666 1.9173465386232171 -0.0155928325167609
0.1936131248343272 1.6663306705773737 0.0019121860670065
0.1811897178107067 1.7411867821143983 0.0236333624881270
0.1818793982085687 2.0633905754509811 0.0008480809012558
0.1831812174049278 1.8359805048803310 0.0067448165039720
0.1818505181585191 1.4716062915830497 -0.0000839509157893
0.1763660422280323 1.9663614150508140 -0.0073167738680050
0.1872184693212800 1.7242668938949766 0.0109013449661144
0.1857316806774185 1.6936815430927381 0.0046998111852364
0.1863638319327376 1.7698503465769952 -0.0103546976755403
0.1831155082041117 1.6052233125350948 0.0311801700209348
0.1711787062614126 0.7766414167601656 0.0617799756217227
0.1774514255208929 1.9596228345240725 -0.0120614422748697
0.1788057954509550 1.9683427553812973 -0.0031572518200335
0.1827660440342412 1.9870029958454296 -0.0133567598354682
0.1849791549393285 1.7918387226827073 0.0016545571705033
0.1847077365989200 1.3401576688504555 0.0193006534209248
0.1752330096700465 1.9573874671417073 -0.0118988583420655
0.1773639192583063 1.7647885030068380 -0.0321493317656790
0.1847943961750760 1.7152490439647214 -0.0002877532764778
0.1748348977431677 1.9333878968874554 -0.0214972158364961
0.1822659746073113 1.5992457246583229 0.0080334417704072
0.1807496032476118 2.1080227654440469 -0.0129210237467520
0.1792767252237343 1.8329846714897369 0.0147420890374356
0.1744764443890543 1.9044760890143806 -0.0159940828296610
0.1898764739111226 1.6721636823399249 -0.0031585669084077
0.1925936492361300 1.7014911260738763 0.0201890442825864
0.1844966373071922 1.3495498348881190 0.0031636593898387
0.1784816925223179 1.8519454704146270 0.0160267097938704
0.1861553352155847 1.6578520652119058 0.0084149446361008
0.1846753797172240 1.7730455433767676 -0.0160576659073850
0.1856202363687924 1.7817791306215396 0.0067492031124701
0.1771435348933400 1.9114858055211958 -0.0209774385412995
0.1775366761637421 1.2296966727374610 0.0405170268999573
0.1787485495722580 1.9647375001684846 0.0029483100949226
0.1801974865987702 1.8118982247518129 -0.0191253814204160
0.1817288735500248 1.6918333745376188 -0.0021554105301516
0.1845675771938503 1.7858423101990386 -0.0009661170017470
0.1835153582662380 1.7433926637811061 -0.0009644502679308
0.1819725789763853 1.8462935383837460 0.0067132588447075
0.1886054547951104 1.7845568032323189 0.0285112666225808
0.1820762915133504 1.6477282126496602 -0.0165283834945632
0.1817603519778930 1.5981631250157655 0.0119435547177941
0.1798631734260973 1.4296314412712299 -0.0058693809684260
0.1811301286238127 1.9692122439056288 0.0073145746742098
0.1884562859050926 1.7878794191608620 0.0075134084406490
0.1805175200339347 2.0080636415404101 -0.0150077263736581
0.1803392074084022 1.8746199741099074 -0.0186224457396931
0.1847219195985188 1.8027769871631170 -0.0124192780381887
0.1809923036684551 2.0289527058704100 -0.0065814884392807
0.1915936531610369 1.7678895300133428 0.0273748798559110
0.1796501004771036 1.5276216759324446 0.0245759490193089
0.1820674086585889 2.3877032378842333 0.0155526582826341
0.1749628361438444 1.9629234978596353 -0.0176150597084811
0.1809101266093120 2.0601574664235467 -0.0075865204320129
0.1817088165471343 1.3408240914542109 0.0145091537952018
0.1873431484091235 1.8908367338223511 0.0011728369954626
0.1778509508286230 1.9256700659383514 -0.0143436004645812
0.1800589953882071 2.0327678287933439 -0.0093960623192242
0.1915328123992467 1.7848043570793584 -0.0037357203667317
0.1763245720879910 2.3454612742076320 -0.0238873607972976
0.1819987748554606 1.8991882203784602 0.0392265000270597
0.1845997732819302 1.6459987845847712 0.0046451291879195
0.1805389605677500 1.8354625107483864 0.0262387278635036
0.1958348766985782 1.9210245566139248 -0.0158122171251288
0.1831852066444226 1.5715703628837592 -0.0020918916725716
0.1846696235280690 1.8357566645930927 0.0225298043182788
0.1875085107930967 1.6480725082202798 0.0052035817414168
0.1745441837878477 1.9529792346040824 -0.0140294173065641
0.1876584956514175 1.7145697361380074 0.0167004340767157
0.1867696989375695 1.8145266557346926 0.0287780418557525
0.1818225288652312 1.9272299120072092 0.0260505848986657
0.1824263938972464 1.8646471328167540 0.0101701254677737
0.1819665624192381 1.5981909436928501 0.0013608804163540
0.1800466337119044 1.9404480940519220 0.0044776255510869
0.1843583904449892 1.7988171997048390 0.0114554574471438
0.1802331106550749 2.3073161793416803 -0.0094470884746045
0.1900179976900302 1.8022790834356581 0.0292690379759755
0.1875392173619064 1.8301476084211061 0.0060255354215284
0.1822927036082164 1.8504477477899639 0.0099466399450912
0.1784825986013029 1.0782085287546170 0.0197116343988541
0.1619104809222297 2.0306207986801481 -0.0127162084343335
0.1662539155486039 1.9253301275464856 -0.0382752393712103
0.1814571814864940 1.9012076326065066 -0.0149847580011151
0.1869895401603393 1.6903114712168614 0.0105696014754730
0.1867339193470838 1.5509945259214757 0.0020814924841204
0.1803296041054459 2.2593220572276862 -0.0040014603605731
0.1821289972569184 2.6791100825201863 -0.0024981443771828
0.1832826365476815 1.8270017094523778 -0.0092897995097187
0.1798250379362245 1.8940695394709193 -0.0126794278060515
0.1826045594546523 2.1281902399529153 0.0031483367431192
0.1802833818958332 2.1101683708126098 -0.0029903235536713
0.1808019367496921 2.1920916944945472 0.0239791676309170
0.1815612105571004 1.8388283559128469 0.0063585079205070
0.1777508134768279 1.9886448831325099 -0.0070704632101259
0.1824427362487880 2.1247147463132210 -0.0011407981310457
0.1855674957628675 1.8426027715725422 0.0003439465306238
0.1940492083436203 2.0469873462167949 -0.0140124167556291
0.1850690253990468 1.6203589150714039 0.0085668025532612
0.1908026267600632 1.8566425863038956 0.0608962781840784
0.1702445079964120 1.9985432562574428 -0.0143569457215663
0.1792270082406831 1.8129341331286344 -0.0110740733972744
0.1799357414800410 1.9693522242859016 -0.0412018580484685
0.1814292495614021 2.0283162190430368 -0.0020219603512141
0.1782417053679523 1.9874635912800729 -0.0085783230114435
0.1767537666842091 1.9646548328901059 -0.0095176446534495
0.1804984652062054 1.3629217703789271 0.0083170882062194
0.1894771617745945 1.6822071585674185 0.0073015089329353
0.1869277060681327 1.8268932536266103 -0.0204109185328958
0.1677406767132936 1.8240160272983510 -0.0031565328704161
0.1994231900021740 1.5862527568952016 -0.0204669488256626
0.1839165294601443 1.8617388236590340 0.0143145043123256
0.1924724787344846 1.7576908361041745 0.0307998026452555
0.1842100657915461 1.0166804655298911 0.0099333032778728
0.1689013075976143 2.0269423085938687 0.0148744697294211
0.1873942335777991 1.7720730424688924 0.0186258248405850
0.1870059429285450 1.6854541340356501 0.0061538917182574
0.1743156830893794 1.9396035449179676 -0.0223219979602836
0.1842947958353815 1.7338933180998528 0.0100959976752266
0.1808228611182446 2.1863561795302755 -0.0248286928548135
0.1789702616852915 1.3724285654135699 0.0546997888383710
0.1868084931044432 1.7493596514767906 0.0074874617425146
0.1807573670314074 1.9108622519394076 0.0054078849985790
0.1884905665519270 1.9130241225591111 -0.0099431248883512
0.1822285274343162 1.9236788314880644 -0.0070138581618894
0.1765969979396634 1.2151595781138793 0.0328656570807847
0.1824644276593944 1.8892136725970283 0.0392838169160125
0.1822699607771572 1.9652740258285193 -0.0056566307767388
0.1756951683362822 1.8670051763693032 0.0515800483570093
0.1801904650417769 2.3827293293729670 -0.0270626225086336
0.1775759710755294 2.4432552066250119 -0.0078031233211936
0.1795695610204985 1.9990347294633690 -0.0104796826619284
0.1790194975509018 1.9919490688794235 -0.0073688894356208
0.1912864245165492 1.7758411707379185 0.0249033624051890
0.1767844164434759 1.9756145770952034 -0.0041971939816371
0.1800334275751306 1.6498705300267018 -0.0344092194475137
0.1743970119280657 1.9551635176684714 -0.0103947355595885
0.1851293123655667 1.7464271703782404 0.0001546111571340
0.1829967578126891 1.5419697364683582 0.0065913618147267
0.1683908400879979 2.0525859551627841 0.0004453667994957
0.1802880594151775 2.1392583509105916 -0.0453676858815982
0.1784025728112284 1.8694360910318695 -0.0073733261801543
0.1773936113836752 1.9677415207605236 -0.0036540709031461
0.1831338006741775 1.6326394348292623 -0.0230804094509851
0.1802082556275938 1.8865125091636941 -0.0055343983622949
0.1883988199728102 1.6874592600307812 0.0025995805631960
0.1800775554686695 1.9365706137629759 -0.0102758685349484
0.1833632682016016 1.7296412000357793 0.0113605889314961
0.1837848113919583 1.7792791547828486 -0.0095275402922416
0.1797830955674874 1.8798654153988907 -0.0156694939184474
0.1866095690114253 1.7972271344027233 0.0215356559171734
0.1932866282766197 1.8318731261948322 0.0522757410372934
0.1720415533436974 1.8876431974863319 -0.0109168656653568
0.1843062189448517 1.8010355708012762 0.0090420918386955
0.1813768997981740 1.4323394417994542 0.0032857039836825
0.1788447451486036 1.9478686108735337 0.0010257280231549
0.1791130855573573 2.0627411516986176 -0.0038495048906211
0.1859375626622087 1.7504800311960838 0.0048120839319819
0.1808325347219384 1.5620201967531464 -0.0099260289655148
0.1800362035089675 2.3280755693057733 0.0024498602647079
0.1902420095383139 1.9422246305782109 -0.0018992126445160
0.1901578606061354 1.6853353881222592 0.0133335894158398
0.1912691594415881 1.9938398251900460 -0.0166382632391707
0.1796772661691055 1.9785068548596265 -0.0065064706014667
0.1793271675403346 2.3654261012944913 0.0057291129732550
0.1899466232957265 1.8876170203191038 -0.0177671815998007
0.1802373986836631 2.0878245184337234 -0.0103730052481904
0.1833600655938193 1.7141865625859438 -0.0191101790779248
0.1664454587386986 1.9344532563509937 -0.0337969988100376
0.1805224594390371 2.0785484874719655 -0.0076826166787448
0.1678604000887639 2.0132691896510679 0.0088766239270527
0.1840478084039444 1.7129518491531825 0.0112029904651452
0.1877651429600512 1.5675107287379562 -0.0236220813076723
0.1805207975777599 1.6020530380826878 0.0128245783011023
0.1872759739289269 1.9648553932112578 0.0723927959040879
0.1774363916286793 1.9929469629599927 -0.0106149039260210
0.1802782096716946 2.0979626236571702 0.0141146019457355
0.1805497199849667 2.1192027322726932 -0.0044276120559703
0.1915172778629721 1.6582675204894843 0.0019053068868235
0.1875829019266383 1.6879525709378513 0.0089109216372563
0.1890359210227342 1.7204112588050056 -0.0159678023160761
0.1808811557729076 2.0158514720673488 -0.0069587677567755
0.1806836109676242 2.0240172229809832 0.0070503139442322
0.1705292533423187 1.8214662124368612 -0.0431421642405875
0.1775194628917177 1.8783457986171361 -0.0196357530339134
0.1793274852191487 1.9468123041626682 -0.0019319117355721
0.1810672810289150 1.8007943021913109 0.0128164283878204
0.1824295063677257 1.8162984434882472 0.0046247467353909
0.1863410865173968 1.7620388554533004 0.0114583541900146
0.1814157108248344 1.6546808696425563 0.0018170388774210
0.1832629293540340 1.8810868739950275 0.0143077998268459
0.1845532437123157 1.6929997767231535 -0.0132086555641214
0.1799903252099119 2.1066299560158672 -0.0082045785439360
0.1833652065226963 1.4746305934291184 0.0041914679991178
0.1809056517917600 1.9178425907743193 0.0098359322134311
0.1793676442496175 1.8539891896771008 -0.0087390127196273
0.1789967985578263 1.3548059653829461 -0.0273723990235530
0.1854818067512302 1.6763770592884866 0.0069905270758552
0.1819599508790369 1.7549501974641506 0.0195200954906321
0.1794171990746619 1.3108434199702057 0.0146842228547744
0.1828109400340073 2.0630466608456932 0.0047621103767105
0.1880392508653504 1.8576556990638216 -0.0207801535818532
0.1725978533054971 2.0624460284190858 -0.0201763405977561
0.1789116838484217 2.0000386732422952 -0.0078405358541108
0.1739655106880594 1.9717420821570650 0.0114841440941064
0.1839505347180556 1.5940020538632660 0.0094608159786465
0.1864196406942930 1.6934204403617155 0.0108819717129246
0.1815255518564332 1.6783480137447058 -0.0122722263402833
0.1799457912643581 2.1093420857137781 0.0137337562593434
0.1713752484136548 1.3242534571739488 0.0679219511122191
0.1835776938471189 1.6995792516959034 0.0144994310601109
0.1887987107558071 1.7897124776808404 0.0178556704964369
0.1740006896543925 1.9089478362694943 -0.0273545397014035
0.1765990842563694 1.9680747532201899 -0.0028092257722269
0.1767351203097293 1.9655392778861145 0.0059072147951656
0.1792953606477892 1.9336326904392840 -0.0008253289399680
0.1804614500503792 2.0992716801514599 -0.0099293405228153
0.1793883399023737 2.3564792301195188 -0.0166444894032444
0.1695186748505071 1.9488313937936796 -0.0286946770548057
0.1833959790350068 1.6571443970706639 -0.0000302496418808
0.1810234162835709 1.3280698820981562 0.0187594448318827
0.1812413753977687 1.6190343951152468 0.0025887559147747
0.1718343253255869 2.0109070786495225 0.0339646439510186
0.1927568721628370 1.6974540993866964 0.0070900160171041
0.1803773777670357 1.5219867232778681 0.0300835091589596
0.1791515404764773 1.7829857025895166 0.0143017620959749
0.1918174590164652 1.7056236572181773 0.0120361200900894
0.1825084427748548 1.6782390483040932 0.0005461048009703
0.1719246893197378 1.9312480121362405 -0.0204370287135258
0.1810947354538546 1.8626980934692292 0.0008814304389710
0.1816877747079060 1.8219990504931349 -0.0167838446295245
0.1782647677993396 1.8156579564245336 0.0004741443975986
0.1710954305830548 2.0281357796885118 -0.0093840632338988
0.1817195733110845 1.4873541050203718 0.0133576949336835
0.1964386204841245 1.6653300322579467 0.0290762422144820
0.1817896667529988 1.7860627745683086 -0.0247390701471702
0.1868496621275398 1.6596185365517480 0.0055529949264185
0.1812359070706791 1.7474603443620995 -0.0299895172000619
0.1829467736888213 1.7444559978442504 0.0089893407793106
0.1892851734811500 1.6864352538756040 0.0035339432929407
0.1900908493023110 1.6917056446171177 0.0005845577097031
0.1817587545147706 1.6216599053157137 -0.0062487658275627
0.1829342533675238 2.1789609336126037 -0.0039938802138596
0.1842542644625834 1.6973240631743021 -0.0062503042332827
0.1867693936942923 1.8439929670142399 0.0341407937720496
0.1783575684944463 2.9160311985859462 0.0362523529926796
0.1819635730839944 1.7601883192428955 -0.0135800470181326
0.1760607404117839 1.9439726300178672 -0.0122359537683309
0.1853513809665717 1.6747686942547428 0.0077792998863422
0.1890046992468218 1.7019576200888995 0.0044406217240858
0.1831099831973597 1.5796895163649518 0.0059919045956182
0.1805493816042261 2.2141484620718721 -0.0197002811183088
0.1796803542976634 2.0458559229501825 -0.0044809992430873
0.1781701091251456 1.4937743511709376 0.0657098082370286
0.1805507711170124 2.0344040299030719 0.0065536882971132
0.1795448696637031 2.3472403385105478 -0.0228670866433090
0.1861881463961146 1.7632162626587717 0.0044379078754983
0.1893959448184697 1.7501555409218497 0.0227826080155030
0.1761824443186524 1.9923515486562238 -0.0108165399062300
0.1815533535797799 2.0236700416706910 -0.0008576915755079
0.1811599331548913 1.5591097510608225 0.0153123900363993
0.1908279084870337 1.8174507135963998 0.0533932000363582
0.1802257889017649 2.0968549245880594 -0.0159871235193690
0.1780310907414186 1.9356546410103410 0.0427638378475365
0.1878554352181261 1.6977710688215053 0.0124879438161647
0.1450818040997948 2.1348842551820550 0.0210561741598494
0.1736301206106216 1.8036380336713325 -0.0067643367735187
0.1838954275322095 1.7772785826222075 0.0118805591659323
0.1800749259192949 2.0100944600243942 -0.0002739611053713
0.1809750596079350 1.8442806795473565 -0.0163187878029852
0.1818781978353392 2.1185621910644783 -0.0050128104573715
0.1769807448802492 1.1355728047906122 0.0088374386977060
0.1668323840576398 2.0562744628873877 -0.0066970291575640
0.1820922916089114 2.0166125071689978 -0.0111703024544640
0.1809370512467123 1.4626579996182718 0.0145913643718795
0.1832003004368068 2.2257630846819305 0.0059071752713457
0.1816201463170515 1.6748430407834392 0.0025868906510519
0.1871868168068137 1.6874754887307910 -0.0146663426628331
0.1813945578431969 0.8833023433355439 0.0236999923652424
0.1822802607854010 1.7519179725222875 -0.0012095317236324
0.1814400874423820 2.1008238546661091 -0.0166481381683885
0.1776202982850513 2.0690859171318432 0.0359283426597769
0.1862131068204809 1.6303107126438798 -0.0153412452306950
0.1833573369915558 1.7798489203104428 -0.0040462689310152
0.1837071625106625 1.7859069431825101 0.0053121853643127
0.1849426378048945 1.4529342646186842 0.0145315118010976
0.1852554280221261 1.6809894411463140 0.0063731052669298
0.1906579232966517 1.6163985925612232 -0.0088578709013354
0.1900052502828417 1.7226850798206785 -0.0157057272129604
0.1809600713317961 1.4894488643760451 0.0177454399880534
0.1757141519272405 2.1755051438228175 -0.0116790492047657
0.1806891003248467 1.8452450928928947 0.0156663314694499
0.1832961462467040 2.0314759568590386 0.0102864885544537
0.1797200586791428 2.0175356413374601 -0.0095992308480091
0.2104735910712200 1.8551482167378690 -0.0027936206528615
0.1836040062589026 1.5238076036627690 0.0225887118662268
0.1740329421491642 0.8255992478258197 0.0749559871886130
0.1819623735034263 2.0094608507473239 -0.0203991448760167
0.1736583956954623 0.7933317171536390 0.0223242845207367
0.1886562383546085 1.7700652091904918 -0.0087307335905910
0.1791190981883652 2.0573440880676794 -0.0039912062336255
0.2035209644747214 1.5871383223496869 0.0193785719498392
0.1813553769622704 1.7488609959449049 -0.0260125511106470
0.1859816781277803 1.7954273308086577 0.0194340038962037
0.1928111911459651 1.7538906490964874 0.0153812222653099
0.1883914565138330 1.7654595258581747 0.0148199801550682
0.1735855051082256 1.9473136780815208 -0.0233570361288085
0.1774682163296658 1.5730618157944047 0.0410749944755739
0.1827816678115335 2.0678871093511511 -0.0302651806547024
0.1874620104210461 1.9119875268280937 0.0684943843852876
0.1763902853310802 1.9643549244701484 -0.0153757107034187
0.1810272574573727 1.8195463085150938 -0.0255810431996229
0.1697491804643126 2.0145042424487323 -0.0153198666526052
0.1908397098785683 1.7245241936584559 0.0041665017581262
0.1818341278758192 1.9145790159386169 -0.0114276161576086
0.1823603848753356 1.7954624823066456 0.0148635075785322
0.1829657234165789 1.8114372080555072 0.0093497820209374
0.1796605075191743 2.0184839270429418 -0.0094161124851308
0.1762027482943881 1.7713915144848513 -0.0069484460440745
0.1839431778922945 1.6423034110920944 0.0126987486691021
0.1725130747488065 2.0343967864393941 -0.0043969404546823
0.1807820671553386 2.0820664121911778 -0.0092653285397785
0.1702724409797285 1.9820988512442026 -0.0326964498736792
0.1743514288428169 1.9407943314690446 -0.0172688559957404
0.1824461634957453 1.4039150602257187 -0.0023585525263163
0.1829893360134890 1.4910888788850705 0.0140229678173951
0.1905114067434357 1.7153407065835882 -0.0009788269079304
0.1835955446229990 1.7722602711544619 0.0123400035346700
0.1815864046847776 2.0752584693643867 -0.0033026468150470
0.1791770755217215 1.9977559345265283 -0.0049832819181798
0.1804498850824350 1.4221116523776647 0.0081400211521601
0.1823203256605987 1.8120510670724352 0.0014704165353303
0.1934365833194486 1.7456994876748655 0.0053078581295058
0.1826716766260741 1.4052157382253376 0.0086555866074719
0.1830817333354935 1.7771309580368342 0.0057240222050375
0.1767321478899478 1.1281254400644412 -0.0163144966054146
0.1863327817210811 1.6838142884848861 0.0071365862076108
0.1809897977362308 2.2281065106245208 -0.0376179304952306
0.1825123425615325 1.6959254527289076 0.0078651936772264
0.1840149856211467 1.8090890788936822 0.0024917684280696
0.1810854241627397 1.8185351259571749 -0.0088232830439372
0.1837417360939011 1.7714103667515688 0.0137449879915353
0.1814849991447493 1.6784460052068677 0.0192686947570607
0.1828122120420095 1.8491318362736655 -0.0001908733185186
0.1752491250435040 1.9700767687534937 -0.0053623128577419
0.1798767041224678 1.3037341699241525 -0.0120339481822011
0.1778033324276796 1.8875667208886957 0.0454577849543658
0.1847813046581740 1.7336005620364496 0.0134911729855341
0.2007553905119983 1.9151953734971936 -0.0048836312347017
0.1744706563018467 1.9785170716685339 0.0008079552172606
0.1760990400841863 1.9576705144762299 0.0036896975325736
0.1833480349257925 1.6058610097082291 -0.0179348669260023
0.1739108696410761 0.9662447474629891 0.0248392446861519
0.1826402732593843 1.8386349468415686 -0.0007014077669602
0.1847080821661407 1.7828041283155869 0.0012076875901637
0.1792876230111509 2.4290567774181961 0.0145593940224842
0.1828679957189930 1.6102682901489660 -0.0185698490931750
0.1793485119911875 1.9747558667786602 -0.0117812080894244
0.1970676782605834 1.6029059207700629 0.0514171629483673
0.1674948048300271 2.0804008061850601 0.0121013457130593
0.1788241501522535 2.1549992759475045 0.0256712122578146
0.1843154175286314 1.7409716951350893 0.0047034142006599
0.1670459065094307 2.0609902614993985 -0.0066371861069266
0.1736025573433530 1.9999460360236969 0.0076380092548592
0.1802267662781635 1.7195148905986832 0.0225339979179453
0.1893996748636135 2.2432174192351204 -0.0103233562482460
0.1815940276118446 1.9430814955156275 -0.0076097841950544
0.1806127037064879 2.0314760878053439 -0.0071654791986850
0.1847164604243275 1.6544839343159343 0.0157190139437692
0.2016357506500852 1.8141970524656552 -0.0348950914850709
0.1800881340236415 2.1397827420104507 0.0047543161492240
0.1839629233018430 1.7823991290313710 0.0121218048714556
0.1767625199919527 1.9510639301118105 0.0054880431894417
0.1732535898152539 1.9837053473363755 0.0520321208159078
0.1774686499065671 1.8696843512088417 0.0026402213086328
0.1878559408493710 1.6965228184328651 0.0007063158663388
0.1847728750377625 1.7825641310713722 0.0193604934477736
0.1703226584544759 2.0293737384224944 -0.0023893372474480
0.1781243256013274 2.0245060550054585 -0.0003353149564233
0.1654803226675424 2.0365538403800567 0.0322418125951038
0.1797425306057272 1.8711031124324400 0.0261604985345019
0.1760247715479174 2.0367393853731315 -0.0043225255263049
0.1822708530036788 1.8252877292761633 -0.0166416111862310
0.1860645731800665 1.5403992594927061 -0.0294583291400630
0.1812348206571228 1.3680803379095376 -0.0131053406721312
0.1760308616875614 0.8411760916820954 0.0467957382786972
0.1856332949903529 1.7010542130139799 0.0109068284575108
0.1703182216824456 0.7973378639666473 0.0494855466070005
0.1781850454501197 1.8928984554524264 -0.0085122489056610
0.1796649438810149 1.9421852655121323 0.0167755832076580
0.1869827078144033 1.7520627122762582 0.0182973965556148
0.1830341733182071 1.9624384451517800 -0.0259393189783584
0.1832676486724663 2.0320333756534841 -0.0225141559734668
0.1805093110109846 1.2859124307582639 0.0217922221134159
0.1805029189289029 2.1430524498916648 -0.0306725542834914
0.1830922931717747 1.7044162046384226 0.0158483164833655
0.1772665035985025 2.0968414149208443 -0.0391286835012340
0.1813414621889510 1.4865843451043463 0.0241853076292338
0.1864224936360599 1.7134612545975452 -0.0009605817092257
0.1852308291872883 1.7463118752509397 -0.0095664337566384
0.1796325039703032 1.7930258346122978 -0.0248169276814629
0.1838151683465134 1.6851629453704842 -0.0096548801954486
0.1803987334870274 2.0541246157380133 -0.0011697638921403
0.1819026296851714 2.2004389456325009 -0.0140528137626045
0.1815743394912578 2.2443649825721148 -0.0032496327578885
0.1796609798020822 1.8194642271717105 -0.0328364517643805
0.1875405657104080 1.7488906667536881 -0.0405916711095402
0.1919261460645148 1.8780242913109200 0.0629758642345869
0.1831081188190136 1.7055427280448530 0.0098381189507850
0.1643937647555951 2.0208896625899100 0.0155637618338772
0.1945199328538246 1.8484127505096322 -0.0213650343210472
0.1811004410996697 2.2889209825508416 -0.0080002890860493
0.1877419797337130 1.6949095981044948 -0.0161611922881626
0.1828196547010232 2.2404889726184831 -0.0184578074234173
0.1827431923653582 1.8169759129449763 -0.0084155920623052
0.1731541543458562 2.0196410031260146 0.0107970973411720
0.1742765941583681 1.2293076159956882 0.0380534335176167
0.1809326275022831 2.0704774620524575 0.0404929401345062
0.1760795105228783 1.1367109449295079 0.0135123369522198
0.1801669292661372 1.5071269113872101 0.0097995807576125
0.1686782732637743 2.0298855166866905 -0.0083297652880631
0.1794193342446731 2.1053977422945449 -0.0050546626148372
0.1751140364637518 1.8555612623013102 -0.0276761768709875
0.1786333654769940 2.3450876345815699 0.0219912371498123
0.1745708703716303 1.9655728438286577 -0.0177386045142251
0.1779671946594460 2.0514969581372600 -0.0046776306301156
0.1755624822050786 1.9572708800152001 0.0145412901609231
0.1907670502110426 1.7174793624349072 0.0181560400719434
0.1809596680772990 1.5761679260137351 0.0091192745982634
0.1868689650604729 1.8087555892056013 0.0173441157915976
0.1821727943263764 1.4945624584854713 -0.0166619116325213
0.1854592024924936 1.7640980494084131 0.0019656813886735
0.1815188440358299 1.9607282674241893 -0.0070917817903250
0.1830340391773418 3.1906574662914595 0.0199991013633043
0.1836043021540088 1.5182636528174362 0.0102231064032636
0.1814965567926690 1.8548962605590653 -0.0004783691003537
0.1774636155117567 2.0362603284723280 -0.0059783026791211
0.1803509768951607 2.0914658522086649 0.0053863637128861
0.1804265202869695 2.1743251521167761 0.0025677583704631
0.1925004527283243 1.8002695183541886 0.0492682373410888
0.1802366722171404 2.1056643905465084 -0.0133260017082979
0.1807312609577828 2.0491976982340914 -0.0061549917141351
0.1961093029590971 1.5183677414320988 -0.0002679191518964
0.1650128904508424 1.9979456826267217 -0.0368895263656845
0.1719143465711167 1.8797258615750689 -0.0240292050247586
0.1813101556575150 2.0200197672703388 -0.0079212396572143
0.1778296827929475 1.9788373144240390 -0.0074366996252362
0.1833250598952748 1.6803960728688694 0.0132951218367087
0.1831801211594297 1.7657630217959066 -0.0168565996735952
0.1952158119532374 1.8051413136087338 0.0456735869632759
0.1909725920005015 1.6993456698750522 0.0146848996097252
0.1831136891611314 1.8902183879697727 0.0376641976917413
0.1783790008431713 0.8897290906251454 0.0563690574430889
0.1828603174032355 1.6622935840211890 0.0097387873125719
0.1794989659654829 1.8846560126012797 -0.0061257543369790
0.1796914430493260 1.9904659623862546 -0.0072544129118824
0.1871127925748979 1.7004140208263725 -0.0007675583965184
0.1780764514635428 1.2647877856691117 0.0230598833603297
0.1740443982145186 1.9166400172628508 -0.0231064308757358
0.1813329483454078 1.8827068455933376 0.0150846552296088
0.1676601296687783 0.6958483776764265 0.0808983723916425
0.1840659574354270 1.7564347445670785 0.0123300003762381
0.1882954576384379 1.6920465125202460 -0.0066082887178813
0.1841713685846066 1.8150055943747658 0.0210762277476558
0.1823724791503323 1.8181893256188113 -0.0035331383180762
0.1816725356945420 2.2035138062463555 -0.0184796883335279
0.1804247741741901 1.9244359800778328 0.0437680788765293
0.1795387537913858 1.6922166462877199 -0.0194801844345058
0.1966367256830665 1.7121431548887733 0.0468201827204236
0.1733696618083778 1.8491166426558903 -0.0346006815486919
0.1839827400244392 1.7400565382599287 0.0050166987158983
0.1658969880613141 2.0443375712625520 0.0080129636589087
0.1432858454148422 2.0674686927772279 0.0145717958449242
0.1752406392655525 1.9093631352328406 -0.0123026075946758
0.1769219737078725 2.0376621638035539 -0.0023178167363976
0.1860249451586309 1.6634272753941572 0.0080174343978237
0.1799939615247225 2.1718338385561675 -0.0038369707593496
0.1836110282242515 1.9298888355445734 0.0229135305981918
0.1932074636558726 1.6514923867531879 0.0088166989355333
0.1679496993327004 2.0411521074258103 0.0205141561518954
0.1809119181076439 2.0205075051795647 -0.0122320652147081
0.1413734666602944 2.1043658475808544 0.0003693282018110
0.1687883651378385 1.9209635704444741 -0.0120800345561028
0.1707490688295508 1.8299808330068155 -0.0477125914661471
0.1687010542301856 2.0047012675593106 0.0950269902481660
0.1723626224462805 1.9181557587723250 -0.0092497017047090
0.1842646657836772 1.8458360080840457 0.0135593283996216
0.1782124347552063 1.3235228313952077 0.0203216537341390
0.1795781388890461 2.1090609689182185 -0.0048742898336570
0.1814292570122375 1.6311493598842977 0.0225346774146689
0.1721780962200822 1.9981878454348383 0.0201698331726723
0.1887624874267222 1.6689125398134883 -0.0290413870354936
0.1750190090137356 1.1890065780890140 0.0395952403504027
0.1750002043283450 2.1047071586028614 -0.0096664377678545
0.1703965416644308 1.8902752482104508 -0.0103851314532731
0.1798283122302605 2.1754082656992337 -0.0047174821487999
0.1813449617738251 2.0585808803659091 -0.0075868344120249
0.1796851947717661 1.6265208418148818 0.0205276632796971
0.1822778135191900 1.7895809588943477 -0.0131683806753468
0.1799357545163884 2.0976992405418105 -0.0003370718418532
0.1798607911381104 2.0577823379058366 -0.0050963112100276
0.1781757230409319 1.9899892544200639 0.0061414759791844
0.1804180139018512 2.0340893318255762 0.0147687020523519
0.1813457192478928 1.8036104277777529 0.0214482037686265
0.1870395532741638 1.7076763105048245 -0.0042535005001843
0.1856964123978899 1.7373829961964393 0.0127018265826067
0.1791092749352363 1.2462957206801031 0.0304934568891273
0.1785164281654817 1.7111758400087151 0.0414131884733676
0.1823949281535672 1.7740805491075347 -0.0285045146029799
0.1850002110114226 1.7163439682685080 0.0094792536307539
0.1824901843260498 1.5919762362053271 -0.0027766230041064
0.1828846792892828 1.8768426711349693 0.0082588491398715
0.1792958752763457 2.0889783129230368 -0.0040474132746081
0.1836703126345105 1.4315715995423521 -0.0014693666032783
0.1814452346090448 1.3605936128916731 -0.0016839713169516
0.1730822340879263 1.1599179871811154 0.0519824579140874
0.1801165897319846 1.9848313898828329 -0.0052833163220764
0.1837812063933746 1.5455959375292210 0.0010405416642301
0.1839129789589908 1.6816657309444063 -0.0018415440182878
0.1782185470643895 1.8505360061571152 0.0035400162934282
0.1825752930730861 2.0107234263970151 0.0833437863513808
0.1689797028395366 2.0588158484455632 -0.0003519022372249
0.1626983013234300 1.3162099859694760 0.0032189013603103
0.1849617997228034 1.7879223559271797 0.0185397313494852
0.1811025626524627 2.2109041480868892 -0.0100921810044078
0.1822673648114446 1.8890797817322207 0.0320369347786479
0.1823244555622312 2.0730225258037600 -0.0209901600408321
0.1789139507446764 1.2886898974738756 0.0486700261614273
0.1822379291487563 2.2199349056085831 0.0204612534771894
0.1795865339345574 1.3114865847102817 0.0442365652326246
0.1867160034912277 1.7581058834051129 0.0162914272735188
0.1841626391343297 1.7210860798075489 0.0132336794139147
0.1790275027827998 1.9716601798671596 -0.0292002768218451
0.1812234947145812 2.1598909326641573 -0.0285348370834280
0.1811269906043952 1.7168200062835710 -0.0338815260660393
0.1848222371591501 1.6654486905590047 0.0080786416249499
0.1798748003167120 2.0601916540046221 -0.0003248726588779
0.1808191212583830 1.9978218378355261 -0.0002348610265584
0.1819854963050838 2.0840516259664361 -0.0152654705117057
0.1982831584852490 1.6687889703608900 0.0249010347846564
0.1768055491412391 1.7470882566072581 -0.0448184740778933
0.1734847929698119 2.0465151641205135 -0.0084053675757366
0.1849955017891829 1.7152058692366581 0.0067575215577673
0.1820499861213470 1.8381233074842469 -0.0066306029781692
0.1729362743392666 1.9927181895412951 -0.0031642303368647
0.1764232386263724 1.9411949855804194 0.0140462116222620
0.1819491298818178 1.7770574828882639 -0.0133159502657868
0.1811665419359730 2.0533868461233165 0.0258198187604656
0.1832691621836823 1.8844005743366083 0.0452661968666305
0.1879129537597757 1.6236887423880693 -0.0295739902741131
0.1946491711289678 1.7096693267190333 0.0228478242582754
0.1804557362501070 1.6912268022671588 -0.0265179486503395
0.2027030594842567 1.7120154078124583 0.0425696447930219
0.1806930056329920 1.9933286493832734 -0.0136312216316487
0.1830690890869139 1.6704783238018075 0.0111782452447771
0.1808425636861790 1.9686949936813403 0.0157508543131810
0.1850180985993090 1.7456884431087079 0.0142121611295164
0.1821733830465513 2.5505462522038345 0.0079059057159274
0.1850543696023691 1.7651961296516696 0.0154071595153584
0.1799553342387576 1.9577243593693423 0.0277765117245848
0.1862506329705020 1.6906497621421692 0.0043002330891629
0.1800420738899413 1.8991855119224759 0.0070130964872174
0.1816785263974509 2.0961529925262132 -0.0129465183813182
0.1797039380299943 1.2610460827780268 0.0370571195205065
0.1780980971661925 1.6050936625638474 -0.0466513672949481
0.1881414980005509 1.6547606525746306 0.0066425577332671
0.1861247397682564 1.8469042809163925 0.0198338435610839
0.1794670677075547 2.1070917548294088 0.0276734890837180
0.1820395025963397 1.8838282053439734 0.0143977983647220
0.1845126743254020 1.6424783999874655 0.0078908481571351
0.1846353972234623 1.7046417319031419 0.0109379477959868
0.1820438517215792 1.9021124592963357 -0.0210570634703292
0.1838209626680651 1.8297573720581493 -0.0132096640148269
0.1737269148118479 1.9219627174818488 -0.0120801980190860
0.1940820508895045 1.7012675804642274 -0.0409524643987683
0.1828689207162536 1.6420284797868834 0.0131261012585580
0.1668307790200343 1.8589848656126986 -0.0231498699199241
0.1664793371351349 1.7657784589030281 -0.0338699670126306
0.1898508615700122 1.6884262538615316 -0.0012875167425824
0.1934225435022514 1.6480116906340923 0.0118099942418083
0.1897667585907788 1.7318198068489230 0.0354300724577325
0.1839530211745059 1.6697201388357878 -0.0332749306893448
0.1804695023960982 1.7842504424502255 0.0114172180512593
0.1830260920212916 1.6388150749553576 0.0129059378194410
0.1828770575840984 1.7248965413681689 -0.0016079886273617
0.1794199350496322 1.8714263439454668 -0.0348683036494918
0.1847524057857121 1.7406858290864409 0.0096128385610846
0.1736150874207240 1.8892584989130723 -0.0110249051504451
0.1905996725765530 1.6835452426499216 0.0076691350003978
0.1867729813880431 1.9101123708960044 -0.0100152594123505
0.1851520803710570 1.8232044617212411 -0.0207420712077634
0.1778104900056166 2.0157900907570037 -0.0213265140877033
0.1818857291811938 1.8373501714089164 0.0150867721812431
0.1833804966738846 1.8375138010770042 -0.0132656661100952
0.1732755185907157 1.9995926866845184 -0.0072690359395000
0.1899345493194877 1.6581102800935643 -0.0154419417616912
0.1931259589489090 1.7238328954779689 0.0286084052072382
0.1724711766596888 2.0049912939265404 0.0250398882249010
0.1849873311109330 1.7783653536155961 0.0097766373994834
0.1659321757085608 0.7465874020301726 0.0683984293714120
0.1813703576444506 1.9982146946434807 -0.0205859552538220
0.1745468338135848 1.9925526307491050 -0.0139172062487567
0.1810897115296462 1.9562748410783610 -0.0131132570408389
0.1922247638490814 1.7185801925855766 0.0097852739752828
0.1746232572122167 1.9872106119096067 -0.0099166018945978
0.1832455649450733 1.8849139922058904 0.0016008464883753
0.1771660854696367 2.3355410209854273 0.0166684495912049
0.1878163541034490 2.0821593205596574 -0.0189801886197454
0.1761929719186916 0.9362924263604874 0.0098631045473772
0.1769677868289549 1.9483677570013207 -0.0110560678853468
0.1790353370822766 2.2619183800437712 0.0085775225004629
0.1794760873908671 1.9616159255973222 -0.0060169766970872
0.1797889536953406 2.1065230054121096 -0.0010479395638561
0.1788841407074556 1.9935012565551957 -0.0058438553219855
0.1804050666994852 2.0138787744266984 0.0069144617039693
0.1748839721062357 1.9685870272883321 0.0030187001564002
0.1763501582032981 1.8852804644430887 -0.0195573374694811
0.1829103866569319 2.0193261804283718 -0.0256088570474477
0.1855973187700421 1.7287489897343145 -0.0171729582929266
0.1949457870063775 1.7713417234650362 0.0348391005154943
0.1793446061463871 1.7929425530973568 0.0247403993378133
0.1801092190207798 1.5191522514383129 0.0224515885740685
0.1946230954761708 1.7019482257380654 0.0042970903455949
0.1781933041702687 1.2863580020014493 0.0222203090890725
0.1862062578630618 1.6866399060745056 0.0056059831609004
0.1841169211734123 1.8203970424559579 0.0211884579764018
0.1707814527272757 2.0071079910462744 -0.0177916470199267
0.1790096787442516 1.4224074305908549 -0.0007907576827282
0.1791563110647728 1.9460630959172143 -0.0132443068148746
0.1723131736428704 1.9574969036791354 -0.0145620690941288
0.1840321390633753 1.8476986026464115 0.0023392531152783
0.1856553370697081 1.7653892751587310 0.0109626029781242
0.1825248844029931 1.8152916205007541 -0.0088129578629323
0.1739424732621138 2.0271507241471789 0.0263146101035571
0.1733148246161307 1.9655677258452136 -0.0184928017965392
0.1851805529726643 1.5241328230019764 0.0172547818407850
0.1837775199004986 1.7526939041459859 -0.0131776335283896
0.1804977144859573 1.9476595879363274 -0.0170521927037099
0.1828763288978113 1.6920499776260181 0.0111164586637649
0.1785127161230592 1.5050756991121661 0.0344420785294769
0.1861812045225022 1.8442718240045053 0.0392955072585232
0.1815596540236859 1.7869762421555573 -0.0215618121251944
0.1972618445328060 1.6323117548643149 0.0162587671217512
0.1780673290514931 1.3766693169635111 -0.0205286537766869
0.1855114197739048 1.7062123961734348 0.0110148561305872
0.1832069596833350 1.7485613191231333 0.0089043939277977
0.1922917450663707 1.7660228489288052 0.0236425425827362
0.1816685130584333 1.8173741821038505 0.0015023550330098
0.1833293584207796 1.8682841037594708 -0.0249712294417781
0.1797923243837899 1.7874749214349026 -0.0233559256882645
0.1813166953556183 1.9208549339371448 -0.0234518153750127
0.1823235528290253 1.7118081622748482 0.0034909218200177
0.1843717666830958 1.7306625228503851 0.0132646473751781
0.1798673229949728 2.1742083439601303 -0.0148157542509208
0.1842843364535768 1.8108107361440033 0.0126414959024583
0.1737039188124350 1.9680652492999131 -0.0183105753077127
0.1791573747657443 2.0882919037240781 -0.0043188780542744
0.1749766882473954 1.2002014649333008 0.0439609300829234
0.1788340421051206 1.5809085758354133 -0.0182997189169084
0.1764841268290753 1.8119258422256559 -0.0304319231016727
0.1904915702140080 2.2186223942193353 -0.0376688813254625
0.1857537035139001 1.7689805998912651 0.0073451439032084
0.1809980998842893 1.9976474404400419 -0.0068670268380685
0.1791421997970711 1.8144474284318577 -0.0075181616267469
0.1790291737583062 1.9858454782416473 -0.0060097288893254
0.1919703494998099 1.8358076866133852 -0.0139263875291214
0.1840762559740420 1.5555119259948207 0.0074176503824351
0.1788899887838849 1.9774371959725412 -0.0044824868351605
0.1811279484875559 1.8767022440563945 0.0059818683742397
0.1848371318140241 1.7905679780541275 0.0169943512368924
0.1803283916460666 1.5608153007717263 0.0057085557896127
0.1818677894539842 1.7811575187140871 -0.0075135864563747
0.1785707366809787 2.3316603557446953 0.0042607493152793
0.1882212023054761 1.3983850877771846 -0.0246617279362212
0.1817004374974007 1.9208977245869525 -0.0021369274239711
0.1851537534180974 1.7675124495564343 0.0257932835613977
0.1761638747910160 1.7063623904861676 -0.0548673129264828
0.1788100468193401 1.7172339053123735 0.0104571915074570
0.2038255434987966 1.7245827724500882 0.0526160787817605
0.1767322274516860 1.9492809117662369 0.0443709812637094
0.1824871808628920 1.6164753041633078 0.0098331410213348
0.1810391064208886 1.7234347952830513 0.0022905397404246
0.1870857098638102 1.8420939484937944 -0.0151174961378388
0.1814514864352772 1.7345715794946108 0.0123750252409555
0.1887337382584005 1.7800820755803799 -0.0120266397146746
0.1820845429043534 1.9744408195013352 0.0002028140985985
0.1801807018978580 2.0235852325769375 -0.0053572537799397
0.1811307549521814 1.9061201619486485 -0.0002349312986502
0.1809174268039253 1.9615994145785070 -0.0012139502045751
0.1826468508887208 1.7335717991568274 -0.0183866591595467
0.1827137297212243 1.8903884092871654 -0.0168477046165594
0.1882525876547165 1.8708893981626968 -0.0155880939968517
0.1851120235099707 1.7369961630753374 -0.0016698546823792
0.1773376626459091 2.0286257461893071 0.0045508963948885
0.1706002132538206 1.8874814661480028 -0.0124112227439990
0.1848609684947023 1.5811415382575988 0.0072459131440715
0.1831044668254094 1.8367775784262019 0.0069228915581381
0.1802532192055664 2.1891250798922628 -0.0106085058180267
0.1802683117471223 2.1591617220074624 -0.0071542632646314
0.1770862588811278 1.9875063777524509 0.0135435627452325
0.1801319085462932 1.9248744615717337 0.0234025709143672
0.1804861978631137 1.4804768209235055 0.0216432760853380
0.1806611277294305 2.2697990365151841 0.0072847016256671
0.1804993103306010 1.9090371507965394 0.0409936836406501
0.1842647661186560 1.6957626432166144 -0.0160724374932491
0.1760875122619859 2.0163601625107210 0.0038650866552390
0.1967711689212504 2.1291057298177209 -0.0377362254963472
0.1775444505405196 2.1118495972951048 0.0031021222800987
0.1768061534444687 2.0038270432087049 0.0344950314379055
0.1808955781933393 2.0352514698258477 -0.0109259049990481
0.1945226402029313 1.7162935574953475 0.0248770895522688
0.1789681370040811 2.0163422839474228 -0.0005056212056677
0.1768962185002478 2.2293975871413929 0.0344622711570547
0.1835149430456619 1.7829706528826974 0.0033859213313330
0.1825777047263383 1.9074148135584181 -0.0179803511889654
0.1914741707241121 1.8006364810523996 -0.0179004667383685
0.1746405816692873 1.8835348806030670 -0.0138913197450642
0.1698508555935323 2.0872047285678348 -0.0204792487804999
0.1803525991265125 2.3275995572374311 0.0202777613631389
0.1820951681876126 1.6830007844636523 -0.0032302905012652
0.1809470839311482 1.8583233778830264 0.0390282725681372
0.1917476941508190 1.8800052381777326 -0.0186910535902272
0.1819517890039317 1.9032850898509215 -0.0211153795442574
0.1905754707922684 1.5270196775061293 -0.0165190755330935
0.1742462555169415 0.9123169952001499 -0.0152826583384373
0.1646831474382451 1.9488450207767916 -0.0276530543773923
0.1796964604915529 2.2774071386640555 -0.0031300248992763
0.1779247677841680 2.0309937559731988 -0.0010501144763959
0.1818436831001706 1.6000376262620020 -0.0006948474652391
0.1785573664459812 1.9333831268283546 -0.0172723148465502
0.1758813544541465 1.9788957141509087 -0.0134366169095392
0.1750206706752237 1.9949002481947569 -0.0028407043841780
0.1831645465735411 1.7269649993549165 -0.0178019631552370
0.1799506672484841 1.7903617813311461 -0.0279748796312422
0.1869878877373632 1.6762831218796945 -0.0170382026520935
0.1758315254064949 1.8559274356575255 -0.0279972733227946
0.2016819626027894 1.5931610421330289 0.0347128896875212
0.1802971988857771 1.9236141625688159 0.0151586942388626
0.1786529244410085 2.0473804154613173 0.0798493748153577
0.1753064667465547 1.6390935735028889 -0.0480245268739838
0.1867120065146753 1.7659595182770642 0.0151024463030402
0.1772741362298112 1.9903329392777673 -0.0097904764851419
0.1821728480707445 1.8235233767590850 0.0065253589426021
0.1820883007014842 1.8580226474911539 -0.0134381002847006
0.1820753499610040 2.0560333631411529 -0.0178092428060720
0.1730085513116492 1.9517557780855681 -0.0141318219389942
0.1754559833097110 1.7724828592026427 -0.0415083488002643
0.1895200935554846 1.6479359146316406 0.0069348951266890
0.1837507059381213 1.8853936414286958 0.0216377655853680
0.2002210173424646 1.8719126732353193 0.1004426027106878
0.1824324116383998 1.8830692397297308 -0.0062470971184301
0.1826257668818104 2.1176419058658884 -0.0118304132197071
0.1702312374387305 1.8664718258157822 -0.0354933551028802
0.1838219899997762 1.6665362569967455 0.0096508486516908
0.1805548337296781 1.7345446487073912 0.0374312625384218
0.1821930041596042 1.7593781989656798 -0.0228869747432936
0.1773176575772036 1.2153117001447598 -0.0288623098393009
0.1845043901536680 1.6415979012407036 0.0179958788020571
0.1853776535518739 1.7109165581460610 -0.0186238491300659
0.1835180771645263 1.7897028988638259 -0.0007443233176182
0.1853774910036859 1.8093651793239809 0.0234788368350634
0.1746092309164677 1.8827757772677043 0.0336028381178334
0.1770735362261680 2.1603107078712700 -0.0121420607929747
0.1820371304196999 1.5108064872718019 -0.0003863774154773
0.1792481423136240 1.8048154146504909 -0.0334720032015156
0.1750631969756239 1.9451866404241349 -0.0091976437857694
0.1855720420928966 1.7689633625006169 0.0092224028097739
0.1831141329223770 1.7597487058002572 0.0140838281861636
0.1846200276353870 1.6125510052565346 0.0081541947963141
0.1784826483902263 1.9595473550528266 -0.0147959367832621
0.1754062354058498 0.9650459676659819 0.0054565908283533
0.1853731666859687 1.7243458917326842 0.0147791790287759
0.1756694337493112 1.8476785054109142 0.0020111229956003
0.1832197984446843 1.6186535349568567 0.0111178105612286
0.1835189762135503 1.6651005904866958 -0.0303972238419712
0.1836621897557887 1.7614372060481682 -0.0098476620212648
0.1773110868059478 2.4723881731495907 0.0016829916429823
0.1710749338127816 1.9084147396011324 0.0003304776986973
0.1641401870320888 1.9684665226168847 -0.0229971329646661
0.1822899634349379 1.8711161061931434 -0.0031419208689866
0.1790491269363007 1.9315520770720849 0.0498777648053882
0.1892052084963355 1.6886564164312443 0.0105838215364238
0.1812263549073190 1.2581622510184189 0.0088468528633288
0.1779707822457761 1.2028678811265916 0.0171632717137028
0.1834210989053272 1.6231662091856209 -0.0451816969090003
0.1813014928113594 1.7497609816664734 0.0087611757190122
0.1881102992725151 1.6596884954807283 0.0083174223691669
0.1864142324148138 1.7719258745604496 0.0148420635955294
0.1828027460357141 2.3156128966140890 0.0010360231121697
0.1817072989596945 1.7070013788440175 0.0357239746037602
0.1714940836190230 1.9860952721466323 -0.0044367592195175
0.1826900782846744 1.8737612725152253 -0.0287096098731504
0.1730172212799676 1.8937365172595169 -0.0291739710090340
0.1933519366800221 1.8545781116762889 -0.0208290510681523
0.1929221423423764 1.7551462112174017 -0.0178697462563548
0.1936530074840130 1.8810675828382464 -0.0222743988011903
0.1809969750847237 2.0551912518823778 -0.0046766340401570
0.1793563106649536 1.9514717699290676 -0.0089451675441306
0.1813262727255105 2.0131205675548371 -0.0094094257520734
0.1749045263500450 1.8709611954686869 0.0026915542600527
0.1759271470007204 1.9583081807376266 0.0201918270596731
0.1659870858825475 1.8174700647095241 -0.0574982542525930
0.1661228483194087 1.9414348829460830 -0.0109815145323417
0.1839465886348631 1.6153424202197584 -0.0009137393285925
0.1835211561423220 1.7703751131254277 0.0111889621241357
0.1733516379854169 1.8797473250109002 -0.0151702280223779
0.1811339239307759 1.9927299344248193 -0.0112016559025351
0.1821622694576457 1.6632972927307994 0.0168099984894801
0.1788338639461134 1.9572408980332128 0.0144240903896609
0.1781007944501796 1.9586590960660615 -0.0012323018121553
0.1807313723878330 1.9426695889559875 0.0074119314143006
0.1819942111882378 1.7303328755652512 0.0127943998147059
0.1816635669236831 2.2481831836218871 -0.0155746417792044
0.1796977525414674 2.0052875591103754 0.0159816703413676
0.1754145988000356 1.9641059585612102 0.0236142136675438
0.1868110439119304 1.7379834505314138 0.0212644011928347
0.1791897292822744 1.5821858472295101 0.0270727672484536
0.1759203440934644 1.9692909564816008 0.0350779402952994
0.1826879797038699 1.5282931779312317 -0.0043333109562012
0.1920069001763236 1.6764576483159905 0.0025416899907003
0.1927284769992889 1.6736406754549336 0.0077176754233669
0.1816921532289641 1.4947093415136303 0.0071425183500481
0.1921633197121193 1.6815733494071092 0.0150003883534295
0.1791304533197643 1.6838231130618684 -0.0458124726987279
0.1935852536137003 1.7827818500155175 0.0423414284051562
0.1904067998443284 1.8607383262837545 -0.0407830317581808
0.1793702237963508 2.0076494889065017 -0.0394672065512097
0.1816666330789271 1.9053061441496542 -0.0154115922111932
0.1820944375811771 1.8851409572018214 -0.0004679785313197
0.1807127299032594 1.7265889014414515 -0.0076156477997232
0.2007856485318767 1.5248534605787185 0.0025543100992816
0.1790697521348622 2.8870849688075904 0.0305491815051500
0.1693101923922192 1.9240774187170806 0.0319197215392814
0.1825455162277940 1.8447828467132241 -0.0006706681126409
0.1730217429974606 1.9326122772643113 -0.0237102302600056
0.1795133505983755 2.3301318584671109 -0.0104189574810095
0.1783753698578287 1.8364903952345568 -0.0225439830926410
0.1627176081269713 2.0726841466522510 0.0241007893981794
0.1813484861317625 1.8789147376108852 0.0071806779913740
0.1796229180064834 1.9417720213528418 -0.0004282620030857
0.1784575433319062 1.9277913824971658 0.0067171250719686
0.1809970552092584 1.9173069092894781 -0.0002233093524580
0.1879869799000072 1.8121077423599712 0.0327797249621588
0.1832905347160275 1.4622222901952717 0.0108370073417401
0.1844224890977722 1.4756463428442723 0.0184157444479653
0.1926386390599432 1.5810033755586745 -0.0223643851536994
0.1900225217901573 1.6256121367273366 -0.0174438814631226
0.1727503060222964 0.8782155573325766 0.0336679726688239
0.1789346465248862 1.8652299972200637 -0.0427745856905151
0.1813779267882717 1.5988448441324588 0.0156318764748732
0.1907772079029409 1.7278949975873350 0.0026911091184646
0.1817846096614132 1.8861974533949639 0.0101823479527300
0.1845890151324927 1.5430432884265182 0.0257202007241065
0.1788540506416676 1.9394563538876022 0.0392106305340049
0.1835451808260216 1.8697454780756415 -0.0041612052077113
0.1880582665812577 1.6171447263868064 -0.0105367032614841
0.1790838053693865 1.9535427352834109 -0.0073487273352457
0.1799237760024241 2.1213311727178712 -0.0063523563083380
0.1838539565361041 1.7490786559593898 0.0031682078629106
0.1753283432047668 2.0267318362037874 -0.0061547346275926
0.1916208553892900 1.6532753046008857 0.0025086421137496
0.1769250563866388 1.3011379242352736 0.0305730152120737
0.1750602299706309 0.9942054350604959 0.0200222928521296
0.1673150678560544 2.0521195787088722 0.0305101691955600
0.1717606548881840 1.9891813801939788 0.0158907949478962
0.1830454199224029 1.7103282649102489 -0.0288020417088988
0.1862581654121956 1.7383564645180336 0.0090992803019598
0.1751687026739396 0.7332857832114626 -0.0098555439484667
0.1854898060474319 1.5625939758457768 -0.0548609681531862
0.1800418184103343 1.7505190886079534 -0.0266675928462351
0.1968256042225718 1.5786799971148600 0.0239559952497075
0.1853419306797463 1.7460240829442519 0.0115967111774244
0.1810622360701106 2.0111323981587925 -0.0079211459375518
0.1838468633697179 1.6396840074068049 0.0032917103835188
0.1821102786881826 2.1053729267270547 0.0138221867389060
0.1922142761509945 1.7811178103072070 0.0416455807408704
0.1785319353292902 1.4483606119583010 -0.0331928196005294
0.1960958153808107 1.6921134064300154 0.0311178542381499
0.1828486108714861 1.9424232461087572 0.0105262475339028
0.1787118689502453 2.2796207145844161 -0.0191138223292603
0.1792634015485698 2.0235102259585824 -0.0259024755104331
0.1804630718897911 2.1009392768919311 -0.0110012706753059
0.1737845888558106 1.9956644020679557 -0.0153074566826596
0.1804988203542333 2.0401116724190356 -0.0063197639521809
0.1815552413029629 1.8614722835512576 -0.0026380809697797
0.1828796237081223 1.8200387427798572 0.0137478232258315
0.1758666714024887 1.9760504195606770 0.0111844464845797
0.1814137185695744 1.2977533916257296 0.0030548742907396
0.1756235299275698 1.9846250672279395 -0.0172596992588897
0.1721131020110501 0.5684704770896325 0.0527903782433268
0.2021114987930599 1.8192970305123894 -0.0086554299005253
0.1887420443479994 1.7458070511110098 0.0138836707278264
0.1938068722406008 1.7617609296786394 0.0002179631485914
0.1648334858055627 2.0545465599333554 -0.0139888251663665
0.1815772681312668 2.2127521802276813 -0.0154934863242862
0.1779731321922629 1.9274617509355383 -0.0144594583969883
0.1831178033687358 2.1089562570844160 -0.0151822262331279
0.1807548508685580 2.2053005539238462 -0.0196119223128121
0.1804753044341306 2.2055251888917429 -0.0147946151512365
0.1771522134307171 1.8483420712028904 -0.0239660705924254
0.1783741491995324 1.9276027021088431 0.0353350255468163
0.1942154441944371 1.6316743978507424 0.0032547047939968
0.1948250089427306 1.6889039939509893 0.0177727146345388
0.1728778710117590 1.9164359260778514 -0.0217511061236115
0.1921842773764973 1.6310126819774580 -0.0090095940115169
0.1708264103337317 1.9823989651227323 -0.0233399363503421
0.1784566997967837 1.8892403863835663 -0.0164264715936809
0.1866331249074011 1.6734508719630776 0.0093861617033157
0.1807093558879070 1.8686045742122308 0.0230765390563892
0.1807180006531173 1.6653956840758510 0.0263592175501533
0.1763408325827858 1.9370793610394532 0.0035800873006381
0.1885085130469273 1.6462545027811655 0.0060586037277504
0.1801068262081541 1.9230467992459765 0.0219722799924068
0.1828273902860603 2.0643455504068169 0.0228223578379086
0.2016794625905228 1.6898540618248075 0.0372725535195570
0.1829049491096539 2.3028213186072319 -0.0309270271363832
0.1771787733028182 1.3772593204546439 0.0609133264722650
0.1808737775908723 2.0139942669508342 -0.0053228308977674
0.1865629613650314 1.6265493895644558 -0.0026638772622665
0.1823915363763898 1.0311008970348463 -0.0078351558379310
0.1873984021052757 1.7892003033990578 0.0234311254307416
0.1817043243440495 1.6602660114298045 -0.0133721343444426
0.1799965032554949 2.6033687868701967 -0.0370735465444465
0.1810413697506029 2.0155778488851932 -0.0036390160143628
0.1790517778262065 2.0992244802283198 0.0146059782682672
0.1896078206816109 1.6662301389229315 -0.0128723240517226
0.1916532097988945 1.6445883111723922 -0.0064849274184229
0.1863169415588554 1.6797455571220976 0.0096542661282821
0.1920221534753045 1.8426347530444207 -0.0398854218366983
0.1789097722435136 1.9095125202188863 -0.0431381609517854
0.1868136938079868 1.6148262777497033 -0.0317804546762750
0.1687817346475428 1.9656216076293949 -0.0257215003899774
0.1793245782577804 1.7631058169061482 -0.0319836779932253
0.1839826901245957 1.6943736090895372 0.0029007980981079
0.1815716282697931 1.8509855876107575 0.0239719746151499
0.1911010068125149 1.7010612885132279 0.0245609294277514
0.1809837809972445 1.8174191623530718 0.0136154979320640
0.1809367828576431 1.6794908749961346 0.0081052780322037
0.1931417487403568 1.8520847428552236 0.0572955518608742
0.1975655683716580 1.6113030710700911 0.0212730599219381
0.1767643946443270 1.9377532082125752 -0.0139309124506110
0.1732648700493192 1.9357755977271278 0.0006627840168854
0.1792541872624176 1.9271358429976875 -0.0105149931872645
0.1773455894470330 2.4641620771108488 0.0071175489826159
0.1894971603891762 1.8838759071990596 0.0028877807496782
0.1797078393214704 2.1120686569288867 -0.0063834520860170
0.1770690364315493 2.0142767334677876 -0.0079071186693091
0.1762285869354163 2.0335470862317520 -0.0034738836453050
0.1797856793548019 2.1460226274824703 -0.0025108513762621
0.1768464787373855 2.0111252137103781 0.0048028207262736
0.1822629915862545 1.8728411429426184 -0.0132468514328619
0.1851195783882054 1.7487943952989049 -0.0222229376688417
0.1764014607844185 0.9677696833834750 -0.0210645027042953
0.1790816450183584 2.2784573032172415 0.0253327499151406
0.1809304894014075 1.0562966223294585 0.0267258746878123
0.1819379048853817 1.0564051038775073 -0.0027215922021935
0.1802747537588725 2.1046854441925427 0.0056343045998678
0.1876370814572389 1.7581904938407045 0.0074892548767842
0.1764019768595845 0.7692192069337260 0.0388638380079137
0.1827774504427022 1.8811701664894116 -0.0082435595633393
0.1855336858614687 1.7193613596145019 -0.0119581393748470
0.1847840838365689 1.7449334743610918 0.0105248885239241
0.1819691983232738 1.8887078133087696 0.0223152107470229
0.1891360942640289 1.7730053928782512 0.0203616180785417
0.1801642875390640 1.2781695608135006 0.0269648554832460
0.1788517225471140 1.7700153924891449 0.0126922031229678
0.1789956152013689 1.8305442879145952 -0.0250822780284873
0.1806061494064785 1.2938295727858555 0.0348653623281145
0.1833794579597409 1.2866159622571232 -0.0086831968370370
0.1891815255017432 1.7018007182209773 0.0131064627438939
0.1812574168121019 1.9244049792254181 0.0000959051803772
0.1735629257966707 2.0097672794594734 0.0262537850257682
0.1937049734395433 2.0064093100221294 -0.0172324995400733
0.1957784271292944 1.5713915909042857 0.0198892063598254
0.1781436550190566 1.9754551330929926 -0.0060209899181240
0.1816358460522293 1.8472662020911126 0.0155909295181079
0.1828033158191838 1.6652898125708975 0.0147707406515570
0.1816658769258382 1.7954727060241580 -0.0003753289433708
0.1819573394287576 1.8849011267377700 -0.0001925269590612
0.1883841165739111 1.7669415424604160 0.0022635703653349
0.1773758906957225 1.6535297084990976 0.0276808555220666
0.1754264886590779 1.1872105114594007 0.0272184577652190
0.1761908816814906 1.0398424244951101 0.0137870386544854
0.1946637050858535 1.6543068415536117 0.0234366422782967
0.1776373936020251 2.0129745275599653 0.0034943288893514
0.1834107794672681 1.7151625550026310 0.0065052813232968
0.1807007101595672 1.9716579424671796 -0.0072150725891426
0.1700068218874241 1.4919739474418692 0.0790751014162886
0.1763197747731949 2.4039132034054052 0.0113537505498193
0.1973286383958149 2.0187617921176688 -0.0162543212543209
0.1763875312729553 2.0598050488118926 -0.0477880005600862
0.1762262616331002 1.6984219541379830 -0.0454762453596855
0.1862630772958466 1.7614857678875855 0.0127193954984304
0.1815889548105124 1.8120469489118769 -0.0330870814898062
0.1656135373661280 2.0271369336800653 0.0023741482124330
0.1853547980308634 1.7519419642784144 0.0143884440817587
0.1854017685835058 1.7039521635564032 0.0033340681669198
0.1834205404795854 1.3384123707153417 0.0027277257873955
0.1777935303759089 1.1567179944941053 0.0039867625237717
0.1763659677743479 1.7424121776782384 -0.0437067536956355
0.1762478574419194 2.4023892224157692 0.0304742671962446
0.1862631383013485 1.6188148434164409 0.0091511179490231
0.1824570862914148 1.8109001512739749 0.0030525345041512
0.1932433843814332 1.7912640780902189 -0.0199432063201209
0.1810395117337746 1.8937886647244659 -0.0065532221617912
0.1792839882255660 1.8667536987360016 -0.0221375736694198
0.1803580340463833 2.1977878610879378 0.0003367697045967
0.1805012304840353 2.1289481459490491 0.0035336786818890
0.1808606607669164 2.0584483208740032 0.0057020608341343
0.1779470168785364 1.9262382872788935 0.0157479500496466
0.1902282653881764 1.6975399304687846 0.0205596507749116
0.1895662132991009 1.6681482397124974 -0.0044278637277168
0.1741176377851546 0.8124020706802426 0.0186769909616089
0.1732040527619356 1.2329524390778825 0.0558652787875582
0.1840179029795425 1.7365465999063183 0.0183906410273250
0.1803126750083275 0.9668852220009091 0.0401056347416016
0.1785639927858525 1.8565139585238344 -0.0065800054600293
0.1825691674977127 1.6290968850213103 0.0172052088920248
0.1873750606434271 1.7331631689089004 -0.0014643110328153
0.1792449832401794 2.3712950933310823 -0.0237552642454154
0.1799232251540232 1.9818335345012450 -0.0074649271706051
0.1740083666935713 1.9814463636351358 -0.0137841929048444
0.1791950302726375 1.2876825359778707 -0.0034571680133594
0.1801052262775788 1.1883982681189860 0.0103427838813856
0.1927188346360671 1.8295288822456777 0.0495831704660036
0.1862641360322715 1.7716918503580081 0.0039637498707104
0.1776851205448134 1.9958545937901790 0.0055180968469774
0.1792212491913959 1.9141048600186732 -0.0146047463454174
0.1809885457798131 1.5752980447482063 0.0043598532083558
0.1811102698494617 1.9935975941170436 -0.0060257356367949
0.1814353746819393 1.9560934403910566 -0.0057994531873198
0.1807872848580129 1.9220654785017537 -0.0059925867847808
0.1850001184610788 1.8168161342194893 0.0034217388245325
0.1969191111057738 1.5765371989718735 0.0346803853859968
0.1809306890807265 1.7380293190917815 -0.0085466509782271
0.1817860212182879 1.8251986209304141 0.0080680413452057
0.1829431107355818 1.8923971259444576 -0.0059851962028750
0.1755779867017472 1.9852611460792418 -0.0067324885094701
0.1809037339053301 1.9087945852895882 -0.0016315720220672
0.1827520465659455 1.8277172119421301 0.0060446316175823
0.1889058459244971 1.7883274221026422 0.0263265682525505
0.1919749727950410 1.7459393853146490 0.0213080140913114
0.1791340055725611 1.8066280684761602 -0.0449557836217673
0.1843282971393772 2.2570988708930102 -0.0250079585169339
0.1843651776319138 1.7929266185749222 0.0450718991819450
0.1848996467091457 1.6817704864778977 0.0078046245402775
0.1767478318398838 1.9820109979965399 -0.0128541485734947
0.1804941059155064 1.9526816785132088 -0.0149402189815116
0.1844041381912271 1.8478956510946800 -0.0001826552231715
0.1835005171650847 1.6867038457794370 0.0095159576050056
0.1698348454180590 1.9984083384252054 0.0220693312793369
0.1783637341265925 1.8635673118866052 0.0160924427889561
0.1756374868376138 2.0122313563295289 0.0267983012320280
0.1735641932264018 1.8931748078381232 -0.0150766039466389
0.1814985343490226 1.7069038205886999 -0.0072995411548248
0.1789569777025425 2.0626523239336625 -0.0042237041902440
0.1849205099707417 1.6562604780836676 0.0064154224987044
0.1854176698691503 1.9565518768276040 -0.0396820265806950
0.1813334168280201 1.8815753316462338 -0.0007542691408656
0.1798541277548202 2.0287376489896345 -0.0092881014186125
0.1808763496112261 1.9752080266269141 -0.0051652034609383
0.1801488519356454 1.9177985942462374 -0.0011381817113472
0.1867746121022713 2.0158107345167084 -0.0230835546843458
0.1845462762015579 1.6038356733945089 0.0097369446575057
0.1825484983013864 1.9374652180051330 0.0060738752756194
0.1815218156809577 1.9721500025770855 -0.0250291819804623
0.1795395838735875 1.4772369710582676 0.0278180896534261
0.1782128915420678 2.2324970115389235 -0.0246913468095986
0.1853936246810460 1.7076074461454054 0.0113140304694172
0.1804884777477496 2.0230273933030491 -0.0102187391456039
0.1788618754272392 1.9174685814710397 -0.0107678253400573
0.1996824732036920 1.6147942040549055 0.0060388449631597
0.1762401886271283 1.9508731269593353 -0.0173560819936013
0.1749049739007904 1.8808792483263199 0.0032969593268960
0.1833210217111346 1.9419827262607752 -0.0154681533603776
0.1804055435304883 1.8726340617666299 0.0154887657669492
0.1781269980713905 1.8072989058465772 -0.0283694522284141
0.1783039754400690 2.2030882340094178 0.0119629607210611
0.1853186998553353 1.7850305888131002 0.0003804404425017
0.1575961085014797 2.0238923193984495 0.0299562648676057
0.1859534024072170 1.7441716867702308 0.0106046481838738
0.1739929719473630 1.8709642738016776 -0.0324655725125592
0.1780885753726764 2.3927992553744919 -0.0012317111023343
0.1815001360382844 1.8656684565613229 0.0066928540607920
0.1858087207105425 1.8226269198250711 0.0252370838951969
0.1788726156609792 2.4325049147815081 -0.0006732411134510
0.1817722279140948 1.8552165168789354 -0.0085567349724714
0.1788917744482191 2.6038074307828487 -0.0288441498611602
0.1812902672933672 1.5065086706966371 0.0161990914212113
0.1793474861805087 1.8900126592916069 0.0255580638046586
0.1824514444690297 1.7998942151277226 0.0095786202586212
0.1881373664664066 1.8675085808013832 0.0653581715519027
0.1821780466570307 2.4230503431632009 -0.0135141208728895
0.1863440452409432 1.6750716051200512 0.0090889248455573
0.1894608958844733 1.7194139449803159 0.0286613182179951
0.1836540872576015 1.7051680729668968 -0.0256064376587353
0.1959744340275878 1.7472939327775301 0.0644879514955631
0.1827221756296576 1.8387964326591475 -0.0309076066580054
0.1790063229120762 1.7920530329326201 -0.0460300831159595
0.1735498928369470 1.9195783958604171 -0.0286348178215262
0.1775703941277757 2.0387776269433364 -0.0060428803969916
0.1847282166158635 1.6530848971748373 0.0086176517965363
0.1813009756686962 2.1926237742073083 0.0111536113262032
0.1851870436835918 1.8565324919769111 0.0358998694465731
0.1821809478065369 1.4634223701014115 -0.0162639616410367
0.1794912968215618 1.9387922009595357 -0.0078351163420541
0.1972473674567706 1.6093195053761549 -0.0027273542939419
0.1786827306752359 1.7905310802658367 -0.0368701691177670
0.1707926698502855 1.9152956979184654 -0.0166707330496978
0.1774919132649021 1.9351601119078279 -0.0180275344620797
0.1917228753271528 1.6883438679484197 0.0132057965755195
0.1816868387236542 1.6188231747609136 0.0168921677345699
0.1819382069166639 1.9219247277448552 -0.0129572403799414
0.1785612890740317 1.9270458746939720 0.0252267954431364
0.1876142134129062 1.7512937125216932 0.0370950942310781
0.1880161693284840 1.6332424873174478 0.0080819865825618
0.1884920992592608 1.6997521524436623 0.0042940015177988
0.1830649302766220 2.2427799816230647 -0.0127617666126525
0.1803418708336828 2.0815864815073475 0.0062542067041463
0.1862154769226312 1.6826211458131868 0.0057710651016701
0.1843383544029736 1.6130303210018235 0.0099686939157637
0.1844483238738254 1.6187627514999110 0.0056746308866013
0.1931711328762208 1.7563814820660812 0.0383730336105063
0.1729864161579515 1.9021142722981097 0.0024414612666635
0.2012916365696220 2.0209721237895044 -0.0248425516833342
0.1768855287809153 1.1595666081938076 -0.0226699202522380
0.1796411437396876 2.3083162729198512 0.0067147944012944
0.1788539816073237 2.0304336804808854 -0.0047570045909450
0.1773925093948537 1.1341640324600795 -0.0048241747591669
0.1861201781414570 1.6838053886421938 0.0075792036871188
0.1834715846752123 1.6769642945811336 0.0154081411159102
0.1969157251064478 1.5440759847501113 -0.0116501214601355
0.1802489360220025 1.9554210037457040 -0.0061057095506827
0.1707033222941798 1.8856454411829644 -0.0117925794477572
0.1844123185167221 1.5990889853967252 0.0055917063505442
0.1857409486534336 1.5453335344875059 0.0119099459255871
0.1787884439198463 1.8809920246020195 -0.0126478825524710
0.1851081720333083 1.6402833676885262 0.0076016943322742
0.2033716601226729 1.7759171951641552 0.0706976933528445
0.1798650678810642 2.4800444284346108 0.0395946891824692
0.1836764959254331 1.8032026607848666 0.0130635869162275
0.1798396508970413 2.5310866769152991 -0.0251137433022363
0.1831880661753698 1.5872375066561122 0.0114622735416075
0.2039096287020873 1.8987969806690108 -0.0137233640042025
0.1925421171337532 1.7386609297557005 0.0175694267878368
0.1813882135097196 1.9432074237747134 0.0000303617324175
0.1803138300965265 2.0106425882300711 0.0005992321568514
0.1834309884134632 2.1280281538781041 0.0089140225989566
0.1941814370757876 2.0111716392055121 -0.0195159814392184
0.2025352866762591 1.9797592651721867 -0.0262415333912187
0.1848544849547030 1.7123165371334175 0.0046116635378169
0.1785339541337370 2.0588887424373676 -0.0040268003107659
0.1802973372275330 2.1240035235915222 -0.0084501853609766
0.1819725475077780 1.8918084519828333 -0.0001768571654904
0.1764801680759468 1.6905786470705257 0.0470827279464523
0.1757199231989572 1.3673274628603482 0.0391723770435802
0.1922698216012721 1.7486168586247861 0.0104532511703424
0.1757778387156514 1.5332056277739952 -0.0108929079767537
0.1606085838973926 2.0383271285998803 -0.0059989399681722
0.1845154547070876 1.7257818929439102 0.0031506885676241
0.1801244246762789 2.1989864863321724 -0.0067251725380083
0.1807846900377818 2.2219618536684016 -0.0052053085183995
0.1791320400084678 2.3043832146500218 -0.0134098125938596
0.1803353466144041 1.4203696900973650 -0.0086500523772771
0.1794904044341001 1.6892199382647697 -0.0463650078969645
0.1855174554070925 1.6747511776190112 0.0083668890693067
0.1769826547569864 1.9298305296102662 0.0263717340635649
0.1819031641008662 1.8106644417372220 0.0137656026865482
0.1839571159185864 1.7058031513259675 0.0136202363597268
0.1876878533493967 1.9483300901029494 -0.0201620435310223
0.1805841244296668 2.1888454367511838 -0.0250891549934258
0.1807089320631381 1.8637407819938014 0.0076038474146282
0.1799216308928217 1.8926222706880333 0.0158617924098067
0.1762801034049094 0.8373382610747748 0.0100201878156896
0.1866498240655151 1.6837606680036816 0.0054610134426563
0.1685011978068043 1.9932063663683082 -0.0221476355254057
0.1750916995113194 2.2164142143352512 -0.0297193811145973
0.1791946952056284 2.0653425364673748 -0.0043983906829357
0.1828292966337028 1.4115451221325301 -0.0130237851298448
0.1936888716771778 1.9493633437441149 -0.0114970692081021
0.1802050648465442 2.0144024938903269 -0.0386360417089133
0.1800220422833843 3.4712508529574233 0.0191351056002604
0.1869857705792105 1.7630535939304872 0.0145972414034544
0.1785547217548679 2.0639617717742569 -0.0043157531593482
0.1887762268927000 1.6443928009027269 -0.0138765376742804
0.1702981332377486 0.7060688472342459 0.0549242439525967
0.1679687026744017 1.8636641734534094 -0.0497885408486868
0.1842943121428005 1.8204229679079753 0.0188259667849603
0.1869847399599004 1.6640176267378126 0.0051984345518004
0.1884821784891033 1.6882333643039451 0.0095881887903184
0.1832882465255112 1.7108978677088689 0.0104748619402844
0.1779963340881837 2.0547570763636505 -0.0048755405577053
0.1804311780453990 2.2614144254814392 -0.0017341784303500
0.1821240167131087 2.7246885047074185 0.0330507004243726
0.1825581451761683 1.7534717273564606 0.0121288599070897
0.1914866182496812 1.7676387081462615 0.0208456197701533
0.1818748879584204 1.6733450102263880 0.0204758273748459
0.1787582327412381 1.7845158204121310 -0.0458839094752711
0.1704517716149623 1.9854831795737562 -0.0187634114886372
0.1785796194074051 1.9076949690028375 0.0152671456873668
0.1847479134391111 1.7837843461044880 0.0078194907534226
0.1800255132774425 1.7895650318326717 -0.0195037437144834
0.1640883078746458 0.6118342575568378 0.1027849100550763
0.1760160557012386 1.8899277436883197 0.0021075158788811
0.1860901367724127 1.7928514573349914 0.0050842216989439
0.1814896447547878 1.8942153586567863 -0.0276334842812855
0.1853272278177487 1.7666132823956799 0.0162344495556459
0.1790369982762919 2.0078512941544484 0.0002532310162365
0.1909782776920210 1.7117185919252418 0.0132469714032734
0.1843614697785781 1.8723898073290079 0.0396823554872997
0.1834641331771382 1.7357750850706180 -0.0004741025855508
0.1769380628827450 1.9515574538255134 -0.0164864928380357
0.1804198799332528 2.0660952654888969 0.0154197354374493
0.1713003138991832 1.9978693426657617 0.0073488242576900
0.1810292114620127 1.9157585581155314 0.0159519134654208
0.1797560270143144 2.2482397911579013 -0.0008743369149706
0.1740807877244724 1.9646597154687802 -0.0090928591480985
0.1616499095186260 2.0196249177671630 -0.0256173025745325
0.1835950878158670 1.8849741388085959 0.0051732846724125
0.1814598158318321 2.0317879747644567 -0.0091524617969256
0.1852379765275391 1.8480115143600011 0.0342705998406453
0.1811717621391138 1.5461551293245830 -0.0118461779495693
0.1790659521626220 1.8413938549191122 0.0326316917755667
0.1770537851018731 1.9531781452327948 0.0268970938279501
0.1820755906946179 1.9181581461707546 -0.0056961938854455
0.1774519874690059 1.8238503260912815 0.0338094068430350
0.1749493886185494 2.1146791225462254 0.0917859452212328
0.1862180942816261 1.7597220898146209 -0.0037063294538921
0.1853101093222585 1.7086462356939296 0.0092102265935611
0.1824870697695125 1.8487234402190957 -0.0084254816106376
0.1822146033233352 1.8847877899706733 -0.0082676201267324
0.1833622476599545 1.8882532822765430 -0.0001882929008192
0.1782498812008921 1.9965021305006989 -0.0087536063379899
0.1731003782594876 2.0345201312314924 0.0088563830744718
0.1777489006582063 1.2884382102809600 0.0051797132034141
0.1785352147689411 1.9245480680996234 -0.0160621205556483
0.1808704843617675 2.1056573869893485 -0.0337178919730994
0.1799772835039735 1.9245436289775677 -0.0071034952787349
0.1727495712789567 1.9850551195651247 0.0120750383471122
0.1809895799964145 1.8373422874655094 0.0141148060580260
0.1850762034370815 1.8131423502210908 -0.0001668226849466
0.1918422715179953 1.9147635190766517 -0.0191780714621054
0.1828783868743010 1.8452114442784673 -0.0009974246271029
0.1870242291323768 1.7442964188580818 0.0088588700666295
0.1848222705280061 1.6867486556552935 0.0192551059412371
0.1845916495982279 1.6938912996975246 0.0044143417999507
0.1836695888149392 1.5992301439539138 -0.0084858299762357
0.1874905515939123 1.6907255026172834 -0.0091552299127680
0.1825463493389105 1.8553821517926059 -0.0208066570982213
0.1872756735974384 1.6686260070661330 0.0059547858554343
0.1805604875560253 2.0388553236224003 -0.0099225418714476
0.1793135750705432 1.9516442072276958 0.0049762229514378
0.1574602225846230 2.0896127947521452 0.0362034096137645
0.1694581504690897 1.8205365092371115 -0.0430716826184230
0.1805676575770553 1.8978829942413993 -0.0160196893499635
0.1744166616515144 1.8255741600377704 -0.0373496129509718
0.1840555066248859 1.9348974982512444 0.0766685310572179
0.1815956375506940 1.6766537642826189 0.0239111896368289
0.1857171180945738 1.8551497924297344 0.0264545797622202
0.1807723991766984 1.7955092110315172 -0.0293085182041458
0.1791613731757544 1.8402512445144950 -0.0265929772111766
0.1813359908022688 1.1527349496944714 0.0164139966075289
0.1823214326295143 1.9328520019200490 -0.0004695387512638
0.1732871149226597 1.9894132667570554 0.0378563524830923
0.1836546987019653 1.7570679552786299 0.0262470860227066
0.1806456313669484 1.6484380695796017 -0.0059728640120175
0.1830908886391521 1.8153256351526128 -0.0078123711946986
0.1753449309538115 1.9668876221229870 -0.0122722100436513
0.1762642823708514 1.9501350207545030 -0.0139604570882035
0.1768521608050216 2.7388495027407109 -0.0130997544616114
0.1785263504761868 1.9474373312895592 0.0134506286288926
0.1869019536149912 1.4441089978457324 0.0058333611232186
0.1841580945111198 1.7701797756631237 0.0084881293561907
0.1856058730001832 1.7568676664488725 -0.0051815788784973
0.1773193438168442 2.0170005643389497 -0.0077268962023586
0.1848868823671149 1.8528386262745418 0.0236497674754361
0.1608458805864478 2.0901448569309382 -0.0222430179894723
0.1795572286993226 1.5317906919122617 -0.0257187987796471
0.1802542935404337 2.3516361549466027 -0.0076653298898031
0.1782723308258785 1.6830350606262718 0.0310777251687782
0.1806838232917016 1.8587478522706284 -0.0148553848519638
0.1726949155930347 1.9798907435586919 -0.0009357449110182
0.1834131315258299 1.8134690685050521 0.0217097775266001
0.1789287346697423 2.4871220264978486 -0.0073577478062179
0.1934405171513080 1.6586146317808681 0.0078573687827296
0.1867504834156091 1.7170154493716698 -0.0086704171554136
0.1826605710028343 1.8124210177776805 -0.0039695487175914
0.1894276318843173 1.7157232900585577 0.0041311955407610
0.1846844843035509 1.7006023703803588 0.0110572171115253
0.1897765302425320 2.0068291885807046 -0.0085132304875786
0.1937528943879271 1.7445157242626592 0.0332073214987989
0.1766722957037843 1.6980982582618085 0.0759978002092655
0.1810628660348438 2.0313480759068105 -0.0220022403524867
0.1853011914778463 1.5122553183073626 0.0197817404590693
0.1739459654514950 1.9797435006884758 0.0015919477973804
0.1792081396246326 1.9686261947592520 0.0062558748062406
0.1743131979965738 1.7991378010370753 -0.0396238986957411
0.1891396307185876 1.5333291448641591 -0.0060412883388750
0.2023710190874352 1.6284676074229056 -0.0034778509405994
0.1830020100492986 1.8031592906910416 0.0144100007552774
0.1821439207896854 1.8472755801291803 -0.0065054297680459
0.1808227807638626 1.8827867632690563 0.0253672525228099
0.1798695827073630 1.9826687182049587 0.0003469564157795
0.1767944713786993 1.9541508779954140 -0.0132969869305446
0.1779908441585613 2.1139011869016238 -0.0438525304900056
0.1810133302203234 2.0030968620898872 -0.0111465515592118
0.1751275198113669 1.7976130699683446 -0.0420154460748399
0.1816135653213102 1.8513694255672324 -0.0085400130919351
0.1818867275864085 2.2694712290176091 -0.0222177576035114
0.1869311974069631 1.6961230754738199 0.0110801037517511
0.1953013855537335 1.7023837464516487 -0.0080593818986385
0.1660100876042717 2.0270772431546940 -0.0057945420014253
0.1799870249590064 1.9933267351210964 -0.0006063354605174
0.1751495865438658 2.0135097701835325 0.0117348441519963
0.1782873441307695 1.8744789355948157 0.0262326538920378
0.1765165391347669 1.9406213073267640 -0.0181055088762120
0.1792185263006570 1.9445773190527140 0.0085511153778345
0.1865553888484461 1.7000554716235796 -0.0211357867961200
0.1752782833731356 1.8966280146884449 -0.0249744963458561
0.1813197821079749 1.7724249407388202 -0.0193029429927392
0.1825800331530817 1.7477708843544999 0.0069844625878450
0.1701448523917453 1.8512873392841218 -0.0084530195065025
0.1811249140896793 1.5627767472522358 -0.0034772018668384
0.1963179019817015 1.6875714185464674 0.0101412329086903
0.1869518845010768 1.7392035511204291 0.0078633577074740
0.1807327040441672 2.0849594080388103 -0.0090702292074303
0.1810168537143496 2.0729040741453852 -0.0023617393081669
0.2018497715385472 1.5940112052481634 0.0067205769618654
0.1862184000973920 1.7173550476119481 0.0132780543138761
0.1795194189870832 1.5680438110149018 -0.0238827905570960
0.1799005362003213 2.1961771999493620 0.0024107264582939
0.1875939868732580 1.6820941899050066 0.0070531478000275
0.1804282791672780 2.3499413279430179 -0.0198957602558501
0.1791579268204579 2.3772216080268680 -0.0317616984367819
0.1869830707591454 1.7884434228880886 -0.0011748424441981
0.1820780059732034 2.1556146304974262 -0.0072968018539397
0.1803556340916753 1.5780633482104989 0.0123294179499277
0.1952093114493147 1.6590034347068294 0.0152652655997651
0.1825834631718062 1.8023832652606753 0.0297880819093105
0.1782511344979551 1.8612757344281874 -0.0183830241797484
0.1864085424329952 1.7394583933511716 -0.0147460554464291
0.1804219986340871 2.0549747632140916 -0.0127088311733578
0.1871394386187941 1.6849582982344689 0.0064327346526935
0.1746834408711068 1.8151268319899823 -0.0075772824453457
0.1832571696228967 1.6050572881454133 0.0141717563830516
0.1851057074465193 1.6997307644446056 0.0007344863092745
0.1806653302486805 2.1151704636781146 -0.0110845478815721
0.1819906403372384 1.9043346974857185 -0.0081741528765151
0.1834973240987388 1.5877155519116741 0.0044949416798357
0.1805484185466246 2.1634866783047917 -0.0059103685004302
0.1809938951892887 2.0927817422574000 -0.0141209149739177
0.1854997334453787 1.6597532770020547 0.0076964685307893
0.1794454539689182 1.8429626085103405 -0.0143880017434819
0.1780802696542850 1.9583578349248740 -0.0022515371578496
0.1721326415655575 1.6489113585240873 0.0011163864570273
0.1790637697950434 2.0318742702088293 -0.0042039874951729
0.1725782450766999 2.0277496909566470 0.0205730349286601
0.1833989642234987 1.7768810373785766 0.0126554532904254
0.1817566915790036 2.0676695560890077 -0.0355773225226855
0.1783311427182887 1.3419581511693746 -0.0224773717671933
0.1817667058101053 1.6342108149490835 -0.0027528687639917
0.1831250857979602 1.6462791418989851 0.0107004923689482
0.1833419685193879 1.7593127701510569 0.0119857868108896
0.1805911412353475 1.9899298904759248 -0.0064423252736414
0.1752269378204961 1.8468534658127727 -0.0343318402499066
0.1748722708762586 1.9698488160040775 0.0264880722060447
0.1754309277245402 2.0257028236429253 0.0026612342689244
0.1799458875298301 1.7248423079605706 0.0300510373307096
0.1791544342033612 1.8120346339534419 0.0332018283714036
0.1743232425276309 1.9607340674204308 0.0252598274351434
0.1805591011295457 1.6457056369890382 -0.0073113036462929
0.1871854985641428 1.7762016527652906 0.0075216655728312
0.1810950896374073 1.9721524185818415 -0.0398359145055104
0.1771742859100101 2.0329422432335358 -0.0015486630204361
0.1799292466289387 1.5409185568422772 -0.0048314229981215
0.1857761976588602 1.7204669113007520 -0.0028868988153351
0.1800598849590242 2.0548471003625486 0.0003955775746659
0.1843016047025123 1.7853840774165990 -0.0062563178893716
0.1854189023734816 1.6447230701820972 0.0081245768341865
0.1867610393116401 2.1128379452067159 -0.0112885130512681
0.1851657831021113 1.7365239965560633 0.0109175633311862
0.1719117598306113 2.0339839329574079 -0.0070118312868116
0.1821377850776252 1.9296001864234484 0.0078182669340703
0.1855841418368740 1.8153343759335616 -0.0034530288221541
0.1804367710330331 2.2224836335524740 -0.0147405749333547
0.1836668067393886 1.7565346116230363 0.0067194232522270
0.1855174353475676 1.6506170482459246 0.0081734950548496
0.1814025809453732 1.9716521265471463 -0.0034595908551648
0.1799218823874786 2.1373623372563548 -0.0017206947904795
0.1796294736061155 1.9826900404570382 -0.0521350603988350
0.1955329259382926 1.6270838974430974 -0.0264405666565497
0.1903972688903645 2.0860149476054772 0.0066382512510280
0.1866407457785017 1.6635729785277471 -0.0229676806063814
0.1805272653485291 2.0725758536737708 -0.0189164137160010
0.1858753203605198 1.7280089797797957 0.0073748039332240
0.1794073213774202 1.5933996126323535 0.0360193911372398
0.1826931063172495 1.9340824334454507 -0.0298991793913713
0.1827764871460586 1.7845986740332704 -0.0182216614113253
0.1791630607805007 2.3611816240123895 -0.0030626455843597
0.1710203584330579 2.0498399302027850 0.0048313284779966
0.1828092265629212 1.7453942201828898 -0.0043524714252938
0.1847705557221863 1.7610702027219374 0.0151878637598633
0.1701116723792937 1.9843462923414408 -0.0065262971999377
0.1862979233622948 1.7483836814994973 0.0087000195560655
0.1826775274810052 1.8619880569871328 0.0022629610223017
0.1776313518651710 2.3225104523141793 0.0078022751031238
0.1812551720058189 1.7608706115578856 -0.0077613679449779
0.1852217500527484 1.7697946777308255 0.0003613882413033
0.1814272240050918 1.9018229004695590 0.0061851133595296
0.1868722205968049 1.6907136144005810 0.0104045214599491
0.1869917707077173 1.7246904891287138 0.0134294694110661
0.1833860420032554 1.8418897850274136 0.0130563692516085
0.1807106447518944 1.9667008607005814 0.0004342291848730
0.1857209862026300 1.6147595608559331 0.0052365383949036
0.1694870553018060 2.0087404471075359 0.0081463326605603
0.1777563523134791 1.9309892176163925 0.0056374855620636
0.1718013610377591 2.0179635901809596 0.0030123481494554
0.1784202437695060 1.9800230710133198 -0.0125228932267001
0.1812593974353644 1.7815568355547096 0.0144111530231590
0.1794388162218474 1.9281283304272441 0.0342728650899025
0.1802115421500412 1.9202980010152624 0.0162709712067399
0.1593408858402899 1.9079019182467645 -0.0472547589074942
0.1868218359821669 1.7473994148602519 0.0124486530422408
0.1810638336729679 1.8290422173949927 -0.0122733238025760
0.1795494051277088 2.0878402121859314 -0.0224781499046648
0.1791165801935035 1.9570225006035009 -0.0086363316399304
0.1807484349162931 2.3232660103436782 -0.0135822842705753
0.1833543051898048 1.8535192442120962 0.0206889429367271
0.1858078256905000 1.6115805821973943 -0.0279613706588079
0.1812863124249690 1.5117087254991819 0.0030288959653042
0.1831907575598338 1.8029634906437644 -0.0012493090035001
0.1916701202037721 1.8924784713470202 0.0626096986931414
0.1868219394248909 1.8136551435411621 -0.0059471822048600
0.1837035033691740 1.9339122247563558 0.0152017131824404
0.1814360226819255 2.3554301421577439 0.0390541946554193
0.1815437842051188 1.8570157008054022 0.0151002381172644
0.1856940835062184 1.7458992182127422 0.0160699148001628
0.1750578058480533 2.1110816476397107 0.0534857169931009
0.1812445568108964 2.0546149066927057 -0.0173707564004517
0.1988969069836287 1.5486664262265610 -0.0116037949041725
0.1802226992983534 1.8000534900192431 -0.0286374699619631
0.1794902685588222 1.9120187225694889 -0.0090826220626273
0.1768302371677163 1.9865897125457235 -0.0103886661231522
0.1872948975726745 1.2352295711527810 -0.0168881406649646
0.1987298219396244 1.7297332773519405 0.0591194761290257
0.1794898383772671 2.1865643433763835 0.0117140057367312
0.1801401700266809 1.8701682275723550 -0.0108130530443692
0.1804130223138494 1.9589012515403512 -0.0007690873811338
0.1753189038551700 1.9955850224753751 0.0227682064678514
0.1800574269654411 1.9489580573330731 0.0240928838848993
0.1843812780642033 1.8535421807115402 0.0288703969812352
0.1827198294094878 1.8083082418727672 -0.0164809427391406
0.1805861202582994 2.0002194259430497 0.0155832045098328
0.1897458979148411 1.7518956525211504 0.0070629531497802
0.1866195252649606 2.0007507765931201 -0.0175575704280908
0.1874004787981136 1.6866294009416476 0.0061295955618244
0.1878054867502515 1.9990769217493178 -0.0052511167646639
0.1822284024043250 1.4786261570968886 0.0187367984890093
0.1830020274534098 1.5453041678893495 0.0072407714525797
0.1820732719852834 1.7665989167110772 0.0022854081886160
0.1926650394939285 1.7357330866209113 0.0180316553155389
0.1823677782309176 1.2515787632783000 0.0087660874300050
0.1906853277031715 1.7187793987803752 -0.0020595423962395
0.1801768274369925 1.8784951449939447 -0.0432247115127108
0.1671891368732774 1.9810062172730987 -0.0138437156361121
0.1802234145715345 2.0001566007897265 -0.0201924752186721
0.1794639185972358 1.6036539533097998 0.0165537216352220
0.1800472340878289 2.1701743619377267 0.0137752796924852
0.1820401650781614 1.6185100757096893 0.0189070922760261
0.1817761944687027 1.8956820959401595 0.0056763787553261
0.1888389637756841 1.7660247092878112 0.0151579500561248
0.1814687313024143 1.9021301714554315 0.0146806660627757
0.1826094487449786 1.8828021576396967 0.0064051591393633
0.1846761237871719 1.7101809829857024 0.0081370749955728
0.1839251444992424 1.5977395878809086 0.0116295443930685
0.1827480632703360 1.6712321421217986 -0.0040327788400769
0.1895374223563493 1.7225100341420980 0.0175567216202086
0.1698578968401175 2.0562363121219875 0.0169805570653996
0.1838090752366210 1.5191785340062485 0.0098912529996976
0.1862247978908405 1.6618896463053439 -0.0120092242275084
0.1708841433147444 1.9029341975637548 -0.0277221729201917
0.1840615284369962 1.6820012957150854 0.0090568616037318
0.1840802936147436 1.7421269216348232 0.0225211949951829
0.1780638081919906 2.3785801013511589 -0.0091050926639503
0.1843507340571663 1.1535762582486331 -0.0011145620813970
0.1813054590020095 1.8780364016449851 -0.0059179120452766
0.1857287194223060 1.6885905804868631 0.0030198762425722
0.1764315513248824 1.9429513829738518 -0.0139761072699758
0.2032604236414701 2.0027951113742324 0.0073384136168350
0.1868129041577978 1.7118349643970672 0.0112907808178862
0.1805798317638102 1.9487670507685484 0.0001161335852321
0.1805877785668407 1.9350814978022537 0.0062391071304200
0.1745147291363335 2.0128997271748825 -0.0095908714649034
0.1808907010652040 1.9445610529170902 -0.0075315431326280
0.1815158845200194 1.9696591080695340 -0.0097032059901840
0.1830354110004720 1.8812479435197627 -0.0054548088576260
0.1779833765685263 1.7655201798839288 -0.0327614045314610
0.1866510755411684 1.7582643274643566 0.0088684226581141
0.1831366228781904 1.6260305737814258 0.0040750092792032
0.1827191767839994 1.8079009609969825 0.0132812092516580
0.1787644539126899 1.9022210789811662 -0.0198004958614164
0.1799831280105161 2.4431026079210838 -0.0153861494673943
0.1830175700945788 1.5896350280053393 0.0065955893390294
0.1943484676321339 1.6857871263261208 0.0043934824965550
0.1825239830222542 1.6234698586993148 0.0157204871855257
0.1815624663278024 1.8870925146879065 0.0142043854118276
0.1793930490157206 2.0419403289314153 0.0241873875069605
0.1958280193599813 1.6974817260476616 0.0171657032897116
0.1828025895060783 1.7962400774119365 0.0043875226080640
0.1798870039544215 2.2318217584959741 0.0008224938641920
0.1812006733409241 1.7958139196025686 -0.0084404356075801
0.1794140819077305 1.4067735586504100 0.0134134577493991
0.1816127414476998 2.2665586328224347 -0.0297104508594558
0.1823021823727395 1.9089295539326860 -0.0154433579323382
0.1822214378660583 1.7685982974903274 -0.0304722372591864
0.1848803205584341 1.5062666284768176 0.0142014973099007
0.1837270412238328 1.7428499339532835 -0.0019737629346731
0.1819502205615636 1.9225582646146417 -0.0076775551052279
0.1896411359918912 1.7517516397510660 0.0067126867601823
0.1805139471384707 1.8232246030259831 -0.0195370395462654
0.1836259436502655 1.8811913350922531 -0.0172850033024341
0.1771639495084229 1.7434571276175295 0.0408646593971695
0.1823828556426696 1.7983153344297504 0.0066037534006776
0.1905646489043551 1.7551011899492213 0.0194052372064450
0.1792446136686138 1.8510764903471895 -0.0180932015549048
0.1873456120394931 1.4437584404544601 -0.0014035819954945
0.1808406930820509 1.7151869899802104 0.0218982178999700
0.1831827393052686 1.8102732598383999 0.0128725466279078
0.1894598632650565 1.7897079885033618 0.0262826081449303
0.1644200195262878 2.0279399293322178 -0.0008080449234492
0.1818026863549811 2.4137761892038778 -0.0221293843193039
0.1785888146648545 1.2851028295966769 0.0002842350798648
0.1767488864373241 1.2476548878254492 0.0290249860129325
0.1816385538235006 1.7284540339296597 0.0003127465924700
0.1781320634181970 1.8997536640171586 -0.0180244212653999
0.1718113238674784 1.9966280699085752 -0.0126140000970050
0.1798642842560288 1.9711321949161549 -0.0107745778718465
0.1770086853951032 1.9178118178033934 -0.0164560333757771
0.1812892181680984 1.5422947736656847 0.0038296116583770
0.1744011344871694 1.8851644327063612 -0.0289529707175916
0.1840721472877343 1.7851665282111953 -0.0073908663069542
0.1843785400107580 1.9051664557931949 -0.0055694929871304
0.1779798924281021 2.2437550474991856 0.0206019738116868
0.1813643087718558 2.7259633026490051 -0.0152613766574328
0.1826996695145306 1.7027047663419907 -0.0308231439714672
0.1858758230704415 1.6689739444495140 0.0057063738371202
0.1837264761568746 1.8568456077473725 -0.0177104438347153
0.1866241939703666 1.3874698408815858 0.0123377981100002
0.1836352614740014 1.7564867445786512 0.0035754715337009
0.1845753685432265 1.7329729144289550 -0.0063220655858684
0.1778525080254312 1.9659722697729618 -0.0082975283674019
0.1799791455109299 1.9214741642397255 0.0268246454659926
0.1810622238963222 1.8874021345061029 -0.0084030807856929
0.1787090435918157 2.1426547782135454 0.0230878256544598
0.1768870458563424 1.9874891434951505 -0.0099135581159331
0.1723719703576971 1.7678408550497631 -0.0499301992587554
0.1852161819677628 1.9363550970398684 -0.0193966318026813
0.1853175381935769 1.7138549503251692 0.0085914508563199
0.1822251423880456 1.6450802553819774 0.0094789313813860
0.1803358607708872 1.9234908534784909 0.0145695591627450
0.1816850192324304 1.9412921635194265 -0.0227380465127257
0.1845020231483027 1.7471048716494555 -0.0039116938331965
0.1817550486898923 1.8232266444694498 -0.0056066488383153
0.1796327707213538 2.2935627476555900 -0.0051502571610120
0.1791769150188173 1.9245142235428818 -0.0055012320551177
0.1545998332731193 2.0756087997173611 0.0205032766395098
0.1813439171058774 2.0875579014684984 -0.0064705916528264
0.1820689016043248 1.8497367531915141 0.0140268047324909
0.1833972073350658 1.7976382338199792 -0.0015919014949224
0.1825454720221755 1.7222921260652504 0.0175763110804981
0.1809428536855774 1.6189525758124697 0.0327918921082467
0.1824522316176620 2.3858910481924829 -0.0055772715773017
0.1952558365764651 2.0460732789705114 -0.0120941664963503
0.1875033712915334 1.8191935261947016 0.0210270783665303
0.1814317811965014 1.9908733419280364 0.0070482503315761
0.1818952377921151 1.5481065415920938 0.0116424950641206
0.1803323483736599 1.4918864061301667 0.0081561748109709
0.1662714027975232 2.0504974665711968 -0.0144578726657335
0.1793337286074131 1.8993577007345321 0.0068661863275073
0.1783590411068564 1.9822839365454294 -0.0048476869880885
0.1838217587466097 1.8178801616235882 0.0003453807637770
0.1869854726222958 1.7018735711850694 -0.0096733997082063
0.1805550955175345 1.7249170189920930 -0.0249923766623326
0.1824178549726529 1.5947989293468994 0.0140130265563564
0.1895930660756450 1.9703876919376928 -0.0153694255853978
0.1842979196867414 1.7205890824833303 0.0111432593739807
0.1834369720111513 1.8017761662436960 0.0038846345038918
0.1818181872358022 1.9260165000632088 -0.0041179347642469
0.1809274047750014 1.9657172991006073 0.0066678921057386
0.1849922636560007 1.7557136661686967 0.0098844732717984
0.1836377811817241 1.8468591486918524 0.0026952838301932
0.1840253227775811 1.7669133635980250 -0.0016732860592854
0.1825262844391769 2.2097721396613594 -0.0245074734565761
0.1825388263547760 1.8430778184583529 -0.0070028702413828
0.1903889891651181 1.7549934240483409 0.0190122339375754
0.1815439307154272 1.9698540460353899 -0.0121243332422268
0.1826002527917036 1.9295682183524556 -0.0048237009610514
0.1885846699225528 1.6576225999820677 -0.0127384429653386
0.1769040153854112 1.9451035774706147 0.0404060416219243
0.1827364942659341 1.8509939465640863 0.0048065370022484
0.1820304064151826 1.8809195298482155 -0.0053454858660200
0.1835576181280378 1.5261518799105520 -0.0149941283721804
0.1752961274671563 2.0286268020597085 -0.0070118994788037
0.1823731895535291 1.3065790919235949 0.0266542216507219
0.1819934109904972 1.8449566532025929 -0.0128212798086031
0.1783816500751412 1.9940919092844505 -0.0105509667332339
0.1803512077887815 2.0069983244115184 -0.0066408900218309
0.1802851424123284 2.0728813432965674 -0.0361697867417267
0.1924613783364916 1.7925840972944975 0.0375921995432073
0.1803464313091298 2.1530805722054045 0.0423089159474699
0.1843293091257813 1.7979125155922406 0.0070916395835124
0.1883202561565648 1.7401420898243940 -0.0066755557271334
0.1828383055694192 1.8469655306727486 0.0235011672593158
0.1822149647468298 1.7987796480044660 -0.0074257992873174
0.1883071201194404 1.6942470599201129 0.0097670396802536
0.1812392593355326 1.8478735856066812 -0.0244267550535775
0.1778842688517754 1.9608884048986464 0.0236447494337259
0.1689785478111831 1.9922300956707251 0.0380293452892186
0.1820566119967676 1.8448951252030175 0.0053417164614865
0.1739715788818541 2.0335222447370582 -0.0003859444288463
0.1787709699820368 1.5518310652130385 0.0301175372744625
0.1745112797669238 2.0297635369932356 0.0012058968906663
0.1951788244963561 1.6810993052515093 -0.0033811653868577
0.1738292001908115 1.9924107054939384 -0.0137357484189293
0.1800889213669892 2.0310795990284229 -0.0095376130181808
0.1705108511873977 1.9168129165461933 -0.0364137403628099
0.1869978367752906 1.8254606984136788 0.0343353662942688
0.1798579747226604 1.7934602244951421 -0.0110622018046239
0.1909918924570800 1.7444667514756786 0.0133829302941516
0.1698483478703006 1.9835260929928002 -0.0118999917262878
0.1672653188929384 1.9637554539510984 -0.0297936553851536
0.1809212456404087 1.9641570533670205 0.0150085161512572
0.1838973792094535 1.7429252135720874 -0.0240137327057182
0.1821311487638834 2.1898903165215375 0.0005023718318406
0.1810029976665316 1.7589333340012008 -0.0130834173354787
0.1730763924383005 2.0357255834995605 -0.0024574248490537
0.1977578805065823 1.6898773188528344 0.0428066568563037
0.1819071309218454 1.3770371542585673 0.0044669469682661
0.1815830040673363 1.8537042342266488 -0.0077165884461399
0.1942126676898167 2.0876971362080354 -0.0080527795569175
0.1837165408025347 1.8274970280110259 0.0022528109681260
0.1669423383710943 2.0354251573946276 -0.0219825499775312
0.1815165031073049 1.5373510970907649 -0.0148032783371370
0.1881468476695922 1.7671720890762526 0.0108634780645458
0.1798791469881544 2.1915008293210012 -0.0076032121290495
0.1843468999460816 1.8190546165559172 0.0014021276908157
0.1812247883129926 2.0947412001949037 -0.0109336286144532
0.1802658170546025 1.8277316096323799 -0.0239338196121489
0.1803474204542764 1.2818229654433160 0.0107734494348112
0.1785477697945819 1.5364014692573011 -0.0282840291592719
0.1821215303655401 1.4906751317336224 -0.0059790092386946
0.1818361402683618 1.7690593529556007 0.0025646682983551
0.1806895254206745 1.8875021746644296 -0.0080219355975763
0.1849425839449322 1.4728594404140909 0.0070186985963370
0.1781100422772658 1.8777180324016425 -0.0238867549973196
0.1924692729708223 1.7377045822741006 0.0110331595339736
0.1951352832785986 1.9227349043380946 -0.0130527749876234
0.1826862943389119 1.8781425567727370 0.0251593432335798
0.1802830880484378 2.2166245622233474 -0.0103786296562777
0.1793701380827936 1.3371442282072670 0.0147943865935660
0.1850454874232671 1.7593846254987939 -0.0120565584514463
0.1812961897686846 1.9076310885188774 -0.0126602752668077
0.1874325006545292 1.8196158751635798 0.0313958731137447
0.1837519058847433 1.7365547530212460 0.0121448772000627
0.1817055044174687 1.7451017876858601 -0.0170187054991834
0.1808591724348144 1.9346616820165985 -0.0056232555767885
0.1799024094173149 2.1916421440776115 -0.0110343241843357
0.1936491047762209 1.7494658884700220 0.0254157557473838
0.1825084990923758 1.8489889304322475 0.0135630754358430
0.1820742662556169 2.1837431634962376 -0.0102948555461503
0.1890379371563308 1.7522477811320767 0.0124396891260804
0.1819772253024443 1.5522289242964680 0.0277587091720875
0.1800059267605751 2.2036450509390884 0.0112268649875786
0.1795744082288654 1.9974725090732079 -0.0099262958508352
0.1809808163101219 2.0340020008391275 -0.0075695102655166
0.1809801586488351 1.9747914354465581 -0.0052812546193531
0.1769557634812879 1.9830881095670487 0.0005628521694226
0.1747911555516644 2.0137437919231407 -0.0102687034368698
0.1802620731746878 1.7780636451208540 0.0243457260286424
0.1578251777298071 2.0959160804266666 -0.0097126787611638
0.1846596834306698 1.7459883714445592 0.0124499653888524
0.1781754155231430 1.9602405316875762 0.0150071435188892
0.1868721068104152 1.7781040599669076 0.0180828773793470
0.1800662759575082 2.1722596609056990 0.0037511770992631
0.1823998595862647 1.6550726518627208 0.0053494892300632
0.1739001607499530 1.9406412787418439 -0.0101190356236295
0.1829177143335725 1.9168051171441152 -0.0122302344147712
0.1779112718810830 2.7437481466906428 0.0005365059283955
0.1779324805241818 1.4535162924443110 -0.0156642426511337
0.1691603281876813 1.9886658933646115 -0.0211683456289919
0.1842395519765756 1.8466092491728341 -0.0047968436558864
0.1784737345841681 1.8652732933264202 -0.0311463794398291
0.1842051055701243 1.6570062264451129 -0.0302301877826734
0.1820477250353756 1.7579340086361837 -0.0047922714394481
0.1748598130495075 1.9799840238363255 0.0455388516364776
0.1816513226432628 1.9546975341170363 -0.0059269382635067
0.1797296762400181 2.2357039540686312 -0.0380224404906022
0.1801525448243984 2.0027819951573287 -0.0067239856720521
0.1852561131045511 1.9251893620504479 -0.0175730848174703
0.1687512188843748 2.0119105251829335 -0.0282850516050448
0.1826595078340793 1.3961741422819893 0.0123022422384801
0.1712202910778317 1.8763217633844780 -0.0427269509430559
0.1774051541946923 2.4320299127835008 -0.0163222777811621
0.1800973084296862 1.9710785381134244 -0.0037952314291465
0.1806531745385677 2.0250702256631845 -0.0066753738745636
0.1883931835537184 1.7420817280910090 -0.0060504037144979
0.1740025848272695 1.3102289027955725 0.0634465904080165
0.1943096224338774 1.5780138250368994 0.0078007632841682
0.1794600001636522 1.9826608768023462 -0.0073063893081654
0.1799128032936706 2.3361502957942366 -0.0158129777517301
0.1782533436923518 2.4593140006114851 -0.0082543423985020
0.1805541558784353 2.1489596342540351 -0.0301315905398075
0.1738104496406030 1.8850730370772375 -0.0337450363978367
0.1777081473699456 2.1736716590543876 -0.0298504275966212
0.1799741956566350 1.2315294807180901 -0.0076509878784870
0.1773947712354170 2.1367112094323621 0.0470426065333873
0.1784406081196906 2.6281848240522083 0.0119180489928996
0.1634024963605505 2.0702235034425729 0.0130643970054962
0.1764905230133688 0.9702923917167644 0.0313303538592982
0.1787686313889881 2.4597979696321506 0.0202037074647232
0.1707287736233178 1.8698940025523594 -0.0380159695470626
0.1774658732949345 2.4739305387150021 0.0446610182431758
0.1783073800841893 1.0859592561171587 -0.0000700608979954
0.1595900642418151 2.0892954255367289 0.0027366933672390
0.1761022651406356 1.8023840037292542 -0.0388925903757002
0.1815393642571660 1.6489832559613373 -0.0309627171449934
0.1673126519664332 2.0363686107371448 0.0436083279669279
0.1773398538883017 2.1214946794044454 -0.0345328822268690
0.1925408658782304 1.5936695826305780 -0.0017147413654507
0.1712101133776209 1.9132082417149909 -0.0333909847903667
0.1877713184009156 1.7094125402471034 -0.0119295549314438
0.1831034347447839 1.7162706508784367 -0.0284873093628142
0.1721995839638238 1.4394902005203036 0.0752808624738637
0.1876890590124104 1.9266936792662397 0.0726062537975150
0.1779888451285207 1.2853211298732974 -0.0055808909112647
0.1799196141943747 1.4158663227061021 -0.0112806671235798
0.1891937869006343 1.6870463939933122 -0.0068815973499661
0.1774104500598575 1.1925582774323573 0.0194338928509501
0.1864002889721169 1.8252424239037632 0.0373291396958081
0.1931355388506336 1.7384675876473390 0.0279067239744211
0.1764647989887642 1.5270280903111193 0.0396502216442672
0.1740277887573677 1.6631601910528466 0.0469446460899829
0.1700226880443890 1.9427658567831416 0.0224320839458234
0.1823825639182627 1.8845649954165429 0.0442663543023971
0.1770982233503758 2.2796390657153918 0.0238658562434126
0.1629469054860407 2.0133932332920863 0.0180490266421538
0.1779004038416612 2.4477256240629477 -0.0377808018939426
0.1750673111388860 2.6469980277490506 -0.0228994543265907
0.1751740760017244 2.5774362152911174 -0.0124394286994976
0.1598286372262718 1.8984983382021838 -0.0459073696245481
0.1577421063206855 1.9986610088371437 -0.0212830668552789
0.1722775818247840 2.4386146814484007 -0.0454967877272547
0.1957450450979220 1.5602514983374309 -0.0015690089287781
0.2046020801604935 1.4181182658156015 -0.0421144963391538
0.1679606118606945 1.4975672702879190 -0.0869614279842608
0.1605362822675965 1.8579982873895113 -0.0524673124819283
0.1851842252789464 2.1294038171073550 -0.0371253423931538
0.1698530090372813 2.1631431769078384 -0.0693507254244691
0.1822788627813516 2.1061561548306176 -0.0794488856028074
0.1855575538316131 1.7946659267455156 0.0189562881463091
0.1953427805137315 1.8045172544176460 -0.0403734699464563
0.1889013059932538 1.8983721936054947 -0.0053107109251573
0.1870513605962655 1.9298085869336035 -0.0080357838015057
0.1886498522718789 1.8208685369688089 -0.0029209579357209
0.1834377007158770 1.9093707614515791 -0.0066104869491907
0.1901912799448334 1.8272803435217591 -0.0024811412344139
0.1828094832930079 1.7784678945677894 0.0001323178038611
0.1870815432405704 1.7391984751447218 0.0018483362702804
0.1881211381650081 2.1346839338060013 -0.0588582615619452
0.1224530530577905 1.8692550129042400 -0.0269552510651106
0.1830369551701922 1.8812984530853443 -0.0241520478465769
0.1746504413814847 2.2215962761105472 0.0555089004019138
0.1840606190855023 3.6165484689984964 -0.0421236719677424
0.1881770020643325 1.7646672548437161 0.0013792216649623
0.1870674435323464 1.7870836963982644 -0.0003249080510187
0.1447603575952321 2.0509809952749962 -0.0524961914389091
0.1633080781909403 2.0874476066594778 0.0514307989300768
0.1871747120756879 3.4561368297126385 -0.0317626001239462
0.1520418939561544 2.1570907768587939 0.0401864347814411
0.1769444727022201 1.1787023887194763 -0.0191502494849794
0.1979854751470199 1.9614617335856277 0.0908736226780807
0.1441596994679376 2.0006585855573014 -0.0787314840663945
0.1963939858657732 1.8740973043315337 0.0725731655833917
0.1788225613415608 2.7121661220272086 0.0519978821093452
0.1636762302253434 1.3687717050624055 -0.0778409918861315
0.1651665738458161 1.5947947168121421 -0.0741013762465544
0.1713124900554538 1.8793291396821987 -0.0053902817514565
0.1902257536200915 2.3906547010244612 -0.0360694917181112
0.2103876050921298 3.4371482813281746 -0.0539637123102743
0.1973935448801275 1.6932109330220866 0.0524697100162068
0.1699840009150947 0.9533844487329879 0.0921801862254672
0.1759446222590580 2.0904184596479034 0.0283971584033467
0.1741856389989337 0.8281131604839778 0.0392898962747487
0.1755790719867418 2.6324200010926324 -0.0232565913267898
0.1835326872196496 1.8494395002095401 0.0148549702034415
0.2036783912781269 1.9569135525056205 0.0166741180937731
0.1816577061207631 1.9846071241987795 0.0166195843813372
0.1942519570807026 2.0144981578010785 -0.0341293025338682
0.1852427369771604 1.7711090799372284 -0.0243710375567897
0.1827545599309442 1.7766470079636834 0.0099014810081050
0.1834325149858778 2.1409582045750457 0.0343952896231825
0.1778203433599820 1.4522549934376872 -0.0575334716524320
0.1789205209780447 1.7464232855486450 -0.0567109998050170
0.1613463843861357 1.9433736225307621 0.0209321497050930
0.1515416413210119 2.1381770458676481 0.0282518880731540
0.1927938527905878 1.5982259211964487 -0.0120440016970908
0.1738736685152088 2.0403970918708283 0.0151537448975348
0.1730486683613531 1.9381606292118343 -0.0119827256136988
0.1695660686762132 1.8043981399966977 -0.0307611391622519
0.1793867689755708 3.0213902532050585 -0.0207131040346277
0.1594579567533344 1.8549779581432870 -0.0618688299105351
0.1699791719383772 1.9870379456756555 0.0173982927802047
0.1911081259360016 2.0116076532025722 0.0088893679202993
0.1645160495169284 0.1451756536172932 0.0127796715467779
0.2426835442097970 1.0767964583692045 -0.1542585577998737
0.1877542246862379 1.7444676665866308 0.0214734790636298
0.1422246658775826 2.0297488269898540 -0.0374734597955186
0.1764541334474509 0.9879318020721386 -0.0106904840653634
0.1787225286513414 1.8867707806103307 -0.0352221061979000
0.3897628454457576 0.2224125439291240 -0.1196355323210661
0.1660760698241290 1.6050137279540804 -0.0747078325331658
0.1723710887795886 2.0057828137384317 0.0157970367574774
0.1744250799605609 2.4615272960681631 -0.0084040853597620
0.1814979908291128 1.6383116327276603 -0.0567629347253041
0.1735751835538439 1.6097174122299127 0.0501790254766357
0.1975051471041720 1.6003783541464220 0.0517627523675395
0.1770936389253268 1.9219864014730086 -0.0115554719163976
0.1736961676199450 2.0497834047149732 0.0264441234748602
0.1596812997549878 1.6689729875213208 -0.0707493786921578
0.1817753013466219 2.1162589891107983 -0.0181667479047872
0.1803688949725975 2.5315186647928223 -0.0670872489143642
0.1712691723134997 1.6633188524317275 -0.0330779832113292
0.1548510589378374 1.8321100775566590 -0.0515023338467553
0.1537967908226872 1.3936433696778270 0.0185578367154435
0.1795256919112253 2.6387854160500508 -0.0184367114428712
0.1618759778936989 1.9720485395781957 -0.0079655319966726
0.1782298049649712 3.1708136302718746 0.0272724031128836
0.2597665583219147 2.2118192932105067 0.2183789045497042
0.1543359017157104 1.9981835563272112 0.0177592186768905
0.1574157256333518 1.6613720459364996 0.0067016008844953
0.1927323252158503 1.9108675945795930 -0.0285321073026815
0.1606094127332025 1.9718104148043767 -0.0157136525164111
0.1766709732851671 2.6213589845032352 -0.0354418938227030
0.1976275255227258 2.3183460754621934 -0.0292345254649417
0.1685621168932889 1.7739969783575791 0.0276677076120969
0.1714844843438736 1.7962195746961123 -0.0352399044988158
0.1805479446807806 2.7120800953284938 -0.0565460312720513
0.1541626956484402 1.8695572395182136 -0.0431684604919458
0.1672801939704441 2.1663820618918455 -0.0701766595303157
0.1845409160425834 1.6523263056847957 -0.0423986168012998
0.1687018986523497 1.6137537646366558 -0.0305614935081557
0.1606521921845813 1.9468893665505682 0.0522531070303582
0.1733406721391871 1.8272137810832196 -0.0308868133464123
0.1673994315309933 1.8864643358366275 -0.0253221730505467
0.1768135999501119 2.7905084565989458 0.0156144130640166
0.1382051570109619 2.1815384260088448 0.0090689272472418
0.1828037573896529 2.4503695494755990 -0.0085218677619842
0.2014327656220040 1.4813719687547784 0.0100593103181475
0.1655027121874932 0.3159816426849829 0.0800294107611537
0.1570170315893228 2.3460272643220899 -0.1443512024265654
0.1777024626615019 2.6844478318095466 -0.0072472430231589
0.1706273196873230 2.5959530287708712 -0.0421953370244199
0.1533304121594004 2.0396647668750951 -0.0184186817175512
0.2111996381784769 1.3747632520348940 -0.0727819647087722
0.1292715532684181 1.1786538656758063 0.0421787098206694
0.1804035195937425 2.6289242696193611 -0.0513173994467107
0.1557236513369837 1.6331497221090390 -0.0710269712021787
0.1953800626599325 1.6533090625118834 0.0260151304240496
0.1670595095029994 1.7610141624681166 -0.0336400008641036
0.1656023367357007 2.2548508772428972 -0.0645037968791498
0.1756075275437859 1.1545553159979007 -0.0045987432918579
0.1937448884287020 2.1840684524096550 -0.0045217175821453
0.1752062589255037 1.4843880251219381 -0.0519743331117857
0.1576015776055078 1.7058459338438992 -0.0694869539153868
0.1747308161755841 0.8946758576426398 -0.0065632567590939
0.2385390630362415 0.1157406693147515 0.1038479017742227
0.1678028829606902 1.4822157052271228 -0.0331091973753799
0.1945635147567545 1.7679075163729396 -0.0335811637331587
0.1191445314708641 -0.0829023827845919 -0.0746346433550163
0.2013599953306832 2.5679960944776923 0.0501433458991276
0.1678136141054407 0.6845290331120442 0.0741109224383722
0.0935023388040688 1.2736046107548982 -0.1250799922739173
0.1805624149473232 1.2337794823171748 -0.0730761782403175
0.1833106949858693 1.8444512558861030 -0.0371383809741633
0.1714415803612357 1.5561204315884898 0.0092271013608731
0.4112121594295168 0.1994566864504670 -0.2561797559992246
0.1924255101022971 1.5688129319522184 0.0124755855991026
0.1844893735763215 1.4688675252381600 -0.0200657585631279
0.1848352452708105 1.8720675797785042 -0.0338000015676906
0.1908935907520677 1.7111273196715764 -0.0205404903396253
0.1991413123230441 1.6932976709555738 0.0137201101844195
0.1847009774362912 1.2763450048484715 -0.0130898938403821
0.2024311827245391 1.6959103709451890 0.0265854821714075
0.2000691596796913 1.6375971259195228 -0.0065108066745147
0.1904742738159677 2.2879412011708613 -0.0293366075090891
0.1859623180485626 2.0077579552334299 -0.0346408591002536
0.1207570680979875 1.9013929141706571 -0.0381606901595489
0.1846386742566671 2.2948898836569525 -0.0587191589882177
0.1617366817147914 1.8831485206447154 -0.0358868441493469
0.1767766737247052 1.3091663017030464 -0.0111637477135323
0.1772431335058654 1.6327650470041319 -0.0333397469107412
0.1741229867458425 1.8962636464393601 0.0179613149960320
0.1777035221612230 1.8207210419402919 0.0291911252117594
0.1503377731594641 1.9080864580357719 -0.0401990588111835
0.1142434511496896 0.6376210634525883 -0.1327622752340168
0.1731794550561058 1.6579144384350593 0.0002981579846351
0.1637961024107758 1.7096457388023716 -0.0322334059071561
0.1630854708249573 1.8067414587340827 -0.0623216405243104
0.1901579148386464 2.1454807242921317 -0.0265471440376830
0.1582252382389813 1.9877985292867495 -0.0321080699335407
0.1746121407343354 1.0125236587231168 0.0038425772363138
0.1725895645820175 1.7450258002293564 -0.0597128455479615
0.2084548385180735 2.2957445877570506 -0.0468111957545901
0.1607119795564719 0.4965019521574923 0.0293135777222163
0.1798663463759240 2.3410609889907201 -0.0187767088351524
0.1888182605511626 2.5818328094976608 -0.0181798551713224
0.2002182054899801 1.6408286509854526 0.0321071723053012
0.2031427605471348 1.6796722839848566 0.0506167343971879
0.1893907537614695 1.3525578979053290 -0.0584291199927378
0.1676089808578455 1.5801092465184954 -0.0397508531837580
0.2205929768536365 1.4465580535700333 0.1408090989870729
-0.1261912363091499 0.1152863597879180 0.0751077974182475
0.1089381602826264 -0.4162455025071369 0.1528038047667521
0.1417051496831108 1.9140896067557283 -0.0645894838091810
0.1633602331838336 1.8648965305809562 0.0146461392329863
0.4468275345790555 0.2203913171203661 -0.1058613840092063
0.1745329635829498 1.8889907664817647 -0.0241446612940124
0.1529799825427907 1.4019345767721632 -0.0284545289585702
0.1520173815385997 1.9271071659572281 -0.0203516641873045
0.1797532097936308 4.6108475945757030 0.0653405073942553
0.1907926069027488 1.9532473946397597 0.0156777083542509
0.1948799903059706 2.3270075077671786 -0.0033316308284601
0.1836968173851561 2.0370608740016407 0.0152508641321260
0.1793283761396239 2.1790603905600467 0.0004743170619994
0.1818430168935773 2.0455096591633763 -0.0342546886549252
0.1879873163232226 2.3871141901529245 -0.0255021834536895
0.1742710919398938 2.4920114587885043 -0.0335566659604059
0.1845420770801988 2.2737420062454916 0.1935732918303511
0.2463328204288882 0.1023344310703034 0.0246645997270947
0.1557635965677711 1.7388299830081642 0.0448680582857965
0.1820594461240182 2.4529388534822356 0.0232006452528158
0.1166627917406521 2.1585342847740514 -0.0816212583833582
0.2543720902309716 2.7502948466405139 -0.1314783509435477
-0.0479870292197460 -0.1175212531529815 0.0028159915621269
-0.0703931728462313 -0.1450027278336622 0.0148055285014431
-0.0714235445966531 -0.1366705128530860 0.0141708549041634
0.1135368650140256 -1.8093979832847404 0.1377741779413821
0.2058631807066792 2.8867214757299027 -0.1993156665368459
0.1798256993017170 3.8060838164196129 0.0064195401090733
0.1866361605609955 2.0635999138507408 0.0224137009812186
0.1847809329464914 1.8807530251988227 0.0120094866920223
0.1965635282213551 1.3402413866249865 0.0582581437689139
0.1813816889611443 1.2180795682624737 0.0054950412639072
0.1797432801401350 0.9490687263485174 0.0302951561941127
0.1803902583614058 1.8994776406112497 -0.0286251903260508
0.1682279034228188 0.5941154710324534 0.0548616295361980
0.4327305671150168 0.1883823170083919 -0.2774935821270796
0.0994191754525313 1.2783420372310985 -0.0075371522293413
0.2027066594437957 1.7499139135757771 0.0953942946303033
0.1928099606573436 1.4868789287502311 0.0133095008402659
0.1787994223375553 1.7158957964195076 -0.0329061977002548
0.1711492646738815 0.8128527998692950 -0.0201635654761885
0.1027144958673902 1.0331930846252808 0.0637099240652202
0.2563882295803104 2.2362198921859404 0.1861038572066403
0.1757560059849892 1.8260115899911800 0.0313167465747824
0.0870412458552085 1.2807758341765698 0.1269590937015085
0.1647153676885058 2.4011164365391124 -0.2435562817499210
0.1758742370501953 1.5593280468632729 -0.0383483897668123
0.1122364870235686 2.7744453637738293 0.2127961091129157
0.1623840843021648 1.1117355487213982 0.0630666757019795
0.2136556278274923 2.0703546500536802 -0.0485175629335720
0.1758583525940262 2.4001537211306783 -0.0550364854669536
0.1710925037441805 0.7463715734429789 0.0106578670501283
0.1029191786193941 0.0339271424632763 0.0991306674479972
0.1464385761062145 0.1370667015504028 -0.1639561184118611
0.1256615104343670 2.0076476781734485 0.1859829032154230
0.1666659405880373 1.8136589021644818 -0.0578859416458004
0.1457377246838047 2.1402213492917044 0.0291937330644688
0.1698075561760865 0.7593773959435426 0.0558582497304783
0.1877212419122644 1.7756455978877033 0.0461909028040874
0.1765695583920029 2.0562895090802709 0.0319918523457758
0.2537731155657285 2.1303633495958771 -0.2053928132526785
0.1209711315030770 0.0209511894591152 0.0076465429131763
0.1733097009312019 0.6752726874385573 0.0344012669831481
0.2960786075302415 1.6826837077480528 0.0975895530045264
0.2553222743746724 2.3066298667077243 0.1817697105933829
0.1979686970920737 1.5770627841736913 0.0045076465440814
0.1752571564267805 1.9372850960568442 -0.0504726524080609
0.1704972159369323 0.5103295249082865 0.1077847731643162
0.1759150932137760 1.4360123443196526 -0.0325319660169681
0.1999173399375152 1.5388239955294274 -0.0389592029783294
0.2546761656111322 0.1423180670289608 0.1567676630372029
0.1774616403190701 2.2186395251909774 0.0007797669723829
0.1779314923456487 1.5108948425463231 0.0002351290384912
0.1724338193313196 0.8580403535265260 0.0147058055905014
0.3973112961942583 0.1579920619983665 -0.1590745667013525
0.1656460305387937 1.5009393101704034 0.0960365946425908
0.1622198910487332 1.6513128648161131 0.0450985581385711
0.1793403457976391 1.9111560598850819 0.0164395251270470
0.1672402741342605 1.1561719215449646 -0.0671830981025112
0.1772273087713520 1.6773985778245006 -0.0767269812366568
0.1921035456382801 1.5749223976639906 -0.0221131703237979
0.1168948622752871 0.1967872476782381 -0.0314467331579297
0.1774442099504971 1.5097004961215350 -0.0754618711499025
0.1551751030002768 1.9757792642677368 -0.0460577306209840
0.1987497341876001 2.2741611511480246 0.1391693430586403
0.2178990244441623 0.1058682996680315 0.0530036569702612
0.1705896242424619 1.9725424551559474 0.0177507127213603
0.1778248323404158 1.9074082187623560 0.1435746437714720
0.1725815867290605 1.8582157963245505 0.0307968442469321
0.1628092553639861 1.1679042736939884 -0.0208257025946832
0.1990496865094719 2.1440571195144336 -0.1671031211452135
0.1783434028300161 1.9788145288200163 0.0774683281413000
0.1791774206947598 1.9164140110551171 0.0178018284187108
0.1657579187256562 0.6632896413065424 0.0701886007685542
0.2067145144862290 1.7998946672968144 0.0776395523728814
0.1596607017213828 1.4923042094352179 0.0093560955842441
0.1518765768254994 2.5594560245130880 -0.1975467641407684
0.0677355641516882 0.2008108038213031 0.0511111143774054
0.1620763872306092 0.2464918123618992 0.0295402675518360
0.1186970899125413 0.2012436455852165 0.0262342271502991
0.0842066035429024 0.2456491541481904 -0.1516004476282119
0.2305105069589234 2.5757617624838662 0.0526293038959608
0.1715861391887905 2.7381274800215167 -0.0192862445788837
0.1645132415552094 1.9539876732420933 -0.0046062171046757
0.1957694871323339 1.5446766249197053 -0.0292917125510783
0.1785635356101332 2.2307648698716802 -0.0604486548912004
0.2427340127860780 0.0728610054940233 0.0515520439310502
0.1700256427260532 1.8767373951626152 -0.0835172612548745
0.1723664539098542 0.6575248767343457 0.0071096964610049
0.1179520399847794 1.8033550213983398 -0.0771942656556110
0.1467804381451890 0.7315047400504183 -0.0630330862410686
0.2885860999450262 0.8834639317353022 0.0037798620592182
0.1610830655673398 1.1847128677367371 0.0635971354931521
0.0960127758817556 1.1783472373020074 0.0697708835049264
0.1541149427969637 1.8345938659002925 -0.0913505565661879
0.1327898604838514 1.8812084600462433 -0.1399650148055593
-0.0330722592699125 0.1230952166075759 -0.0558756860742661
0.1994642897319072 1.4422410012384927 -0.0350166663164402
0.1602543660458514 1.5227409730789918 -0.0372219586330180
0.1597455200146335 2.0243974381109933 -0.0330133553455848
0.1486351405114227 1.4762113908388959 0.1512365562535923
0.1736428630524045 2.0852260057851728 0.0194753802412497
0.1136452817848431 0.0397904404682295 -0.1022188646748019
0.1728725775073054 2.1407298186308972 -0.0326739535257852
0.1869916866952638 1.4222968947030912 0.0513432247207112
0.1823021484554510 -1.9744330532059207 0.1060013803131388
-0.0261347798545507 0.0549793514295301 0.0196708148663543
0.1761997528264636 2.3679706089198143 -0.0155057204292774
0.1529394756547621 1.0356713906523081 -0.0343524607770551
0.1398717420294662 1.4397756977795722 -0.1674453948833899
0.1650177283960525 0.3495110056225736 0.0150646868415040
0.1048067017548030 2.0903807729147257 -0.0672617809944826
0.1869409526946064 1.5246687031539181 0.0317788705832338
0.1528403368009254 1.7497854211989241 -0.0726916162188905
0.1820187740088978 3.1823434935091619 -0.0757347078309133
0.1720525055288173 2.3342797129084691 -0.0025168426102577
0.1733765200988754 0.9062516211568378 -0.0038075595891138
0.1795285047652730 1.5029366277745102 -0.0465347376880221
0.1790502733852949 2.3253273280696751 -0.0506659284095842
0.1793471150928691 2.3782028355234308 -0.0405790154283627
0.1592913663625034 1.2662388118292205 -0.0399304512457819
0.1846202012600457 1.6056359546997947 -0.0291358780634055
0.1666226666794351 3.3393700449962869 0.0452039255186631
0.1755117004670479 2.4543504165613403 0.0050126789648941
0.1774842199385963 2.5091147769915256 -0.0155873388605158
0.1801236051318854 2.5955018745943672 -0.0805897024143751
0.1645756338412210 2.0982120852112973 -0.0006553846681444
0.0980680743777713 1.2394650134325096 -0.0558066662556331
0.2539914669705870 1.6569490829877300 -0.0274458976931133
0.1710347441404797 1.8279863067041964 0.0808043485115161
0.1796521305418407 1.7881452766412758 -0.0351904225525315
0.1696627504239147 3.1150288793132264 0.0822938764833376
0.1464591733329404 1.7082736727225130 0.0416193864519784
0.1821940240417010 2.4395069120981820 -0.0476483222790031
0.1964839190712103 1.5450611017304556 0.0144440118978969
0.1655534448345866 2.0248231329456314 -0.0237614627211765
0.1286311606440857 2.1855896650281488 0.0118650385579887
0.1670967878191397 1.6682115911206983 0.0231914918962900
0.1990798179452868 1.5612657061944264 0.0301147963860878
0.1692361260582133 1.9385709972218743 -0.0078574800819731
0.1818209843864383 1.9252324080762657 -0.0217432655219768
0.1755169331467794 2.3427763761077580 -0.0730366800789835
0.1643187553122949 0.7285622853166505 0.0834623051592529
0.1391160787118180 4.2839451032946654 0.1036313812085760
0.2316811544761579 0.9304002740972321 -0.1606152160122894
0.1875720990049489 2.1579782315193099 0.0113876154483116
0.1702921328998848 1.7012566277701624 0.0321793288987787
0.1745701544213286 2.1086362795268605 0.0171895346654312
0.1803914493026559 0.4738924037071705 0.0754943259337521
0.2003552701298318 2.3476267850481483 -0.1527288932814401
0.1084237031190979 0.1359347328671725 -0.0205799438992094
0.1672678468327537 1.9075587403882710 0.0283729263938310
0.1627545660116949 1.8932195262434384 -0.0436167886932637
0.1671144007689068 2.0272038716919902 -0.0146868447696808
0.1619177204947699 1.7803414016385755 0.0254825806990595
0.1781460965002042 2.3404254903372248 0.0287299617123130
0.2377842826153846 1.6667137101494496 0.0228008740598632
0.1724211768082974 1.6271481843679900 -0.0277559481111588
0.1864379637455693 1.5584225028842100 0.0343373160471850
0.1670869894552345 2.5020626831624950 0.0629947579263675
0.1723392875209565 1.5663196579165453 -0.0393876753795927
0.1958894045503922 1.6346210944448341 -0.0575063292752434
0.1781653751826538 2.4878591270302768 -0.0169079873330193
0.1957492837549775 1.6045104419834619 0.0075030836819423
0.1736929268111875 0.9270289201914420 0.0354173574221688
0.1912847293759044 1.7479260260921325 0.0347487369735672
0.1606396895477553 1.4097983042318449 -0.1000366439513648
0.1006302815035523 2.2391201261033524 0.1952862612462207
0.1746872860119818 1.7692103881567858 -0.1232013842471411
0.1687766875155368 1.9418402959448569 -0.0355294941273951
0.1648566718880686 2.0283821788010630 -0.0147953398114192
0.1782998469068619 2.2398476693737024 -0.0443128621446334
0.2266067326044729 3.6205870630423704 -0.1616518189964241
0.1721723542064144 0.4937133704805403 0.0056020182749333
0.1744732169373010 1.1800561046621199 -0.0291881476728059
0.1876413866086434 2.2290391090176782 0.0082976115404659
0.1920689340712549 1.6496832689876277 0.0701735216708382
0.1802366415834364 2.2573704453571546 0.1065649156477511
0.1544203559364544 1.3958384031938114 -0.0865879194181076
0.1307698355595266 0.4574939542788058 -0.0448618801740771
0.0547051201058183 0.1167130599992108 0.0487224636601141
0.0933426053133699 -0.6263792285200858 0.1701327725089750
0.1791702523620237 2.5673088248539213 -0.0601325648906519
0.1754873819007677 1.3050547529353245 0.0112941765021949
0.1572002412462093 0.6387683468702680 0.1705001487057625
0.1772605913266119 0.6498266511970665 -0.0320035105606010
0.2004068643762043 1.8621517709293458 0.0085179855507311
0.1783834708745497 2.8573055570729973 -0.0481214666049527
0.1338726511268736 0.7562016122753762 0.0462666482054366
0.4728318669149779 0.5036523798461916 -0.1571572226658852
0.1481335825327309 1.0123303129459529 -0.0811215952562364
0.1683105433075950 1.2276134033857486 -0.0671460313090699
0.1335017286197716 0.7337544991238738 0.1910202997856615
0.2225047802478179 1.6399008883429373 0.0763742925462063
0.1271263976850694 0.3827886293452329 0.0047493173751182
0.1795068339153350 0.0807206410108634 -0.1813061417189662
-0.0737819542451661 0.2360629463669721 0.0493757920100007
0.1720258203176700 1.8532804905161593 0.0148125862099131
0.2108541523024726 3.9293706388396412 0.0528441058592371
0.1315981307021039 0.1632344824484754 0.0634668503936911
0.1667470195149516 0.6684335966323007 0.0288674446769480
0.1753284685754987 1.7501272517089506 -0.0067666828529436
0.3216113775898023 1.1665370880710626 -0.0704620067953691
0.1554939376547179 0.8784625268483990 0.0627641808209533
0.1511180557597200 0.2045200945177176 0.0319648783653346
0.1091842112077227 0.1996684172309163 -0.0588049289648774
0.2004493702395705 1.9335580296912807 -0.0093384888509028
0.0557066646469060 2.7373946984275070 -0.0495448732656540
0.1654440606970391 0.6237634270757015 -0.0224446977449678
0.1905156850857234 1.5817273503279548 -0.0235400453199233
0.1684886972139321 1.0913630879119658 -0.0258971163058857
0.1745408104480660 0.9737374663933909 -0.0413474421765732
0.1799604703968887 2.2791964705527197 -0.0602161859806654
0.1639972393607207 1.7238475084795888 -0.0664391380580537
0.1537591164664721 1.7510741238536662 -0.0774488959614071
-0.1086319063634580 -0.1109830107042474 0.0107048625277292
0.0857179099580360 -3.1462068952875497 0.1244698511182701
-0.1509593921818168 -0.1177584972819987 0.0066621191068587
-0.1439230200427421 -0.0594910083958752 0.0090646241454755
0.1690187422295640 0.6328726306493722 0.0248336449399273
0.1783383199832995 -0.8481130913033372 0.1364740130114238
0.1655746690374542 1.8710227694828283 -0.0478409282508184
0.1988823313570826 1.5277017877390808 -0.0080389057304123
0.1562576578989541 1.3796094203823781 0.1494886520430929
0.1217462641233006 0.5323365685432150 -0.0016678101945340
0.1545587640164052 1.7005671562689064 -0.0595354525743505
0.1783102526672268 3.7792075312647273 -0.0512893014131706
0.1654550853628749 2.0909299382073439 0.0060390962728882
0.2449595305286043 1.6616328139064882 -0.0625672112796323
0.1978091270647862 3.6839211535585012 -0.0680383931155317
0.1811239508488377 1.9580913169059331 0.0342535260839574
0.1823032206993043 2.2122271923494750 0.0224643462548297
0.1602821808880217 1.2636821520453279 -0.0787010823706465
0.1499055271810358 1.4630512108060423 -0.0102965923458263
0.1785513723577448 1.8022190361705790 0.0351244099408864
0.1578826108948766 1.7597050357034612 0.2119493246372098
0.1866326598986699 3.8433667747788940 -0.0573507715807585
0.1576068042452331 1.2525175993869928 0.0099314544271068
0.1810887817255241 0.5848076963580207 0.0223521823891612
0.2803962608713818 1.2239426399670976 0.1468721958579381
0.3270368945040038 0.4746532920670460 -0.1024729303280134
0.1527136354668571 2.4853571112734891 0.0959257548691973
0.2014330515480182 0.6944638520419067 -0.0598164448296289
0.1783605029609790 0.0290803321419098 -0.0661877882281140
0.1731672701872869 2.2012334606533734 0.0989795112385171
-0.0275071029888418 0.1808060728606937 -0.0630938216597379
0.1496139880919268 2.4641845173848980 0.1976647486075908
0.1669399605729003 0.8378570100561886 -0.0400039125941401
0.1383168106664137 0.9077762378466104 -0.0224081804315237
0.1653930461179433 0.7034667237636283 0.0548868199921450
0.1301115120555961 1.9578621856605538 -0.0446280665042217
0.1383132350349649 0.5874297609413748 -0.0498851743554009
0.1843838652493309 4.8921910381684004 -0.0497778424284297
0.1582119433721388 2.0897606608000778 0.0172342149008564
0.0709373647785259 0.3220605960790102 0.0666028195063995
0.0825372002929142 -0.4123228124714858 -0.0855519791916161
0.0739246400289554 -0.2789335461944922 -0.0755225267488561
0.0633904192855608 0.3429593344447192 0.0662564355274931
0.0577962056324171 -0.1677730134754705 0.0919664733240999
0.0626327260844148 0.2015707534276318 -0.0712950013868619
0.0588580913668469 0.1352861027892439 -0.0647715421389577
0.0817296650903054 -0.3075665755042563 0.0878187882264665
0.1644666431190434 1.4269285408390486 -0.0013906472748132
0.1853735638360089 0.6314830892825638 0.0645535368601022
0.1672783161372320 1.5027946407936468 -0.0358932634412406
0.3899215075690888 0.8693934966427235 -0.1006255352309376
0.1818413962136712 2.0861459623009493 -0.0333080332566626
0.1584496055706068 1.5898778570201979 0.0698972580816701
0.1983093255361094 4.7984602327735182 -0.1517207711224753
0.1755777603083755 1.7604076074872097 -0.0278069366968134
0.1796223297015497 2.4176157156826852 -0.0354505740645368
0.1953736732609290 1.5778814704286543 0.1730657648183987
0.1736053278829694 1.3738815288534230 -0.0481656477967050
0.1334683612779130 2.0502939359211436 -0.1009210278431875
0.1600207886361985 0.1172975275187090 -0.0045371054671818
0.1412033626595261 -0.0875359472516068 -0.0214749724781264
0.1320417195233615 2.8567270711559942 0.0749966594738410
0.1652379233987446 0.0279226887058935 0.0199544772332081
0.1666896584955638 2.0172752813437196 -0.0314542026323233
0.1317423723938702 2.3241854548177612 0.0723890769952146
0.1459105767325213 0.9160324074409296 -0.0116940379452687
0.1475781118812370 0.9878540489523813 -0.0260021555543791
0.1686285695714048 1.9061720598513161 -0.0425231489528982
0.2153825427329408 1.7199494431731894 -0.0257726973723498
0.1247539608975064 1.3646985441399011 0.0198533422169461
0.1772989341400732 0.0809858874168390 0.0519578123831404
-0.1750710666873089 0.3006554634075637 0.0242597382403392
0.1581263746473535 0.5343352888475067 0.0332569185079072
0.1861986833038949 0.4063748442599315 -0.0639354404224250
-0.1799140169900537 0.4242449561393717 -0.0132023522144012
-0.1733285007423427 0.4337142555797121 0.0222519861643644
0.2047155597197306 1.2301413595258928 -0.1273627030948591
0.2029812307418145 0.6560173632811885 -0.0838695373795928
-0.1784744374094556 0.3740333545642142 -0.0129780462993859
0.2040470506842183 0.4761102273297488 0.0879523881046791
0.2476844878856700 3.4520352584140515 -0.1436052868682176
0.1514524427248151 1.2204407914447073 -0.0775522925346128
0.1788759003911359 2.3158095851208227 -0.0301037927055347
0.1977490653256242 1.1814252451484999 0.0396006483546200
0.2851131498831428 1.4680638535300490 0.0302189908122021
0.9731619803746028 0.7531197189831420 0.0640388470234432
0.1367295484592990 -0.4682782148098169 -0.0832776639501331
0.1225774111252951 -0.0516778904132923 0.0440200419819135
0.1429076137126356 0.1062757193658748 -0.0609886368603756
-0.1975804068708305 0.3934160856162650 0.0064361300780019
-0.1942501991092693 0.3067797550543602 0.0169993699774976
-0.2451054468690943 0.4520831667919751 0.0039570484740717
-0.2503754453501302 0.3886536091183982 0.0005101002263404
0.1707399318165652 -0.0238781439132396 0.1057022955035710
0.2028785190242017 1.5471933853132853 -0.0372979397727623
0.1747782137550008 1.5236610987536794 -0.0912869204784004
0.1753044887850452 2.3454219332171728 -0.0355498504735416
0.1971283058528857 0.0979821505312924 0.0781742010736918
0.0555999450959501 -0.5652227289476668 0.2210854690615121
0.1045650677129622 0.5245831993656755 -0.1439864609468154
-0.0362009454897673 -0.0685036784027889 -0.1912596769400501
0.1772723039010054 1.8734665886266684 0.0254428826770904
0.1839889825572546 1.8955955783564979 0.0274151566180249
0.1661583750488705 0.0635611770198892 0.0508193129547679
0.1619909729574509 -1.2651938363820014 -0.1851636732352326
0.1095826279432953 -0.9667893591811006 -0.1512401265620607
-0.0622157944882959 0.0223308010869705 -0.1660469588096023
0.0417586899891957 -1.5318567682392279 0.2226078758803064
0.1781215374134373 0.0470863843706930 0.0452880828339836
-0.0611307374922156 0.0062854409821523 -0.1690905785346515
0.1936725693220129 0.0154520841310262 0.1505207801662480
0.0971473793557064 0.2646644983390236 -0.0395420646043351
0.1175248208674679 0.2254732299902976 0.0165906178059059
0.1437033949809604 1.3907511107429777 0.1326296017524574
0.1441247312075540 1.1995632768364040 0.0837629993066929
0.1807467359886798 7.1578283235068811 -0.0567535614994836
0.1601293465752066 1.7034648275449247 0.0287227584715971
-0.2572828771667354 0.2061697552160727 0.1091111116944647
0.1996987167983280 -0.0096373429271142 -0.1036552804712723
0.1233324321710906 0.0947315282010774 0.0385045257791931
0.2032679415662585 -0.0078313525868332 -0.0787154950745268
-0.2049717841529556 0.1675340649860199 -0.0779022387117960
-0.1994529353953922 0.1485762931981511 -0.0686477392695978
0.1757414135959053 -0.4476302614067826 0.0907365811075261
-0.2512320502608795 0.2973360903502529 0.1108517230794027
-0.1837430709475310 0.2067418480234175 0.0556157231892984
0.1693451811438911 0.5423358967092776 -0.0650536161431982
-0.1849384149820594 0.2653612339395075 0.0559420250839214
0.1520751771187151 0.3875590749840521 0.0433724867518185
-0.1784152289164923 0.2677991441237224 -0.0483012971174641
-0.1773621681838048 0.2271470764636189 -0.0410881791090781
0.1555379596510763 0.4514583347171799 -0.0858525214755982
0.1520782167518772 0.6314298454790120 0.0912738795838293
0.0886868673159580 1.9100568390202195 0.0063494489205616
0.1656966513570626 1.0623561471762357 0.0528145146438610
0.1657536291328037 1.1949046025965813 -0.1999045964188116
0.1669951248780636 0.9231743820401020 -0.2216751387680542
-0.0701707581230693 -0.0318874325543061 -0.1543273933210044
0.1855440006905080 0.1016434855461291 0.0131395460674296
-0.0659463210754779 -0.0294255989313379 -0.1488008716312925
0.1647753731706185 0.1394903067338712 0.0184688423495907
0.1404389448390946 -1.8328588976368061 -0.1643308699863191
0.0990113098441133 -1.5134524838649619 -0.1416236031430144
0.0295089954349825 -1.5504413063767160 0.2426360482350515
0.1639354627924277 -1.1523547042883391 0.1799043330750272
0.1903209280153947 0.6908572293891826 -0.0817118408560456
-0.1702619305121267 0.3356591751646497 0.0401806484203588
-0.1693968450302142 0.3629944106113906 -0.0330693946443854
0.1965103186462271 0.6947672885154813 0.0879570997446219
0.1835861255757706 1.8699368587744323 -0.0748435289594075
0.2113095582766746 1.9808069985924062 -0.0670049642534332
0.2586379147904146 3.4182877537454104 -0.2689453850627983
0.2122053799446006 4.8260769385514681 -0.1142187557895753
0.1854883144534391 1.7968356494389159 -0.0009276178827961
0.1205138968892248 4.4648444816444819 0.1031105806554024
0.1640326579993744 0.5976897186862651 -0.0268666391184726
0.1766391255698505 0.0858045449664441 0.1112250368659534
0.1186378159873238 0.3216420391356035 -0.1939515857538906
0.0830527424813631 0.1570984176973688 -0.1674335058052088
0.1724263883074142 0.0495040887696163 0.1221685284593595
0.0571666948629530 -0.3282136812019238 0.2012319310849602
-0.0152153019679210 -0.0630978704257916 -0.2317898978735144
-0.0143337406726649 -0.0817892251327969 -0.2197786668560116
0.1254327913320558 0.2305094584818936 0.1947200562836414
0.1791538692622424 2.6506409712383672 0.0308458113575622
0.1510437056846855 0.1873585335985274 0.0153156407018540
0.2916790334253808 3.8902802783756516 -0.2403850495525382
0.1885339528434905 2.2708159827982879 -0.0567453195478152
0.2141299211313417 1.7479314088016247 0.0200184846449543
-0.0784872335467914 0.2257956265972975 -0.0364633561627264
0.1769338597373848 0.1925804525902044 0.1856927022384069
0.1827621452248396 1.4452804543058804 0.0605547263229636
0.1328870381967455 1.4019463520861986 -0.0698673663115777
0.1318621637967121 0.1762152274802654 0.0237954326283395
0.1322349701728268 1.0666132481550219 -0.0542488942131022
0.1023145713652907 0.2021081987080853 -0.0391412584750528
0.1618357496150861 0.6778796125621299 0.0834720756271227
0.1224360677515578 0.2498752675513599 -0.0153219679893207
0.0912618497455699 0.8435659021174491 -0.0458170744596362
0.1570022451497616 3.9214880268479311 0.0756426177955774
0.1254492899160421 0.2454141918443046 0.0000967855354451
0.2463200944490081 1.3644653290127149 0.0012494008505187
0.2011580228599960 1.9455565487565631 -0.0996406917597919
0.1548418813620305 1.1282055803856583 0.0215279780610360
0.1898956297185173 1.1473347318835292 -0.0378587531196621
0.1349221859924999 3.3047269988162968 -0.2433884070692360
0.1173735623687752 -0.1962428914645298 0.1129365306832557
0.1250897527275116 2.5989343605222111 -0.2098788096014111
-0.0106974693262363 -0.2472466641594746 -0.1079239819160146
0.0614973879006065 -0.0770632049646547 0.1942055196037543
0.1158360641691443 -0.1716364930073621 0.1130568830150400
-0.0121543361250823 -0.2198456484878085 -0.0989810304204388
0.1294026989845802 3.1259232163634012 0.2279716355927616
0.0917184554725511 0.4506242780819669 0.1042904399667512
0.1272412478609040 2.5721369929685785 0.0662771248944731
-0.0392394403691267 0.1640619732051431 -0.0621515119691329
0.1858609003236480 0.4751612465543062 0.1402232193471499
0.9679866188038883 0.9147285191426292 0.0965984816530928
0.1840514784286916 1.3190665367240975 -0.0259610560225732
0.1380445970928154 1.9373211262776402 0.1307581165046979
0.1645424289823759 1.9004147315876794 -0.0378336088959180
0.1321503207906743 0.2468495699787143 -0.0029669055823629
0.1567486234221289 0.7499663715170719 0.0678649331143711
0.1521075813954782 1.4472107108691661 -0.0324590124430693
0.1683597267161918 0.8478791483777183 0.0508064914885794
0.1808711534212964 1.5512575331555376 -0.0827040334990050
0.1532268897770822 0.4336521642836302 0.0623778148748263
0.1598934309210839 0.9853994978736581 0.1173242005750486
0.3287237285439857 4.4051123565253674 -0.1901851098481864
0.3425186975260351 13.8601490988270317 0.0132255528373426
0.1351319841666268 0.2117574198876659 0.1541513665787698
0.1477786071561139 0.3811448262409023 -0.0257726158419334
0.1458792247725784 0.2778237379612385 0.0125075241679427
0.1603875084593512 0.6598476453292832 -0.0590378067879141
0.1255179632119368 0.5209355681271390 -0.0543787574234331
0.1232001602879145 0.3792045416810104 -0.0283008447650526
0.1801414758379916 0.6371766992909249 0.0677072733010969
0.1215553522072651 1.0130571178064791 -0.0561487800374344
0.1226578972065479 1.3296596786843666 0.0793431387517164
0.1551432208647029 1.3224993076750793 -0.0668721706796662
0.3921981098763961 1.0614995892453103 0.1503823424074737
0.1782767172588211 1.5426783020159016 -0.0783140278220428
0.1733077517624512 0.5024807400884915 -0.0076319570656679
0.2229105550613632 1.7564656262768468 -0.0014902479405395
0.1645567342415865 0.9769388135605606 0.0031691712413135
0.1269900696870697 1.2758369190407890 0.1079512224193520
0.1752117301044076 1.7764514105674012 -0.0291032207094781
0.1703018360100511 0.3701816813838912 0.0686160983331062
0.1861199963480861 1.6822672770774239 -0.0087081438836050
0.2367774078254253 1.0338628274011701 0.0470574165391195
0.1767173583608647 2.4056446575608783 -0.0257787116632316
0.2311711631273341 0.1306410059362418 0.1575436207231724
0.1303509848353642 1.1545562165567780 -0.2084084673804938
0.1080307876992374 0.9797013109061466 -0.2005115634846310
0.0116083623179444 -0.6668631912086365 0.2227552507931932
0.2287844815786285 0.1053909220174533 0.1606337428560826
-0.0904357793730698 -0.0729349840658090 -0.2878710328203720
-0.0882185593605895 -0.0485560593764132 -0.2693299807862917
0.1430457586846393 1.2457226947887459 0.1877182993922305
0.3224339665638804 13.9299138064180728 0.0017107261766439
0.1296078006399587 2.0861033720809137 -0.0199391517304379
-0.0042531297310372 0.0578209720341449 -0.0371903287765776
0.1175808860889838 -0.1916151745802797 0.1602286748023634
0.0491885119489621 0.0383022051218306 0.0417003561887227
0.1364864835156759 2.0444822756209069 -0.2593857949563597
0.1462654947862593 1.4505379535418175 0.0938873888293277
0.1839285449393944 4.8104114586923448 -0.0259975219617296
0.2813911261362681 1.7731644120313004 0.0665828365265662
-0.0960948486567190 0.1867437910327450 0.0711673439839103
-0.1239164585020285 0.3831146780926661 -0.0526641602520257
-0.0020408726002151 -2.7769105286772602 0.3819588329916145
-0.1272077327795204 0.3211677735130206 -0.0591500362652323
-0.0051791249103583 0.0160114150774546 -0.0369345706006573
0.1380424612838465 2.7041572460233811 0.3351248840281046
0.1192761894390394 0.1899006483228306 0.0226961029138610
0.1045718721442635 0.4880768223534838 0.1057967480199837
0.1348540349730884 0.2822406516336837 0.0093030257274762
0.1184509745654515 0.3573167172292495 -0.0322740578690268
0.1624779330969074 0.3715771313594458 0.0700000722105700
0.1884208030816512 2.4631619116828838 -0.0279932016488516
0.1509245464208087 0.6268895448049217 -0.0140942268781352
0.1771619100567391 1.3438871393569931 -0.0408433908637702
0.1281337128101394 0.4371344827484443 0.0038971958830393
0.2439986964892015 0.9485390387071860 0.0146596302942685
0.1717004265285559 0.9409915007550430 -0.1740499865987484
0.2678652648783433 0.1910701487596067 -0.0053592244330771
0.1771390847884463 2.6965767537119665 -0.0620071379248562
0.1670493350679989 1.5674922494486909 -0.0431441675508560
0.2466354585530027 1.5401034308359973 0.0752646847602089
0.1436922915780400 0.9100466788443418 -0.0192611075042766
0.3316075676819469 13.9819806083914546 -0.0033239375426540
0.2831104097133701 2.0326430410503935 0.0669407991903947
0.0944299751931491 2.6403540318486574 0.0483916133574916
0.1395556838415805 -0.0248121562569353 -0.0282435254273228
0.0892895185398150 2.1564897899820363 0.0829467789461532
0.1890678823886603 2.1268335819860238 0.0073160025624263
0.1825578636903578 1.1438100034225915 0.1453083425751221
0.1161977092737163 -0.2370933281385231 -0.1854828238732346
0.1624094909022763 0.0356533259814742 0.0822617919150434
-0.0347987328219183 -0.0501913019759955 -0.1953468802021895
0.1022056982390466 -0.3692935667440052 0.1897774859587246
0.1749429395156250 1.7669825789432199 -0.0554755272936109
0.3020086632230061 3.2872957051985745 -0.2507116155506384
0.1709752787637438 0.3135229994377264 -0.0404774359093552
0.1518773243807659 1.4877619604948726 0.0108104007772619
0.1697171151816684 3.0288226988724687 -0.2084369956366339
0.1067606048530039 -0.0224602556995869 0.0672289882835410
-0.0015051342414579 -0.0086274691700293 -0.0767141754189751
0.1044526872862647 -0.1746748668052423 0.1688559653634192
0.1597596064262695 2.4326051282225896 -0.1545327237512046
0.1027993774181103 0.0304398617358190 0.0683347483915515
0.0013537736018043 0.0045211402588674 -0.0690215417426406
0.1635516106369133 3.0269812515078121 0.2097182719023220
0.1861187897317617 1.1002571826946812 0.0674666409361057
0.1371592960301106 0.1027541114401006 0.0069096861296183
0.0887717921648825 -0.1142673695129538 -0.0138295172265293
-0.0679599350739015 0.1637436868385826 -0.0276448050124795
-0.0713197893368833 0.1330162276695806 -0.0292279921885845
0.0327374656756798 -2.2155422091280865 0.2940822619635395
-0.0465866196876840 0.1176575059736674 0.0334030172690111
0.1761306776961469 1.5455596540707341 -0.0374728816122901
0.2090877014021379 1.0321910777126673 -0.0919414118518045
0.9935445534225859 0.7576435958640936 -0.0106472566255740
0.1504575853788609 0.0585090387473868 0.1743688461039905
0.2524326267287210 9.5833618812634764 0.1005860225317971
0.1763075754937635 1.4631872726187791 0.0418040973847323
0.1678066229413218 3.3515177150245909 0.1184052361408257
0.2219818408059228 2.3946325976274454 -0.0497540383658542
0.1376078002306606 0.4948234375857826 -0.0598276565152946
0.0502523313513399 0.5118147426904032 0.0578080626532233
0.0605456768489328 -0.0550590914151373 -0.0278441340013519
0.0543312734764112 0.5472389829617458 0.0679246108734215
0.0530785570124555 -0.0409947373779568 -0.0279839532075482
0.2365453434997279 2.9721766810666139 0.1699430280815898
0.2335719088989273 10.4467121340581084 -0.1212455795072153
0.1502638478409355 4.2253784169216333 -0.0338369935165522
0.1464894355125624 0.6293742824971973 -0.2026910738411808
0.2448741738736287 10.0855329153684519 0.1264985415506678
0.2324350862597780 1.5465391483743007 -0.0310695711466650
0.1669521738051858 1.9306074278137084 -0.0035798389030532
0.1996755166813753 1.5356853550447074 -0.0199325120765165
0.3133481360577856 4.0392623385787179 -0.2307556190038870
0.2413570294244391 0.3299511341504335 0.0508674655047535
0.4766596060079487 0.5045034952132311 0.0269975731746717
0.2561656641140926 1.2187264822880168 0.0433425534592264
0.1848793704493924 2.8970450453474790 -0.1127851636761200
0.1286190844709666 0.4457407216392275 -0.1334901818437212
0.1726526328599660 -0.4285251582949949 0.1362059458602309
1.0586360988401053 0.4275847864624263 -0.0417946617740434
0.1105459914285021 2.1554821973941416 -0.0419460584070829
0.1657298086884375 0.7364509845054290 0.0329847760220211
1.0827709730851809 0.6058246275647711 0.1025798417989104
0.2635363247255144 11.0893124388783004 0.0541848765011391
0.4660441421993571 0.5740265084103283 -0.0482044969801768
0.0085984707663936 2.9937263693157128 -0.0802163877686484
0.1551720503256160 1.8993834454144847 -0.0515707966751996
0.2679628382812723 10.5441140538299205 -0.0294191239345362
0.0874433031609876 0.2868246535634639 -0.0956254957412583
0.1233953843681004 0.7467559247863995 0.1312853930398404
0.0862620483586123 1.5410796466523478 -0.1946186491855308
0.1624685226190175 -0.0022311401310432 0.1522202329402067
1.0851987600288990 0.5991719209300224 -0.0611799010332437
0.1652282763704434 2.0224830232377515 -0.0304578882665231
0.1769948813520383 2.3359306330258205 -0.0424398160801508
0.0462698548822843 0.1715124171070205 0.0214842871103333
0.1423139589485549 -0.0444933893752101 0.0180637367940971
0.3142783119160452 1.9190456486273522 0.1187387603766846
0.2176206303717103 8.0809320367299851 0.1604074555843616
0.2016319453977154 2.3265195173461084 -0.0449428134378132
0.3147709837093108 2.0999173646426526 0.1823112982929610
0.1277210997410698 2.1760314888002723 -0.2036988362858944
0.1964803493357585 0.3901758911530842 0.1669353605603384
0.2351941029233131 0.1968256566120462 -0.1948211520255455
0.0578364556582691 1.8951316133695006 0.1991641343625536
0.2025807983618095 0.4075109590804006 0.1675781087865366
0.1090923787285979 1.6090161711729534 -0.1969153249977494
0.2210317542951667 0.1806538666369031 -0.1811682945186669
0.1208747770150189 1.9420035109704197 0.1891692855653138
0.2963579716728456 13.0379231994791347 0.0613099010866259
0.3421636094154931 1.3891918730868473 0.2520379969324715
0.3419197714428096 13.8495127330566703 0.0042455683490231
0.2316788461579890 10.3017586000313344 -0.1153146215264702
0.0544136779619752 -0.0565171012949819 0.0301125360705921
0.0495842394017583 0.4573709603545987 -0.0507250414511799
0.0550174241373964 0.5553950990465738 -0.0560079465702376
0.0618247234184584 -0.0513027213249525 0.0270150416544721
-0.2307610310490714 0.6522233749298741 0.0180308747920761
0.1293484601929932 -2.0130370378592795 0.0283038266756814
0.0937304538751950 -4.6284996032560546 -0.0449332225876335
-0.2068004002382162 0.8205287912529414 -0.0177273286125544
-0.2670089023149327 0.7850579994600357 0.0195016014797106
0.5279938595737992 0.2738819530797718 0.0662792096858153
0.9625864732073465 0.9162061727315028 0.0334360622985021
0.1222764426987004 -0.3602779341706860 -0.0858187680794304
0.1104999507244928 -0.0892845494322555 0.1023044459461090
0.1641219559993194 1.0582972256997105 0.0134872986187608
0.0591542197373424 -2.0653077503144237 0.0227165926496043
-0.0279687493029510 -5.5309673454141617 -0.0318470739116579
0.0477095007145233 -4.0930160528230379 -0.0361038148433259
-0.2786797049311754 0.2835231337209450 -0.0075663228952815
0.2349168686617444 1.6609878563775833 0.0018143409116316
0.4366912175664425 0.6126188542382622 -0.0087193991509635
0.1707604912296351 0.7230171893055422 0.0668866988843709
0.2009383795368466 1.5253708614678749 -0.0644815654414456
0.6386551912210815 0.3391074249314049 0.2205279913745167
0.0474470120699133 -4.8721955575224483 0.1463058269900611
0.5770558430837665 0.3771732641305196 0.1788214126726182
0.3163648664572734 13.0920299838513952 -0.5938454449327013
0.2719427712604071 10.3903000937903798 -0.4613609336075544
-0.1754683815737526 0.2018827183815521 -0.0962999506586511
0.1880286404604717 6.8790932715314517 -0.1359315376551334
0.1621559427256900 0.1735016976029433 -0.0910709447501738
0.1846909671115913 1.2393640562320030 -0.1135542421976937
0.1555319997813341 0.3492455657320213 0.0537304831685265
0.2134678607064765 1.7648005990278299 -0.1454898732141204
0.1384095451876283 2.5159074861333188 -0.3408163339111560
0.1997931655092672 7.9576623563167148 -0.0536619894624279
-0.4961682173241121 0.6516505950866504 0.1079043265558750
0.1987125602590969 1.7644076988031867 0.0840245980323120
0.4596007846690350 0.7214601775642268 -0.0272708646560168
0.1656441523631223 8.8064735755801404 -0.1226783457911845
0.1483088273513207 3.9693459450277890 0.0983625772303210
0.0934446764229855 -4.3783474053842717 -0.0587130019695316
0.0842468080656206 -4.4057011620007467 0.0614176769756224
0.2918912892940522 2.1588053183011411 0.1226694714525211
0.1451899484134928 -0.1859209194973424 -0.0165271102278322
0.1200856313089992 2.5009016282880663 0.0686280856397851
0.1782489408783152 0.5115251926638761 -0.0657688688639894
0.2194600748736239 1.7518640152690483 0.0215766314291372
0.1544402712251067 3.1520346612290471 -0.1315127506333712
0.1102629882060482 1.2515365365232605 -0.1982581215910387
0.5110840680011728 0.2254828394892495 0.1780415794195075
0.3312240958270490 13.4306563385807483 -0.5858370443201356
0.0217289901718792 -4.5871602497564075 0.1276681215057409
0.2749883663688297 10.2709175424181716 -0.4516411489040229
0.2889765698153359 12.9082742947897238 0.6137009208855698
-0.1966191955457151 0.9839645404013968 -0.0429861382843984
0.0969058877313502 -5.3821697154110701 0.0597826615943730
0.1679116715724157 2.1064252228497127 0.1555830895395356
0.0744263642970536 1.3385834166504929 -0.1205732175721918
0.1553910347382757 2.5466140522509453 0.1192249759373016
0.1536593529278297 1.0684279149184490 -0.0598516435937843
0.1866870240498044 1.5477751190442146 -0.0449737560558298
0.1688801241828834 2.3271146456168048 -0.0070918559220237
0.1251602014437705 0.6679266448750915 -0.0025325166887766
0.1048530042235272 -0.1810360834139022 0.0961695389058992
0.1631699296101455 -0.4377821873744576 0.0793424349992145
0.1813815004371507 1.9944999049210166 -0.0831466492947092
0.1648460913237684 0.8718147746569385 0.0747273658591291
0.2584027057868705 1.5514470727287404 0.0019696709912968
0.1218291231646087 0.1201592240248770 -0.0015992863062300
0.1723814197723136 1.9077471100315599 -0.0254501994624228
0.0506835330417434 1.3617752944490977 -0.1587000821956411
0.1183720549442504 0.2459503040196840 0.0735293611501398
0.1030039733535260 0.3655055445904729 -0.1010850999467307
0.1040577927145980 1.3876497469889291 0.1763576815289804
0.1225706548612388 0.3331651258114660 0.0766353288964334
0.1028908389493661 0.2863673523922083 -0.0913385405601534
0.0484206523971886 1.2807766853158535 0.1609188257222458
0.1102433966461082 1.5009379618924215 -0.0843396813188833
0.1391526000289683 2.0658799096916169 0.1407731286864368
0.1125842441107470 1.1981557617293113 -0.0612849407245040
0.1408706686625582 0.6373458689505194 -0.1364392061577114
0.1929182776528678 1.6529826713346858 0.0513999528372299
0.1838969776503602 1.8768269640399267 0.0271360984567930
0.1470402258486486 0.2516057445968858 -0.0445930568758776
0.1635171170193943 1.1283840777958380 -0.0481275174712379
0.1276248246025731 1.4596980410999958 0.0819913968186286
-0.0770936929114429 0.0472442749094005 -0.0132716901694376
0.0770678211679390 -1.5009849746478314 -0.0918500789130335
0.0985941048710774 -1.0587513320947595 0.1170019317120510
0.1259865252057895 -1.0459011548677088 -0.0259453111705724
-0.2422440402938614 0.2178988475256081 0.0023108547460262
0.0537668540770436 1.0895246698162617 -0.2040152634696244
0.1161919678014931 0.1696278367091670 0.1199888030095533
0.1037886767846751 0.2269644148496080 -0.1346738606122974
0.1187593663568518 0.2796331303911203 0.1225122089627984
0.0628860033429305 1.4521353453128549 0.1994149930715730
0.0698411107980307 1.1600046144969038 -0.1842079552229358
0.0496911088408849 1.0673615478886938 0.1903755860727597
0.0993241629564619 0.1959256538003230 -0.1240760341803036
0.1550117921399152 0.9177604301294229 -0.0270875203933010
0.1444718357892814 0.4316597341557599 0.0532854142018171
0.2089946068320624 0.7963839300448065 0.0750791904585388
0.1078175739028076 1.1196785420663062 0.1099627667152853
0.1665011630564220 0.9075134269458659 -0.1672067004871810
0.1503607209904551 0.9819238290272184 0.1274502323091045
0.1973999527871991 1.8011430604794163 0.1032476012683568
-0.0152685908371014 0.1342975973674056 0.0335394809957803
0.1390233448382941 -0.4711092916430774 -0.1935711012918765
0.1092219831148992 -1.7268047010085255 0.1281689353548711
-0.0331048818661259 0.2373995188644133 -0.0888021805073016
0.0662043542153847 0.2437231940608668 0.0359363132862943
0.0603172421236416 -1.5901455794478014 0.1846901329774422
0.1595157362972910 1.5516049600458679 0.0406829830207910
0.1710808256911656 2.6403421943642114 0.1322123153222790
0.0511160951442029 0.0401102883907251 0.0471701229218721
0.2066426212560209 1.5749027556586948 0.0610862034929965
0.2105073785096165 1.9531968468482845 0.2297685428067332
0.4343057197691028 0.7285407576299512 -0.1036129394004590
0.1137172596831268 2.1660854430382028 -0.0225807830947332
0.3038128954709211 1.4131119037417956 0.1567105242747861
0.1525042744467523 1.2381996795778019 0.1655786047374390
0.1880134894297010 1.2111649557443513 0.1392667740659559
0.1181223233055973 1.3759587526040178 0.1801712511191236
0.1641590875281307 0.3437482017416862 0.0490808389483064
0.1568448470410312 0.2457851330225533 -0.0954570330305492
0.1569463635794283 0.3291925864643193 0.0559080948773460
0.1844934989791060 1.1894948864206614 -0.0919586722341485
0.1939884849514247 2.4167448808322476 -0.0166728668187535
0.1937250791371592 1.8874517350093154 -0.0054282731164449
0.1727382288661658 2.2249638181879998 -0.1285536290251502
0.1100437715519259 0.2228411935775921 -0.0184022403549415
0.3230185125539730 1.0631061734737899 -0.1431154547941201
0.1697501529375734 0.7503848527853795 0.0410449372958282
0.2000645240067882 2.3434618121607418 -0.1581346788671201
0.2012912705583795 0.5246265308020183 0.1033539233756205
0.2265441172519326 0.3429414445339177 -0.1531044119807337
0.0815197701460481 2.4661034619358220 0.1704478032439763
0.2010108147418938 0.5965739671368673 0.1131656890213463
0.2391033908456326 0.2676564676322793 -0.1372787050759653
0.2037655585117692 2.4327880761400080 0.1578495456809392
0.2459008093402462 11.6068480128070846 -0.1064470335958561
0.1973357770873707 4.6043335256180109 -0.2434522144497107
0.1165379206842393 0.5676634362129904 0.0704445874968921
0.1265110134106639 4.4668178488418340 -0.1261437690638337
0.1742291988874270 0.1804691673502161 0.1432426986860953
0.1401727522130049 2.4649534437613472 0.1851327942687412
0.2517879005638535 1.2856161006890146 -0.0138375606656548
-0.0160802365965770 0.0574338945467673 0.0172738854818363
0.1666913303291749 -1.2357612158155016 -0.2045185181244474
0.1881736626324846 -1.0110325760679888 0.1124293757543746
-0.0261484373809014 0.0684432471276249 -0.0151600454877228
0.1298272310473707 -0.8306483192226337 -0.1612681208827226
-0.0171441131956125 0.0474670844145433 0.0153302031603016
-0.0257193672292694 0.0780861165087863 -0.0153129171598933
0.1702297989092786 -1.1964934070435209 0.2022064505735432
0.1363376304930789 2.9394716226847204 0.1691106481894527
0.1754819904188871 1.2728214369730633 -0.0386582372320984
0.1630008493366093 1.1536197578782972 0.0699546002523149
0.1883592906549207 1.5413140317158627 0.0310650481611576
0.1139360845123802 0.1528597994361162 -0.0191843688731784
0.2310501862806357 2.3710759659308644 -0.1901040299046167
0.1772299022214302 3.2809824343356659 0.0370484202824533
0.2957698511075615 12.1924360306887483 -0.4204458669850242
0.6291427276715736 0.3674290761339597 0.2046006811530739
-0.2073892042399330 0.2164388669340835 -0.1563023929141984
0.3021485676540198 12.6834454037356323 0.4234129648687751
0.1019767958780567 -0.0674872325215218 -0.0775453002103460
0.0261911999371463 -1.7114810665188576 0.1962841531384985
0.1129374541040020 0.0567082738084784 -0.0976118500373236
0.1595093811861551 0.7156380301332995 -0.0560950052518152
0.1944024355303372 0.5453215795872084 0.0401994456238225
0.1456793790327820 4.1229668340574381 0.0469596097519991
0.1110476615989592 0.1326051205126172 -0.1087290207615031
0.1655008103056474 1.3776608854139487 -0.0009829471487084
0.1862447868911685 1.6452134728002097 0.0338286869910340
0.0370856248851927 -6.4531400009022954 -0.0419918229877397
0.0618375691354080 -6.2088758635310857 0.0455279358962325
-0.2093448767349811 0.6462424572439741 -0.0145609510147767
-0.0242810715649855 0.0880063949676386 0.0133695627932345
0.2022840527585317 -1.6004782516980411 -0.1971905507110242
-0.0383209687106952 0.1167310353810991 -0.0059468881833383
-0.0237789256447270 0.0671325467053529 0.0094086280181791
0.2404333790297739 -1.1980837532336492 0.1185695310923951
0.1619916333340189 -1.0183016181490920 -0.1632989571829593
0.2342662776419627 -1.6005187911081016 0.2119298737121864
-0.0394433119941260 0.1233829289619277 -0.0063862020245494
0.1701669314407585 2.1245420538991100 0.0333752246987779
-0.2843853406133740 0.2908828734401826 0.0044716020100115
-0.2506978134873826 0.3775257147882590 0.0061696879583213
-0.0173628618764439 -6.4762081994176546 0.0434783151241756
-0.2561339551135824 0.1814559415731764 0.0052628686501970
0.2228443412425583 9.0216736770861985 -0.3343587882050031
-0.1931943508326365 0.2000430157791215 -0.1421854915129402
-0.1716730495797229 0.2783794563583931 -0.1008634054243777
0.5512864592158544 0.4683619250431171 0.1932412680859769
0.0458513789266482 -4.2514210717461038 0.1307708828117214
0.2732739181295546 13.0968875145601995 0.7272551833130838
0.2020249548107033 1.0709083890983737 0.0480402891008663
-0.0881718778188402 -9.7237313965295868 -0.0400748574590132
-0.5169699461974750 0.4487221032229148 0.1009025084630747
0.0052361523945494 -7.8423832944960195 -0.0480892108579142
-0.2908261871160189 0.5799827455577233 -0.0878107996011149
0.0299786046496941 -3.4041808585502813 0.0232912912324616
-0.0782537969771849 -8.8668656695352688 0.0344031332966519
-0.2881473888461619 0.5120923296585392 -0.0763078606434981
0.1541499196068150 3.2839765935944669 -0.0854171297088865
-0.2348434676434023 0.8006990453398614 0.0594876511859881
-0.1820433978988266 0.9071163054744269 -0.0601842491551258
-0.2323649364712461 0.9727496230271875 0.0626229549338342
0.1505391614371638 -3.6017893103322702 -0.0592806959210656
0.1011439713965296 -2.2118789532722904 0.0266239459894687
-0.1843785586970591 0.7381355008903284 -0.0498432404230891
-0.1989257446452973 0.0914046329986035 -0.0814642587974376
0.4763851707028915 0.2029273859538298 0.1955148054430223
-0.2055410152359674 0.0056798775724947 -0.0766633634580953
0.1376315726184266 3.5429165402061504 0.0681867244874860
0.0949172839107757 -5.0467688849021215 -0.0543783222661753
-0.2417142114503021 1.0166640673810659 0.0451330836101786
0.1593079091600219 1.8600616963031114 -0.0632288095679611
0.1654499239049153 1.5163926102366014 -0.1941480481963268
0.2535880060141664 2.6893622399567922 0.2094528629026542
0.1611443038859070 1.8436200491344472 0.0969905169523808
0.0520755223184912 2.2553275923783982 0.0986302875299764
0.1451553886780303 0.3221173574254099 0.0325714220026321
0.0543614540795267 2.5168719986696262 0.0823326452452996
0.2211816530297873 -1.9480849908962374 -0.0406375718409032
-0.1508090764933444 0.8612527726819325 -0.0255478367211062
0.1860565203028771 1.2036645447205641 0.0482462641301794
-0.1652659552582557 0.7526016780836096 0.0281641910601808
0.1689412366109034 0.3409717835266415 -0.0006780054632438
0.1506643716483070 0.2708198961817730 0.1525834167608184
0.0790026440749641 1.5741939148235102 -0.0326740801075994
0.1819593558711317 0.4891456370634905 0.0809867006391533
0.1615957720337050 1.3856012306386289 -0.0651512351072219
0.1971948513962979 -0.0802732080175866 0.1683007765990029
0.1412920535571739 0.2496785364933929 0.1184158704775305
0.1481460510378733 0.4082006495548871 -0.0799805673389589
0.1471101326681992 1.4520653596836020 0.1450968986574732
0.1485553501065138 1.3808743949699334 -0.0257300190980163
-0.0448129921966813 0.1431306578013890 -0.0273540094667005
0.1378583305701984 -0.4328425060190367 0.1980646701496228
0.1914016585147565 1.6767621013782441 0.2033876873053175
0.1480343708262492 1.0017437954461754 -0.0284416332737418
0.1874683544302451 0.4732011873804540 0.0777096567333417
0.3547693416592274 0.4701263278685183 0.0134857579659241
-0.0364849483734889 0.1944291771002232 -0.0870873565026559
0.1125802464565767 -0.9841266374145041 -0.0884063701156953
0.1180447466125514 -1.2874245282115786 -0.1119703862242607
0.2199300702653024 0.5541171452808501 -0.0716621549455833
0.1324895837438432 2.7566910644164864 -0.3572965261933260
0.1046252496576901 -0.0777174002963311 0.1712003853726537
0.0343888075558576 -0.1338209468672181 0.0326335099859387
0.1259383872795534 2.1652110804728255 -0.2748345549973749
0.1769381126764112 0.9038237276057468 -0.0004512159589824
0.1623481371635573 1.0259096901269822 -0.1950659232479795
0.1692488297609892 0.5075331671900016 -0.0370404511960851
0.5048485498501071 0.9791939781683323 0.0288234308804228
0.1663294171842060 0.3262774484628669 0.1818824690678714
0.1493608812398885 1.4790917279943174 0.0393968270733084
0.1349987011796451 0.1449741140983660 0.1282195808450801
0.1389781253257851 3.0794134902871120 0.1147870939461781
0.2971950878693475 1.6036655195344360 0.1539716791362948
-0.0729213555978282 0.2237839000144755 0.0778020128144273
0.0979963624572634 0.4621040066330867 -0.1025675305075161
0.1468866225423006 0.7793601580307866 -0.0098534250138938
0.1447969815539671 1.4241086228136619 0.1355777024200594
0.1641414126560883 0.3840071974664712 -0.1031875816811806
0.2402989865131628 1.1217316527635253 -0.0686308883318067
0.1928240684847128 1.4645745608409433 -0.0517682092505867
0.4466954062484249 0.4254805413765892 -0.0923187014656111
0.1784050575715488 1.1271619274643909 0.0039199111246679
0.2162683463475916 5.4481967322948748 -0.1656904669539407
0.1231899135302805 0.3590846112011288 -0.1111473004774651
0.3022867608940391 0.4157681548901127 -0.1122243623021617
0.1490348450393977 0.3049153514245959 -0.0281677152627445
0.1539534323224401 2.4592359384028377 0.1005973614652892
0.1310327078011140 3.0060614873292786 0.0460910031032010
0.0131486945721373 -2.3633051121350777 -0.3772415658096476
0.2557830964500989 11.8697938822107965 0.3821958566605153
-0.2112414830086404 0.0887318106761951 -0.1774009742350507
0.2095048341406788 8.4503520033895274 -0.2997137599016158
0.0122181200231121 -4.9912871882858800 0.1427213455622126
0.6691704931015049 0.2750254079668892 0.2394292963148912
-0.2082540069697969 0.1264900573548983 -0.1906636612757523
0.6918947026903660 0.2628001821553514 0.2323331630373362
0.2540136914791335 11.8971300939225682 -0.3819629724419227
0.1707013416045459 2.0130061584220313 0.0884720226550532
0.1539185306114992 2.1793468780162306 0.0985466773196857
0.1127117668190672 2.5399986160594463 -0.0545605002478060
0.8568787678401367 0.2913193698836857 0.3636008912091989
0.2903620095006055 12.8854918781168060 -0.5051625828093466
0.8343971427304376 0.3432623436800502 0.3607263452653744
-0.2507607088992034 0.0269868670671069 -0.2369536395107937
-0.0150244631704200 -4.8801033810063714 0.1437528440806624
0.2428970567626131 9.7530366758050615 -0.4151855135010328
0.2732743231058189 12.0613381449115291 0.4494052856117157
-0.2456603690244500 0.0258313911265535 -0.2190430179899293
0.1688164089989469 1.7262155404152424 0.0574564290850101
-0.2247060431943144 0.2497002962502607 -0.1059765457641403
-0.0151887710976159 -5.7764730140597642 0.3285303562900584
0.1502379649826693 3.1049561996557093 -0.1220886609068665
0.1700188876449084 0.1818195921961609 0.0667629310149076
0.1267359069743662 0.7922747037896491 0.0449013297841917
0.1711684654796716 0.7154000173674285 0.0373681944096979
0.1649019778507634 0.5557299034509563 0.1355649712801768
0.1289876101627803 0.1650882422265509 -0.1239148770977982
0.1202200924325694 0.1182958249598371 0.1153958035215976
0.1587036497162005 1.0542554573075924 -0.0168378645977691
0.2471435310384803 1.4830127743276627 0.0313358986575080
0.0373971079363972 -0.3173849772345788 0.0525578091388741
0.0293132242104794 0.0470867968319155 -0.0208139691875816
0.0239409652501796 -0.0448483963387738 -0.0164373893379672
0.0472757139578351 -0.3287734544442687 0.0455938837070203
-0.1312190207442622 0.0548531894860254 0.0186169664015768
0.1499898437494389 1.2629339110029414 0.0128717731514730
0.0765323430337442 0.1590025672794413 -0.1365492176167130
0.0118583009686952 -2.2021278361673065 0.3755214867220300
-0.1008176820766504 0.2693540128712302 -0.0627233154832682
0.1786954555757150 1.5055793147059551 -0.0038664183329521
0.3072966899422598 0.3602304862235782 -0.0541408526709888
0.1881373225973499 1.2758138185410406 -0.0876481219313512
0.1686108959116571 0.5583271770552173 0.0239798236620644
-0.0922860303153804 0.2442460723739071 0.0788391517929778
-0.0996489713097028 0.3182448065361754 -0.0616784175905305
0.1181339696398450 -1.2368504632523289 0.1653696321019753
0.0361155136568112 -1.6877286572515662 -0.2934739476107834
0.1893855880830838 1.4208766256129226 0.0412825075803264
0.9832738842486380 0.7424744061052261 0.0211027481280822
0.1443810167293900 0.6841556017568062 0.0716927245050749
0.1430579431015864 1.5704221635029234 -0.0353569930825037
0.2875775495281723 11.4857693203821221 -0.0617811922887823
0.1690911087320174 0.4774804196874416 -0.1368335497803892
0.1399634123741610 1.0878034396565068 0.0214054326071081
0.1587033129187290 2.8114584026955791 0.0977810735514681
0.1915518626026551 1.4420868641452433 0.0115859790121504
0.0310125304413465 0.0859128410461219 0.0177747487188592
0.0504486027117549 -0.3000341081508810 -0.0405015194725909
0.0418417200254927 -0.5124987967335178 -0.0388295899428944
0.0267686641440246 0.1204341094012054 0.0219964658755958
0.0576264352119094 0.3143925052909851 -0.0552450740789122
0.0578559747612986 -0.2218704811583669 0.0594991840006778
0.0533334575335470 0.4486857841668899 0.0636792610240399
0.0708922154718192 -0.3389762694904870 0.0535962214186883
0.0662975213007530 -0.3126681913820023 -0.0511378851112401
0.0632016311562623 0.3173523236510741 -0.0558973187400120
0.0751840216858181 -0.1196757667114907 -0.0550636640414395
0.0604787146478763 0.4495833249316900 0.0582875282666966
0.1293401376462234 1.6015400921961545 0.0646076817250600
0.1450495228496276 0.7916136676571761 -0.1511016926476518
0.1944142482634682 1.7948646711697320 0.1025258998760837
0.0964899422136266 2.1919653915739130 0.1706876719408494
0.1623935376671635 3.6264589655231640 -0.0900088110338211
0.1094672586509585 -0.1493645753682749 -0.0988978514681397
0.1311754654753291 1.4405595344741995 0.1418589104051339
-0.0428314557838293 0.0845664365232597 0.0692510695448727
0.1109008644594598 -0.7383609537405739 -0.2121153214697295
-0.0642582533236306 0.1244235238221173 -0.0504579991248417
0.0887812825749765 -1.5027235632974487 0.1239961133012809
-0.0396150384667981 0.1096886338634647 0.0694238401618193
0.1126688998604948 -0.7735527218835625 -0.1763092178438637
0.1061460552288637 -0.7382823455040550 0.1991221167846930
-0.0662844734436395 0.0702442353694483 -0.0456307665578557
0.0401821104081011 -0.0923034206265883 0.0376690340173635
-0.0147270847731922 -0.0718024145309669 -0.0266883958621139
-0.0140990341725166 -0.1000167556466982 -0.0298909971632731
0.1403789031943384 2.2808220351231636 0.3451006967996060
0.2606143533586406 1.7202635253523642 0.0293550055302842
0.3935155611237646 0.3791731599797994 0.1437649607564858
0.1385615116231774 -0.1255767125609366 -0.0864141471281494
0.1671269853254093 1.5648892572754503 0.0722691138407108
0.0953180570440079 -0.2476599200377041 0.1088951409316753
0.0896532885324074 0.3256397682215045 -0.0948078293482399
0.2357044824399823 5.6387351159557522 -0.1328547522645311
0.3617164948049927 1.2184015450109082 0.2570166560559736
0.1654956854874073 1.8991357655585865 0.0511652789819200
0.1059120584179456 0.3555548384089636 0.1157583112386639
-0.0060994733489730 -5.8060538873231868 -0.3269875142818682
-0.2872842628230642 0.1668579208840685 0.1587215400136867
0.1341522860665695 0.9640623771321370 -0.1536060830200161
0.1789918634280839 2.0934432134643055 -0.0276287114287153
0.0881281724357238 1.7595519949608835 -0.0734603040956860
0.0857987384320023 0.2203630059273320 -0.0975905778492427
0.0260924237679399 2.5039383456066826 0.0807390265438453
0.1067882388137359 1.5424723124303528 -0.1877925810412088
0.1063094517193338 0.0411435441845104 0.1231494996162432
-0.0224970316913952 -0.0729599104679962 -0.1645334265504607
0.0023018899532540 0.2223519787885902 0.2200688824950063
0.0928463022629900 1.2762837535566578 -0.1775174176603969
0.1047399316184943 0.1583956458745043 0.1266332436721556
-0.0249788343539989 -0.0885069393371443 -0.1534928167898181
0.1058663775952113 1.5816169687691291 0.1731913066695702
0.0927041855762239 -0.0277027550100442 -0.0098637683955257
0.2993354160073159 0.7333595431375645 -0.0567805412423535
0.1132358213081470 0.1990648606733257 -0.1144754380552633
0.1643579076220097 0.3669258144649600 0.2211273404447293
0.1546703786114871 -0.8514105458774742 0.1675572423200831
0.1810373359345130 2.6461033914524688 0.0925341414790460
0.1837251818095713 1.4600699193224995 0.0103506453774531
1.0080684613404525 0.6100126382097847 -0.0050346379480054
0.1865527079289774 0.3382418603776625 0.0137494799527932
0.0427897350185557 0.3318638230697724 0.0879565886640392
0.1935957969152104 5.6710456673984986 0.1802464765456756
0.1430093839959607 1.0400160096169708 0.0462622346549095
0.1839530814635143 0.4637449071925533 -0.0184782039293427
0.1275119843264617 1.3775825748097954 -0.0990883097960828
0.1192365608594503 3.0193423989450396 0.0519132199502449
1.0813392501357602 0.6855199981017225 0.1161913879311819
0.1963040244567104 -0.5572930595744497 0.1674065682683603
0.1590147233976086 -0.2818300804734759 -0.1056147424446811
0.5277643693713224 0.3715049119420077 0.0617422011410553
0.2214693646214255 0.5244681507778794 -0.1585883752362302
0.1543177169652495 1.8500583465575586 -0.1192621228978889
0.1299781277863689 0.0629591539084641 0.0749972456011910
-0.0214007642172429 0.0046949673564627 -0.1266429164190080
0.0384069530030746 -0.3187897964378685 0.1924288212180536
0.1231745793562209 0.0516046350390085 0.0808331520360667
-0.0150237067076189 -0.0120745797093027 -0.1146605666215272
0.1573492157681995 1.8076057330201578 0.1191239764034327
0.0961374869566561 -0.1532594381606139 -0.0904270305951597
0.1708012276837642 0.8393103367582027 0.0196216141291885
0.1596190164915255 1.3725618100521888 -0.0767554471661473
0.4588296619129434 0.7076049768227242 -0.0551922756816785
0.2005909425698781 0.9033286712955148 0.1204749733802236
0.1608677047031939 1.1976873690670422 -0.0764997706406409
0.1593297359260820 0.1778334694943089 0.0738621546455990
0.0790818774153601 -3.0921256090007549 -0.1186757183139068
0.1628404536968713 2.9138980966034231 0.1211008316609935
0.1700472366320101 1.7131758594779884 -0.0046212912012153
0.1199856628223103 -0.1362910600888611 0.0363880428142933
0.1406411543420409 1.5907332859789745 0.0598979857925985
0.1275980172225637 -0.0000511046802604 0.1553172619306605
0.3533565033581701 1.0460159070473818 0.0837067173266448
0.1475016145422124 0.5784784586484126 0.0513476382000390
0.2241386602801152 6.0829985357762872 0.2031095346507510
0.1497317210451974 1.1190742111132355 0.0141054531820073
0.0481655993688837 2.5501146295114849 -0.2981658196026217
-0.0297931487812066 0.3902553046858263 -0.1243374111931673
0.0966702610043721 0.1823936800011433 -0.0386832357524173
0.1033355946894389 0.2720422341493943 0.0135370374930925
0.0961826434474515 1.2637992157966500 0.1192393424316085
0.1351172536673239 0.9992247673801439 0.0796531844495988
0.1314697131836266 0.4575022030316686 -0.1327267943002622
0.1668320628341590 -0.7790903455789427 -0.1456551250149569
0.2163438519174110 1.8565642770879591 -0.1566207872317359
0.1663651833734229 0.9547935686075691 -0.0449273210788546
0.0322680315560995 -5.6992642627190762 0.0131796741430188
-0.1551614394424199 0.1294001473360383 0.0019304327787247
0.1690439288749976 1.9226193973137693 -0.1197288020991574
0.2012972758268413 0.3045875871441656 -0.1250269624927625
0.1595748594209861 0.4422275059700947 0.0217839022470216
0.1002520793503329 1.0317554630798800 -0.1304459405931648
-0.0360574134364340 0.4012408851328548 -0.1385805755171403
-0.0084361045255760 1.5134140589985690 0.3857033743535187
0.1646833667430406 0.9372273862893302 -0.0600289651520617
0.2639860261881095 1.6067935453524933 0.0756643221129339
0.2312750384135997 1.5566726618153268 -0.0874949408281269
0.2423376209845490 1.1484102082477585 0.0045869253696465
0.1791565066715340 1.8022592376747901 -0.0353099156116449
-0.0123659898945655 1.4011168175538797 -0.3854996851390362
0.1086747114800731 0.3618592667798948 0.2260059262544984
0.1383530834334383 0.6130180177317275 0.1375556747436892
0.1372845847596577 -0.4154454067860223 -0.0355765934711418
-0.1176434292741753 0.2374813103349643 0.0034893264880800
0.2235758755601840 1.4915054100707159 -0.0013625291688143
0.2081628109890633 0.2341366594441193 -0.1311940278217429
0.1692902866031012 0.2751107961890983 -0.0087468309422736
0.1361849043847498 -0.4081619224737121 -0.2018280302049021
-0.0191683503547932 0.1275465417814376 0.0372575697309274
-0.0501184591627950 0.1339455471293851 -0.0327160512167768
0.1068589692445156 -1.2055104335525244 0.1253951245426826
0.1322436933084572 -0.2850667873219382 -0.1557904421762970
-0.0204242793575848 0.1506884226017919 0.0381030356505662
-0.0503214695627071 0.0980088878239730 -0.0288154448976313
0.1265598943998801 -0.3891877196011573 0.2056778538397155
0.1430844774635094 1.8790238502811898 0.0257034395047327
0.2789478240575535 1.3847732681381979 0.0163619101408150
0.1349466060525188 1.8257534904094850 0.0200641778540976
0.1473602957898641 1.5350137231651204 0.0987593584099190
0.2086151468108809 1.6038084859361219 0.0694857985893279
0.1372249670330335 1.0199167792447492 -0.0675687590940818
0.1070253030673992 0.2170799011630501 0.0187224220252033
0.1289413781898886 1.0402349837798792 -0.0531855117376615
0.0973166012395951 0.0988666109720038 -0.0370561526765900
0.0747458244914584 -2.9518543731332016 -0.1601433379269668
-0.0666042401454326 0.0676557612480170 0.0233242967058553
0.1674230538431829 0.9535225678346532 -0.0244611949495372
0.2045445882844532 2.5754047765773431 0.1060574780625372
0.1782719744897788 1.3217639370543348 -0.0261558003153675
0.1214768757038775 1.6175427517846821 0.0602274685362292
0.1693740668149377 1.4684619000002537 -0.0043569878460717
0.1484935288295759 0.8456811911063915 -0.0285121189509646
0.1638260968175646 1.5524113325164490 -0.0378802417525473
0.1757291118276114 -0.3671059775018825 -0.1633899534145233
0.3700167500677334 0.2671386624279562 0.1267722058771035
0.1838195715571727 -0.0533325493641332 -0.0648691762373296
0.1685745122756246 0.6960483402747493 -0.0222786427825339
0.4691968241901466 0.3180547011556770 -0.0929482923777959
-0.0310232215867250 0.1809310032317305 -0.1062349879689318
0.1525613660871117 0.3167643089587313 -0.0227048721119216
0.0970169320288669 0.2021727317015938 -0.1085745068315310
0.2037303266239208 2.0615242496700099 0.1552575243691100
-0.0320671136761358 0.5266307575878220 -0.0825463926788716
0.2140016515285042 0.8260568072484414 0.3228474767556398
0.1629256542624923 0.1293972934276107 -0.1313702050669087
0.2096828268723180 0.3962492389673566 -0.3213447808837314
0.0077967956340665 0.5379896498478208 0.1253214809489955
-0.0348754380036740 0.1238933068171574 0.0002005820830355
0.1553232575671843 0.2129657968349867 -0.0582268720324961
0.1785759908065306 0.5474069546143858 0.0814917290483773
0.1023335774819789 2.2508907551204547 0.1970047505134943
0.1650969692262283 1.6838050767309347 -0.0998201059596754
0.4959541406098091 0.5965227195430801 -0.0029707239980985
0.1110902635998287 0.2796350579291056 0.1376552452693033
-0.1185433786988518 0.0163436734638984 -0.0080396497915386
0.0880978168281778 -3.1660637733677524 0.1197966038160935
0.1801564220356416 0.0907398726182867 0.0128071733528798
0.2407646548739745 0.2540087737916715 0.0661280327618723
0.1904450128308491 1.4003776058797346 -0.0026652989359375
0.1896787027737363 0.3784524043952447 0.1332557860886112
0.1230663162344435 -0.1653560949403508 -0.0706488732853865
-0.2631606011489021 0.1643805289790211 0.1345640394783568
0.1161535767532452 -1.7062013086050642 0.1505923437471580
-0.0532283206776824 0.0408233828458787 0.0369321979408240
0.0958291954968774 -1.3872382287688327 0.1506589333270668
0.1555237276167530 4.6479350060830988 -0.0101474048735937
0.1854450736095696 1.4266487208152376 0.0436560797390024
0.1495511264124136 0.3338342475044506 0.0912124856015799
0.1679818647630133 0.5338175748308327 0.0343710937569046
0.0303324117798068 -5.5221594296528975 -0.2121390697789273
-0.2274224783721381 0.2330806604162577 -0.0814365369995527
0.0995302640011213 -1.6984663330780290 0.0513701552731403
-0.1176119310299788 0.0788412917919011 -0.0081554546999287
0.1058302649599388 -2.2674116277031104 -0.0879315076998721
-0.1069480692097661 0.0745958178858626 0.0155066816366180
0.1185786972014565 0.1505548347654983 -0.1100370763386548
0.1295795029513084 0.6276207059795424 -0.0185984443630211
0.1333787203287974 3.3638567618430053 -0.0519664327620884
0.0806691376630377 2.7931732137238132 -0.0406469765521934
0.1822494089799263 0.7250245084572452 -0.0782773879196730
0.2460342878133278 0.8124608333695366 -0.0446329375370325
0.1415042557065127 6.0047344924206714 0.0413043018582010
0.0948462086377197 0.0129232883284895 -0.1606582607556271
-0.0068593931652248 -3.0000276007920621 -0.3920700521688695
0.1010323896290968 -1.5586793050917460 0.1802685857458057
-0.1055156401015778 0.3051522146816740 0.0690111050315309
0.0193356616157438 -2.1811023361291721 -0.3088648033575877
0.2193192703042619 1.3663720758206850 -0.0441087014451815
0.0879788901680870 -3.3315014925545592 -0.0960340070193293
0.1013291461836432 -1.6896604624667373 0.0500628150388836
0.0850931944732652 -2.4202084783727980 -0.0786238168419754
-0.1204604161311492 -0.1301595774641578 0.0012807951399661
0.1621994308790243 1.2622143501168890 -0.0207525774782922
0.0377179354664352 2.6914595658253933 0.0339006111320560
0.1459602015443366 5.0076937990077033 0.0481384388990126
0.1474645883571111 0.6581379665473011 -0.1425769603225276
0.1703445086735530 0.5477656035364254 0.0007077358943174
0.1559308290090254 5.3690608112543385 0.1105869420555645
0.1438418382637846 -0.0448132831220149 0.0304767548150504
0.3250145433226688 0.5288980365767314 0.0695536264908390
0.4361730922319016 1.0005308965580850 0.1515502371204581
0.1373069978400994 -0.5101109214690158 0.1776051392651474
-0.1363063374410204 0.0942717747763123 0.0086470413507805
0.0722351650989728 -2.6542287761211503 -0.0406349750253525
0.0370285443002142 2.8012260640413604 0.0887790779809515
0.3118460379925040 0.2290621568498093 -0.0378874191461893
0.1273057120791350 0.2254957080877274 0.0791971453906266
0.1517160269158801 4.9129153523689357 0.0062100359302742
0.1895368507780953 1.5049910284251391 0.0017100590578137
0.1862272890246249 5.6712842608410297 -0.0511113379021155
0.1338263077021825 0.2004290892140895 0.1245606527867659
0.0633188630322341 2.7937777804747457 0.0439172896463881
0.1452402973801778 -0.0093402680375692 -0.0957507601649570
0.0986322470383332 0.6459258719352488 0.0844681943369480
0.1656242143738667 1.4507451353586212 0.0366694845696951
0.1587627672568195 0.1818624681348108 0.0396734003544877
0.1170006821045882 0.6011379408315726 -0.1784281355573032
0.0268781787669638 2.1297187319037358 0.0229577976859127
0.1932380253942702 5.8378028492806813 -0.0342270759233350
0.1079941691800377 0.4766833180424065 -0.1351981066269643
0.1473848012610109 0.9372332947155464 0.0105339088418864
0.1267021800713854 0.9196429369944696 -0.0409627743049948
0.1803763891273936 0.7944763453965149 -0.0181790842832978
0.0242127630974951 2.5178754238529297 0.0481649568097485
0.1329277286782229 0.4384140775873429 -0.1032892967128579
0.1178817372898112 0.9022808901276257 -0.0813298748345852
0.0594726136451374 0.6310554528393276 0.1064202586115743
0.1136909352158156 0.9062735494571967 -0.0588091525853413
0.1879160922248012 0.1806482180544902 0.0646510503831848
0.1437848519901723 0.2703356131109749 -0.0208407689241141
0.0009607001368580 2.5508796663069218 -0.0641983011017636
0.3740134322206931 1.1805038721681009 0.0879247565316458
0.1447690333921902 2.3976213832501672 0.1101239419470296
0.1460700649458899 5.0847272005908133 0.0033277569860975
0.2458515313926697 0.8480734867827473 -0.0194086602340595
-0.0205746400098226 0.1969038739934289 0.0027955459733938
0.3081849821369667 3.8086344541383110 0.0136444674368076
0.0205405013158711 0.1093012906981780 0.0790182578531204
0.1306649476076335 2.2834900634640523 -0.0581117754301134
0.1911322542286790 5.2718890120668611 0.1313800868465936
0.2130571592785993 0.5014205533119900 -0.0879125462187047
0.1028202339876685 0.2135420135342990 -0.1015047624369767
0.2694224300474072 0.4210491159634130 0.1252235108204754
0.1497707369497672 1.6474407644359899 -0.0247739529764565
0.1936518907183785 1.5626897881673463 0.0250005905435584
-0.0747986108312105 0.0631923699721342 -0.0206407725615638
0.0871677283679990 -2.5510945794458397 0.1695175744172162
-0.0071031236009927 2.2373139875378465 -0.0562713310713794
0.2077246937301717 0.4285287849010673 -0.0591596874478127
0.1694187912635797 1.7697460022520706 0.0663760534739097
0.1642809579323704 1.4370029091584531 -0.0595981124374102
0.1131904453633487 1.0292510298419275 0.1317548940910288
0.2554089212266070 1.1756274923872765 -0.0802527386582831
0.1345849649459487 0.3108147519696364 -0.1320522680713635
0.1278241870816541 -0.5000388486667000 -0.1115499768275323
-0.0594279327505862 0.1135580856777274 -0.0170299784024716
0.1757444084421095 0.4431021899276032 -0.0032353888193596
0.1471498817663261 0.2691857707041205 -0.0796244379838353
0.1703926234174557 0.2673656800935195 -0.1484209582339241
0.1851956711402012 1.6410792860630707 -0.0507705159445235
0.1557394640257485 0.3133026152085590 0.0569917037268781
0.1719103224359982 1.6833527275936635 -0.1280812074504495
-0.2976122274617902 0.1933620238687065 0.1382213708972669
0.0106343055352962 0.1507398066218220 0.1914505266702139
0.1465570024917109 0.7355368101698010 -0.0360172737844752
0.1212742377430662 0.2558390715337162 0.0445886287448793
0.0224918101801542 0.1241308998107483 0.0492921328680010
0.1035141437447836 -0.6090663557630838 0.1540524317143979
0.1577030213790030 0.7268909058134687 -0.0447550377442659
0.1567637406639929 1.5562366301939443 0.0084071832328997
0.2584131839075098 1.6082458220994935 0.0286040429051166
0.1425039370800302 0.9494933034735126 0.0051034113938682
0.1739739725762278 0.9465105546346926 -0.0026643555875283
0.1434323547368094 4.1628612145389567 -0.0012108231226636
0.3076984642703019 0.5774823307045869 -0.0386327979892586
0.1584913628392181 4.3534318999663517 -0.0091188249700683
0.1511896976496210 0.2909686937042605 0.0696760664009158
0.3037533011863405 1.0646678630805118 0.1548964975194379
0.1551959040086468 0.8410494945064571 -0.0048033216386614
0.1704859245967690 0.4421958441080789 -0.0012383757861540
0.1492040904168597 0.3350681601014497 0.0143292623851791
0.1473098829041011 0.3428486459690658 0.0361025873684942
0.0817492319439621 2.2263745499084622 0.0131092473746406
0.2777190466184521 0.9757080044573009 -0.0569351039283151
0.0922040886051519 2.1724129459035897 0.0046941208500414
-0.0758879213183467 -1.6343471194702452 -0.4056032249683655
0.1783528977643067 0.4718545906342804 -0.1133142043766940
0.1505806637022251 0.2659944302002826 -0.0683428799717049

SCALARS f:fiber_f double 3
LOOKUP_TABLE default
0.0000000000000000 1.0000000000000000 0.0000000000000000
0.0000000000000000 1.0000000000000000 0.0000000000000000
0.0000000000000000 1.0000000000000000 0.0000000000000000
0.0000000000000000 1.0000000000000000 0.0000000000000000
0.0000000000000000 1.0000000000000000 0.0000000000000000
0.0000000000000000 1.0000000000000000 0.0000000000000000
0.0000000000000000 1.0000000000000000 0.0000000000000000
0.0000000000000000 1.0000000000000000 0.0000000000000000
0.0000000000000000 1.0000000000000000 0.0000000000000000
0.0000000000000000 1.0000000000000000 0.0000000000000000
0.0000000000000000 1.0000000000000000 0.0000000000000000
0.0000000000000000 1.0000000000000000 0.0000000000000000
0.0000000000000000 1.0000000000000000 0.0000000000000000
0.0000000000000000 1.0000000000000000 0.0000000000000000
0.0000000000000000 1.0000000000000000 0.0000000000000000
0.0000000000000000 1.0000000000000000 0.0000000000000000
0.0000000000000000 1.0000000000000000 0.0000000000000000
0.0000000000000000 1.0000000000000000 0.0000000000000000
0.0000000000000000 1.0000000000000000 0.0000000000000000
0.0000000000000000 1.0000000000000000 0.0000000000000000
0.0000000000000000 1.0000000000000000 0.0000000000000000
0.0000000000000000 1.0000000000000000 0.0000000000000000
0.0000000000000000 1.0000000000000000 0.0000000000000000
0.0000000000000000 1.0000000000000000 0.0000000000000000
0.0000000000000000 1.0000000000000000 0.0000000000000000
0.0000000000000000 1.0000000000000000 0.0000000000000000
0.0000000000000000 1.0000000000000000 0.0000000000000000
0.0000000000000000 1.0000000000000000 0.0000000000000000
0.0000000000000000 1.0000000000000000 0.0000000000000000
0.0000000000000000 1.0000000000000000 0.0000000000000000
0.0000000000000000 1.0000000000000000 0.0000000000000000
0.0000000000000000 1.0000000000000000 0.0000000000000000
0.0000000000000000 1.0000000000000000 0.0000000000000000
0.0000000000000000 1.0000000000000000 0.0000000000000000
0.0000000000000000 1.0000000000000000 0.0000000000000000
0.0000000000000000 1.0000000000000000 0.0000000000000000
0.0000000000000000 1.0000000000000000 0.0000000000000000
0.0000000000000000 1.0000000000000000 0.0000000000000000
0.0000000000000000 1.0000000000000000 0.0000000000000000
0.0000000000000000 1.0000000000000000 0.0000000000000000
0.0000000000000000 1.0000000000000000 0.0000000000000000
0.0000000000000000 1.0000000000000000 0.0000000000000000
0.0000000000000000 1.0000000000000000 0.0000000000000000
0.0000000000000000 1.0000000000000000 0.0000000000000000
0.0000000000000000 1.0000000000000000 0.0000000000000000
0.0000000000000000 1.0000000000000000 0.0000000000000000
0.0000000000000000 1.0000000000000000 0.0000000000000000
0.0000000000000000 1.0000000000000000 0.0000000000000000
0.0000000000000000 1.0000000000000000 0.0000000000000000
0.0000000000000000 1.0000000000000000 0.0000000000000000
0.0000000000000000 1.0000000000000000 0.0000000000000000
0.0000000000000000 1.0000000000000000 0.0000000000000000
0.0000000000000000 1.0000000000000000 0.0000000000000000
0.0000000000000000 1.0000000000000000 0.0000000000000000
0.0000000000000000 1.0000000000000000 0.0000000000000000
0.0000000000000000 1.0000000000000000 0.0000000000000000
0.0000000000000000 1.0000000000000000 0.0000000000000000
0.0000000000000000 1.0000000000000000 0.0000000000000000
0.0000000000000000 1.0000000000000000 0.0000000000000000
0.0000000000000000 1.0000000000000000 0.0000000000000000
0.0000000000000000 1.0000000000000000 0.0000000000000000
0.0000000000000000 1.0000000000000000 0.0000000000000000
0.0000000000000000 1.0000000000000000 0.0000000000000000
0.0000000000000000 1.0000000000000000 0.0000000000000000
0.0000000000000000 1.0000000000000000 0.0000000000000000
0.0000000000000000 1.0000000000000000 0.0000000000000000
0.0000000000000000 1.0000000000000000 0.0000000000000000
0.0000000000000000 1.0000000000000000 0.0000000000000000
0.0000000000000000 1.0000000000000000 0.0000000000000000
0.0000000000000000 1.0000000000000000 0.0000000000000000
0.0000000000000000 1.0000000000000000 0.0000000000000000
0.0000000000000000 1.0000000000000000 0.0000000000000000
0.0000000000000000 1.0000000000000000 0.0000000000000000
0.0000000000000000 1.0000000000000000 0.0000000000000000
0.0000000000000000 1.0000000000000000 0.0000000000000000
0.0000000000000000 1.0000000000000000 0.0000000000000000
0.0000000000000000 1.0000000000000000 0.0000000000000000
0.0000000000000000 1.0000000000000000 0.0000000000000000
0.0000000000000000 1.0000000000000000 0.0000000000000000
0.0000000000000000 1.0000000000000000 0.0000000000000000
0.0000000000000000 1.0000000000000000 0.0000000000000000
0.0000000000000000 1.0000000000000000 0.0000000000000000
0.0000000000000000 1.0000000000000000 0.0000000000000000
0.0000000000000000 1.0000000000000000 0.0000000000000000
0.0000000000000000 1.0000000000000000 0.0000000000000000
0.0000000000000000 1.0000000000000000 0.0000000000000000
0.0000000000000000 1.0000000000000000 0.0000000000000000
0.0000000000000000 1.0000000000000000 0.0000000000000000
0.0000000000000000 1.0000000000000000 0.0000000000000000
0.0000000000000000 1.0000000000000000 0.0000000000000000
0.0000000000000000 1.0000000000000000 0.0000000000000000
0.0000000000000000 1.0000000000000000 0.0000000000000000
0.0000000000000000 1.0000000000000000 0.0000000000000000
0.0000000000000000 1.0000000000000000 0.0000000000000000
0.0000000000000000 1.0000000000000000 0.0000000000000000
0.0000000000000000 1.0000000000000000 0.0000000000000000
0.0000000000000000 1.0000000000000000 0.0000000000000000
0.0000000000000000 1.0000000000000000 0.0000000000000000
0.0000000000000000 1.0000000000000000 0.0000000000000000
0.0000000000000000 1.0000000000000000 0.0000000000000000
0.0000000000000000 1.0000000000000000 0.0000000000000000
0.0000000000000000 1.0000000000000000 0.0000000000000000
0.0000000000000000 1.0000000000000000 0.0000000000000000
0.0000000000000000 1.0000000000000000 0.0000000000000000
0.0000000000000000 1.0000000000000000 0.0000000000000000
0.0000000000000000 1.0000000000000000 0.0000000000000000
0.0000000000000000 1.0000000000000000 0.0000000000000000
0.0000000000000000 1.0000000000000000 0.0000000000000000
0.0000000000000000 1.0000000000000000 0.0000000000000000
0.0000000000000000 1.0000000000000000 0.0000000000000000
0.0000000000000000 1.0000000000000000 0.0000000000000000
0.0000000000000000 1.0000000000000000 0.0000000000000000
0.0000000000000000 1.0000000000000000 0.0000000000000000
0.0000000000000000 1.0000000000000000 0.0000000000000000
0.0000000000000000 1.0000000000000000 0.0000000000000000
0.0000000000000000 1.0000000000000000 0.0000000000000000
0.0000000000000000 1.0000000000000000 0.0000000000000000
0.0000000000000000 1.0000000000000000 0.0000000000000000
0.0000000000000000 1.0000000000000000 0.0000000000000000
0.0000000000000000 1.0000000000000000 0.0000000000000000
0.0000000000000000 1.0000000000000000 0.0000000000000000
0.0000000000000000 1.0000000000000000 0.0000000000000000
0.0000000000000000 1.0000000000000000 0.0000000000000000
0.0000000000000000 1.0000000000000000 0.0000000000000000
0.0000000000000000 1.0000000000000000 0.0000000000000000
0.0000000000000000 1.0000000000000000 0.0000000000000000
0.0000000000000000 1.0000000000000000 0.0000000000000000
0.0000000000000000 1.0000000000000000 0.0000000000000000
0.0000000000000000 1.0000000000000000 0.0000000000000000
0.0000000000000000 1.0000000000000000 0.0000000000000000
0.0000000000000000 1.0000000000000000 0.0000000000000000
0.0000000000000000 1.0000000000000000 0.0000000000000000
0.0000000000000000 1.0000000000000000 0.0000000000000000
0.0000000000000000 1.0000000000000000 0.0000000000000000
0.0000000000000000 1.0000000000000000 0.0000000000000000
0.0000000000000000 1.0000000000000000 0.0000000000000000
0.0000000000000000 1.0000000000000000 0.0000000000000000
0.0000000000000000 1.0000000000000000 0.0000000000000000
0.0000000000000000 1.0000000000000000 0.0000000000000000
0.0000000000000000 1.0000000000000000 0.0000000000000000
0.0000000000000000 1.0000000000000000 0.0000000000000000
0.0000000000000000 1.0000000000000000 0.0000000000000000
0.0000000000000000 1.0000000000000000 0.0000000000000000
0.0000000000000000 1.0000000000000000 0.0000000000000000
0.0000000000000000 1.0000000000000000 0.0000000000000000
0.0000000000000000 1.0000000000000000 0.0000000000000000
0.0000000000000000 1.0000000000000000 0.0000000000000000
0.0000000000000000 1.0000000000000000 0.0000000000000000
0.0000000000000000 1.0000000000000000 0.0000000000000000
0.0000000000000000 1.0000000000000000 0.0000000000000000
0.0000000000000000 1.0000000000000000 0.0000000000000000
0.0000000000000000 1.0000000000000000 0.0000000000000000
0.0000000000000000 1.0000000000000000 0.0000000000000000
0.0000000000000000 1.0000000000000000 0.0000000000000000
0.0000000000000000 1.0000000000000000 0.0000000000000000
0.0000000000000000 1.0000000000000000 0.0000000000000000
0.0000000000000000 1.0000000000000000 0.0000000000000000
0.0000000000000000 1.0000000000000000 0.0000000000000000
0.0000000000000000 1.0000000000000000 0.0000000000000000
0.0000000000000000 1.0000000000000000 0.0000000000000000
0.0000000000000000 1.0000000000000000 0.0000000000000000
0.0000000000000000 1.0000000000000000 0.0000000000000000
0.0000000000000000 1.0000000000000000 0.0000000000000000
0.0000000000000000 1.0000000000000000 0.0000000000000000
0.0000000000000000 1.0000000000000000 0.0000000000000000
0.0000000000000000 1.0000000000000000 0.0000000000000000
0.0000000000000000 1.0000000000000000 0.0000000000000000
0.0000000000000000 1.0000000000000000 0.0000000000000000
0.0000000000000000 1.0000000000000000 0.0000000000000000
0.0000000000000000 1.0000000000000000 0.0000000000000000
0.0000000000000000 1.0000000000000000 0.0000000000000000
0.0000000000000000 1.0000000000000000 0.0000000000000000
0.0000000000000000 1.0000000000000000 0.0000000000000000
0.0000000000000000 1.0000000000000000 0.0000000000000000
0.0000000000000000 1.0000000000000000 0.0000000000000000
0.0000000000000000 1.0000000000000000 0.0000000000000000
0.0000000000000000 1.0000000000000000 0.0000000000000000
0.0000000000000000 1.0000000000000000 0.0000000000000000
0.0000000000000000 1.0000000000000000 0.0000000000000000
0.0000000000000000 1.0000000000000000 0.0000000000000000
0.0000000000000000 1.0000000000000000 0.0000000000000000
0.0000000000000000 1.0000000000000000 0.0000000000000000
0.0000000000000000 1.0000000000000000 0.0000000000000000
0.0000000000000000 1.0000000000000000 0.0000000000000000
0.0000000000000000 1.0000000000000000 0.0000000000000000
0.0000000000000000 1.0000000000000000 0.0000000000000000
0.0000000000000000 1.0000000000000000 0.0000000000000000
0.0000000000000000 1.0000000000000000 0.0000000000000000
0.0000000000000000 1.0000000000000000 0.0000000000000000
0.0000000000000000 1.0000000000000000 0.0000000000000000
0.0000000000000000 1.0000000000000000 0.0000000000000000
0.0000000000000000 1.0000000000000000 0.0000000000000000
0.0000000000000000 1.0000000000000000 0.0000000000000000
0.0000000000000000 1.0000000000000000 0.0000000000000000
0.0000000000000000 1.0000000000000000 0.0000000000000000
0.0000000000000000 1.0000000000000000 0.0000000000000000
0.0000000000000000 1.0000000000000000 0.0000000000000000
0.0000000000000000 1.0000000000000000 0.0000000000000000
0.0000000000000000 1.0000000000000000 0.0000000000000000
0.0000000000000000 1.0000000000000000 0.0000000000000000
0.0000000000000000 1.0000000000000000 0.0000000000000000
0.0000000000000000 1.0000000000000000 0.0000000000000000
0.0000000000000000 1.0000000000000000 0.0000000000000000
0.0000000000000000 1.0000000000000000 0.0000000000000000
0.0000000000000000 1.0000000000000000 0.0000000000000000
0.0000000000000000 1.0000000000000000 0.0000000000000000
0.0000000000000000 1.0000000000000000 0.0000000000000000
0.0000000000000000 1.0000000000000000 0.0000000000000000
0.0000000000000000 1.0000000000000000 0.0000000000000000
0.0000000000000000 1.0000000000000000 0.0000000000000000
0.0000000000000000 1.0000000000000000 0.0000000000000000
0.0000000000000000 1.0000000000000000 0.0000000000000000
0.0000000000000000 1.0000000000000000 0.0000000000000000
0.0000000000000000 1.0000000000000000 0.0000000000000000
0.0000000000000000 1.0000000000000000 0.0000000000000000
0.0000000000000000 1.0000000000000000 0.0000000000000000
0.0000000000000000 1.0000000000000000 0.0000000000000000
0.0000000000000000 1.0000000000000000 0.0000000000000000
0.0000000000000000 1.0000000000000000 0.0000000000000000
0.0000000000000000 1.0000000000000000 0.0000000000000000
0.0000000000000000 1.0000000000000000 0.0000000000000000
0.0000000000000000 1.0000000000000000 0.0000000000000000
0.0000000000000000 1.0000000000000000 0.0000000000000000
0.0000000000000000 1.0000000000000000 0.0000000000000000
0.0000000000000000 1.0000000000000000 0.0000000000000000
0.0000000000000000 1.0000000000000000 0.0000000000000000
0.0000000000000000 1.0000000000000000 0.0000000000000000
0.0000000000000000 1.0000000000000000 0.0000000000000000
0.0000000000000000 1.0000000000000000 0.0000000000000000
0.0000000000000000 1.0000000000000000 0.0000000000000000
0.0000000000000000 1.0000000000000000 0.0000000000000000
0.0000000000000000 1.0000000000000000 0.0000000000000000
0.0000000000000000 1.0000000000000000 0.0000000000000000
0.0000000000000000 1.0000000000000000 0.0000000000000000
0.0000000000000000 1.0000000000000000 0.0000000000000000
0.0000000000000000 1.0000000000000000 0.0000000000000000
0.0000000000000000 1.0000000000000000 0.0000000000000000
0.0000000000000000 1.0000000000000000 0.0000000000000000
0.0000000000000000 1.0000000000000000 0.0000000000000000
0.0000000000000000 1.0000000000000000 0.0000000000000000
0.0000000000000000 1.0000000000000000 0.0000000000000000
0.0000000000000000 1.0000000000000000 0.0000000000000000
0.0000000000000000 1.0000000000000000 0.0000000000000000
0.0000000000000000 1.0000000000000000 0.0000000000000000
0.0000000000000000 1.0000000000000000 0.0000000000000000
0.0000000000000000 1.0000000000000000 0.0000000000000000
0.0000000000000000 1.0000000000000000 0.0000000000000000
0.0000000000000000 1.0000000000000000 0.0000000000000000
0.0000000000000000 1.0000000000000000 0.0000000000000000
0.0000000000000000 1.0000000000000000 0.0000000000000000
0.0000000000000000 1.0000000000000000 0.0000000000000000
0.0000000000000000 1.0000000000000000 0.0000000000000000
0.0000000000000000 1.0000000000000000 0.0000000000000000
0.0000000000000000 1.0000000000000000 0.0000000000000000
0.0000000000000000 1.0000000000000000 0.0000000000000000
0.0000000000000000 1.0000000000000000 0.0000000000000000
0.0000000000000000 1.0000000000000000 0.0000000000000000
0.0000000000000000 1.0000000000000000 0.0000000000000000
0.0000000000000000 1.0000000000000000 0.0000000000000000
0.0000000000000000 1.0000000000000000 0.0000000000000000
0.0000000000000000 1.0000000000000000 0.0000000000000000
0.0000000000000000 1.0000000000000000 0.0000000000000000
0.0000000000000000 1.0000000000000000 0.0000000000000000
0.0000000000000000 1.0000000000000000 0.0000000000000000
0.0000000000000000 1.0000000000000000 0.0000000000000000
0.0000000000000000 1.0000000000000000 0.0000000000000000
0.0000000000000000 1.0000000000000000 0.0000000000000000
0.0000000000000000 1.0000000000000000 0.0000000000000000
0.0000000000000000 1.0000000000000000 0.0000000000000000
0.0000000000000000 1.0000000000000000 0.0000000000000000
0.0000000000000000 1.0000000000000000 0.0000000000000000
0.0000000000000000 1.0000000000000000 0.0000000000000000
0.0000000000000000 1.0000000000000000 0.0000000000000000
0.0000000000000000 1.0000000000000000 0.0000000000000000
0.0000000000000000 1.0000000000000000 0.0000000000000000
0.0000000000000000 1.0000000000000000 0.0000000000000000
0.0000000000000000 1.0000000000000000 0.0000000000000000
0.0000000000000000 1.0000000000000000 0.0000000000000000
0.0000000000000000 1.0000000000000000 0.0000000000000000
0.0000000000000000 1.0000000000000000 0.0000000000000000
0.0000000000000000 1.0000000000000000 0.0000000000000000
0.0000000000000000 1.0000000000000000 0.0000000000000000
0.0000000000000000 1.0000000000000000 0.0000000000000000
0.0000000000000000 1.0000000000000000 0.0000000000000000
0.0000000000000000 1.0000000000000000 0.0000000000000000
0.0000000000000000 1.0000000000000000 0.0000000000000000
0.0000000000000000 1.0000000000000000 0.0000000000000000
0.0000000000000000 1.0000000000000000 0.0000000000000000
0.0000000000000000 1.0000000000000000 0.0000000000000000
0.0000000000000000 1.0000000000000000 0.0000000000000000
0.0000000000000000 1.0000000000000000 0.0000000000000000
0.0000000000000000 1.0000000000000000 0.0000000000000000
0.0000000000000000 1.0000000000000000 0.0000000000000000
0.0000000000000000 1.0000000000000000 0.0000000000000000
0.0000000000000000 1.0000000000000000 0.0000000000000000
0.0000000000000000 1.0000000000000000 0.0000000000000000
0.0000000000000000 1.0000000000000000 0.0000000000000000
0.0000000000000000 1.0000000000000000 0.0000000000000000
0.0000000000000000 1.0000000000000000 0.0000000000000000
0.0000000000000000 1.0000000000000000 0.0000000000000000
0.0000000000000000 1.0000000000000000 0.0000000000000000
0.0000000000000000 1.0000000000000000 0.0000000000000000
0.0000000000000000 1.0000000000000000 0.0000000000000000
0.0000000000000000 1.0000000000000000 0.0000000000000000
0.0000000000000000 1.0000000000000000 0.0000000000000000
0.0000000000000000 1.0000000000000000 0.0000000000000000
0.0000000000000000 1.0000000000000000 0.0000000000000000
0.0000000000000000 1.0000000000000000 0.0000000000000000
0.0000000000000000 1.0000000000000000 0.0000000000000000
0.0000000000000000 1.0000000000000000 0.0000000000000000
0.0000000000000000 1.0000000000000000 0.0000000000000000
0.0000000000000000 1.0000000000000000 0.0000000000000000
0.0000000000000000 1.0000000000000000 0.0000000000000000
0.0000000000000000 1.0000000000000000 0.0000000000000000
0.0000000000000000 1.0000000000000000 0.0000000000000000
0.0000000000000000 1.0000000000000000 0.0000000000000000
0.0000000000000000 1.0000000000000000 0.0000000000000000
0.0000000000000000 1.0000000000000000 0.0000000000000000
0.0000000000000000 1.0000000000000000 0.0000000000000000
0.0000000000000000 1.0000000000000000 0.0000000000000000
0.0000000000000000 1.0000000000000000 0.0000000000000000
0.0000000000000000 1.0000000000000000 0.0000000000000000
0.0000000000000000 1.0000000000000000 0.0000000000000000
0.0000000000000000 1.0000000000000000 0.0000000000000000
0.0000000000000000 1.0000000000000000 0.0000000000000000
0.0000000000000000 1.0000000000000000 0.0000000000000000
0.0000000000000000 1.0000000000000000 0.0000000000000000
0.0000000000000000 1.0000000000000000 0.0000000000000000
0.0000000000000000 1.0000000000000000 0.0000000000000000
0.0000000000000000 1.0000000000000000 0.0000000000000000
0.0000000000000000 1.0000000000000000 0.0000000000000000
0.0000000000000000 1.0000000000000000 0.0000000000000000
0.0000000000000000 1.0000000000000000 0.0000000000000000
0.0000000000000000 1.0000000000000000 0.0000000000000000
0.0000000000000000 1.0000000000000000 0.0000000000000000
0.0000000000000000 1.0000000000000000 0.0000000000000000
0.0000000000000000 1.0000000000000000 0.0000000000000000
0.0000000000000000 1.0000000000000000 0.0000000000000000
0.0000000000000000 1.0000000000000000 0.0000000000000000
0.0000000000000000 1.0000000000000000 0.0000000000000000
0.0000000000000000 1.0000000000000000 0.0000000000000000
0.0000000000000000 1.0000000000000000 0.0000000000000000
0.0000000000000000 1.0000000000000000 0.0000000000000000
0.0000000000000000 1.0000000000000000 0.0000000000000000
0.0000000000000000 1.0000000000000000 0.0000000000000000
0.0000000000000000 1.0000000000000000 0.0000000000000000
0.0000000000000000 1.0000000000000000 0.0000000000000000
0.0000000000000000 1.0000000000000000 0.0000000000000000
0.0000000000000000 1.0000000000000000 0.0000000000000000
0.0000000000000000 1.0000000000000000 0.0000000000000000
0.0000000000000000 1.0000000000000000 0.0000000000000000
0.0000000000000000 1.0000000000000000 0.0000000000000000
0.0000000000000000 1.0000000000000000 0.0000000000000000
0.0000000000000000 1.0000000000000000 0.0000000000000000
0.0000000000000000 1.0000000000000000 0.0000000000000000
0.0000000000000000 1.0000000000000000 0.0000000000000000
0.0000000000000000 1.0000000000000000 0.0000000000000000
0.0000000000000000 1.0000000000000000 0.0000000000000000
0.0000000000000000 1.0000000000000000 0.0000000000000000
0.0000000000000000 1.0000000000000000 0.0000000000000000
0.0000000000000000 1.0000000000000000 0.0000000000000000
0.0000000000000000 1.0000000000000000 0.0000000000000000
0.0000000000000000 1.0000000000000000 0.0000000000000000
0.0000000000000000 1.0000000000000000 0.0000000000000000
0.0000000000000000 1.0000000000000000 0.0000000000000000
0.0000000000000000 1.0000000000000000 0.0000000000000000
0.0000000000000000 1.0000000000000000 0.0000000000000000
0.0000000000000000 1.0000000000000000 0.0000000000000000
0.0000000000000000 1.0000000000000000 0.0000000000000000
0.0000000000000000 1.0000000000000000 0.0000000000000000
0.0000000000000000 1.0000000000000000 0.0000000000000000
0.0000000000000000 1.0000000000000000 0.0000000000000000
0.0000000000000000 1.0000000000000000 0.0000000000000000
0.0000000000000000 1.0000000000000000 0.0000000000000000
0.0000000000000000 1.0000000000000000 0.0000000000000000
0.0000000000000000 1.0000000000000000 0.0000000000000000
0.0000000000000000 1.0000000000000000 0.0000000000000000
0.0000000000000000 1.0000000000000000 0.0000000000000000
0.0000000000000000 1.0000000000000000 0.0000000000000000
0.0000000000000000 1.0000000000000000 0.0000000000000000
0.0000000000000000 1.0000000000000000 0.0000000000000000
0.0000000000000000 1.0000000000000000 0.0000000000000000
0.0000000000000000 1.0000000000000000 0.0000000000000000
0.0000000000000000 1.0000000000000000 0.0000000000000000
0.0000000000000000 1.0000000000000000 0.0000000000000000
0.0000000000000000 1.0000000000000000 0.0000000000000000
0.0000000000000000 1.0000000000000000 0.0000000000000000
0.0000000000000000 1.0000000000000000 0.0000000000000000
0.0000000000000000 1.0000000000000000 0.0000000000000000
0.0000000000000000 1.0000000000000000 0.0000000000000000
0.0000000000000000 1.0000000000000000 0.0000000000000000
0.0000000000000000 1.0000000000000000 0.0000000000000000
0.0000000000000000 1.0000000000000000 0.0000000000000000
0.0000000000000000 1.0000000000000000 0.0000000000000000
0.0000000000000000 1.0000000000000000 0.0000000000000000
0.0000000000000000 1.0000000000000000 0.0000000000000000
0.0000000000000000 1.0000000000000000 0.0000000000000000
0.0000000000000000 1.0000000000000000 0.0000000000000000
0.0000000000000000 1.0000000000000000 0.0000000000000000
0.0000000000000000 1.0000000000000000 0.0000000000000000
0.0000000000000000 1.0000000000000000 0.0000000000000000
0.0000000000000000 1.0000000000000000 0.0000000000000000
0.0000000000000000 1.0000000000000000 0.0000000000000000
0.0000000000000000 1.0000000000000000 0.0000000000000000
0.0000000000000000 1.0000000000000000 0.0000000000000000
0.0000000000000000 1.0000000000000000 0.0000000000000000
0.0000000000000000 1.0000000000000000 0.0000000000000000
0.0000000000000000 1.0000000000000000 0.0000000000000000
0.0000000000000000 1.0000000000000000 0.0000000000000000
0.0000000000000000 1.0000000000000000 0.0000000000000000
0.0000000000000000 1.0000000000000000 0.0000000000000000
0.0000000000000000 1.0000000000000000 0.0000000000000000
0.0000000000000000 1.0000000000000000 0.0000000000000000
0.0000000000000000 1.0000000000000000 0.0000000000000000
0.0000000000000000 1.0000000000000000 0.0000000000000000
0.0000000000000000 1.0000000000000000 0.0000000000000000
0.0000000000000000 1.0000000000000000 0.0000000000000000
0.0000000000000000 1.0000000000000000 0.0000000000000000
0.0000000000000000 1.0000000000000000 0.0000000000000000
0.0000000000000000 1.0000000000000000 0.0000000000000000
0.0000000000000000 1.0000000000000000 0.0000000000000000
0.0000000000000000 1.0000000000000000 0.0000000000000000
0.0000000000000000 1.0000000000000000 0.0000000000000000
0.0000000000000000 1.0000000000000000 0.0000000000000000
0.0000000000000000 1.0000000000000000 0.0000000000000000
0.0000000000000000 1.0000000000000000 0.0000000000000000
0.0000000000000000 1.0000000000000000 0.0000000000000000
0.0000000000000000 1.0000000000000000 0.0000000000000000
0.0000000000000000 1.0000000000000000 0.0000000000000000
0.0000000000000000 1.0000000000000000 0.0000000000000000
0.0000000000000000 1.0000000000000000 0.0000000000000000
0.0000000000000000 1.0000000000000000 0.0000000000000000
0.0000000000000000 1.0000000000000000 0.0000000000000000
0.0000000000000000 1.0000000000000000 0.0000000000000000
0.0000000000000000 1.0000000000000000 0.0000000000000000
0.0000000000000000 1.0000000000000000 0.0000000000000000
0.0000000000000000 1.0000000000000000 0.0000000000000000
0.0000000000000000 1.0000000000000000 0.0000000000000000
0.0000000000000000 1.0000000000000000 0.0000000000000000
0.0000000000000000 1.0000000000000000 0.0000000000000000
0.0000000000000000 1.0000000000000000 0.0000000000000000
0.0000000000000000 1.0000000000000000 0.0000000000000000
0.0000000000000000 1.0000000000000000 0.0000000000000000
0.0000000000000000 1.0000000000000000 0.0000000000000000
0.0000000000000000 1.0000000000000000 0.0000000000000000
0.0000000000000000 1.0000000000000000 0.0000000000000000
0.0000000000000000 1.0000000000000000 0.0000000000000000
0.0000000000000000 1.0000000000000000 0.0000000000000000
0.0000000000000000 1.0000000000000000 0.0000000000000000
0.0000000000000000 1.0000000000000000 0.0000000000000000
0.0000000000000000 1.0000000000000000 0.0000000000000000
0.0000000000000000 1.0000000000000000 0.0000000000000000
0.0000000000000000 1.0000000000000000 0.0000000000000000
0.0000000000000000 1.0000000000000000 0.0000000000000000
0.0000000000000000 1.0000000000000000 0.0000000000000000
0.0000000000000000 1.0000000000000000 0.0000000000000000
0.0000000000000000 1.0000000000000000 0.0000000000000000
0.0000000000000000 1.0000000000000000 0.0000000000000000
0.0000000000000000 1.0000000000000000 0.0000000000000000
0.0000000000000000 1.0000000000000000 0.0000000000000000
0.0000000000000000 1.0000000000000000 0.0000000000000000
0.0000000000000000 1.0000000000000000 0.0000000000000000
0.0000000000000000 1.0000000000000000 0.0000000000000000
0.0000000000000000 1.0000000000000000 0.0000000000000000
0.0000000000000000 1.0000000000000000 0.0000000000000000
0.0000000000000000 1.0000000000000000 0.0000000000000000
0.0000000000000000 1.0000000000000000 0.0000000000000000
0.0000000000000000 1.0000000000000000 0.0000000000000000
0.0000000000000000 1.0000000000000000 0.0000000000000000
0.0000000000000000 1.0000000000000000 0.0000000000000000
0.0000000000000000 1.0000000000000000 0.0000000000000000
0.0000000000000000 1.0000000000000000 0.0000000000000000
0.0000000000000000 1.0000000000000000 0.0000000000000000
0.0000000000000000 1.0000000000000000 0.0000000000000000
0.0000000000000000 1.0000000000000000 0.0000000000000000
0.0000000000000000 1.0000000000000000 0.0000000000000000
0.0000000000000000 1.0000000000000000 0.0000000000000000
0.0000000000000000 1.0000000000000000 0.0000000000000000
0.0000000000000000 1.0000000000000000 0.0000000000000000
0.0000000000000000 1.0000000000000000 0.0000000000000000
0.0000000000000000 1.0000000000000000 0.0000000000000000
0.0000000000000000 1.0000000000000000 0.0000000000000000
0.0000000000000000 1.0000000000000000 0.0000000000000000
0.0000000000000000 1.0000000000000000 0.0000000000000000
0.0000000000000000 1.0000000000000000 0.0000000000000000
0.0000000000000000 1.0000000000000000 0.0000000000000000
0.0000000000000000 1.0000000000000000 0.0000000000000000
0.0000000000000000 1.0000000000000000 0.0000000000000000
0.0000000000000000 1.0000000000000000 0.0000000000000000
0.0000000000000000 1.0000000000000000 0.0000000000000000
0.0000000000000000 1.0000000000000000 0.0000000000000000
0.0000000000000000 1.0000000000000000 0.0000000000000000
0.0000000000000000 1.0000000000000000 0.0000000000000000
0.0000000000000000 1.0000000000000000 0.0000000000000000
0.0000000000000000 1.0000000000000000 0.0000000000000000
0.0000000000000000 1.0000000000000000 0.0000000000000000
0.0000000000000000 1.0000000000000000 0.0000000000000000
0.0000000000000000 1.0000000000000000 0.0000000000000000
0.0000000000000000 1.0000000000000000 0.0000000000000000
0.0000000000000000 1.0000000000000000 0.0000000000000000
0.0000000000000000 1.0000000000000000 0.0000000000000000
0.0000000000000000 1.0000000000000000 0.0000000000000000
0.0000000000000000 1.0000000000000000 0.0000000000000000
0.0000000000000000 1.0000000000000000 0.0000000000000000
0.0000000000000000 1.0000000000000000 0.0000000000000000
0.0000000000000000 1.0000000000000000 0.0000000000000000
0.0000000000000000 1.0000000000000000 0.0000000000000000
0.0000000000000000 1.0000000000000000 0.0000000000000000
0.0000000000000000 1.0000000000000000 0.0000000000000000
0.0000000000000000 1.0000000000000000 0.0000000000000000
0.0000000000000000 1.0000000000000000 0.0000000000000000
0.0000000000000000 1.0000000000000000 0.0000000000000000
0.0000000000000000 1.0000000000000000 0.0000000000000000
0.0000000000000000 1.0000000000000000 0.0000000000000000
0.0000000000000000 1.0000000000000000 0.0000000000000000
0.0000000000000000 1.0000000000000000 0.0000000000000000
0.0000000000000000 1.0000000000000000 0.0000000000000000
0.0000000000000000 1.0000000000000000 0.0000000000000000
0.0000000000000000 1.0000000000000000 0.0000000000000000
0.0000000000000000 1.0000000000000000 0.0000000000000000
0.0000000000000000 1.0000000000000000 0.0000000000000000
0.0000000000000000 1.0000000000000000 0.0000000000000000
0.0000000000000000 1.0000000000000000 0.0000000000000000
0.0000000000000000 1.0000000000000000 0.0000000000000000
0.0000000000000000 1.0000000000000000 0.0000000000000000
0.0000000000000000 1.0000000000000000 0.0000000000000000
0.0000000000000000 1.0000000000000000 0.0000000000000000
0.0000000000000000 1.0000000000000000 0.0000000000000000
0.0000000000000000 1.0000000000000000 0.0000000000000000
0.0000000000000000 1.0000000000000000 0.0000000000000000
0.0000000000000000 1.0000000000000000 0.0000000000000000
0.0000000000000000 1.0000000000000000 0.0000000000000000
0.0000000000000000 1.0000000000000000 0.0000000000000000
0.0000000000000000 1.0000000000000000 0.0000000000000000
0.0000000000000000 1.0000000000000000 0.0000000000000000
0.0000000000000000 1.0000000000000000 0.0000000000000000
0.0000000000000000 1.0000000000000000 0.0000000000000000
0.0000000000000000 1.0000000000000000 0.0000000000000000
0.0000000000000000 1.0000000000000000 0.0000000000000000
0.0000000000000000 1.0000000000000000 0.0000000000000000
0.0000000000000000 1.0000000000000000 0.0000000000000000
0.0000000000000000 1.0000000000000000 0.0000000000000000
0.0000000000000000 1.0000000000000000 0.0000000000000000
0.0000000000000000 1.0000000000000000 0.0000000000000000
0.0000000000000000 1.0000000000000000 0.0000000000000000
0.0000000000000000 1.0000000000000000 0.0000000000000000
0.0000000000000000 1.0000000000000000 0.0000000000000000
0.0000000000000000 1.0000000000000000 0.0000000000000000
0.0000000000000000 1.0000000000000000 0.0000000000000000
0.0000000000000000 1.0000000000000000 0.0000000000000000
0.0000000000000000 1.0000000000000000 0.0000000000000000
0.0000000000000000 1.0000000000000000 0.0000000000000000
0.0000000000000000 1.0000000000000000 0.0000000000000000
0.0000000000000000 1.0000000000000000 0.0000000000000000
0.0000000000000000 1.0000000000000000 0.0000000000000000
0.0000000000000000 1.0000000000000000 0.0000000000000000
0.0000000000000000 1.0000000000000000 0.0000000000000000
0.0000000000000000 1.0000000000000000 0.0000000000000000
0.0000000000000000 1.0000000000000000 0.0000000000000000
0.0000000000000000 1.0000000000000000 0.0000000000000000
0.0000000000000000 1.0000000000000000 0.0000000000000000
0.0000000000000000 1.0000000000000000 0.0000000000000000
0.0000000000000000 1.0000000000000000 0.0000000000000000
0.0000000000000000 1.0000000000000000 0.0000000000000000
0.0000000000000000 1.0000000000000000 0.0000000000000000
0.0000000000000000 1.0000000000000000 0.0000000000000000
0.0000000000000000 1.0000000000000000 0.0000000000000000
0.0000000000000000 1.0000000000000000 0.0000000000000000
0.0000000000000000 1.0000000000000000 0.0000000000000000
0.0000000000000000 1.0000000000000000 0.0000000000000000
0.0000000000000000 1.0000000000000000 0.0000000000000000
0.0000000000000000 1.0000000000000000 0.0000000000000000
0.0000000000000000 1.0000000000000000 0.0000000000000000
0.0000000000000000 1.0000000000000000 0.0000000000000000
0.0000000000000000 1.0000000000000000 0.0000000000000000
0.0000000000000000 1.0000000000000000 0.0000000000000000
0.0000000000000000 1.0000000000000000 0.0000000000000000
0.0000000000000000 1.0000000000000000 0.0000000000000000
0.0000000000000000 1.0000000000000000 0.0000000000000000
0.0000000000000000 1.0000000000000000 0.0000000000000000
0.0000000000000000 1.0000000000000000 0.0000000000000000
0.0000000000000000 1.0000000000000000 0.0000000000000000
0.0000000000000000 1.0000000000000000 0.0000000000000000
0.0000000000000000 1.0000000000000000 0.0000000000000000
0.0000000000000000 1.0000000000000000 0.0000000000000000
0.0000000000000000 1.0000000000000000 0.0000000000000000
0.0000000000000000 1.0000000000000000 0.0000000000000000
0.0000000000000000 1.0000000000000000 0.0000000000000000
0.0000000000000000 1.0000000000000000 0.0000000000000000
0.0000000000000000 1.0000000000000000 0.0000000000000000
0.0000000000000000 1.0000000000000000 0.0000000000000000
0.0000000000000000 1.0000000000000000 0.0000000000000000
0.0000000000000000 1.0000000000000000 0.0000000000000000
0.0000000000000000 1.0000000000000000 0.0000000000000000
0.0000000000000000 1.0000000000000000 0.0000000000000000
0.0000000000000000 1.0000000000000000 0.0000000000000000
0.0000000000000000 1.0000000000000000 0.0000000000000000
0.0000000000000000 1.0000000000000000 0.0000000000000000
0.0000000000000000 1.0000000000000000 0.0000000000000000
0.0000000000000000 1.0000000000000000 0.0000000000000000
0.0000000000000000 1.0000000000000000 0.0000000000000000
0.0000000000000000 1.0000000000000000 0.0000000000000000
0.0000000000000000 1.0000000000000000 0.0000000000000000
0.0000000000000000 1.0000000000000000 0.0000000000000000
0.0000000000000000 1.0000000000000000 0.0000000000000000
0.0000000000000000 1.0000000000000000 0.0000000000000000
0.0000000000000000 1.0000000000000000 0.0000000000000000
0.0000000000000000 1.0000000000000000 0.0000000000000000
0.0000000000000000 1.0000000000000000 0.0000000000000000
0.0000000000000000 1.0000000000000000 0.0000000000000000
0.0000000000000000 1.0000000000000000 0.0000000000000000
0.0000000000000000 1.0000000000000000 0.0000000000000000
0.0000000000000000 1.0000000000000000 0.0000000000000000
0.0000000000000000 1.0000000000000000 0.0000000000000000
0.0000000000000000 1.0000000000000000 0.0000000000000000
0.0000000000000000 1.0000000000000000 0.0000000000000000
0.0000000000000000 1.0000000000000000 0.0000000000000000
0.0000000000000000 1.0000000000000000 0.0000000000000000
0.0000000000000000 1.0000000000000000 0.0000000000000000
0.0000000000000000 1.0000000000000000 0.0000000000000000
0.0000000000000000 1.0000000000000000 0.0000000000000000
0.0000000000000000 1.0000000000000000 0.0000000000000000
0.0000000000000000 1.0000000000000000 0.0000000000000000
0.0000000000000000 1.0000000000000000 0.0000000000000000
0.0000000000000000 1.0000000000000000 0.0000000000000000
0.0000000000000000 1.0000000000000000 0.0000000000000000
0.0000000000000000 1.0000000000000000 0.0000000000000000
0.0000000000000000 1.0000000000000000 0.0000000000000000
0.0000000000000000 1.0000000000000000 0.0000000000000000
0.0000000000000000 1.0000000000000000 0.0000000000000000
0.0000000000000000 1.0000000000000000 0.0000000000000000
0.0000000000000000 1.0000000000000000 0.0000000000000000
0.0000000000000000 1.0000000000000000 0.0000000000000000
0.0000000000000000 1.0000000000000000 0.0000000000000000
0.0000000000000000 1.0000000000000000 0.0000000000000000
0.0000000000000000 1.0000000000000000 0.0000000000000000
0.0000000000000000 1.0000000000000000 0.0000000000000000
0.0000000000000000 1.0000000000000000 0.0000000000000000
0.0000000000000000 1.0000000000000000 0.0000000000000000
0.0000000000000000 1.0000000000000000 0.0000000000000000
0.0000000000000000 1.0000000000000000 0.0000000000000000
0.0000000000000000 1.0000000000000000 0.0000000000000000
0.0000000000000000 1.0000000000000000 0.0000000000000000
0.0000000000000000 1.0000000000000000 0.0000000000000000
0.0000000000000000 1.0000000000000000 0.0000000000000000
0.0000000000000000 1.0000000000000000 0.0000000000000000
0.0000000000000000 1.0000000000000000 0.0000000000000000
0.0000000000000000 1.0000000000000000 0.0000000000000000
0.0000000000000000 1.0000000000000000 0.0000000000000000
0.0000000000000000 1.0000000000000000 0.0000000000000000
0.0000000000000000 1.0000000000000000 0.0000000000000000
0.0000000000000000 1.0000000000000000 0.0000000000000000
0.0000000000000000 1.0000000000000000 0.0000000000000000
0.0000000000000000 1.0000000000000000 0.0000000000000000
0.0000000000000000 1.0000000000000000 0.0000000000000000
0.0000000000000000 1.0000000000000000 0.0000000000000000
0.0000000000000000 1.0000000000000000 0.0000000000000000
0.0000000000000000 1.0000000000000000 0.0000000000000000
0.0000000000000000 1.0000000000000000 0.0000000000000000
0.0000000000000000 1.0000000000000000 0.0000000000000000
0.0000000000000000 1.0000000000000000 0.0000000000000000
0.0000000000000000 1.0000000000000000 0.0000000000000000
0.0000000000000000 1.0000000000000000 0.0000000000000000
0.0000000000000000 1.0000000000000000 0.0000000000000000
0.0000000000000000 1.0000000000000000 0.0000000000000000
0.0000000000000000 1.0000000000000000 0.0000000000000000
0.0000000000000000 1.0000000000000000 0.0000000000000000
0.0000000000000000 1.0000000000000000 0.0000000000000000
0.0000000000000000 1.0000000000000000 0.0000000000000000
0.0000000000000000 1.0000000000000000 0.0000000000000000
0.0000000000000000 1.0000000000000000 0.0000000000000000
0.0000000000000000 1.0000000000000000 0.0000000000000000
0.0000000000000000 1.0000000000000000 0.0000000000000000
0.0000000000000000 1.0000000000000000 0.0000000000000000
0.0000000000000000 1.0000000000000000 0.0000000000000000
0.0000000000000000 1.0000000000000000 0.0000000000000000
0.0000000000000000 1.0000000000000000 0.0000000000000000
0.0000000000000000 1.0000000000000000 0.0000000000000000
0.0000000000000000 1.0000000000000000 0.0000000000000000
0.0000000000000000 1.0000000000000000 0.0000000000000000
0.0000000000000000 1.0000000000000000 0.0000000000000000
0.0000000000000000 1.0000000000000000 0.0000000000000000
0.0000000000000000 1.0000000000000000 0.0000000000000000
0.0000000000000000 1.0000000000000000 0.0000000000000000
0.0000000000000000 1.0000000000000000 0.0000000000000000
0.0000000000000000 1.0000000000000000 0.0000000000000000
0.0000000000000000 1.0000000000000000 0.0000000000000000
0.0000000000000000 1.0000000000000000 0.0000000000000000
0.0000000000000000 1.0000000000000000 0.0000000000000000
0.0000000000000000 1.0000000000000000 0.0000000000000000
0.0000000000000000 1.0000000000000000 0.0000000000000000
0.0000000000000000 1.0000000000000000 0.0000000000000000
0.0000000000000000 1.0000000000000000 0.0000000000000000
0.0000000000000000 1.0000000000000000 0.0000000000000000
0.0000000000000000 1.0000000000000000 0.0000000000000000
0.0000000000000000 1.0000000000000000 0.0000000000000000
0.0000000000000000 1.0000000000000000 0.0000000000000000
0.0000000000000000 1.0000000000000000 0.0000000000000000
0.0000000000000000 1.0000000000000000 0.0000000000000000
0.0000000000000000 1.0000000000000000 0.0000000000000000
0.0000000000000000 1.0000000000000000 0.0000000000000000
0.0000000000000000 1.0000000000000000 0.0000000000000000
0.0000000000000000 1.0000000000000000 0.0000000000000000
0.0000000000000000 1.0000000000000000 0.0000000000000000
0.0000000000000000 1.0000000000000000 0.0000000000000000
0.0000000000000000 1.0000000000000000 0.0000000000000000
0.0000000000000000 1.0000000000000000 0.0000000000000000
0.0000000000000000 1.0000000000000000 0.0000000000000000
0.0000000000000000 1.0000000000000000 0.0000000000000000
0.0000000000000000 1.0000000000000000 0.0000000000000000
0.0000000000000000 1.0000000000000000 0.0000000000000000
0.0000000000000000 1.0000000000000000 0.0000000000000000
0.0000000000000000 1.0000000000000000 0.0000000000000000
0.0000000000000000 1.0000000000000000 0.0000000000000000
0.0000000000000000 1.0000000000000000 0.0000000000000000
0.0000000000000000 1.0000000000000000 0.0000000000000000
0.0000000000000000 1.0000000000000000 0.0000000000000000
0.0000000000000000 1.0000000000000000 0.0000000000000000
0.0000000000000000 1.0000000000000000 0.0000000000000000
0.0000000000000000 1.0000000000000000 0.0000000000000000
0.0000000000000000 1.0000000000000000 0.0000000000000000
0.0000000000000000 1.0000000000000000 0.0000000000000000
0.0000000000000000 1.0000000000000000 0.0000000000000000
0.0000000000000000 1.0000000000000000 0.0000000000000000
0.0000000000000000 1.0000000000000000 0.0000000000000000
0.0000000000000000 1.0000000000000000 0.0000000000000000
0.0000000000000000 1.0000000000000000 0.0000000000000000
0.0000000000000000 1.0000000000000000 0.0000000000000000
0.0000000000000000 1.0000000000000000 0.0000000000000000
0.0000000000000000 1.0000000000000000 0.0000000000000000
0.0000000000000000 1.0000000000000000 0.0000000000000000
0.0000000000000000 1.0000000000000000 0.0000000000000000
0.0000000000000000 1.0000000000000000 0.0000000000000000
0.0000000000000000 1.0000000000000000 0.0000000000000000
0.0000000000000000 1.0000000000000000 0.0000000000000000
0.0000000000000000 1.0000000000000000 0.0000000000000000
0.0000000000000000 1.0000000000000000 0.0000000000000000
0.0000000000000000 1.0000000000000000 0.0000000000000000
0.0000000000000000 1.0000000000000000 0.0000000000000000
0.0000000000000000 1.0000000000000000 0.0000000000000000
0.0000000000000000 1.0000000000000000 0.0000000000000000
0.0000000000000000 1.0000000000000000 0.0000000000000000
0.0000000000000000 1.0000000000000000 0.0000000000000000
0.0000000000000000 1.0000000000000000 0.0000000000000000
0.0000000000000000 1.0000000000000000 0.0000000000000000
0.0000000000000000 1.0000000000000000 0.0000000000000000
0.0000000000000000 1.0000000000000000 0.0000000000000000
0.0000000000000000 1.0000000000000000 0.0000000000000000
0.0000000000000000 1.0000000000000000 0.0000000000000000
0.0000000000000000 1.0000000000000000 0.0000000000000000
0.0000000000000000 1.0000000000000000 0.0000000000000000
0.0000000000000000 1.0000000000000000 0.0000000000000000
0.0000000000000000 1.0000000000000000 0.0000000000000000
0.0000000000000000 1.0000000000000000 0.0000000000000000
0.0000000000000000 1.0000000000000000 0.0000000000000000
0.0000000000000000 1.0000000000000000 0.0000000000000000
0.0000000000000000 1.0000000000000000 0.0000000000000000
0.0000000000000000 1.0000000000000000 0.0000000000000000
0.0000000000000000 1.0000000000000000 0.0000000000000000
0.0000000000000000 1.0000000000000000 0.0000000000000000
0.0000000000000000 1.0000000000000000 0.0000000000000000
0.0000000000000000 1.0000000000000000 0.0000000000000000
0.0000000000000000 1.0000000000000000 0.0000000000000000
0.0000000000000000 1.0000000000000000 0.0000000000000000
0.0000000000000000 1.0000000000000000 0.0000000000000000
0.0000000000000000 1.0000000000000000 0.0000000000000000
0.0000000000000000 1.0000000000000000 0.0000000000000000
0.0000000000000000 1.0000000000000000 0.0000000000000000
0.0000000000000000 1.0000000000000000 0.0000000000000000
0.0000000000000000 1.0000000000000000 0.0000000000000000
0.0000000000000000 1.0000000000000000 0.0000000000000000
0.0000000000000000 1.0000000000000000 0.0000000000000000
0.0000000000000000 1.0000000000000000 0.0000000000000000
0.0000000000000000 1.0000000000000000 0.0000000000000000
0.0000000000000000 1.0000000000000000 0.0000000000000000
0.0000000000000000 1.0000000000000000 0.0000000000000000
0.0000000000000000 1.0000000000000000 0.0000000000000000
0.0000000000000000 1.0000000000000000 0.0000000000000000
0.0000000000000000 1.0000000000000000 0.0000000000000000
0.0000000000000000 1.0000000000000000 0.0000000000000000
0.0000000000000000 1.0000000000000000 0.0000000000000000
0.0000000000000000 1.0000000000000000 0.0000000000000000
0.0000000000000000 1.0000000000000000 0.0000000000000000
0.0000000000000000 1.0000000000000000 0.0000000000000000
0.0000000000000000 1.0000000000000000 0.0000000000000000
0.0000000000000000 1.0000000000000000 0.0000000000000000
0.0000000000000000 1.0000000000000000 0.0000000000000000
0.0000000000000000 1.0000000000000000 0.0000000000000000
0.0000000000000000 1.0000000000000000 0.0000000000000000
0.0000000000000000 1.0000000000000000 0.0000000000000000
0.0000000000000000 1.0000000000000000 0.0000000000000000
0.0000000000000000 1.0000000000000000 0.0000000000000000
0.0000000000000000 1.0000000000000000 0.0000000000000000
0.0000000000000000 1.0000000000000000 0.0000000000000000
0.0000000000000000 1.0000000000000000 0.0000000000000000
0.0000000000000000 1.0000000000000000 0.0000000000000000
0.0000000000000000 1.0000000000000000 0.0000000000000000
0.0000000000000000 1.0000000000000000 0.0000000000000000
0.0000000000000000 1.0000000000000000 0.0000000000000000
0.0000000000000000 1.0000000000000000 0.0000000000000000
0.0000000000000000 1.0000000000000000 0.0000000000000000
0.0000000000000000 1.0000000000000000 0.0000000000000000
0.0000000000000000 1.0000000000000000 0.0000000000000000
0.0000000000000000 1.0000000000000000 0.0000000000000000
0.0000000000000000 1.0000000000000000 0.0000000000000000
0.0000000000000000 1.0000000000000000 0.0000000000000000
0.0000000000000000 1.0000000000000000 0.0000000000000000
0.0000000000000000 1.0000000000000000 0.0000000000000000
0.0000000000000000 1.0000000000000000 0.0000000000000000
0.0000000000000000 1.0000000000000000 0.0000000000000000
0.0000000000000000 1.0000000000000000 0.0000000000000000
0.0000000000000000 1.0000000000000000 0.0000000000000000
0.0000000000000000 1.0000000000000000 0.0000000000000000
0.0000000000000000 1.0000000000000000 0.0000000000000000
0.0000000000000000 1.0000000000000000 0.0000000000000000
0.0000000000000000 1.0000000000000000 0.0000000000000000
0.0000000000000000 1.0000000000000000 0.0000000000000000
0.0000000000000000 1.0000000000000000 0.0000000000000000
0.0000000000000000 1.0000000000000000 0.0000000000000000
0.0000000000000000 1.0000000000000000 0.0000000000000000
0.0000000000000000 1.0000000000000000 0.0000000000000000
0.0000000000000000 1.0000000000000000 0.0000000000000000
0.0000000000000000 1.0000000000000000 0.0000000000000000
0.0000000000000000 1.0000000000000000 0.0000000000000000
0.0000000000000000 1.0000000000000000 0.0000000000000000
0.0000000000000000 1.0000000000000000 0.0000000000000000
0.0000000000000000 1.0000000000000000 0.0000000000000000
0.0000000000000000 1.0000000000000000 0.0000000000000000
0.0000000000000000 1.0000000000000000 0.0000000000000000
0.0000000000000000 1.0000000000000000 0.0000000000000000
0.0000000000000000 1.0000000000000000 0.0000000000000000
0.0000000000000000 1.0000000000000000 0.0000000000000000
0.0000000000000000 1.0000000000000000 0.0000000000000000
0.0000000000000000 1.0000000000000000 0.0000000000000000
0.0000000000000000 1.0000000000000000 0.0000000000000000
0.0000000000000000 1.0000000000000000 0.0000000000000000
0.0000000000000000 1.0000000000000000 0.0000000000000000
0.0000000000000000 1.0000000000000000 0.0000000000000000
0.0000000000000000 1.0000000000000000 0.0000000000000000
0.0000000000000000 1.0000000000000000 0.0000000000000000
0.0000000000000000 1.0000000000000000 0.0000000000000000
0.0000000000000000 1.0000000000000000 0.0000000000000000
0.0000000000000000 1.0000000000000000 0.0000000000000000
0.0000000000000000 1.0000000000000000 0.0000000000000000
0.0000000000000000 1.0000000000000000 0.0000000000000000
0.0000000000000000 1.0000000000000000 0.0000000000000000
0.0000000000000000 1.0000000000000000 0.0000000000000000
0.0000000000000000 1.0000000000000000 0.0000000000000000
0.0000000000000000 1.0000000000000000 0.0000000000000000
0.0000000000000000 1.0000000000000000 0.0000000000000000
0.0000000000000000 1.0000000000000000 0.0000000000000000
0.0000000000000000 1.0000000000000000 0.0000000000000000
0.0000000000000000 1.0000000000000000 0.0000000000000000
0.0000000000000000 1.0000000000000000 0.0000000000000000
0.0000000000000000 1.0000000000000000 0.0000000000000000
0.0000000000000000 1.0000000000000000 0.0000000000000000
0.0000000000000000 1.0000000000000000 0.0000000000000000
0.0000000000000000 1.0000000000000000 0.0000000000000000
0.0000000000000000 1.0000000000000000 0.0000000000000000
0.0000000000000000 1.0000000000000000 0.0000000000000000
0.0000000000000000 1.0000000000000000 0.0000000000000000
0.0000000000000000 1.0000000000000000 0.0000000000000000
0.0000000000000000 1.0000000000000000 0.0000000000000000
0.0000000000000000 1.0000000000000000 0.0000000000000000
0.0000000000000000 1.0000000000000000 0.0000000000000000
0.0000000000000000 1.0000000000000000 0.0000000000000000
0.0000000000000000 1.0000000000000000 0.0000000000000000
0.0000000000000000 1.0000000000000000 0.0000000000000000
0.0000000000000000 1.0000000000000000 0.0000000000000000
0.0000000000000000 1.0000000000000000 0.0000000000000000
0.0000000000000000 1.0000000000000000 0.0000000000000000
0.0000000000000000 1.0000000000000000 0.0000000000000000
0.0000000000000000 1.0000000000000000 0.0000000000000000
0.0000000000000000 1.0000000000000000 0.0000000000000000
0.0000000000000000 1.0000000000000000 0.0000000000000000
0.0000000000000000 1.0000000000000000 0.0000000000000000
0.0000000000000000 1.0000000000000000 0.0000000000000000
0.0000000000000000 1.0000000000000000 0.0000000000000000
0.0000000000000000 1.0000000000000000 0.0000000000000000
0.0000000000000000 1.0000000000000000 0.0000000000000000
0.0000000000000000 1.0000000000000000 0.0000000000000000
0.0000000000000000 1.0000000000000000 0.0000000000000000
0.0000000000000000 1.0000000000000000 0.0000000000000000
0.0000000000000000 1.0000000000000000 0.0000000000000000
0.0000000000000000 1.0000000000000000 0.0000000000000000
0.0000000000000000 1.0000000000000000 0.0000000000000000
0.0000000000000000 1.0000000000000000 0.0000000000000000
0.0000000000000000 1.0000000000000000 0.0000000000000000
0.0000000000000000 1.0000000000000000 0.0000000000000000
0.0000000000000000 1.0000000000000000 0.0000000000000000
0.0000000000000000 1.0000000000000000 0.0000000000000000
0.0000000000000000 1.0000000000000000 0.0000000000000000
0.0000000000000000 1.0000000000000000 0.0000000000000000
0.0000000000000000 1.0000000000000000 0.0000000000000000
0.0000000000000000 1.0000000000000000 0.0000000000000000
0.0000000000000000 1.0000000000000000 0.0000000000000000
0.0000000000000000 1.0000000000000000 0.0000000000000000
0.0000000000000000 1.0000000000000000 0.0000000000000000
0.0000000000000000 1.0000000000000000 0.0000000000000000
0.0000000000000000 1.0000000000000000 0.0000000000000000
0.0000000000000000 1.0000000000000000 0.0000000000000000
0.0000000000000000 1.0000000000000000 0.0000000000000000
0.0000000000000000 1.0000000000000000 0.0000000000000000
0.0000000000000000 1.0000000000000000 0.0000000000000000
0.0000000000000000 1.0000000000000000 0.0000000000000000
0.0000000000000000 1.0000000000000000 0.0000000000000000
0.0000000000000000 1.0000000000000000 0.0000000000000000
0.0000000000000000 1.0000000000000000 0.0000000000000000
0.0000000000000000 1.0000000000000000 0.0000000000000000
0.0000000000000000 1.0000000000000000 0.0000000000000000
0.0000000000000000 1.0000000000000000 0.0000000000000000
0.0000000000000000 1.0000000000000000 0.0000000000000000
0.0000000000000000 1.0000000000000000 0.0000000000000000
0.0000000000000000 1.0000000000000000 0.0000000000000000
0.0000000000000000 1.0000000000000000 0.0000000000000000
0.0000000000000000 1.0000000000000000 0.0000000000000000
0.0000000000000000 1.0000000000000000 0.0000000000000000
0.0000000000000000 1.0000000000000000 0.0000000000000000
0.0000000000000000 1.0000000000000000 0.0000000000000000
0.0000000000000000 1.0000000000000000 0.0000000000000000
0.0000000000000000 1.0000000000000000 0.0000000000000000
0.0000000000000000 1.0000000000000000 0.0000000000000000
0.0000000000000000 1.0000000000000000 0.0000000000000000
0.0000000000000000 1.0000000000000000 0.0000000000000000
0.0000000000000000 1.0000000000000000 0.0000000000000000
0.0000000000000000 1.0000000000000000 0.0000000000000000
0.0000000000000000 1.0000000000000000 0.0000000000000000
0.0000000000000000 1.0000000000000000 0.0000000000000000
0.0000000000000000 1.0000000000000000 0.0000000000000000
0.0000000000000000 1.0000000000000000 0.0000000000000000
0.0000000000000000 1.0000000000000000 0.0000000000000000
0.0000000000000000 1.0000000000000000 0.0000000000000000
0.0000000000000000 1.0000000000000000 0.0000000000000000
0.0000000000000000 1.0000000000000000 0.0000000000000000
0.0000000000000000 1.0000000000000000 0.0000000000000000
0.0000000000000000 1.0000000000000000 0.0000000000000000
0.0000000000000000 1.0000000000000000 0.0000000000000000
0.0000000000000000 1.0000000000000000 0.0000000000000000
0.0000000000000000 1.0000000000000000 0.0000000000000000
0.0000000000000000 1.0000000000000000 0.0000000000000000
0.0000000000000000 1.0000000000000000 0.0000000000000000
0.0000000000000000 1.0000000000000000 0.0000000000000000
0.0000000000000000 1.0000000000000000 0.0000000000000000
0.0000000000000000 1.0000000000000000 0.0000000000000000
0.0000000000000000 1.0000000000000000 0.0000000000000000
0.0000000000000000 1.0000000000000000 0.0000000000000000
0.0000000000000000 1.0000000000000000 0.0000000000000000
0.0000000000000000 1.0000000000000000 0.0000000000000000
0.0000000000000000 1.0000000000000000 0.0000000000000000
0.0000000000000000 1.0000000000000000 0.0000000000000000
0.0000000000000000 1.0000000000000000 0.0000000000000000
0.0000000000000000 1.0000000000000000 0.0000000000000000
0.0000000000000000 1.0000000000000000 0.0000000000000000
0.0000000000000000 1.0000000000000000 0.0000000000000000
0.0000000000000000 1.0000000000000000 0.0000000000000000
0.0000000000000000 1.0000000000000000 0.0000000000000000
0.0000000000000000 1.0000000000000000 0.0000000000000000
0.0000000000000000 1.0000000000000000 0.0000000000000000
0.0000000000000000 1.0000000000000000 0.0000000000000000
0.0000000000000000 1.0000000000000000 0.0000000000000000
0.0000000000000000 1.0000000000000000 0.0000000000000000
0.0000000000000000 1.0000000000000000 0.0000000000000000
0.0000000000000000 1.0000000000000000 0.0000000000000000
0.0000000000000000 1.0000000000000000 0.0000000000000000
0.0000000000000000 1.0000000000000000 0.0000000000000000
0.0000000000000000 1.0000000000000000 0.0000000000000000
0.0000000000000000 1.0000000000000000 0.0000000000000000
0.0000000000000000 1.0000000000000000 0.0000000000000000
0.0000000000000000 1.0000000000000000 0.0000000000000000
0.0000000000000000 1.0000000000000000 0.0000000000000000
0.0000000000000000 1.0000000000000000 0.0000000000000000
0.0000000000000000 1.0000000000000000 0.0000000000000000
0.0000000000000000 1.0000000000000000 0.0000000000000000
0.0000000000000000 1.0000000000000000 0.0000000000000000
0.0000000000000000 1.0000000000000000 0.0000000000000000
0.0000000000000000 1.0000000000000000 0.0000000000000000
0.0000000000000000 1.0000000000000000 0.0000000000000000
0.0000000000000000 1.0000000000000000 0.0000000000000000
0.0000000000000000 1.0000000000000000 0.0000000000000000
0.0000000000000000 1.0000000000000000 0.0000000000000000
0.0000000000000000 1.0000000000000000 0.0000000000000000
0.0000000000000000 1.0000000000000000 0.0000000000000000
0.0000000000000000 1.0000000000000000 0.0000000000000000
0.0000000000000000 1.0000000000000000 0.0000000000000000
0.0000000000000000 1.0000000000000000 0.0000000000000000
0.0000000000000000 1.0000000000000000 0.0000000000000000
0.0000000000000000 1.0000000000000000 0.0000000000000000
0.0000000000000000 1.0000000000000000 0.0000000000000000
0.0000000000000000 1.0000000000000000 0.0000000000000000
0.0000000000000000 1.0000000000000000 0.0000000000000000
0.0000000000000000 1.0000000000000000 0.0000000000000000
0.0000000000000000 1.0000000000000000 0.0000000000000000
0.0000000000000000 1.0000000000000000 0.0000000000000000
0.0000000000000000 1.0000000000000000 0.0000000000000000
0.0000000000000000 1.0000000000000000 0.0000000000000000
0.0000000000000000 1.0000000000000000 0.0000000000000000
0.0000000000000000 1.0000000000000000 0.0000000000000000
0.0000000000000000 1.0000000000000000 0.0000000000000000
0.0000000000000000 1.0000000000000000 0.0000000000000000
0.0000000000000000 1.0000000000000000 0.0000000000000000
0.0000000000000000 1.0000000000000000 0.0000000000000000
0.0000000000000000 1.0000000000000000 0.0000000000000000
0.0000000000000000 1.0000000000000000 0.0000000000000000
0.0000000000000000 1.0000000000000000 0.0000000000000000
0.0000000000000000 1.0000000000000000 0.0000000000000000
0.0000000000000000 1.0000000000000000 0.0000000000000000
0.0000000000000000 1.0000000000000000 0.0000000000000000
0.0000000000000000 1.0000000000000000 0.0000000000000000
0.0000000000000000 1.0000000000000000 0.0000000000000000
0.0000000000000000 1.0000000000000000 0.0000000000000000
0.0000000000000000 1.0000000000000000 0.0000000000000000
0.0000000000000000 1.0000000000000000 0.0000000000000000
0.0000000000000000 1.0000000000000000 0.0000000000000000
0.0000000000000000 1.0000000000000000 0.0000000000000000
0.0000000000000000 1.0000000000000000 0.0000000000000000
0.0000000000000000 1.0000000000000000 0.0000000000000000
0.0000000000000000 1.0000000000000000 0.0000000000000000
0.0000000000000000 1.0000000000000000 0.0000000000000000
0.0000000000000000 1.0000000000000000 0.0000000000000000
0.0000000000000000 1.0000000000000000 0.0000000000000000
0.0000000000000000 1.0000000000000000 0.0000000000000000
0.0000000000000000 1.0000000000000000 0.0000000000000000
0.0000000000000000 1.0000000000000000 0.0000000000000000
0.0000000000000000 1.0000000000000000 0.0000000000000000
0.0000000000000000 1.0000000000000000 0.0000000000000000
0.0000000000000000 1.0000000000000000 0.0000000000000000
0.0000000000000000 1.0000000000000000 0.0000000000000000
0.0000000000000000 1.0000000000000000 0.0000000000000000
0.0000000000000000 1.0000000000000000 0.0000000000000000
0.0000000000000000 1.0000000000000000 0.0000000000000000
0.0000000000000000 1.0000000000000000 0.0000000000000000
0.0000000000000000 1.0000000000000000 0.0000000000000000
0.0000000000000000 1.0000000000000000 0.0000000000000000
0.0000000000000000 1.0000000000000000 0.0000000000000000
0.0000000000000000 1.0000000000000000 0.0000000000000000
0.0000000000000000 1.0000000000000000 0.0000000000000000
0.0000000000000000 1.0000000000000000 0.0000000000000000
0.0000000000000000 1.0000000000000000 0.0000000000000000
0.0000000000000000 1.0000000000000000 0.0000000000000000
0.0000000000000000 1.0000000000000000 0.0000000000000000
0.0000000000000000 1.0000000000000000 0.0000000000000000
0.0000000000000000 1.0000000000000000 0.0000000000000000
0.0000000000000000 1.0000000000000000 0.0000000000000000
0.0000000000000000 1.0000000000000000 0.0000000000000000
0.0000000000000000 1.0000000000000000 0.0000000000000000
0.0000000000000000 1.0000000000000000 0.0000000000000000
0.0000000000000000 1.0000000000000000 0.0000000000000000
0.0000000000000000 1.0000000000000000 0.0000000000000000
0.0000000000000000 1.0000000000000000 0.0000000000000000
0.0000000000000000 1.0000000000000000 0.0000000000000000
0.0000000000000000 1.0000000000000000 0.0000000000000000
0.0000000000000000 1.0000000000000000 0.0000000000000000
0.0000000000000000 1.0000000000000000 0.0000000000000000
0.0000000000000000 1.0000000000000000 0.0000000000000000
0.0000000000000000 1.0000000000000000 0.0000000000000000
0.0000000000000000 1.0000000000000000 0.0000000000000000
0.0000000000000000 1.0000000000000000 0.0000000000000000
0.0000000000000000 1.0000000000000000 0.0000000000000000
0.0000000000000000 1.0000000000000000 0.0000000000000000
0.0000000000000000 1.0000000000000000 0.0000000000000000
0.0000000000000000 1.0000000000000000 0.0000000000000000
0.0000000000000000 1.0000000000000000 0.0000000000000000
0.0000000000000000 1.0000000000000000 0.0000000000000000
0.0000000000000000 1.0000000000000000 0.0000000000000000
0.0000000000000000 1.0000000000000000 0.0000000000000000
0.0000000000000000 1.0000000000000000 0.0000000000000000
0.0000000000000000 1.0000000000000000 0.0000000000000000
0.0000000000000000 1.0000000000000000 0.0000000000000000
0.0000000000000000 1.0000000000000000 0.0000000000000000
0.0000000000000000 1.0000000000000000 0.0000000000000000
0.0000000000000000 1.0000000000000000 0.0000000000000000
0.0000000000000000 1.0000000000000000 0.0000000000000000
0.0000000000000000 1.0000000000000000 0.0000000000000000
0.0000000000000000 1.0000000000000000 0.0000000000000000
0.0000000000000000 1.0000000000000000 0.0000000000000000
0.0000000000000000 1.0000000000000000 0.0000000000000000
0.0000000000000000 1.0000000000000000 0.0000000000000000
0.0000000000000000 1.0000000000000000 0.0000000000000000
0.0000000000000000 1.0000000000000000 0.0000000000000000
0.0000000000000000 1.0000000000000000 0.0000000000000000
0.0000000000000000 1.0000000000000000 0.0000000000000000
0.0000000000000000 1.0000000000000000 0.0000000000000000
0.0000000000000000 1.0000000000000000 0.0000000000000000
0.0000000000000000 1.0000000000000000 0.0000000000000000
0.0000000000000000 1.0000000000000000 0.0000000000000000
0.0000000000000000 1.0000000000000000 0.0000000000000000
0.0000000000000000 1.0000000000000000 0.0000000000000000
0.0000000000000000 1.0000000000000000 0.0000000000000000
0.0000000000000000 1.0000000000000000 0.0000000000000000
0.0000000000000000 1.0000000000000000 0.0000000000000000
0.0000000000000000 1.0000000000000000 0.0000000000000000
0.0000000000000000 1.0000000000000000 0.0000000000000000
0.0000000000000000 1.0000000000000000 0.0000000000000000
0.0000000000000000 1.0000000000000000 0.0000000000000000
0.0000000000000000 1.0000000000000000 0.0000000000000000
0.0000000000000000 1.0000000000000000 0.0000000000000000
0.0000000000000000 1.0000000000000000 0.0000000000000000
0.0000000000000000 1.0000000000000000 0.0000000000000000
0.0000000000000000 1.0000000000000000 0.0000000000000000
0.0000000000000000 1.0000000000000000 0.0000000000000000
0.0000000000000000 1.0000000000000000 0.0000000000000000
0.0000000000000000 1.0000000000000000 0.0000000000000000
0.0000000000000000 1.0000000000000000 0.0000000000000000
0.0000000000000000 1.0000000000000000 0.0000000000000000
0.0000000000000000 1.0000000000000000 0.0000000000000000
0.0000000000000000 1.0000000000000000 0.0000000000000000
0.0000000000000000 1.0000000000000000 0.0000000000000000
0.0000000000000000 1.0000000000000000 0.0000000000000000
0.0000000000000000 1.0000000000000000 0.0000000000000000
0.0000000000000000 1.0000000000000000 0.0000000000000000
0.0000000000000000 1.0000000000000000 0.0000000000000000
0.0000000000000000 1.0000000000000000 0.0000000000000000
0.0000000000000000 1.0000000000000000 0.0000000000000000
0.0000000000000000 1.0000000000000000 0.0000000000000000
0.0000000000000000 1.0000000000000000 0.0000000000000000
0.0000000000000000 1.0000000000000000 0.0000000000000000
0.0000000000000000 1.0000000000000000 0.0000000000000000
0.0000000000000000 1.0000000000000000 0.0000000000000000
0.0000000000000000 1.0000000000000000 0.0000000000000000
0.0000000000000000 1.0000000000000000 0.0000000000000000
0.0000000000000000 1.0000000000000000 0.0000000000000000
0.0000000000000000 1.0000000000000000 0.0000000000000000
0.0000000000000000 1.0000000000000000 0.0000000000000000
0.0000000000000000 1.0000000000000000 0.0000000000000000
0.0000000000000000 1.0000000000000000 0.0000000000000000
0.0000000000000000 1.0000000000000000 0.0000000000000000
0.0000000000000000 1.0000000000000000 0.0000000000000000
0.0000000000000000 1.0000000000000000 0.0000000000000000
0.0000000000000000 1.0000000000000000 0.0000000000000000
0.0000000000000000 1.0000000000000000 0.0000000000000000
0.0000000000000000 1.0000000000000000 0.0000000000000000
0.0000000000000000 1.0000000000000000 0.0000000000000000
0.0000000000000000 1.0000000000000000 0.0000000000000000
0.0000000000000000 1.0000000000000000 0.0000000000000000
0.0000000000000000 1.0000000000000000 0.0000000000000000
0.0000000000000000 1.0000000000000000 0.0000000000000000
0.0000000000000000 1.0000000000000000 0.0000000000000000
0.0000000000000000 1.0000000000000000 0.0000000000000000
0.0000000000000000 1.0000000000000000 0.0000000000000000
0.0000000000000000 1.0000000000000000 0.0000000000000000
0.0000000000000000 1.0000000000000000 0.0000000000000000
0.0000000000000000 1.0000000000000000 0.0000000000000000
0.0000000000000000 1.0000000000000000 0.0000000000000000
0.0000000000000000 1.0000000000000000 0.0000000000000000
0.0000000000000000 1.0000000000000000 0.0000000000000000
0.0000000000000000 1.0000000000000000 0.0000000000000000
0.0000000000000000 1.0000000000000000 0.0000000000000000
0.0000000000000000 1.0000000000000000 0.0000000000000000
0.0000000000000000 1.0000000000000000 0.0000000000000000
0.0000000000000000 1.0000000000000000 0.0000000000000000
0.0000000000000000 1.0000000000000000 0.0000000000000000
0.0000000000000000 1.0000000000000000 0.0000000000000000
0.0000000000000000 1.0000000000000000 0.0000000000000000
0.0000000000000000 1.0000000000000000 0.0000000000000000
0.0000000000000000 1.0000000000000000 0.0000000000000000
0.0000000000000000 1.0000000000000000 0.0000000000000000
0.0000000000000000 1.0000000000000000 0.0000000000000000
0.0000000000000000 1.0000000000000000 0.0000000000000000
0.0000000000000000 1.0000000000000000 0.0000000000000000
0.0000000000000000 1.0000000000000000 0.0000000000000000
0.0000000000000000 1.0000000000000000 0.0000000000000000
0.0000000000000000 1.0000000000000000 0.0000000000000000
0.0000000000000000 1.0000000000000000 0.0000000000000000
0.0000000000000000 1.0000000000000000 0.0000000000000000
0.0000000000000000 1.0000000000000000 0.0000000000000000
0.0000000000000000 1.0000000000000000 0.0000000000000000
0.0000000000000000 1.0000000000000000 0.0000000000000000
0.0000000000000000 1.0000000000000000 0.0000000000000000
0.0000000000000000 1.0000000000000000 0.0000000000000000
0.0000000000000000 1.0000000000000000 0.0000000000000000
0.0000000000000000 1.0000000000000000 0.0000000000000000
0.0000000000000000 1.0000000000000000 0.0000000000000000
0.0000000000000000 1.0000000000000000 0.0000000000000000
0.0000000000000000 1.0000000000000000 0.0000000000000000
0.0000000000000000 1.0000000000000000 0.0000000000000000
0.0000000000000000 1.0000000000000000 0.0000000000000000
0.0000000000000000 1.0000000000000000 0.0000000000000000
0.0000000000000000 1.0000000000000000 0.0000000000000000
0.0000000000000000 1.0000000000000000 0.0000000000000000
0.0000000000000000 1.0000000000000000 0.0000000000000000
0.0000000000000000 1.0000000000000000 0.0000000000000000
0.0000000000000000 1.0000000000000000 0.0000000000000000
0.0000000000000000 1.0000000000000000 0.0000000000000000
0.0000000000000000 1.0000000000000000 0.0000000000000000
0.0000000000000000 1.0000000000000000 0.0000000000000000
0.0000000000000000 1.0000000000000000 0.0000000000000000
0.0000000000000000 1.0000000000000000 0.0000000000000000
0.0000000000000000 1.0000000000000000 0.0000000000000000
0.0000000000000000 1.0000000000000000 0.0000000000000000
0.0000000000000000 1.0000000000000000 0.0000000000000000
0.0000000000000000 1.0000000000000000 0.0000000000000000
0.0000000000000000 1.0000000000000000 0.0000000000000000
0.0000000000000000 1.0000000000000000 0.0000000000000000
0.0000000000000000 1.0000000000000000 0.0000000000000000
0.0000000000000000 1.0000000000000000 0.0000000000000000
0.0000000000000000 1.0000000000000000 0.0000000000000000
0.0000000000000000 1.0000000000000000 0.0000000000000000
0.0000000000000000 1.0000000000000000 0.0000000000000000
0.0000000000000000 1.0000000000000000 0.0000000000000000
0.0000000000000000 1.0000000000000000 0.0000000000000000
0.0000000000000000 1.0000000000000000 0.0000000000000000
0.0000000000000000 1.0000000000000000 0.0000000000000000
0.0000000000000000 1.0000000000000000 0.0000000000000000
0.0000000000000000 1.0000000000000000 0.0000000000000000
0.0000000000000000 1.0000000000000000 0.0000000000000000
0.0000000000000000 1.0000000000000000 0.0000000000000000
0.0000000000000000 1.0000000000000000 0.0000000000000000
0.0000000000000000 1.0000000000000000 0.0000000000000000
0.0000000000000000 1.0000000000000000 0.0000000000000000
0.0000000000000000 1.0000000000000000 0.0000000000000000
0.0000000000000000 1.0000000000000000 0.0000000000000000
0.0000000000000000 1.0000000000000000 0.0000000000000000
0.0000000000000000 1.0000000000000000 0.0000000000000000
0.0000000000000000 1.0000000000000000 0.0000000000000000
0.0000000000000000 1.0000000000000000 0.0000000000000000
0.0000000000000000 1.0000000000000000 0.0000000000000000
0.0000000000000000 1.0000000000000000 0.0000000000000000
0.0000000000000000 1.0000000000000000 0.0000000000000000
0.0000000000000000 1.0000000000000000 0.0000000000000000
0.0000000000000000 1.0000000000000000 0.0000000000000000
0.0000000000000000 1.0000000000000000 0.0000000000000000
0.0000000000000000 1.0000000000000000 0.0000000000000000
0.0000000000000000 1.0000000000000000 0.0000000000000000
0.0000000000000000 1.0000000000000000 0.0000000000000000
0.0000000000000000 1.0000000000000000 0.0000000000000000
0.0000000000000000 1.0000000000000000 0.0000000000000000
0.0000000000000000 1.0000000000000000 0.0000000000000000
0.0000000000000000 1.0000000000000000 0.0000000000000000
0.0000000000000000 1.0000000000000000 0.0000000000000000
0.0000000000000000 1.0000000000000000 0.0000000000000000
0.0000000000000000 1.0000000000000000 0.0000000000000000
0.0000000000000000 1.0000000000000000 0.0000000000000000
0.0000000000000000 1.0000000000000000 0.0000000000000000
0.0000000000000000 1.0000000000000000 0.0000000000000000
0.0000000000000000 1.0000000000000000 0.0000000000000000
0.0000000000000000 1.0000000000000000 0.0000000000000000
0.0000000000000000 1.0000000000000000 0.0000000000000000
0.0000000000000000 1.0000000000000000 0.0000000000000000
0.0000000000000000 1.0000000000000000 0.0000000000000000
0.0000000000000000 1.0000000000000000 0.0000000000000000
0.0000000000000000 1.0000000000000000 0.0000000000000000
0.0000000000000000 1.0000000000000000 0.0000000000000000
0.0000000000000000 1.0000000000000000 0.0000000000000000
0.0000000000000000 1.0000000000000000 0.0000000000000000
0.0000000000000000 1.0000000000000000 0.0000000000000000
0.0000000000000000 1.0000000000000000 0.0000000000000000
0.0000000000000000 1.0000000000000000 0.0000000000000000
0.0000000000000000 1.0000000000000000 0.0000000000000000
0.0000000000000000 1.0000000000000000 0.0000000000000000
0.0000000000000000 1.0000000000000000 0.0000000000000000
0.0000000000000000 1.0000000000000000 0.0000000000000000
0.0000000000000000 1.0000000000000000 0.0000000000000000
0.0000000000000000 1.0000000000000000 0.0000000000000000
0.0000000000000000 1.0000000000000000 0.0000000000000000
0.0000000000000000 1.0000000000000000 0.0000000000000000
0.0000000000000000 1.0000000000000000 0.0000000000000000
0.0000000000000000 1.0000000000000000 0.0000000000000000
0.0000000000000000 1.0000000000000000 0.0000000000000000
0.0000000000000000 1.0000000000000000 0.0000000000000000
0.0000000000000000 1.0000000000000000 0.0000000000000000
0.0000000000000000 1.0000000000000000 0.0000000000000000
0.0000000000000000 1.0000000000000000 0.0000000000000000
0.0000000000000000 1.0000000000000000 0.0000000000000000
0.0000000000000000 1.0000000000000000 0.0000000000000000
0.0000000000000000 1.0000000000000000 0.0000000000000000
0.0000000000000000 1.0000000000000000 0.0000000000000000
0.0000000000000000 1.0000000000000000 0.0000000000000000
0.0000000000000000 1.0000000000000000 0.0000000000000000
0.0000000000000000 1.0000000000000000 0.0000000000000000
0.0000000000000000 1.0000000000000000 0.0000000000000000
0.0000000000000000 1.0000000000000000 0.0000000000000000
0.0000000000000000 1.0000000000000000 0.0000000000000000
0.0000000000000000 1.0000000000000000 0.0000000000000000
0.0000000000000000 1.0000000000000000 0.0000000000000000
0.0000000000000000 1.0000000000000000 0.0000000000000000
0.0000000000000000 1.0000000000000000 0.0000000000000000
0.0000000000000000 1.0000000000000000 0.0000000000000000
0.0000000000000000 1.0000000000000000 0.0000000000000000
0.0000000000000000 1.0000000000000000 0.0000000000000000
0.0000000000000000 1.0000000000000000 0.0000000000000000
0.0000000000000000 1.0000000000000000 0.0000000000000000
0.0000000000000000 1.0000000000000000 0.0000000000000000
0.0000000000000000 1.0000000000000000 0.0000000000000000
0.0000000000000000 1.0000000000000000 0.0000000000000000
0.0000000000000000 1.0000000000000000 0.0000000000000000
0.0000000000000000 1.0000000000000000 0.0000000000000000
0.0000000000000000 1.0000000000000000 0.0000000000000000
0.0000000000000000 1.0000000000000000 0.0000000000000000
0.0000000000000000 1.0000000000000000 0.0000000000000000
0.0000000000000000 1.0000000000000000 0.0000000000000000
0.0000000000000000 1.0000000000000000 0.0000000000000000
0.0000000000000000 1.0000000000000000 0.0000000000000000
0.0000000000000000 1.0000000000000000 0.0000000000000000
0.0000000000000000 1.0000000000000000 0.0000000000000000
0.0000000000000000 1.0000000000000000 0.0000000000000000
0.0000000000000000 1.0000000000000000 0.0000000000000000
0.0000000000000000 1.0000000000000000 0.0000000000000000
0.0000000000000000 1.0000000000000000 0.0000000000000000
0.0000000000000000 1.0000000000000000 0.0000000000000000
0.0000000000000000 1.0000000000000000 0.0000000000000000
0.0000000000000000 1.0000000000000000 0.0000000000000000
0.0000000000000000 1.0000000000000000 0.0000000000000000
0.0000000000000000 1.0000000000000000 0.0000000000000000
0.0000000000000000 1.0000000000000000 0.0000000000000000
0.0000000000000000 1.0000000000000000 0.0000000000000000
0.0000000000000000 1.0000000000000000 0.0000000000000000
0.0000000000000000 1.0000000000000000 0.0000000000000000
0.0000000000000000 1.0000000000000000 0.0000000000000000
0.0000000000000000 1.0000000000000000 0.0000000000000000
0.0000000000000000 1.0000000000000000 0.0000000000000000
0.0000000000000000 1.0000000000000000 0.0000000000000000
0.0000000000000000 1.0000000000000000 0.0000000000000000
0.0000000000000000 1.0000000000000000 0.0000000000000000
0.0000000000000000 1.0000000000000000 0.0000000000000000
0.0000000000000000 1.0000000000000000 0.0000000000000000
0.0000000000000000 1.0000000000000000 0.0000000000000000
0.0000000000000000 1.0000000000000000 0.0000000000000000
0.0000000000000000 1.0000000000000000 0.0000000000000000
0.0000000000000000 1.0000000000000000 0.0000000000000000
0.0000000000000000 1.0000000000000000 0.0000000000000000
0.0000000000000000 1.0000000000000000 0.0000000000000000
0.0000000000000000 1.0000000000000000 0.0000000000000000
0.0000000000000000 1.0000000000000000 0.0000000000000000
0.0000000000000000 1.0000000000000000 0.0000000000000000
0.0000000000000000 1.0000000000000000 0.0000000000000000
0.0000000000000000 1.0000000000000000 0.0000000000000000
0.0000000000000000 1.0000000000000000 0.0000000000000000
0.0000000000000000 1.0000000000000000 0.0000000000000000
0.0000000000000000 1.0000000000000000 0.0000000000000000
0.0000000000000000 1.0000000000000000 0.0000000000000000
0.0000000000000000 1.0000000000000000 0.0000000000000000
0.0000000000000000 1.0000000000000000 0.0000000000000000
0.0000000000000000 1.0000000000000000 0.0000000000000000
0.0000000000000000 1.0000000000000000 0.0000000000000000
0.0000000000000000 1.0000000000000000 0.0000000000000000
0.0000000000000000 1.0000000000000000 0.0000000000000000
0.0000000000000000 1.0000000000000000 0.0000000000000000
0.0000000000000000 1.0000000000000000 0.0000000000000000
0.0000000000000000 1.0000000000000000 0.0000000000000000
0.0000000000000000 1.0000000000000000 0.0000000000000000
0.0000000000000000 1.0000000000000000 0.0000000000000000
0.0000000000000000 1.0000000000000000 0.0000000000000000
0.0000000000000000 1.0000000000000000 0.0000000000000000
0.0000000000000000 1.0000000000000000 0.0000000000000000
0.0000000000000000 1.0000000000000000 0.0000000000000000
0.0000000000000000 1.0000000000000000 0.0000000000000000
0.0000000000000000 1.0000000000000000 0.0000000000000000
0.0000000000000000 1.0000000000000000 0.0000000000000000
0.0000000000000000 1.0000000000000000 0.0000000000000000
0.0000000000000000 1.0000000000000000 0.0000000000000000
0.0000000000000000 1.0000000000000000 0.0000000000000000
0.0000000000000000 1.0000000000000000 0.0000000000000000
0.0000000000000000 1.0000000000000000 0.0000000000000000
0.0000000000000000 1.0000000000000000 0.0000000000000000
0.0000000000000000 1.0000000000000000 0.0000000000000000
0.0000000000000000 1.0000000000000000 0.0000000000000000
0.0000000000000000 1.0000000000000000 0.0000000000000000
0.0000000000000000 1.0000000000000000 0.0000000000000000
0.0000000000000000 1.0000000000000000 0.0000000000000000
0.0000000000000000 1.0000000000000000 0.0000000000000000
0.0000000000000000 1.0000000000000000 0.0000000000000000
0.0000000000000000 1.0000000000000000 0.0000000000000000
0.0000000000000000 1.0000000000000000 0.0000000000000000
0.0000000000000000 1.0000000000000000 0.0000000000000000
0.0000000000000000 1.0000000000000000 0.0000000000000000
0.0000000000000000 1.0000000000000000 0.0000000000000000
0.0000000000000000 1.0000000000000000 0.0000000000000000
0.0000000000000000 1.0000000000000000 0.0000000000000000
0.0000000000000000 1.0000000000000000 0.0000000000000000
0.0000000000000000 1.0000000000000000 0.0000000000000000
0.0000000000000000 1.0000000000000000 0.0000000000000000
0.0000000000000000 1.0000000000000000 0.0000000000000000
0.0000000000000000 1.0000000000000000 0.0000000000000000
0.0000000000000000 1.0000000000000000 0.0000000000000000
0.0000000000000000 1.0000000000000000 0.0000000000000000
0.0000000000000000 1.0000000000000000 0.0000000000000000
0.0000000000000000 1.0000000000000000 0.0000000000000000
0.0000000000000000 1.0000000000000000 0.0000000000000000
0.0000000000000000 1.0000000000000000 0.0000000000000000
0.0000000000000000 1.0000000000000000 0.0000000000000000
0.0000000000000000 1.0000000000000000 0.0000000000000000
0.0000000000000000 1.0000000000000000 0.0000000000000000
0.0000000000000000 1.0000000000000000 0.0000000000000000
0.0000000000000000 1.0000000000000000 0.0000000000000000
0.0000000000000000 1.0000000000000000 0.0000000000000000
0.0000000000000000 1.0000000000000000 0.0000000000000000
0.0000000000000000 1.0000000000000000 0.0000000000000000
0.0000000000000000 1.0000000000000000 0.0000000000000000
0.0000000000000000 1.0000000000000000 0.0000000000000000
0.0000000000000000 1.0000000000000000 0.0000000000000000
0.0000000000000000 1.0000000000000000 0.0000000000000000
0.0000000000000000 1.0000000000000000 0.0000000000000000
0.0000000000000000 1.0000000000000000 0.0000000000000000
0.0000000000000000 1.0000000000000000 0.0000000000000000
0.0000000000000000 1.0000000000000000 0.0000000000000000
0.0000000000000000 1.0000000000000000 0.0000000000000000
0.0000000000000000 1.0000000000000000 0.0000000000000000
0.0000000000000000 1.0000000000000000 0.0000000000000000
0.0000000000000000 1.0000000000000000 0.0000000000000000
0.0000000000000000 1.0000000000000000 0.0000000000000000
0.0000000000000000 1.0000000000000000 0.0000000000000000
0.0000000000000000 1.0000000000000000 0.0000000000000000
0.0000000000000000 1.0000000000000000 0.0000000000000000
0.0000000000000000 1.0000000000000000 0.0000000000000000
0.0000000000000000 1.0000000000000000 0.0000000000000000
0.0000000000000000 1.0000000000000000 0.0000000000000000
0.0000000000000000 1.0000000000000000 0.0000000000000000
0.0000000000000000 1.0000000000000000 0.0000000000000000
0.0000000000000000 1.0000000000000000 0.0000000000000000
0.0000000000000000 1.0000000000000000 0.0000000000000000
0.0000000000000000 1.0000000000000000 0.0000000000000000
0.0000000000000000 1.0000000000000000 0.0000000000000000
0.0000000000000000 1.0000000000000000 0.0000000000000000
0.0000000000000000 1.0000000000000000 0.0000000000000000
0.0000000000000000 1.0000000000000000 0.0000000000000000
0.0000000000000000 1.0000000000000000 0.0000000000000000
0.0000000000000000 1.0000000000000000 0.0000000000000000
0.0000000000000000 1.0000000000000000 0.0000000000000000
0.0000000000000000 1.0000000000000000 0.0000000000000000
0.0000000000000000 1.0000000000000000 0.0000000000000000
0.0000000000000000 1.0000000000000000 0.0000000000000000
0.0000000000000000 1.0000000000000000 0.0000000000000000
0.0000000000000000 1.0000000000000000 0.0000000000000000
0.0000000000000000 1.0000000000000000 0.0000000000000000
0.0000000000000000 1.0000000000000000 0.0000000000000000
0.0000000000000000 1.0000000000000000 0.0000000000000000
0.0000000000000000 1.0000000000000000 0.0000000000000000
0.0000000000000000 1.0000000000000000 0.0000000000000000
0.0000000000000000 1.0000000000000000 0.0000000000000000
0.0000000000000000 1.0000000000000000 0.0000000000000000
0.0000000000000000 1.0000000000000000 0.0000000000000000
0.0000000000000000 1.0000000000000000 0.0000000000000000
0.0000000000000000 1.0000000000000000 0.0000000000000000
0.0000000000000000 1.0000000000000000 0.0000000000000000
0.0000000000000000 1.0000000000000000 0.0000000000000000
0.0000000000000000 1.0000000000000000 0.0000000000000000
0.0000000000000000 1.0000000000000000 0.0000000000000000
0.0000000000000000 1.0000000000000000 0.0000000000000000
0.0000000000000000 1.0000000000000000 0.0000000000000000
0.0000000000000000 1.0000000000000000 0.0000000000000000
0.0000000000000000 1.0000000000000000 0.0000000000000000
0.0000000000000000 1.0000000000000000 0.0000000000000000
0.0000000000000000 1.0000000000000000 0.0000000000000000
0.0000000000000000 1.0000000000000000 0.0000000000000000
0.0000000000000000 1.0000000000000000 0.0000000000000000
0.0000000000000000 1.0000000000000000 0.0000000000000000
0.0000000000000000 1.0000000000000000 0.0000000000000000
0.0000000000000000 1.0000000000000000 0.0000000000000000
0.0000000000000000 1.0000000000000000 0.0000000000000000
0.0000000000000000 1.0000000000000000 0.0000000000000000
0.0000000000000000 1.0000000000000000 0.0000000000000000
0.0000000000000000 1.0000000000000000 0.0000000000000000
0.0000000000000000 1.0000000000000000 0.0000000000000000
0.0000000000000000 1.0000000000000000 0.0000000000000000
0.0000000000000000 1.0000000000000000 0.0000000000000000
0.0000000000000000 1.0000000000000000 0.0000000000000000
0.0000000000000000 1.0000000000000000 0.0000000000000000
0.0000000000000000 1.0000000000000000 0.0000000000000000
0.0000000000000000 1.0000000000000000 0.0000000000000000
0.0000000000000000 1.0000000000000000 0.0000000000000000
0.0000000000000000 1.0000000000000000 0.0000000000000000
0.0000000000000000 1.0000000000000000 0.0000000000000000
0.0000000000000000 1.0000000000000000 0.0000000000000000
0.0000000000000000 1.0000000000000000 0.0000000000000000
0.0000000000000000 1.0000000000000000 0.0000000000000000
0.0000000000000000 1.0000000000000000 0.0000000000000000
0.0000000000000000 1.0000000000000000 0.0000000000000000
0.0000000000000000 1.0000000000000000 0.0000000000000000
0.0000000000000000 1.0000000000000000 0.0000000000000000
0.0000000000000000 1.0000000000000000 0.0000000000000000
0.0000000000000000 1.0000000000000000 0.0000000000000000
0.0000000000000000 1.0000000000000000 0.0000000000000000
0.0000000000000000 1.0000000000000000 0.0000000000000000
0.0000000000000000 1.0000000000000000 0.0000000000000000
0.0000000000000000 1.0000000000000000 0.0000000000000000
0.0000000000000000 1.0000000000000000 0.0000000000000000
0.0000000000000000 1.0000000000000000 0.0000000000000000
0.0000000000000000 1.0000000000000000 0.0000000000000000
0.0000000000000000 1.0000000000000000 0.0000000000000000
0.0000000000000000 1.0000000000000000 0.0000000000000000
0.0000000000000000 1.0000000000000000 0.0000000000000000
0.0000000000000000 1.0000000000000000 0.0000000000000000
0.0000000000000000 1.0000000000000000 0.0000000000000000
0.0000000000000000 1.0000000000000000 0.0000000000000000
0.0000000000000000 1.0000000000000000 0.0000000000000000
0.0000000000000000 1.0000000000000000 0.0000000000000000
0.0000000000000000 1.0000000000000000 0.0000000000000000
0.0000000000000000 1.0000000000000000 0.0000000000000000
0.0000000000000000 1.0000000000000000 0.0000000000000000
0.0000000000000000 1.0000000000000000 0.0000000000000000
0.0000000000000000 1.0000000000000000 0.0000000000000000
0.0000000000000000 1.0000000000000000 0.0000000000000000
0.0000000000000000 1.0000000000000000 0.0000000000000000
0.0000000000000000 1.0000000000000000 0.0000000000000000
0.0000000000000000 1.0000000000000000 0.0000000000000000
0.0000000000000000 1.0000000000000000 0.0000000000000000
0.0000000000000000 1.0000000000000000 0.0000000000000000
0.0000000000000000 1.0000000000000000 0.0000000000000000
0.0000000000000000 1.0000000000000000 0.0000000000000000
0.0000000000000000 1.0000000000000000 0.0000000000000000
0.0000000000000000 1.0000000000000000 0.0000000000000000
0.0000000000000000 1.0000000000000000 0.0000000000000000
0.0000000000000000 1.0000000000000000 0.0000000000000000
0.0000000000000000 1.0000000000000000 0.0000000000000000
0.0000000000000000 1.0000000000000000 0.0000000000000000
0.0000000000000000 1.0000000000000000 0.0000000000000000
0.0000000000000000 1.0000000000000000 0.0000000000000000
0.0000000000000000 1.0000000000000000 0.0000000000000000
0.0000000000000000 1.0000000000000000 0.0000000000000000
0.0000000000000000 1.0000000000000000 0.0000000000000000
0.0000000000000000 1.0000000000000000 0.0000000000000000
0.0000000000000000 1.0000000000000000 0.0000000000000000
0.0000000000000000 1.0000000000000000 0.0000000000000000
0.0000000000000000 1.0000000000000000 0.0000000000000000
0.0000000000000000 1.0000000000000000 0.0000000000000000
0.0000000000000000 1.0000000000000000 0.0000000000000000
0.0000000000000000 1.0000000000000000 0.0000000000000000
0.0000000000000000 1.0000000000000000 0.0000000000000000
0.0000000000000000 1.0000000000000000 0.0000000000000000
0.0000000000000000 1.0000000000000000 0.0000000000000000
0.0000000000000000 1.0000000000000000 0.0000000000000000
0.0000000000000000 1.0000000000000000 0.0000000000000000
0.0000000000000000 1.0000000000000000 0.0000000000000000
0.0000000000000000 1.0000000000000000 0.0000000000000000
0.0000000000000000 1.0000000000000000 0.0000000000000000
0.0000000000000000 1.0000000000000000 0.0000000000000000
0.0000000000000000 1.0000000000000000 0.0000000000000000
0.0000000000000000 1.0000000000000000 0.0000000000000000
0.0000000000000000 1.0000000000000000 0.0000000000000000
0.0000000000000000 1.0000000000000000 0.0000000000000000
0.0000000000000000 1.0000000000000000 0.0000000000000000
0.0000000000000000 1.0000000000000000 0.0000000000000000
0.0000000000000000 1.0000000000000000 0.0000000000000000
0.0000000000000000 1.0000000000000000 0.0000000000000000
0.0000000000000000 1.0000000000000000 0.0000000000000000
0.0000000000000000 1.0000000000000000 0.0000000000000000
0.0000000000000000 1.0000000000000000 0.0000000000000000
0.0000000000000000 1.0000000000000000 0.0000000000000000
0.0000000000000000 1.0000000000000000 0.0000000000000000
0.0000000000000000 1.0000000000000000 0.0000000000000000
0.0000000000000000 1.0000000000000000 0.0000000000000000
0.0000000000000000 1.0000000000000000 0.0000000000000000
0.0000000000000000 1.0000000000000000 0.0000000000000000
0.0000000000000000 1.0000000000000000 0.0000000000000000
0.0000000000000000 1.0000000000000000 0.0000000000000000
0.0000000000000000 1.0000000000000000 0.0000000000000000
0.0000000000000000 1.0000000000000000 0.0000000000000000
0.0000000000000000 1.0000000000000000 0.0000000000000000
0.0000000000000000 1.0000000000000000 0.0000000000000000
0.0000000000000000 1.0000000000000000 0.0000000000000000
0.0000000000000000 1.0000000000000000 0.0000000000000000
0.0000000000000000 1.0000000000000000 0.0000000000000000
0.0000000000000000 1.0000000000000000 0.0000000000000000
0.0000000000000000 1.0000000000000000 0.0000000000000000
0.0000000000000000 1.0000000000000000 0.0000000000000000
0.0000000000000000 1.0000000000000000 0.0000000000000000
0.0000000000000000 1.0000000000000000 0.0000000000000000
0.0000000000000000 1.0000000000000000 0.0000000000000000
0.0000000000000000 1.0000000000000000 0.0000000000000000
0.0000000000000000 1.0000000000000000 0.0000000000000000
0.0000000000000000 1.0000000000000000 0.0000000000000000
0.0000000000000000 1.0000000000000000 0.0000000000000000
0.0000000000000000 1.0000000000000000 0.0000000000000000
0.0000000000000000 1.0000000000000000 0.0000000000000000
0.0000000000000000 1.0000000000000000 0.0000000000000000
0.0000000000000000 1.0000000000000000 0.0000000000000000
0.0000000000000000 1.0000000000000000 0.0000000000000000
0.0000000000000000 1.0000000000000000 0.0000000000000000
0.0000000000000000 1.0000000000000000 0.0000000000000000
0.0000000000000000 1.0000000000000000 0.0000000000000000
0.0000000000000000 1.0000000000000000 0.0000000000000000
0.0000000000000000 1.0000000000000000 0.0000000000000000
0.0000000000000000 1.0000000000000000 0.0000000000000000
0.0000000000000000 1.0000000000000000 0.0000000000000000
0.0000000000000000 1.0000000000000000 0.0000000000000000
0.0000000000000000 1.0000000000000000 0.0000000000000000
0.0000000000000000 1.0000000000000000 0.0000000000000000
0.0000000000000000 1.0000000000000000 0.0000000000000000
0.0000000000000000 1.0000000000000000 0.0000000000000000
0.0000000000000000 1.0000000000000000 0.0000000000000000
0.0000000000000000 1.0000000000000000 0.0000000000000000
0.0000000000000000 1.0000000000000000 0.0000000000000000
0.0000000000000000 1.0000000000000000 0.0000000000000000
0.0000000000000000 1.0000000000000000 0.0000000000000000
0.0000000000000000 1.0000000000000000 0.0000000000000000
0.0000000000000000 1.0000000000000000 0.0000000000000000
0.0000000000000000 1.0000000000000000 0.0000000000000000
0.0000000000000000 1.0000000000000000 0.0000000000000000
0.0000000000000000 1.0000000000000000 0.0000000000000000
0.0000000000000000 1.0000000000000000 0.0000000000000000
0.0000000000000000 1.0000000000000000 0.0000000000000000
0.0000000000000000 1.0000000000000000 0.0000000000000000
0.0000000000000000 1.0000000000000000 0.0000000000000000
0.0000000000000000 1.0000000000000000 0.0000000000000000
0.0000000000000000 1.0000000000000000 0.0000000000000000
0.0000000000000000 1.0000000000000000 0.0000000000000000
0.0000000000000000 1.0000000000000000 0.0000000000000000
0.0000000000000000 1.0000000000000000 0.0000000000000000
0.0000000000000000 1.0000000000000000 0.0000000000000000
0.0000000000000000 1.0000000000000000 0.0000000000000000
0.0000000000000000 1.0000000000000000 0.0000000000000000
0.0000000000000000 1.0000000000000000 0.0000000000000000
0.0000000000000000 1.0000000000000000 0.0000000000000000
0.0000000000000000 1.0000000000000000 0.0000000000000000
0.0000000000000000 1.0000000000000000 0.0000000000000000
0.0000000000000000 1.0000000000000000 0.0000000000000000
0.0000000000000000 1.0000000000000000 0.0000000000000000
0.0000000000000000 1.0000000000000000 0.0000000000000000
0.0000000000000000 1.0000000000000000 0.0000000000000000
0.0000000000000000 1.0000000000000000 0.0000000000000000
0.0000000000000000 1.0000000000000000 0.0000000000000000
0.0000000000000000 1.0000000000000000 0.0000000000000000
0.0000000000000000 1.0000000000000000 0.0000000000000000
0.0000000000000000 1.0000000000000000 0.0000000000000000
0.0000000000000000 1.0000000000000000 0.0000000000000000
0.0000000000000000 1.0000000000000000 0.0000000000000000
0.0000000000000000 1.0000000000000000 0.0000000000000000
0.0000000000000000 1.0000000000000000 0.0000000000000000
0.0000000000000000 1.0000000000000000 0.0000000000000000
0.0000000000000000 1.0000000000000000 0.0000000000000000
0.0000000000000000 1.0000000000000000 0.0000000000000000
0.0000000000000000 1.0000000000000000 0.0000000000000000
0.0000000000000000 1.0000000000000000 0.0000000000000000
0.0000000000000000 1.0000000000000000 0.0000000000000000
0.0000000000000000 1.0000000000000000 0.0000000000000000
0.0000000000000000 1.0000000000000000 0.0000000000000000
0.0000000000000000 1.0000000000000000 0.0000000000000000
0.0000000000000000 1.0000000000000000 0.0000000000000000
0.0000000000000000 1.0000000000000000 0.0000000000000000
0.0000000000000000 1.0000000000000000 0.0000000000000000
0.0000000000000000 1.0000000000000000 0.0000000000000000
0.0000000000000000 1.0000000000000000 0.0000000000000000
0.0000000000000000 1.0000000000000000 0.0000000000000000
0.0000000000000000 1.0000000000000000 0.0000000000000000
0.0000000000000000 1.0000000000000000 0.0000000000000000
0.0000000000000000 1.0000000000000000 0.0000000000000000
0.0000000000000000 1.0000000000000000 0.0000000000000000
0.0000000000000000 1.0000000000000000 0.0000000000000000
0.0000000000000000 1.0000000000000000 0.0000000000000000
0.0000000000000000 1.0000000000000000 0.0000000000000000
0.0000000000000000 1.0000000000000000 0.0000000000000000
0.0000000000000000 1.0000000000000000 0.0000000000000000
0.0000000000000000 1.0000000000000000 0.0000000000000000
0.0000000000000000 1.0000000000000000 0.0000000000000000
0.0000000000000000 1.0000000000000000 0.0000000000000000
0.0000000000000000 1.0000000000000000 0.0000000000000000
0.0000000000000000 1.0000000000000000 0.0000000000000000
0.0000000000000000 1.0000000000000000 0.0000000000000000
0.0000000000000000 1.0000000000000000 0.0000000000000000
0.0000000000000000 1.0000000000000000 0.0000000000000000
0.0000000000000000 1.0000000000000000 0.0000000000000000
0.0000000000000000 1.0000000000000000 0.0000000000000000
0.0000000000000000 1.0000000000000000 0.0000000000000000
0.0000000000000000 1.0000000000000000 0.0000000000000000
0.0000000000000000 1.0000000000000000 0.0000000000000000
0.0000000000000000 1.0000000000000000 0.0000000000000000
0.0000000000000000 1.0000000000000000 0.0000000000000000
0.0000000000000000 1.0000000000000000 0.0000000000000000
0.0000000000000000 1.0000000000000000 0.0000000000000000
0.0000000000000000 1.0000000000000000 0.0000000000000000
0.0000000000000000 1.0000000000000000 0.0000000000000000
0.0000000000000000 1.0000000000000000 0.0000000000000000
0.0000000000000000 1.0000000000000000 0.0000000000000000
0.0000000000000000 1.0000000000000000 0.0000000000000000
0.0000000000000000 1.0000000000000000 0.0000000000000000
0.0000000000000000 1.0000000000000000 0.0000000000000000
0.0000000000000000 1.0000000000000000 0.0000000000000000
0.0000000000000000 1.0000000000000000 0.0000000000000000
0.0000000000000000 1.0000000000000000 0.0000000000000000
0.0000000000000000 1.0000000000000000 0.0000000000000000
0.0000000000000000 1.0000000000000000 0.0000000000000000
0.0000000000000000 1.0000000000000000 0.0000000000000000
0.0000000000000000 1.0000000000000000 0.0000000000000000
0.0000000000000000 1.0000000000000000 0.0000000000000000
0.0000000000000000 1.0000000000000000 0.0000000000000000
0.0000000000000000 1.0000000000000000 0.0000000000000000
0.0000000000000000 1.0000000000000000 0.0000000000000000
0.0000000000000000 1.0000000000000000 0.0000000000000000
0.0000000000000000 1.0000000000000000 0.0000000000000000
0.0000000000000000 1.0000000000000000 0.0000000000000000
0.0000000000000000 1.0000000000000000 0.0000000000000000
0.0000000000000000 1.0000000000000000 0.0000000000000000
0.0000000000000000 1.0000000000000000 0.0000000000000000
0.0000000000000000 1.0000000000000000 0.0000000000000000
0.0000000000000000 1.0000000000000000 0.0000000000000000
0.0000000000000000 1.0000000000000000 0.0000000000000000
0.0000000000000000 1.0000000000000000 0.0000000000000000
0.0000000000000000 1.0000000000000000 0.0000000000000000
0.0000000000000000 1.0000000000000000 0.0000000000000000
0.0000000000000000 1.0000000000000000 0.0000000000000000
0.0000000000000000 1.0000000000000000 0.0000000000000000
0.0000000000000000 1.0000000000000000 0.0000000000000000
0.0000000000000000 1.0000000000000000 0.0000000000000000
0.0000000000000000 1.0000000000000000 0.0000000000000000
0.0000000000000000 1.0000000000000000 0.0000000000000000
0.0000000000000000 1.0000000000000000 0.0000000000000000
0.0000000000000000 1.0000000000000000 0.0000000000000000
0.0000000000000000 1.0000000000000000 0.0000000000000000
0.0000000000000000 1.0000000000000000 0.0000000000000000
0.0000000000000000 1.0000000000000000 0.0000000000000000
0.0000000000000000 1.0000000000000000 0.0000000000000000
0.0000000000000000 1.0000000000000000 0.0000000000000000
0.0000000000000000 1.0000000000000000 0.0000000000000000
0.0000000000000000 1.0000000000000000 0.0000000000000000
0.0000000000000000 1.0000000000000000 0.0000000000000000
0.0000000000000000 1.0000000000000000 0.0000000000000000
0.0000000000000000 1.0000000000000000 0.0000000000000000
0.0000000000000000 1.0000000000000000 0.0000000000000000
0.0000000000000000 1.0000000000000000 0.0000000000000000
0.0000000000000000 1.0000000000000000 0.0000000000000000
0.0000000000000000 1.0000000000000000 0.0000000000000000
0.0000000000000000 1.0000000000000000 0.0000000000000000
0.0000000000000000 1.0000000000000000 0.0000000000000000
0.0000000000000000 1.0000000000000000 0.0000000000000000
0.0000000000000000 1.0000000000000000 0.0000000000000000
0.0000000000000000 1.0000000000000000 0.0000000000000000
0.0000000000000000 1.0000000000000000 0.0000000000000000
0.0000000000000000 1.0000000000000000 0.0000000000000000
0.0000000000000000 1.0000000000000000 0.0000000000000000
0.0000000000000000 1.0000000000000000 0.0000000000000000
0.0000000000000000 1.0000000000000000 0.0000000000000000
0.0000000000000000 1.0000000000000000 0.0000000000000000
0.0000000000000000 1.0000000000000000 0.0000000000000000
0.0000000000000000 1.0000000000000000 0.0000000000000000
0.0000000000000000 1.0000000000000000 0.0000000000000000
0.0000000000000000 1.0000000000000000 0.0000000000000000
0.0000000000000000 1.0000000000000000 0.0000000000000000
0.0000000000000000 1.0000000000000000 0.0000000000000000
0.0000000000000000 1.0000000000000000 0.0000000000000000
0.0000000000000000 1.0000000000000000 0.0000000000000000
0.0000000000000000 1.0000000000000000 0.0000000000000000
0.0000000000000000 1.0000000000000000 0.0000000000000000
0.0000000000000000 1.0000000000000000 0.0000000000000000
0.0000000000000000 1.0000000000000000 0.0000000000000000
0.0000000000000000 1.0000000000000000 0.0000000000000000
0.0000000000000000 1.0000000000000000 0.0000000000000000
0.0000000000000000 1.0000000000000000 0.0000000000000000
0.0000000000000000 1.0000000000000000 0.0000000000000000
0.0000000000000000 1.0000000000000000 0.0000000000000000
0.0000000000000000 1.0000000000000000 0.0000000000000000
0.0000000000000000 1.0000000000000000 0.0000000000000000
0.0000000000000000 1.0000000000000000 0.0000000000000000
0.0000000000000000 1.0000000000000000 0.0000000000000000
0.0000000000000000 1.0000000000000000 0.0000000000000000
0.0000000000000000 1.0000000000000000 0.0000000000000000
0.0000000000000000 1.0000000000000000 0.0000000000000000
0.0000000000000000 1.0000000000000000 0.0000000000000000
0.0000000000000000 1.0000000000000000 0.0000000000000000
0.0000000000000000 1.0000000000000000 0.0000000000000000
0.0000000000000000 1.0000000000000000 0.0000000000000000
0.0000000000000000 1.0000000000000000 0.0000000000000000
0.0000000000000000 1.0000000000000000 0.0000000000000000
0.0000000000000000 1.0000000000000000 0.0000000000000000
0.0000000000000000 1.0000000000000000 0.0000000000000000
0.0000000000000000 1.0000000000000000 0.0000000000000000
0.0000000000000000 1.0000000000000000 0.0000000000000000
0.0000000000000000 1.0000000000000000 0.0000000000000000
0.0000000000000000 1.0000000000000000 0.0000000000000000
0.0000000000000000 1.0000000000000000 0.0000000000000000
0.0000000000000000 1.0000000000000000 0.0000000000000000
0.0000000000000000 1.0000000000000000 0.0000000000000000
0.0000000000000000 1.0000000000000000 0.0000000000000000
0.0000000000000000 1.0000000000000000 0.0000000000000000
0.0000000000000000 1.0000000000000000 0.0000000000000000
0.0000000000000000 1.0000000000000000 0.0000000000000000
0.0000000000000000 1.0000000000000000 0.0000000000000000
0.0000000000000000 1.0000000000000000 0.0000000000000000
0.0000000000000000 1.0000000000000000 0.0000000000000000
0.0000000000000000 1.0000000000000000 0.0000000000000000
0.0000000000000000 1.0000000000000000 0.0000000000000000
0.0000000000000000 1.0000000000000000 0.0000000000000000
0.0000000000000000 1.0000000000000000 0.0000000000000000
0.0000000000000000 1.0000000000000000 0.0000000000000000
0.0000000000000000 1.0000000000000000 0.0000000000000000
0.0000000000000000 1.0000000000000000 0.0000000000000000
0.0000000000000000 1.0000000000000000 0.0000000000000000
0.0000000000000000 1.0000000000000000 0.0000000000000000
0.0000000000000000 1.0000000000000000 0.0000000000000000
0.0000000000000000 1.0000000000000000 0.0000000000000000
0.0000000000000000 1.0000000000000000 0.0000000000000000
0.0000000000000000 1.0000000000000000 0.0000000000000000
0.0000000000000000 1.0000000000000000 0.0000000000000000
0.0000000000000000 1.0000000000000000 0.0000000000000000
0.0000000000000000 1.0000000000000000 0.0000000000000000
0.0000000000000000 1.0000000000000000 0.0000000000000000
0.0000000000000000 1.0000000000000000 0.0000000000000000
0.0000000000000000 1.0000000000000000 0.0000000000000000
0.0000000000000000 1.0000000000000000 0.0000000000000000
0.0000000000000000 1.0000000000000000 0.0000000000000000
0.0000000000000000 1.0000000000000000 0.0000000000000000
0.0000000000000000 1.0000000000000000 0.0000000000000000
0.0000000000000000 1.0000000000000000 0.0000000000000000
0.0000000000000000 1.0000000000000000 0.0000000000000000
0.0000000000000000 1.0000000000000000 0.0000000000000000
0.0000000000000000 1.0000000000000000 0.0000000000000000
0.0000000000000000 1.0000000000000000 0.0000000000000000
0.0000000000000000 1.0000000000000000 0.0000000000000000
0.0000000000000000 1.0000000000000000 0.0000000000000000
0.0000000000000000 1.0000000000000000 0.0000000000000000
0.0000000000000000 1.0000000000000000 0.0000000000000000
0.0000000000000000 1.0000000000000000 0.0000000000000000
0.0000000000000000 1.0000000000000000 0.0000000000000000
0.0000000000000000 1.0000000000000000 0.0000000000000000
0.0000000000000000 1.0000000000000000 0.0000000000000000
0.0000000000000000 1.0000000000000000 0.0000000000000000
0.0000000000000000 1.0000000000000000 0.0000000000000000
0.0000000000000000 1.0000000000000000 0.0000000000000000
0.0000000000000000 1.0000000000000000 0.0000000000000000
0.0000000000000000 1.0000000000000000 0.0000000000000000
0.0000000000000000 1.0000000000000000 0.0000000000000000
0.0000000000000000 1.0000000000000000 0.0000000000000000
0.0000000000000000 1.0000000000000000 0.0000000000000000
0.0000000000000000 1.0000000000000000 0.0000000000000000
0.0000000000000000 1.0000000000000000 0.0000000000000000
0.0000000000000000 1.0000000000000000 0.0000000000000000
0.0000000000000000 1.0000000000000000 0.0000000000000000
0.0000000000000000 1.0000000000000000 0.0000000000000000
0.0000000000000000 1.0000000000000000 0.0000000000000000
0.0000000000000000 1.0000000000000000 0.0000000000000000
0.0000000000000000 1.0000000000000000 0.0000000000000000
0.0000000000000000 1.0000000000000000 0.0000000000000000
0.0000000000000000 1.0000000000000000 0.0000000000000000
0.0000000000000000 1.0000000000000000 0.0000000000000000
0.0000000000000000 1.0000000000000000 0.0000000000000000
0.0000000000000000 1.0000000000000000 0.0000000000000000
0.0000000000000000 1.0000000000000000 0.0000000000000000
0.0000000000000000 1.0000000000000000 0.0000000000000000
0.0000000000000000 1.0000000000000000 0.0000000000000000
0.0000000000000000 1.0000000000000000 0.0000000000000000
0.0000000000000000 1.0000000000000000 0.0000000000000000
0.0000000000000000 1.0000000000000000 0.0000000000000000
0.0000000000000000 1.0000000000000000 0.0000000000000000
0.0000000000000000 1.0000000000000000 0.0000000000000000
0.0000000000000000 1.0000000000000000 0.0000000000000000
0.0000000000000000 1.0000000000000000 0.0000000000000000
0.0000000000000000 1.0000000000000000 0.0000000000000000
0.0000000000000000 1.0000000000000000 0.0000000000000000
0.0000000000000000 1.0000000000000000 0.0000000000000000
0.0000000000000000 1.0000000000000000 0.0000000000000000
0.0000000000000000 1.0000000000000000 0.0000000000000000
0.0000000000000000 1.0000000000000000 0.0000000000000000
0.0000000000000000 1.0000000000000000 0.0000000000000000
0.0000000000000000 1.0000000000000000 0.0000000000000000
0.0000000000000000 1.0000000000000000 0.0000000000000000
0.0000000000000000 1.0000000000000000 0.0000000000000000
0.0000000000000000 1.0000000000000000 0.0000000000000000
0.0000000000000000 1.0000000000000000 0.0000000000000000
0.0000000000000000 1.0000000000000000 0.0000000000000000
0.0000000000000000 1.0000000000000000 0.0000000000000000
0.0000000000000000 1.0000000000000000 0.0000000000000000
0.0000000000000000 1.0000000000000000 0.0000000000000000
0.0000000000000000 1.0000000000000000 0.0000000000000000
0.0000000000000000 1.0000000000000000 0.0000000000000000
0.0000000000000000 1.0000000000000000 0.0000000000000000
0.0000000000000000 1.0000000000000000 0.0000000000000000
0.0000000000000000 1.0000000000000000 0.0000000000000000
0.0000000000000000 1.0000000000000000 0.0000000000000000
0.0000000000000000 1.0000000000000000 0.0000000000000000
0.0000000000000000 1.0000000000000000 0.0000000000000000
0.0000000000000000 1.0000000000000000 0.0000000000000000
0.0000000000000000 1.0000000000000000 0.0000000000000000
0.0000000000000000 1.0000000000000000 0.0000000000000000
0.0000000000000000 1.0000000000000000 0.0000000000000000
0.0000000000000000 1.0000000000000000 0.0000000000000000
0.0000000000000000 1.0000000000000000 0.0000000000000000
0.0000000000000000 1.0000000000000000 0.0000000000000000
0.0000000000000000 1.0000000000000000 0.0000000000000000
0.0000000000000000 1.0000000000000000 0.0000000000000000
0.0000000000000000 1.0000000000000000 0.0000000000000000
0.0000000000000000 1.0000000000000000 0.0000000000000000
0.0000000000000000 1.0000000000000000 0.0000000000000000
0.0000000000000000 1.0000000000000000 0.0000000000000000
0.0000000000000000 1.0000000000000000 0.0000000000000000
0.0000000000000000 1.0000000000000000 0.0000000000000000
0.0000000000000000 1.0000000000000000 0.0000000000000000
0.0000000000000000 1.0000000000000000 0.0000000000000000
0.0000000000000000 1.0000000000000000 0.0000000000000000
0.0000000000000000 1.0000000000000000 0.0000000000000000
0.0000000000000000 1.0000000000000000 0.0000000000000000
0.0000000000000000 1.0000000000000000 0.0000000000000000
0.0000000000000000 1.0000000000000000 0.0000000000000000
0.0000000000000000 1.0000000000000000 0.0000000000000000
0.0000000000000000 1.0000000000000000 0.0000000000000000
0.0000000000000000 1.0000000000000000 0.0000000000000000
0.0000000000000000 1.0000000000000000 0.0000000000000000
0.0000000000000000 1.0000000000000000 0.0000000000000000
0.0000000000000000 1.0000000000000000 0.0000000000000000
0.0000000000000000 1.0000000000000000 0.0000000000000000
0.0000000000000000 1.0000000000000000 0.0000000000000000
0.0000000000000000 1.0000000000000000 0.0000000000000000
0.0000000000000000 1.0000000000000000 0.0000000000000000
0.0000000000000000 1.0000000000000000 0.0000000000000000
0.0000000000000000 1.0000000000000000 0.0000000000000000
0.0000000000000000 1.0000000000000000 0.0000000000000000
0.0000000000000000 1.0000000000000000 0.0000000000000000
0.0000000000000000 1.0000000000000000 0.0000000000000000
0.0000000000000000 1.0000000000000000 0.0000000000000000
0.0000000000000000 1.0000000000000000 0.0000000000000000
0.0000000000000000 1.0000000000000000 0.0000000000000000
0.0000000000000000 1.0000000000000000 0.0000000000000000
0.0000000000000000 1.0000000000000000 0.0000000000000000
0.0000000000000000 1.0000000000000000 0.0000000000000000
0.0000000000000000 1.0000000000000000 0.0000000000000000
0.0000000000000000 1.0000000000000000 0.0000000000000000
0.0000000000000000 1.0000000000000000 0.0000000000000000
0.0000000000000000 1.0000000000000000 0.0000000000000000
0.0000000000000000 1.0000000000000000 0.0000000000000000
0.0000000000000000 1.0000000000000000 0.0000000000000000
0.0000000000000000 1.0000000000000000 0.0000000000000000
0.0000000000000000 1.0000000000000000 0.0000000000000000
0.0000000000000000 1.0000000000000000 0.0000000000000000
0.0000000000000000 1.0000000000000000 0.0000000000000000
0.0000000000000000 1.0000000000000000 0.0000000000000000
0.0000000000000000 1.0000000000000000 0.0000000000000000
0.0000000000000000 1.0000000000000000 0.0000000000000000
0.0000000000000000 1.0000000000000000 0.0000000000000000
0.0000000000000000 1.0000000000000000 0.0000000000000000
0.0000000000000000 1.0000000000000000 0.0000000000000000
0.0000000000000000 1.0000000000000000 0.0000000000000000
0.0000000000000000 1.0000000000000000 0.0000000000000000
0.0000000000000000 1.0000000000000000 0.0000000000000000
0.0000000000000000 1.0000000000000000 0.0000000000000000
0.0000000000000000 1.0000000000000000 0.0000000000000000
0.0000000000000000 1.0000000000000000 0.0000000000000000
0.0000000000000000 1.0000000000000000 0.0000000000000000
0.0000000000000000 1.0000000000000000 0.0000000000000000
0.0000000000000000 1.0000000000000000 0.0000000000000000
0.0000000000000000 1.0000000000000000 0.0000000000000000
0.0000000000000000 1.0000000000000000 0.0000000000000000
0.0000000000000000 1.0000000000000000 0.0000000000000000
0.0000000000000000 1.0000000000000000 0.0000000000000000
0.0000000000000000 1.0000000000000000 0.0000000000000000
0.0000000000000000 1.0000000000000000 0.0000000000000000
0.0000000000000000 1.0000000000000000 0.0000000000000000
0.0000000000000000 1.0000000000000000 0.0000000000000000
0.0000000000000000 1.0000000000000000 0.0000000000000000
0.0000000000000000 1.0000000000000000 0.0000000000000000
0.0000000000000000 1.0000000000000000 0.0000000000000000
0.0000000000000000 1.0000000000000000 0.0000000000000000
0.0000000000000000 1.0000000000000000 0.0000000000000000
0.0000000000000000 1.0000000000000000 0.0000000000000000
0.0000000000000000 1.0000000000000000 0.0000000000000000
0.0000000000000000 1.0000000000000000 0.0000000000000000
0.0000000000000000 1.0000000000000000 0.0000000000000000
0.0000000000000000 1.0000000000000000 0.0000000000000000
0.0000000000000000 1.0000000000000000 0.0000000000000000
0.0000000000000000 1.0000000000000000 0.0000000000000000
0.0000000000000000 1.0000000000000000 0.0000000000000000
0.0000000000000000 1.0000000000000000 0.0000000000000000
0.0000000000000000 1.0000000000000000 0.0000000000000000
0.0000000000000000 1.0000000000000000 0.0000000000000000
0.0000000000000000 1.0000000000000000 0.0000000000000000
0.0000000000000000 1.0000000000000000 0.0000000000000000
0.0000000000000000 1.0000000000000000 0.0000000000000000
0.0000000000000000 1.0000000000000000 0.0000000000000000
0.0000000000000000 1.0000000000000000 0.0000000000000000
0.0000000000000000 1.0000000000000000 0.0000000000000000
0.0000000000000000 1.0000000000000000 0.0000000000000000
0.0000000000000000 1.0000000000000000 0.0000000000000000
0.0000000000000000 1.0000000000000000 0.0000000000000000
0.0000000000000000 1.0000000000000000 0.0000000000000000
0.0000000000000000 1.0000000000000000 0.0000000000000000
0.0000000000000000 1.0000000000000000 0.0000000000000000
0.0000000000000000 1.0000000000000000 0.0000000000000000
0.0000000000000000 1.0000000000000000 0.0000000000000000
0.0000000000000000 1.0000000000000000 0.0000000000000000
0.0000000000000000 1.0000000000000000 0.0000000000000000
0.0000000000000000 1.0000000000000000 0.0000000000000000
0.0000000000000000 1.0000000000000000 0.0000000000000000
0.0000000000000000 1.0000000000000000 0.0000000000000000
0.0000000000000000 1.0000000000000000 0.0000000000000000
0.0000000000000000 1.0000000000000000 0.0000000000000000
0.0000000000000000 1.0000000000000000 0.0000000000000000
0.0000000000000000 1.0000000000000000 0.0000000000000000
0.0000000000000000 1.0000000000000000 0.0000000000000000
0.0000000000000000 1.0000000000000000 0.0000000000000000
0.0000000000000000 1.0000000000000000 0.0000000000000000
0.0000000000000000 1.0000000000000000 0.0000000000000000
0.0000000000000000 1.0000000000000000 0.0000000000000000
0.0000000000000000 1.0000000000000000 0.0000000000000000
0.0000000000000000 1.0000000000000000 0.0000000000000000
0.0000000000000000 1.0000000000000000 0.0000000000000000
0.0000000000000000 1.0000000000000000 0.0000000000000000
0.0000000000000000 1.0000000000000000 0.0000000000000000
0.0000000000000000 1.0000000000000000 0.0000000000000000
0.0000000000000000 1.0000000000000000 0.0000000000000000
0.0000000000000000 1.0000000000000000 0.0000000000000000
0.0000000000000000 1.0000000000000000 0.0000000000000000
0.0000000000000000 1.0000000000000000 0.0000000000000000
0.0000000000000000 1.0000000000000000 0.0000000000000000
0.0000000000000000 1.0000000000000000 0.0000000000000000
0.0000000000000000 1.0000000000000000 0.0000000000000000
0.0000000000000000 1.0000000000000000 0.0000000000000000
0.0000000000000000 1.0000000000000000 0.0000000000000000
0.0000000000000000 1.0000000000000000 0.0000000000000000
0.0000000000000000 1.0000000000000000 0.0000000000000000
0.0000000000000000 1.0000000000000000 0.0000000000000000
0.0000000000000000 1.0000000000000000 0.0000000000000000
0.0000000000000000 1.0000000000000000 0.0000000000000000
0.0000000000000000 1.0000000000000000 0.0000000000000000
0.0000000000000000 1.0000000000000000 0.0000000000000000
0.0000000000000000 1.0000000000000000 0.0000000000000000
0.0000000000000000 1.0000000000000000 0.0000000000000000
0.0000000000000000 1.0000000000000000 0.0000000000000000
0.0000000000000000 1.0000000000000000 0.0000000000000000
0.0000000000000000 1.0000000000000000 0.0000000000000000
0.0000000000000000 1.0000000000000000 0.0000000000000000
0.0000000000000000 1.0000000000000000 0.0000000000000000
0.0000000000000000 1.0000000000000000 0.0000000000000000
0.0000000000000000 1.0000000000000000 0.0000000000000000
0.0000000000000000 1.0000000000000000 0.0000000000000000
0.0000000000000000 1.0000000000000000 0.0000000000000000
0.0000000000000000 1.0000000000000000 0.0000000000000000
0.0000000000000000 1.0000000000000000 0.0000000000000000
0.0000000000000000 1.0000000000000000 0.0000000000000000
0.0000000000000000 1.0000000000000000 0.0000000000000000
0.0000000000000000 1.0000000000000000 0.0000000000000000
0.0000000000000000 1.0000000000000000 0.0000000000000000
0.0000000000000000 1.0000000000000000 0.0000000000000000
0.0000000000000000 1.0000000000000000 0.0000000000000000
0.0000000000000000 1.0000000000000000 0.0000000000000000
0.0000000000000000 1.0000000000000000 0.0000000000000000
0.0000000000000000 1.0000000000000000 0.0000000000000000
0.0000000000000000 1.0000000000000000 0.0000000000000000
0.0000000000000000 1.0000000000000000 0.0000000000000000
0.0000000000000000 1.0000000000000000 0.0000000000000000
0.0000000000000000 1.0000000000000000 0.0000000000000000
0.0000000000000000 1.0000000000000000 0.0000000000000000
0.0000000000000000 1.0000000000000000 0.0000000000000000
0.0000000000000000 1.0000000000000000 0.0000000000000000
0.0000000000000000 1.0000000000000000 0.0000000000000000
0.0000000000000000 1.0000000000000000 0.0000000000000000
0.0000000000000000 1.0000000000000000 0.0000000000000000
0.0000000000000000 1.0000000000000000 0.0000000000000000
0.0000000000000000 1.0000000000000000 0.0000000000000000
0.0000000000000000 1.0000000000000000 0.0000000000000000
0.0000000000000000 1.0000000000000000 0.0000000000000000
0.0000000000000000 1.0000000000000000 0.0000000000000000
0.0000000000000000 1.0000000000000000 0.0000000000000000
0.0000000000000000 1.0000000000000000 0.0000000000000000
0.0000000000000000 1.0000000000000000 0.0000000000000000
0.0000000000000000 1.0000000000000000 0.0000000000000000
0.0000000000000000 1.0000000000000000 0.0000000000000000
0.0000000000000000 1.0000000000000000 0.0000000000000000
0.0000000000000000 1.0000000000000000 0.0000000000000000
0.0000000000000000 1.0000000000000000 0.0000000000000000
0.0000000000000000 1.0000000000000000 0.0000000000000000
0.0000000000000000 1.0000000000000000 0.0000000000000000
0.0000000000000000 1.0000000000000000 0.0000000000000000
0.0000000000000000 1.0000000000000000 0.0000000000000000
0.0000000000000000 1.0000000000000000 0.0000000000000000
0.0000000000000000 1.0000000000000000 0.0000000000000000
0.0000000000000000 1.0000000000000000 0.0000000000000000
0.0000000000000000 1.0000000000000000 0.0000000000000000
0.0000000000000000 1.0000000000000000 0.0000000000000000
0.0000000000000000 1.0000000000000000 0.0000000000000000
0.0000000000000000 1.0000000000000000 0.0000000000000000
0.0000000000000000 1.0000000000000000 0.0000000000000000
0.0000000000000000 1.0000000000000000 0.0000000000000000
0.0000000000000000 1.0000000000000000 0.0000000000000000
0.0000000000000000 1.0000000000000000 0.0000000000000000
0.0000000000000000 1.0000000000000000 0.0000000000000000
0.0000000000000000 1.0000000000000000 0.0000000000000000
0.0000000000000000 1.0000000000000000 0.0000000000000000
0.0000000000000000 1.0000000000000000 0.0000000000000000
0.0000000000000000 1.0000000000000000 0.0000000000000000
0.0000000000000000 1.0000000000000000 0.0000000000000000
0.0000000000000000 1.0000000000000000 0.0000000000000000
0.0000000000000000 1.0000000000000000 0.0000000000000000
0.0000000000000000 1.0000000000000000 0.0000000000000000
0.0000000000000000 1.0000000000000000 0.0000000000000000
0.0000000000000000 1.0000000000000000 0.0000000000000000
0.0000000000000000 1.0000000000000000 0.0000000000000000
0.0000000000000000 1.0000000000000000 0.0000000000000000
0.0000000000000000 1.0000000000000000 0.0000000000000000
0.0000000000000000 1.0000000000000000 0.0000000000000000
0.0000000000000000 1.0000000000000000 0.0000000000000000
0.0000000000000000 1.0000000000000000 0.0000000000000000
0.0000000000000000 1.0000000000000000 0.0000000000000000
0.0000000000000000 1.0000000000000000 0.0000000000000000
0.0000000000000000 1.0000000000000000 0.0000000000000000
0.0000000000000000 1.0000000000000000 0.0000000000000000
0.0000000000000000 1.0000000000000000 0.0000000000000000
0.0000000000000000 1.0000000000000000 0.0000000000000000
0.0000000000000000 1.0000000000000000 0.0000000000000000
0.0000000000000000 1.0000000000000000 0.0000000000000000
0.0000000000000000 1.0000000000000000 0.0000000000000000
0.0000000000000000 1.0000000000000000 0.0000000000000000
0.0000000000000000 1.0000000000000000 0.0000000000000000
0.0000000000000000 1.0000000000000000 0.0000000000000000
0.0000000000000000 1.0000000000000000 0.0000000000000000
0.0000000000000000 1.0000000000000000 0.0000000000000000
0.0000000000000000 1.0000000000000000 0.0000000000000000
0.0000000000000000 1.0000000000000000 0.0000000000000000
0.0000000000000000 1.0000000000000000 0.0000000000000000
0.0000000000000000 1.0000000000000000 0.0000000000000000
0.0000000000000000 1.0000000000000000 0.0000000000000000
0.0000000000000000 1.0000000000000000 0.0000000000000000
0.0000000000000000 1.0000000000000000 0.0000000000000000
0.0000000000000000 1.0000000000000000 0.0000000000000000
0.0000000000000000 1.0000000000000000 0.0000000000000000
0.0000000000000000 1.0000000000000000 0.0000000000000000
0.0000000000000000 1.0000000000000000 0.0000000000000000
0.0000000000000000 1.0000000000000000 0.0000000000000000
0.0000000000000000 1.0000000000000000 0.0000000000000000
0.0000000000000000 1.0000000000000000 0.0000000000000000
0.0000000000000000 1.0000000000000000 0.0000000000000000
0.0000000000000000 1.0000000000000000 0.0000000000000000
0.0000000000000000 1.0000000000000000 0.0000000000000000
0.0000000000000000 1.0000000000000000 0.0000000000000000
0.0000000000000000 1.0000000000000000 0.0000000000000000
0.0000000000000000 1.0000000000000000 0.0000000000000000
0.0000000000000000 1.0000000000000000 0.0000000000000000
0.0000000000000000 1.0000000000000000 0.0000000000000000
0.0000000000000000 1.0000000000000000 0.0000000000000000
0.0000000000000000 1.0000000000000000 0.0000000000000000
0.0000000000000000 1.0000000000000000 0.0000000000000000
0.0000000000000000 1.0000000000000000 0.0000000000000000
0.0000000000000000 1.0000000000000000 0.0000000000000000
0.0000000000000000 1.0000000000000000 0.0000000000000000
0.0000000000000000 1.0000000000000000 0.0000000000000000
0.0000000000000000 1.0000000000000000 0.0000000000000000
0.0000000000000000 1.0000000000000000 0.0000000000000000
0.0000000000000000 1.0000000000000000 0.0000000000000000
0.0000000000000000 1.0000000000000000 0.0000000000000000
0.0000000000000000 1.0000000000000000 0.0000000000000000
0.0000000000000000 1.0000000000000000 0.0000000000000000
0.0000000000000000 1.0000000000000000 0.0000000000000000
0.0000000000000000 1.0000000000000000 0.0000000000000000
0.0000000000000000 1.0000000000000000 0.0000000000000000
0.0000000000000000 1.0000000000000000 0.0000000000000000
0.0000000000000000 1.0000000000000000 0.0000000000000000
0.0000000000000000 1.0000000000000000 0.0000000000000000
0.0000000000000000 1.0000000000000000 0.0000000000000000
0.0000000000000000 1.0000000000000000 0.0000000000000000
0.0000000000000000 1.0000000000000000 0.0000000000000000
0.0000000000000000 1.0000000000000000 0.0000000000000000
0.0000000000000000 1.0000000000000000 0.0000000000000000
0.0000000000000000 1.0000000000000000 0.0000000000000000
0.0000000000000000 1.0000000000000000 0.0000000000000000
0.0000000000000000 1.0000000000000000 0.0000000000000000
0.0000000000000000 1.0000000000000000 0.0000000000000000
0.0000000000000000 1.0000000000000000 0.0000000000000000
0.0000000000000000 1.0000000000000000 0.0000000000000000
0.0000000000000000 1.0000000000000000 0.0000000000000000
0.0000000000000000 1.0000000000000000 0.0000000000000000
0.0000000000000000 1.0000000000000000 0.0000000000000000
0.0000000000000000 1.0000000000000000 0.0000000000000000
0.0000000000000000 1.0000000000000000 0.0000000000000000
0.0000000000000000 1.0000000000000000 0.0000000000000000
0.0000000000000000 1.0000000000000000 0.0000000000000000
0.0000000000000000 1.0000000000000000 0.0000000000000000
0.0000000000000000 1.0000000000000000 0.0000000000000000
0.0000000000000000 1.0000000000000000 0.0000000000000000
0.0000000000000000 1.0000000000000000 0.0000000000000000
0.0000000000000000 1.0000000000000000 0.0000000000000000
0.0000000000000000 1.0000000000000000 0.0000000000000000
0.0000000000000000 1.0000000000000000 0.0000000000000000
0.0000000000000000 1.0000000000000000 0.0000000000000000
0.0000000000000000 1.0000000000000000 0.0000000000000000
0.0000000000000000 1.0000000000000000 0.0000000000000000
0.0000000000000000 1.0000000000000000 0.0000000000000000
0.0000000000000000 1.0000000000000000 0.0000000000000000
0.0000000000000000 1.0000000000000000 0.0000000000000000
0.0000000000000000 1.0000000000000000 0.0000000000000000
0.0000000000000000 1.0000000000000000 0.0000000000000000
0.0000000000000000 1.0000000000000000 0.0000000000000000
0.0000000000000000 1.0000000000000000 0.0000000000000000
0.0000000000000000 1.0000000000000000 0.0000000000000000
0.0000000000000000 1.0000000000000000 0.0000000000000000
0.0000000000000000 1.0000000000000000 0.0000000000000000
0.0000000000000000 1.0000000000000000 0.0000000000000000
0.0000000000000000 1.0000000000000000 0.0000000000000000
0.0000000000000000 1.0000000000000000 0.0000000000000000
0.0000000000000000 1.0000000000000000 0.0000000000000000
0.0000000000000000 1.0000000000000000 0.0000000000000000
0.0000000000000000 1.0000000000000000 0.0000000000000000
0.0000000000000000 1.0000000000000000 0.0000000000000000
0.0000000000000000 1.0000000000000000 0.0000000000000000
0.0000000000000000 1.0000000000000000 0.0000000000000000
0.0000000000000000 1.0000000000000000 0.0000000000000000
0.0000000000000000 1.0000000000000000 0.0000000000000000
0.0000000000000000 1.0000000000000000 0.0000000000000000
0.0000000000000000 1.0000000000000000 0.0000000000000000
0.0000000000000000 1.0000000000000000 0.0000000000000000
0.0000000000000000 1.0000000000000000 0.0000000000000000
0.0000000000000000 1.0000000000000000 0.0000000000000000
0.0000000000000000 1.0000000000000000 0.0000000000000000
0.0000000000000000 1.0000000000000000 0.0000000000000000
0.0000000000000000 1.0000000000000000 0.0000000000000000
0.0000000000000000 1.0000000000000000 0.0000000000000000
0.0000000000000000 1.0000000000000000 0.0000000000000000
0.0000000000000000 1.0000000000000000 0.0000000000000000
0.0000000000000000 1.0000000000000000 0.0000000000000000
0.0000000000000000 1.0000000000000000 0.0000000000000000
0.0000000000000000 1.0000000000000000 0.0000000000000000
0.0000000000000000 1.0000000000000000 0.0000000000000000
0.0000000000000000 1.0000000000000000 0.0000000000000000
0.0000000000000000 1.0000000000000000 0.0000000000000000
0.0000000000000000 1.0000000000000000 0.0000000000000000
0.0000000000000000 1.0000000000000000 0.0000000000000000
0.0000000000000000 1.0000000000000000 0.0000000000000000
0.0000000000000000 1.0000000000000000 0.0000000000000000
0.0000000000000000 1.0000000000000000 0.0000000000000000
0.0000000000000000 1.0000000000000000 0.0000000000000000
0.0000000000000000 1.0000000000000000 0.0000000000000000
0.0000000000000000 1.0000000000000000 0.0000000000000000
0.0000000000000000 1.0000000000000000 0.0000000000000000
0.0000000000000000 1.0000000000000000 0.0000000000000000
0.0000000000000000 1.0000000000000000 0.0000000000000000
0.0000000000000000 1.0000000000000000 0.0000000000000000
0.0000000000000000 1.0000000000000000 0.0000000000000000
0.0000000000000000 1.0000000000000000 0.0000000000000000
0.0000000000000000 1.0000000000000000 0.0000000000000000
0.0000000000000000 1.0000000000000000 0.0000000000000000
0.0000000000000000 1.0000000000000000 0.0000000000000000
0.0000000000000000 1.0000000000000000 0.0000000000000000
0.0000000000000000 1.0000000000000000 0.0000000000000000
0.0000000000000000 1.0000000000000000 0.0000000000000000
0.0000000000000000 1.0000000000000000 0.0000000000000000
0.0000000000000000 1.0000000000000000 0.0000000000000000
0.0000000000000000 1.0000000000000000 0.0000000000000000
0.0000000000000000 1.0000000000000000 0.0000000000000000
0.0000000000000000 1.0000000000000000 0.0000000000000000
0.0000000000000000 1.0000000000000000 0.0000000000000000
0.0000000000000000 1.0000000000000000 0.0000000000000000
0.0000000000000000 1.0000000000000000 0.0000000000000000
0.0000000000000000 1.0000000000000000 0.0000000000000000
0.0000000000000000 1.0000000000000000 0.0000000000000000
0.0000000000000000 1.0000000000000000 0.0000000000000000
0.0000000000000000 1.0000000000000000 0.0000000000000000
0.0000000000000000 1.0000000000000000 0.0000000000000000
0.0000000000000000 1.0000000000000000 0.0000000000000000
0.0000000000000000 1.0000000000000000 0.0000000000000000
0.0000000000000000 1.0000000000000000 0.0000000000000000
0.0000000000000000 1.0000000000000000 0.0000000000000000
0.0000000000000000 1.0000000000000000 0.0000000000000000
0.0000000000000000 1.0000000000000000 0.0000000000000000
0.0000000000000000 1.0000000000000000 0.0000000000000000
0.0000000000000000 1.0000000000000000 0.0000000000000000
0.0000000000000000 1.0000000000000000 0.0000000000000000
0.0000000000000000 1.0000000000000000 0.0000000000000000
0.0000000000000000 1.0000000000000000 0.0000000000000000
0.0000000000000000 1.0000000000000000 0.0000000000000000
0.0000000000000000 1.0000000000000000 0.0000000000000000
0.0000000000000000 1.0000000000000000 0.0000000000000000
0.0000000000000000 1.0000000000000000 0.0000000000000000
0.0000000000000000 1.0000000000000000 0.0000000000000000
0.0000000000000000 1.0000000000000000 0.0000000000000000
0.0000000000000000 1.0000000000000000 0.0000000000000000
0.0000000000000000 1.0000000000000000 0.0000000000000000
0.0000000000000000 1.0000000000000000 0.0000000000000000
0.0000000000000000 1.0000000000000000 0.0000000000000000
0.0000000000000000 1.0000000000000000 0.0000000000000000
0.0000000000000000 1.0000000000000000 0.0000000000000000
0.0000000000000000 1.0000000000000000 0.0000000000000000
0.0000000000000000 1.0000000000000000 0.0000000000000000
0.0000000000000000 1.0000000000000000 0.0000000000000000
0.0000000000000000 1.0000000000000000 0.0000000000000000
0.0000000000000000 1.0000000000000000 0.0000000000000000
0.0000000000000000 1.0000000000000000 0.0000000000000000
0.0000000000000000 1.0000000000000000 0.0000000000000000
0.0000000000000000 1.0000000000000000 0.0000000000000000
0.0000000000000000 1.0000000000000000 0.0000000000000000
0.0000000000000000 1.0000000000000000 0.0000000000000000
0.0000000000000000 1.0000000000000000 0.0000000000000000
0.0000000000000000 1.0000000000000000 0.0000000000000000
0.0000000000000000 1.0000000000000000 0.0000000000000000
0.0000000000000000 1.0000000000000000 0.0000000000000000
0.0000000000000000 1.0000000000000000 0.0000000000000000
0.0000000000000000 1.0000000000000000 0.0000000000000000
0.0000000000000000 1.0000000000000000 0.0000000000000000
0.0000000000000000 1.0000000000000000 0.0000000000000000
0.0000000000000000 1.0000000000000000 0.0000000000000000
0.0000000000000000 1.0000000000000000 0.0000000000000000
0.0000000000000000 1.0000000000000000 0.0000000000000000
0.0000000000000000 1.0000000000000000 0.0000000000000000
0.0000000000000000 1.0000000000000000 0.0000000000000000
0.0000000000000000 1.0000000000000000 0.0000000000000000
0.0000000000000000 1.0000000000000000 0.0000000000000000
0.0000000000000000 1.0000000000000000 0.0000000000000000
0.0000000000000000 1.0000000000000000 0.0000000000000000
0.0000000000000000 1.0000000000000000 0.0000000000000000
0.0000000000000000 1.0000000000000000 0.0000000000000000
0.0000000000000000 1.0000000000000000 0.0000000000000000
0.0000000000000000 1.0000000000000000 0.0000000000000000
0.0000000000000000 1.0000000000000000 0.0000000000000000
0.0000000000000000 1.0000000000000000 0.0000000000000000
0.0000000000000000 1.0000000000000000 0.0000000000000000
0.0000000000000000 1.0000000000000000 0.0000000000000000
0.0000000000000000 1.0000000000000000 0.0000000000000000
0.0000000000000000 1.0000000000000000 0.0000000000000000
0.0000000000000000 1.0000000000000000 0.0000000000000000
0.0000000000000000 1.0000000000000000 0.0000000000000000
0.0000000000000000 1.0000000000000000 0.0000000000000000
0.0000000000000000 1.0000000000000000 0.0000000000000000
0.0000000000000000 1.0000000000000000 0.0000000000000000
0.0000000000000000 1.0000000000000000 0.0000000000000000
0.0000000000000000 1.0000000000000000 0.0000000000000000
0.0000000000000000 1.0000000000000000 0.0000000000000000
0.0000000000000000 1.0000000000000000 0.0000000000000000
0.0000000000000000 1.0000000000000000 0.0000000000000000
0.0000000000000000 1.0000000000000000 0.0000000000000000
0.0000000000000000 1.0000000000000000 0.0000000000000000
0.0000000000000000 1.0000000000000000 0.0000000000000000
0.0000000000000000 1.0000000000000000 0.0000000000000000
0.0000000000000000 1.0000000000000000 0.0000000000000000
0.0000000000000000 1.0000000000000000 0.0000000000000000
0.0000000000000000 1.0000000000000000 0.0000000000000000
0.0000000000000000 1.0000000000000000 0.0000000000000000
0.0000000000000000 1.0000000000000000 0.0000000000000000
0.0000000000000000 1.0000000000000000 0.0000000000000000
0.0000000000000000 1.0000000000000000 0.0000000000000000
0.0000000000000000 1.0000000000000000 0.0000000000000000
0.0000000000000000 1.0000000000000000 0.0000000000000000
0.0000000000000000 1.0000000000000000 0.0000000000000000
0.0000000000000000 1.0000000000000000 0.0000000000000000
0.0000000000000000 1.0000000000000000 0.0000000000000000
0.0000000000000000 1.0000000000000000 0.0000000000000000
0.0000000000000000 1.0000000000000000 0.0000000000000000
0.0000000000000000 1.0000000000000000 0.0000000000000000
0.0000000000000000 1.0000000000000000 0.0000000000000000
0.0000000000000000 1.0000000000000000 0.0000000000000000
0.0000000000000000 1.0000000000000000 0.0000000000000000
0.0000000000000000 1.0000000000000000 0.0000000000000000
0.0000000000000000 1.0000000000000000 0.0000000000000000
0.0000000000000000 1.0000000000000000 0.0000000000000000
0.0000000000000000 1.0000000000000000 0.0000000000000000
0.0000000000000000 1.0000000000000000 0.0000000000000000
0.0000000000000000 1.0000000000000000 0.0000000000000000
0.0000000000000000 1.0000000000000000 0.0000000000000000
0.0000000000000000 1.0000000000000000 0.0000000000000000
0.0000000000000000 1.0000000000000000 0.0000000000000000
0.0000000000000000 1.0000000000000000 0.0000000000000000
0.0000000000000000 1.0000000000000000 0.0000000000000000
0.0000000000000000 1.0000000000000000 0.0000000000000000
0.0000000000000000 1.0000000000000000 0.0000000000000000
0.0000000000000000 1.0000000000000000 0.0000000000000000
0.0000000000000000 1.0000000000000000 0.0000000000000000
0.0000000000000000 1.0000000000000000 0.0000000000000000
0.0000000000000000 1.0000000000000000 0.0000000000000000
0.0000000000000000 1.0000000000000000 0.0000000000000000
0.0000000000000000 1.0000000000000000 0.0000000000000000
0.0000000000000000 1.0000000000000000 0.0000000000000000
0.0000000000000000 1.0000000000000000 0.0000000000000000
0.0000000000000000 1.0000000000000000 0.0000000000000000
0.0000000000000000 1.0000000000000000 0.0000000000000000
0.0000000000000000 1.0000000000000000 0.0000000000000000
0.0000000000000000 1.0000000000000000 0.0000000000000000
0.0000000000000000 1.0000000000000000 0.0000000000000000
0.0000000000000000 1.0000000000000000 0.0000000000000000
0.0000000000000000 1.0000000000000000 0.0000000000000000
0.0000000000000000 1.0000000000000000 0.0000000000000000
0.0000000000000000 1.0000000000000000 0.0000000000000000
0.0000000000000000 1.0000000000000000 0.0000000000000000
0.0000000000000000 1.0000000000000000 0.0000000000000000
0.0000000000000000 1.0000000000000000 0.0000000000000000
0.0000000000000000 1.0000000000000000 0.0000000000000000
0.0000000000000000 1.0000000000000000 0.0000000000000000
0.0000000000000000 1.0000000000000000 0.0000000000000000
0.0000000000000000 1.0000000000000000 0.0000000000000000
0.0000000000000000 1.0000000000000000 0.0000000000000000
0.0000000000000000 1.0000000000000000 0.0000000000000000
0.0000000000000000 1.0000000000000000 0.0000000000000000
0.0000000000000000 1.0000000000000000 0.0000000000000000
0.0000000000000000 1.0000000000000000 0.0000000000000000
0.0000000000000000 1.0000000000000000 0.0000000000000000
0.0000000000000000 1.0000000000000000 0.0000000000000000
0.0000000000000000 1.0000000000000000 0.0000000000000000
0.0000000000000000 1.0000000000000000 0.0000000000000000
0.0000000000000000 1.0000000000000000 0.0000000000000000
0.0000000000000000 1.0000000000000000 0.0000000000000000
0.0000000000000000 1.0000000000000000 0.0000000000000000
0.0000000000000000 1.0000000000000000 0.0000000000000000
0.0000000000000000 1.0000000000000000 0.0000000000000000
0.0000000000000000 1.0000000000000000 0.0000000000000000
0.0000000000000000 1.0000000000000000 0.0000000000000000
0.0000000000000000 1.0000000000000000 0.0000000000000000
0.0000000000000000 1.0000000000000000 0.0000000000000000
0.0000000000000000 1.0000000000000000 0.0000000000000000
0.0000000000000000 1.0000000000000000 0.0000000000000000
0.0000000000000000 1.0000000000000000 0.0000000000000000
0.0000000000000000 1.0000000000000000 0.0000000000000000
0.0000000000000000 1.0000000000000000 0.0000000000000000
0.0000000000000000 1.0000000000000000 0.0000000000000000
0.0000000000000000 1.0000000000000000 0.0000000000000000
0.0000000000000000 1.0000000000000000 0.0000000000000000
0.0000000000000000 1.0000000000000000 0.0000000000000000
0.0000000000000000 1.0000000000000000 0.0000000000000000
0.0000000000000000 1.0000000000000000 0.0000000000000000
0.0000000000000000 1.0000000000000000 0.0000000000000000
0.0000000000000000 1.0000000000000000 0.0000000000000000
0.0000000000000000 1.0000000000000000 0.0000000000000000
0.0000000000000000 1.0000000000000000 0.0000000000000000
0.0000000000000000 1.0000000000000000 0.0000000000000000
0.0000000000000000 1.0000000000000000 0.0000000000000000
0.0000000000000000 1.0000000000000000 0.0000000000000000
0.0000000000000000 1.0000000000000000 0.0000000000000000
0.0000000000000000 1.0000000000000000 0.0000000000000000
0.0000000000000000 1.0000000000000000 0.0000000000000000
0.0000000000000000 1.0000000000000000 0.0000000000000000
0.0000000000000000 1.0000000000000000 0.0000000000000000
0.0000000000000000 1.0000000000000000 0.0000000000000000
0.0000000000000000 1.0000000000000000 0.0000000000000000
0.0000000000000000 1.0000000000000000 0.0000000000000000
0.0000000000000000 1.0000000000000000 0.0000000000000000
0.0000000000000000 1.0000000000000000 0.0000000000000000
0.0000000000000000 1.0000000000000000 0.0000000000000000
0.0000000000000000 1.0000000000000000 0.0000000000000000
0.0000000000000000 1.0000000000000000 0.0000000000000000
0.0000000000000000 1.0000000000000000 0.0000000000000000
0.0000000000000000 1.0000000000000000 0.0000000000000000
0.0000000000000000 1.0000000000000000 0.0000000000000000
0.0000000000000000 1.0000000000000000 0.0000000000000000
0.0000000000000000 1.0000000000000000 0.0000000000000000
0.0000000000000000 1.0000000000000000 0.0000000000000000
0.0000000000000000 1.0000000000000000 0.0000000000000000
0.0000000000000000 1.0000000000000000 0.0000000000000000
0.0000000000000000 1.0000000000000000 0.0000000000000000
0.0000000000000000 1.0000000000000000 0.0000000000000000
0.0000000000000000 1.0000000000000000 0.0000000000000000
0.0000000000000000 1.0000000000000000 0.0000000000000000
0.0000000000000000 1.0000000000000000 0.0000000000000000
0.0000000000000000 1.0000000000000000 0.0000000000000000
0.0000000000000000 1.0000000000000000 0.0000000000000000
0.0000000000000000 1.0000000000000000 0.0000000000000000
0.0000000000000000 1.0000000000000000 0.0000000000000000
0.0000000000000000 1.0000000000000000 0.0000000000000000
0.0000000000000000 1.0000000000000000 0.0000000000000000
0.0000000000000000 1.0000000000000000 0.0000000000000000
0.0000000000000000 1.0000000000000000 0.0000000000000000
0.0000000000000000 1.0000000000000000 0.0000000000000000
0.0000000000000000 1.0000000000000000 0.0000000000000000
0.0000000000000000 1.0000000000000000 0.0000000000000000
0.0000000000000000 1.0000000000000000 0.0000000000000000
0.0000000000000000 1.0000000000000000 0.0000000000000000
0.0000000000000000 1.0000000000000000 0.0000000000000000
0.0000000000000000 1.0000000000000000 0.0000000000000000
0.0000000000000000 1.0000000000000000 0.0000000000000000
0.0000000000000000 1.0000000000000000 0.0000000000000000
0.0000000000000000 1.0000000000000000 0.0000000000000000
0.0000000000000000 1.0000000000000000 0.0000000000000000
0.0000000000000000 1.0000000000000000 0.0000000000000000
0.0000000000000000 1.0000000000000000 0.0000000000000000
0.0000000000000000 1.0000000000000000 0.0000000000000000
0.0000000000000000 1.0000000000000000 0.0000000000000000
0.0000000000000000 1.0000000000000000 0.0000000000000000
0.0000000000000000 1.0000000000000000 0.0000000000000000
0.0000000000000000 1.0000000000000000 0.0000000000000000
0.0000000000000000 1.0000000000000000 0.0000000000000000
0.0000000000000000 1.0000000000000000 0.0000000000000000
0.0000000000000000 1.0000000000000000 0.0000000000000000
0.0000000000000000 1.0000000000000000 0.0000000000000000
0.0000000000000000 1.0000000000000000 0.0000000000000000
0.0000000000000000 1.0000000000000000 0.0000000000000000
0.0000000000000000 1.0000000000000000 0.0000000000000000
0.0000000000000000 1.0000000000000000 0.0000000000000000
0.0000000000000000 1.0000000000000000 0.0000000000000000
0.0000000000000000 1.0000000000000000 0.0000000000000000
0.0000000000000000 1.0000000000000000 0.0000000000000000
0.0000000000000000 1.0000000000000000 0.0000000000000000
0.0000000000000000 1.0000000000000000 0.0000000000000000
0.0000000000000000 1.0000000000000000 0.0000000000000000
0.0000000000000000 1.0000000000000000 0.0000000000000000
0.0000000000000000 1.0000000000000000 0.0000000000000000
0.0000000000000000 1.0000000000000000 0.0000000000000000
0.0000000000000000 1.0000000000000000 0.0000000000000000
0.0000000000000000 1.0000000000000000 0.0000000000000000
0.0000000000000000 1.0000000000000000 0.0000000000000000
0.0000000000000000 1.0000000000000000 0.0000000000000000
0.0000000000000000 1.0000000000000000 0.0000000000000000
0.0000000000000000 1.0000000000000000 0.0000000000000000
0.0000000000000000 1.0000000000000000 0.0000000000000000
0.0000000000000000 1.0000000000000000 0.0000000000000000
0.0000000000000000 1.0000000000000000 0.0000000000000000
0.0000000000000000 1.0000000000000000 0.0000000000000000
0.0000000000000000 1.0000000000000000 0.0000000000000000
0.0000000000000000 1.0000000000000000 0.0000000000000000
0.0000000000000000 1.0000000000000000 0.0000000000000000
0.0000000000000000 1.0000000000000000 0.0000000000000000
0.0000000000000000 1.0000000000000000 0.0000000000000000
0.0000000000000000 1.0000000000000000 0.0000000000000000
0.0000000000000000 1.0000000000000000 0.0000000000000000
0.0000000000000000 1.0000000000000000 0.0000000000000000
0.0000000000000000 1.0000000000000000 0.0000000000000000
0.0000000000000000 1.0000000000000000 0.0000000000000000
0.0000000000000000 1.0000000000000000 0.0000000000000000
0.0000000000000000 1.0000000000000000 0.0000000000000000
0.0000000000000000 1.0000000000000000 0.0000000000000000
0.0000000000000000 1.0000000000000000 0.0000000000000000
0.0000000000000000 1.0000000000000000 0.0000000000000000
0.0000000000000000 1.0000000000000000 0.0000000000000000
0.0000000000000000 1.0000000000000000 0.0000000000000000
0.0000000000000000 1.0000000000000000 0.0000000000000000
0.0000000000000000 1.0000000000000000 0.0000000000000000
0.0000000000000000 1.0000000000000000 0.0000000000000000
0.0000000000000000 1.0000000000000000 0.0000000000000000
0.0000000000000000 1.0000000000000000 0.0000000000000000
0.0000000000000000 1.0000000000000000 0.0000000000000000
0.0000000000000000 1.0000000000000000 0.0000000000000000
0.0000000000000000 1.0000000000000000 0.0000000000000000
0.0000000000000000 1.0000000000000000 0.0000000000000000
0.0000000000000000 1.0000000000000000 0.0000000000000000
0.0000000000000000 1.0000000000000000 0.0000000000000000
0.0000000000000000 1.0000000000000000 0.0000000000000000
0.0000000000000000 1.0000000000000000 0.0000000000000000
0.0000000000000000 1.0000000000000000 0.0000000000000000
0.0000000000000000 1.0000000000000000 0.0000000000000000
0.0000000000000000 1.0000000000000000 0.0000000000000000
0.0000000000000000 1.0000000000000000 0.0000000000000000
0.0000000000000000 1.0000000000000000 0.0000000000000000
0.0000000000000000 1.0000000000000000 0.0000000000000000
0.0000000000000000 1.0000000000000000 0.0000000000000000
0.0000000000000000 1.0000000000000000 0.0000000000000000
0.0000000000000000 1.0000000000000000 0.0000000000000000
0.0000000000000000 1.0000000000000000 0.0000000000000000
0.0000000000000000 1.0000000000000000 0.0000000000000000
0.0000000000000000 1.0000000000000000 0.0000000000000000
0.0000000000000000 1.0000000000000000 0.0000000000000000
0.0000000000000000 1.0000000000000000 0.0000000000000000
0.0000000000000000 1.0000000000000000 0.0000000000000000
0.0000000000000000 1.0000000000000000 0.0000000000000000
0.0000000000000000 1.0000000000000000 0.0000000000000000
0.0000000000000000 1.0000000000000000 0.0000000000000000
0.0000000000000000 1.0000000000000000 0.0000000000000000
0.0000000000000000 1.0000000000000000 0.0000000000000000
0.0000000000000000 1.0000000000000000 0.0000000000000000
0.0000000000000000 1.0000000000000000 0.0000000000000000
0.0000000000000000 1.0000000000000000 0.0000000000000000
0.0000000000000000 1.0000000000000000 0.0000000000000000
0.0000000000000000 1.0000000000000000 0.0000000000000000
0.0000000000000000 1.0000000000000000 0.0000000000000000
0.0000000000000000 1.0000000000000000 0.0000000000000000
0.0000000000000000 1.0000000000000000 0.0000000000000000
0.0000000000000000 1.0000000000000000 0.0000000000000000
0.0000000000000000 1.0000000000000000 0.0000000000000000
0.0000000000000000 1.0000000000000000 0.0000000000000000
0.0000000000000000 1.0000000000000000 0.0000000000000000
0.0000000000000000 1.0000000000000000 0.0000000000000000
0.0000000000000000 1.0000000000000000 0.0000000000000000
0.0000000000000000 1.0000000000000000 0.0000000000000000
0.0000000000000000 1.0000000000000000 0.0000000000000000
0.0000000000000000 1.0000000000000000 0.0000000000000000
0.0000000000000000 1.0000000000000000 0.0000000000000000
0.0000000000000000 1.0000000000000000 0.0000000000000000
0.0000000000000000 1.0000000000000000 0.0000000000000000
0.0000000000000000 1.0000000000000000 0.0000000000000000
0.0000000000000000 1.0000000000000000 0.0000000000000000
0.0000000000000000 1.0000000000000000 0.0000000000000000
0.0000000000000000 1.0000000000000000 0.0000000000000000
0.0000000000000000 1.0000000000000000 0.0000000000000000
0.0000000000000000 1.0000000000000000 0.0000000000000000
0.0000000000000000 1.0000000000000000 0.0000000000000000
0.0000000000000000 1.0000000000000000 0.0000000000000000
0.0000000000000000 1.0000000000000000 0.0000000000000000
0.0000000000000000 1.0000000000000000 0.0000000000000000
0.0000000000000000 1.0000000000000000 0.0000000000000000
0.0000000000000000 1.0000000000000000 0.0000000000000000
0.0000000000000000 1.0000000000000000 0.0000000000000000
0.0000000000000000 1.0000000000000000 0.0000000000000000
0.0000000000000000 1.0000000000000000 0.0000000000000000
0.0000000000000000 1.0000000000000000 0.0000000000000000
0.0000000000000000 1.0000000000000000 0.0000000000000000
0.0000000000000000 1.0000000000000000 0.0000000000000000
0.0000000000000000 1.0000000000000000 0.0000000000000000
0.0000000000000000 1.0000000000000000 0.0000000000000000
0.0000000000000000 1.0000000000000000 0.0000000000000000
0.0000000000000000 1.0000000000000000 0.0000000000000000
0.0000000000000000 1.0000000000000000 0.0000000000000000
0.0000000000000000 1.0000000000000000 0.0000000000000000
0.0000000000000000 1.0000000000000000 0.0000000000000000
0.0000000000000000 1.0000000000000000 0.0000000000000000
0.0000000000000000 1.0000000000000000 0.0000000000000000
0.0000000000000000 1.0000000000000000 0.0000000000000000
0.0000000000000000 1.0000000000000000 0.0000000000000000
0.0000000000000000 1.0000000000000000 0.0000000000000000
0.0000000000000000 1.0000000000000000 0.0000000000000000
0.0000000000000000 1.0000000000000000 0.0000000000000000
0.0000000000000000 1.0000000000000000 0.0000000000000000
0.0000000000000000 1.0000000000000000 0.0000000000000000
0.0000000000000000 1.0000000000000000 0.0000000000000000
0.0000000000000000 1.0000000000000000 0.0000000000000000
0.0000000000000000 1.0000000000000000 0.0000000000000000
0.0000000000000000 1.0000000000000000 0.0000000000000000
0.0000000000000000 1.0000000000000000 0.0000000000000000
0.0000000000000000 1.0000000000000000 0.0000000000000000
0.0000000000000000 1.0000000000000000 0.0000000000000000
0.0000000000000000 1.0000000000000000 0.0000000000000000
0.0000000000000000 1.0000000000000000 0.0000000000000000
0.0000000000000000 1.0000000000000000 0.0000000000000000
0.0000000000000000 1.0000000000000000 0.0000000000000000
0.0000000000000000 1.0000000000000000 0.0000000000000000
0.0000000000000000 1.0000000000000000 0.0000000000000000
0.0000000000000000 1.0000000000000000 0.0000000000000000
0.0000000000000000 1.0000000000000000 0.0000000000000000
0.0000000000000000 1.0000000000000000 0.0000000000000000
0.0000000000000000 1.0000000000000000 0.0000000000000000
0.0000000000000000 1.0000000000000000 0.0000000000000000
0.0000000000000000 1.0000000000000000 0.0000000000000000
0.0000000000000000 1.0000000000000000 0.0000000000000000
0.0000000000000000 1.0000000000000000 0.0000000000000000
0.0000000000000000 1.0000000000000000 0.0000000000000000
0.0000000000000000 1.0000000000000000 0.0000000000000000
0.0000000000000000 1.0000000000000000 0.0000000000000000
0.0000000000000000 1.0000000000000000 0.0000000000000000
0.0000000000000000 1.0000000000000000 0.0000000000000000
0.0000000000000000 1.0000000000000000 0.0000000000000000
0.0000000000000000 1.0000000000000000 0.0000000000000000
0.0000000000000000 1.0000000000000000 0.0000000000000000
0.0000000000000000 1.0000000000000000 0.0000000000000000
0.0000000000000000 1.0000000000000000 0.0000000000000000
0.0000000000000000 1.0000000000000000 0.0000000000000000
0.0000000000000000 1.0000000000000000 0.0000000000000000
0.0000000000000000 1.0000000000000000 0.0000000000000000
0.0000000000000000 1.0000000000000000 0.0000000000000000
0.0000000000000000 1.0000000000000000 0.0000000000000000
0.0000000000000000 1.0000000000000000 0.0000000000000000
0.0000000000000000 1.0000000000000000 0.0000000000000000
0.0000000000000000 1.0000000000000000 0.0000000000000000
0.0000000000000000 1.0000000000000000 0.0000000000000000
0.0000000000000000 1.0000000000000000 0.0000000000000000
0.0000000000000000 1.0000000000000000 0.0000000000000000
0.0000000000000000 1.0000000000000000 0.0000000000000000
0.0000000000000000 1.0000000000000000 0.0000000000000000
0.0000000000000000 1.0000000000000000 0.0000000000000000
0.0000000000000000 1.0000000000000000 0.0000000000000000
0.0000000000000000 1.0000000000000000 0.0000000000000000
0.0000000000000000 1.0000000000000000 0.0000000000000000
0.0000000000000000 1.0000000000000000 0.0000000000000000
0.0000000000000000 1.0000000000000000 0.0000000000000000
0.0000000000000000 1.0000000000000000 0.0000000000000000
0.0000000000000000 1.0000000000000000 0.0000000000000000
0.0000000000000000 1.0000000000000000 0.0000000000000000
0.0000000000000000 1.0000000000000000 0.0000000000000000
0.0000000000000000 1.0000000000000000 0.0000000000000000
0.0000000000000000 1.0000000000000000 0.0000000000000000
0.0000000000000000 1.0000000000000000 0.0000000000000000
0.0000000000000000 1.0000000000000000 0.0000000000000000
0.0000000000000000 1.0000000000000000 0.0000000000000000
0.0000000000000000 1.0000000000000000 0.0000000000000000
0.0000000000000000 1.0000000000000000 0.0000000000000000
0.0000000000000000 1.0000000000000000 0.0000000000000000
0.0000000000000000 1.0000000000000000 0.0000000000000000
0.0000000000000000 1.0000000000000000 0.0000000000000000
0.0000000000000000 1.0000000000000000 0.0000000000000000
0.0000000000000000 1.0000000000000000 0.0000000000000000
0.0000000000000000 1.0000000000000000 0.0000000000000000
0.0000000000000000 1.0000000000000000 0.0000000000000000
0.0000000000000000 1.0000000000000000 0.0000000000000000
0.0000000000000000 1.0000000000000000 0.0000000000000000
0.0000000000000000 1.0000000000000000 0.0000000000000000
0.0000000000000000 1.0000000000000000 0.0000000000000000
0.0000000000000000 1.0000000000000000 0.0000000000000000
0.0000000000000000 1.0000000000000000 0.0000000000000000
0.0000000000000000 1.0000000000000000 0.0000000000000000
0.0000000000000000 1.0000000000000000 0.0000000000000000
0.0000000000000000 1.0000000000000000 0.0000000000000000
0.0000000000000000 1.0000000000000000 0.0000000000000000
0.0000000000000000 1.0000000000000000 0.0000000000000000
0.0000000000000000 1.0000000000000000 0.0000000000000000
0.0000000000000000 1.0000000000000000 0.0000000000000000
0.0000000000000000 1.0000000000000000 0.0000000000000000
0.0000000000000000 1.0000000000000000 0.0000000000000000
0.0000000000000000 1.0000000000000000 0.0000000000000000
0.0000000000000000 1.0000000000000000 0.0000000000000000
0.0000000000000000 1.0000000000000000 0.0000000000000000
0.0000000000000000 1.0000000000000000 0.0000000000000000
0.0000000000000000 1.0000000000000000 0.0000000000000000
0.0000000000000000 1.0000000000000000 0.0000000000000000
0.0000000000000000 1.0000000000000000 0.0000000000000000
0.0000000000000000 1.0000000000000000 0.0000000000000000
0.0000000000000000 1.0000000000000000 0.0000000000000000
0.0000000000000000 1.0000000000000000 0.0000000000000000
0.0000000000000000 1.0000000000000000 0.0000000000000000
0.0000000000000000 1.0000000000000000 0.0000000000000000
0.0000000000000000 1.0000000000000000 0.0000000000000000
0.0000000000000000 1.0000000000000000 0.0000000000000000
0.0000000000000000 1.0000000000000000 0.0000000000000000
0.0000000000000000 1.0000000000000000 0.0000000000000000
0.0000000000000000 1.0000000000000000 0.0000000000000000
0.0000000000000000 1.0000000000000000 0.0000000000000000
0.0000000000000000 1.0000000000000000 0.0000000000000000
0.0000000000000000 1.0000000000000000 0.0000000000000000
0.0000000000000000 1.0000000000000000 0.0000000000000000
0.0000000000000000 1.0000000000000000 0.0000000000000000
0.0000000000000000 1.0000000000000000 0.0000000000000000
0.0000000000000000 1.0000000000000000 0.0000000000000000
0.0000000000000000 1.0000000000000000 0.0000000000000000
0.0000000000000000 1.0000000000000000 0.0000000000000000
0.0000000000000000 1.0000000000000000 0.0000000000000000
0.0000000000000000 1.0000000000000000 0.0000000000000000
0.0000000000000000 1.0000000000000000 0.0000000000000000
0.0000000000000000 1.0000000000000000 0.0000000000000000
0.0000000000000000 1.0000000000000000 0.0000000000000000
0.0000000000000000 1.0000000000000000 0.0000000000000000
0.0000000000000000 1.0000000000000000 0.0000000000000000
0.0000000000000000 1.0000000000000000 0.0000000000000000
0.0000000000000000 1.0000000000000000 0.0000000000000000
0.0000000000000000 1.0000000000000000 0.0000000000000000
0.0000000000000000 1.0000000000000000 0.0000000000000000
0.0000000000000000 1.0000000000000000 0.0000000000000000
0.0000000000000000 1.0000000000000000 0.0000000000000000
0.0000000000000000 1.0000000000000000 0.0000000000000000
0.0000000000000000 1.0000000000000000 0.0000000000000000
0.0000000000000000 1.0000000000000000 0.0000000000000000
0.0000000000000000 1.0000000000000000 0.0000000000000000
0.0000000000000000 1.0000000000000000 0.0000000000000000
0.0000000000000000 1.0000000000000000 0.0000000000000000
0.0000000000000000 1.0000000000000000 0.0000000000000000
0.0000000000000000 1.0000000000000000 0.0000000000000000
0.0000000000000000 1.0000000000000000 0.0000000000000000
0.0000000000000000 1.0000000000000000 0.0000000000000000
0.0000000000000000 1.0000000000000000 0.0000000000000000
0.0000000000000000 1.0000000000000000 0.0000000000000000
0.0000000000000000 1.0000000000000000 0.0000000000000000
0.0000000000000000 1.0000000000000000 0.0000000000000000
0.0000000000000000 1.0000000000000000 0.0000000000000000
0.0000000000000000 1.0000000000000000 0.0000000000000000
0.0000000000000000 1.0000000000000000 0.0000000000000000
0.0000000000000000 1.0000000000000000 0.0000000000000000
0.0000000000000000 1.0000000000000000 0.0000000000000000
0.0000000000000000 1.0000000000000000 0.0000000000000000
0.0000000000000000 1.0000000000000000 0.0000000000000000
0.0000000000000000 1.0000000000000000 0.0000000000000000
0.0000000000000000 1.0000000000000000 0.0000000000000000
0.0000000000000000 1.0000000000000000 0.0000000000000000
0.0000000000000000 1.0000000000000000 0.0000000000000000
0.0000000000000000 1.0000000000000000 0.0000000000000000
0.0000000000000000 1.0000000000000000 0.0000000000000000
0.0000000000000000 1.0000000000000000 0.0000000000000000
0.0000000000000000 1.0000000000000000 0.0000000000000000
0.0000000000000000 1.0000000000000000 0.0000000000000000
0.0000000000000000 1.0000000000000000 0.0000000000000000
0.0000000000000000 1.0000000000000000 0.0000000000000000
0.0000000000000000 1.0000000000000000 0.0000000000000000
0.0000000000000000 1.0000000000000000 0.0000000000000000
0.0000000000000000 1.0000000000000000 0.0000000000000000
0.0000000000000000 1.0000000000000000 0.0000000000000000
0.0000000000000000 1.0000000000000000 0.0000000000000000
0.0000000000000000 1.0000000000000000 0.0000000000000000
0.0000000000000000 1.0000000000000000 0.0000000000000000
0.0000000000000000 1.0000000000000000 0.0000000000000000
0.0000000000000000 1.0000000000000000 0.0000000000000000
0.0000000000000000 1.0000000000000000 0.0000000000000000
0.0000000000000000 1.0000000000000000 0.0000000000000000
0.0000000000000000 1.0000000000000000 0.0000000000000000
0.0000000000000000 1.0000000000000000 0.0000000000000000
0.0000000000000000 1.0000000000000000 0.0000000000000000
0.0000000000000000 1.0000000000000000 0.0000000000000000
0.0000000000000000 1.0000000000000000 0.0000000000000000
0.0000000000000000 1.0000000000000000 0.0000000000000000
0.0000000000000000 1.0000000000000000 0.0000000000000000
0.0000000000000000 1.0000000000000000 0.0000000000000000
0.0000000000000000 1.0000000000000000 0.0000000000000000
0.0000000000000000 1.0000000000000000 0.0000000000000000
0.0000000000000000 1.0000000000000000 0.0000000000000000
0.0000000000000000 1.0000000000000000 0.0000000000000000
0.0000000000000000 1.0000000000000000 0.0000000000000000
0.0000000000000000 1.0000000000000000 0.0000000000000000
0.0000000000000000 1.0000000000000000 0.0000000000000000
0.0000000000000000 1.0000000000000000 0.0000000000000000
0.0000000000000000 1.0000000000000000 0.0000000000000000
0.0000000000000000 1.0000000000000000 0.0000000000000000
0.0000000000000000 1.0000000000000000 0.0000000000000000
0.0000000000000000 1.0000000000000000 0.0000000000000000
0.0000000000000000 1.0000000000000000 0.0000000000000000
0.0000000000000000 1.0000000000000000 0.0000000000000000
0.0000000000000000 1.0000000000000000 0.0000000000000000
0.0000000000000000 1.0000000000000000 0.0000000000000000
0.0000000000000000 1.0000000000000000 0.0000000000000000
0.0000000000000000 1.0000000000000000 0.0000000000000000
0.0000000000000000 1.0000000000000000 0.0000000000000000
0.0000000000000000 1.0000000000000000 0.0000000000000000
0.0000000000000000 1.0000000000000000 0.0000000000000000
0.0000000000000000 1.0000000000000000 0.0000000000000000
0.0000000000000000 1.0000000000000000 0.0000000000000000
0.0000000000000000 1.0000000000000000 0.0000000000000000
0.0000000000000000 1.0000000000000000 0.0000000000000000
0.0000000000000000 1.0000000000000000 0.0000000000000000
0.0000000000000000 1.0000000000000000 0.0000000000000000
0.0000000000000000 1.0000000000000000 0.0000000000000000
0.0000000000000000 1.0000000000000000 0.0000000000000000
0.0000000000000000 1.0000000000000000 0.0000000000000000
0.0000000000000000 1.0000000000000000 0.0000000000000000
0.0000000000000000 1.0000000000000000 0.0000000000000000
0.0000000000000000 1.0000000000000000 0.0000000000000000
0.0000000000000000 1.0000000000000000 0.0000000000000000
0.0000000000000000 1.0000000000000000 0.0000000000000000
0.0000000000000000 1.0000000000000000 0.0000000000000000
0.0000000000000000 1.0000000000000000 0.0000000000000000
0.0000000000000000 1.0000000000000000 0.0000000000000000
0.0000000000000000 1.0000000000000000 0.0000000000000000
0.0000000000000000 1.0000000000000000 0.0000000000000000
0.0000000000000000 1.0000000000000000 0.0000000000000000
0.0000000000000000 1.0000000000000000 0.0000000000000000
0.0000000000000000 1.0000000000000000 0.0000000000000000
0.0000000000000000 1.0000000000000000 0.0000000000000000
0.0000000000000000 1.0000000000000000 0.0000000000000000
0.0000000000000000 1.0000000000000000 0.0000000000000000
0.0000000000000000 1.0000000000000000 0.0000000000000000
0.0000000000000000 1.0000000000000000 0.0000000000000000
0.0000000000000000 1.0000000000000000 0.0000000000000000
0.0000000000000000 1.0000000000000000 0.0000000000000000
0.0000000000000000 1.0000000000000000 0.0000000000000000
0.0000000000000000 1.0000000000000000 0.0000000000000000
0.0000000000000000 1.0000000000000000 0.0000000000000000
0.0000000000000000 1.0000000000000000 0.0000000000000000
0.0000000000000000 1.0000000000000000 0.0000000000000000
0.0000000000000000 1.0000000000000000 0.0000000000000000
0.0000000000000000 1.0000000000000000 0.0000000000000000
0.0000000000000000 1.0000000000000000 0.0000000000000000
0.0000000000000000 1.0000000000000000 0.0000000000000000
0.0000000000000000 1.0000000000000000 0.0000000000000000
0.0000000000000000 1.0000000000000000 0.0000000000000000
0.0000000000000000 1.0000000000000000 0.0000000000000000
0.0000000000000000 1.0000000000000000 0.0000000000000000
0.0000000000000000 1.0000000000000000 0.0000000000000000
0.0000000000000000 1.0000000000000000 0.0000000000000000
0.0000000000000000 1.0000000000000000 0.0000000000000000
0.0000000000000000 1.0000000000000000 0.0000000000000000
0.0000000000000000 1.0000000000000000 0.0000000000000000
0.0000000000000000 1.0000000000000000 0.0000000000000000
0.0000000000000000 1.0000000000000000 0.0000000000000000
0.0000000000000000 1.0000000000000000 0.0000000000000000
0.0000000000000000 1.0000000000000000 0.0000000000000000
0.0000000000000000 1.0000000000000000 0.0000000000000000
0.0000000000000000 1.0000000000000000 0.0000000000000000
0.0000000000000000 1.0000000000000000 0.0000000000000000
0.0000000000000000 1.0000000000000000 0.0000000000000000
0.0000000000000000 1.0000000000000000 0.0000000000000000
0.0000000000000000 1.0000000000000000 0.0000000000000000
0.0000000000000000 1.0000000000000000 0.0000000000000000
0.0000000000000000 1.0000000000000000 0.0000000000000000
0.0000000000000000 1.0000000000000000 0.0000000000000000
0.0000000000000000 1.0000000000000000 0.0000000000000000
0.0000000000000000 1.0000000000000000 0.0000000000000000
0.0000000000000000 1.0000000000000000 0.0000000000000000
0.0000000000000000 1.0000000000000000 0.0000000000000000
0.0000000000000000 1.0000000000000000 0.0000000000000000
0.0000000000000000 1.0000000000000000 0.0000000000000000
0.0000000000000000 1.0000000000000000 0.0000000000000000
0.0000000000000000 1.0000000000000000 0.0000000000000000
0.0000000000000000 1.0000000000000000 0.0000000000000000
0.0000000000000000 1.0000000000000000 0.0000000000000000
0.0000000000000000 1.0000000000000000 0.0000000000000000
0.0000000000000000 1.0000000000000000 0.0000000000000000
0.0000000000000000 1.0000000000000000 0.0000000000000000
0.0000000000000000 1.0000000000000000 0.0000000000000000
0.0000000000000000 1.0000000000000000 0.0000000000000000
0.0000000000000000 1.0000000000000000 0.0000000000000000
0.0000000000000000 1.0000000000000000 0.0000000000000000
0.0000000000000000 1.0000000000000000 0.0000000000000000
0.0000000000000000 1.0000000000000000 0.0000000000000000
0.0000000000000000 1.0000000000000000 0.0000000000000000
0.0000000000000000 1.0000000000000000 0.0000000000000000
0.0000000000000000 1.0000000000000000 0.0000000000000000
0.0000000000000000 1.0000000000000000 0.0000000000000000
0.0000000000000000 1.0000000000000000 0.0000000000000000
0.0000000000000000 1.0000000000000000 0.0000000000000000
0.0000000000000000 1.0000000000000000 0.0000000000000000
0.0000000000000000 1.0000000000000000 0.0000000000000000
0.0000000000000000 1.0000000000000000 0.0000000000000000
0.0000000000000000 1.0000000000000000 0.0000000000000000
0.0000000000000000 1.0000000000000000 0.0000000000000000
0.0000000000000000 1.0000000000000000 0.0000000000000000
0.0000000000000000 1.0000000000000000 0.0000000000000000
0.0000000000000000 1.0000000000000000 0.0000000000000000
0.0000000000000000 1.0000000000000000 0.0000000000000000
0.0000000000000000 1.0000000000000000 0.0000000000000000
0.0000000000000000 1.0000000000000000 0.0000000000000000
0.0000000000000000 1.0000000000000000 0.0000000000000000
0.0000000000000000 1.0000000000000000 0.0000000000000000
0.0000000000000000 1.0000000000000000 0.0000000000000000
0.0000000000000000 1.0000000000000000 0.0000000000000000
0.0000000000000000 1.0000000000000000 0.0000000000000000
0.0000000000000000 1.0000000000000000 0.0000000000000000
0.0000000000000000 1.0000000000000000 0.0000000000000000
0.0000000000000000 1.0000000000000000 0.0000000000000000
0.0000000000000000 1.0000000000000000 0.0000000000000000
0.0000000000000000 1.0000000000000000 0.0000000000000000
0.0000000000000000 1.0000000000000000 0.0000000000000000
0.0000000000000000 1.0000000000000000 0.0000000000000000
0.0000000000000000 1.0000000000000000 0.0000000000000000
0.0000000000000000 1.0000000000000000 0.0000000000000000
0.0000000000000000 1.0000000000000000 0.0000000000000000
0.0000000000000000 1.0000000000000000 0.0000000000000000
0.0000000000000000 1.0000000000000000 0.0000000000000000
0.0000000000000000 1.0000000000000000 0.0000000000000000
0.0000000000000000 1.0000000000000000 0.0000000000000000
0.0000000000000000 1.0000000000000000 0.0000000000000000
0.0000000000000000 1.0000000000000000 0.0000000000000000
0.0000000000000000 1.0000000000000000 0.0000000000000000
0.0000000000000000 1.0000000000000000 0.0000000000000000
0.0000000000000000 1.0000000000000000 0.0000000000000000
0.0000000000000000 1.0000000000000000 0.0000000000000000
0.0000000000000000 1.0000000000000000 0.0000000000000000
0.0000000000000000 1.0000000000000000 0.0000000000000000
0.0000000000000000 1.0000000000000000 0.0000000000000000
0.0000000000000000 1.0000000000000000 0.0000000000000000
0.0000000000000000 1.0000000000000000 0.0000000000000000
0.0000000000000000 1.0000000000000000 0.0000000000000000
0.0000000000000000 1.0000000000000000 0.0000000000000000
0.0000000000000000 1.0000000000000000 0.0000000000000000
0.0000000000000000 1.0000000000000000 0.0000000000000000
0.0000000000000000 1.0000000000000000 0.0000000000000000
0.0000000000000000 1.0000000000000000 0.0000000000000000
0.0000000000000000 1.0000000000000000 0.0000000000000000
0.0000000000000000 1.0000000000000000 0.0000000000000000
0.0000000000000000 1.0000000000000000 0.0000000000000000
0.0000000000000000 1.0000000000000000 0.0000000000000000
0.0000000000000000 1.0000000000000000 0.0000000000000000
0.0000000000000000 1.0000000000000000 0.0000000000000000
0.0000000000000000 1.0000000000000000 0.0000000000000000
0.0000000000000000 1.0000000000000000 0.0000000000000000
0.0000000000000000 1.0000000000000000 0.0000000000000000
0.0000000000000000 1.0000000000000000 0.0000000000000000
0.0000000000000000 1.0000000000000000 0.0000000000000000
0.0000000000000000 1.0000000000000000 0.0000000000000000
0.0000000000000000 1.0000000000000000 0.0000000000000000
0.0000000000000000 1.0000000000000000 0.0000000000000000
0.0000000000000000 1.0000000000000000 0.0000000000000000
0.0000000000000000 1.0000000000000000 0.0000000000000000
0.0000000000000000 1.0000000000000000 0.0000000000000000
0.0000000000000000 1.0000000000000000 0.0000000000000000
0.0000000000000000 1.0000000000000000 0.0000000000000000
0.0000000000000000 1.0000000000000000 0.0000000000000000
0.0000000000000000 1.0000000000000000 0.0000000000000000
0.0000000000000000 1.0000000000000000 0.0000000000000000
0.0000000000000000 1.0000000000000000 0.0000000000000000
0.0000000000000000 1.0000000000000000 0.0000000000000000
0.0000000000000000 1.0000000000000000 0.0000000000000000
0.0000000000000000 1.0000000000000000 0.0000000000000000
0.0000000000000000 1.0000000000000000 0.0000000000000000
0.0000000000000000 1.0000000000000000 0.0000000000000000
0.0000000000000000 1.0000000000000000 0.0000000000000000
0.0000000000000000 1.0000000000000000 0.0000000000000000
0.0000000000000000 1.0000000000000000 0.0000000000000000
0.0000000000000000 1.0000000000000000 0.0000000000000000
0.0000000000000000 1.0000000000000000 0.0000000000000000
0.0000000000000000 1.0000000000000000 0.0000000000000000
0.0000000000000000 1.0000000000000000 0.0000000000000000
0.0000000000000000 1.0000000000000000 0.0000000000000000
0.0000000000000000 1.0000000000000000 0.0000000000000000
0.0000000000000000 1.0000000000000000 0.0000000000000000
0.0000000000000000 1.0000000000000000 0.0000000000000000
0.0000000000000000 1.0000000000000000 0.0000000000000000
0.0000000000000000 1.0000000000000000 0.0000000000000000
0.0000000000000000 1.0000000000000000 0.0000000000000000
0.0000000000000000 1.0000000000000000 0.0000000000000000
0.0000000000000000 1.0000000000000000 0.0000000000000000
0.0000000000000000 1.0000000000000000 0.0000000000000000
0.0000000000000000 1.0000000000000000 0.0000000000000000
0.0000000000000000 1.0000000000000000 0.0000000000000000
0.0000000000000000 1.0000000000000000 0.0000000000000000
0.0000000000000000 1.0000000000000000 0.0000000000000000
0.0000000000000000 1.0000000000000000 0.0000000000000000
0.0000000000000000 1.0000000000000000 0.0000000000000000
0.0000000000000000 1.0000000000000000 0.0000000000000000
0.0000000000000000 1.0000000000000000 0.0000000000000000
0.0000000000000000 1.0000000000000000 0.0000000000000000
0.0000000000000000 1.0000000000000000 0.0000000000000000
0.0000000000000000 1.0000000000000000 0.0000000000000000
0.0000000000000000 1.0000000000000000 0.0000000000000000
0.0000000000000000 1.0000000000000000 0.0000000000000000
0.0000000000000000 1.0000000000000000 0.0000000000000000
0.0000000000000000 1.0000000000000000 0.0000000000000000
0.0000000000000000 1.0000000000000000 0.0000000000000000
0.0000000000000000 1.0000000000000000 0.0000000000000000
0.0000000000000000 1.0000000000000000 0.0000000000000000
0.0000000000000000 1.0000000000000000 0.0000000000000000
0.0000000000000000 1.0000000000000000 0.0000000000000000
0.0000000000000000 1.0000000000000000 0.0000000000000000
0.0000000000000000 1.0000000000000000 0.0000000000000000
0.0000000000000000 1.0000000000000000 0.0000000000000000
0.0000000000000000 1.0000000000000000 0.0000000000000000
0.0000000000000000 1.0000000000000000 0.0000000000000000
0.0000000000000000 1.0000000000000000 0.0000000000000000
0.0000000000000000 1.0000000000000000 0.0000000000000000
0.0000000000000000 1.0000000000000000 0.0000000000000000
0.0000000000000000 1.0000000000000000 0.0000000000000000
0.0000000000000000 1.0000000000000000 0.0000000000000000
0.0000000000000000 1.0000000000000000 0.0000000000000000
0.0000000000000000 1.0000000000000000 0.0000000000000000
0.0000000000000000 1.0000000000000000 0.0000000000000000
0.0000000000000000 1.0000000000000000 0.0000000000000000
0.0000000000000000 1.0000000000000000 0.0000000000000000
0.0000000000000000 1.0000000000000000 0.0000000000000000
0.0000000000000000 1.0000000000000000 0.0000000000000000
0.0000000000000000 1.0000000000000000 0.0000000000000000
0.0000000000000000 1.0000000000000000 0.0000000000000000
0.0000000000000000 1.0000000000000000 0.0000000000000000
0.0000000000000000 1.0000000000000000 0.0000000000000000
0.0000000000000000 1.0000000000000000 0.0000000000000000
0.0000000000000000 1.0000000000000000 0.0000000000000000
0.0000000000000000 1.0000000000000000 0.0000000000000000
0.0000000000000000 1.0000000000000000 0.0000000000000000
0.0000000000000000 1.0000000000000000 0.0000000000000000
0.0000000000000000 1.0000000000000000 0.0000000000000000
0.0000000000000000 1.0000000000000000 0.0000000000000000
0.0000000000000000 1.0000000000000000 0.0000000000000000
0.0000000000000000 1.0000000000000000 0.0000000000000000
0.0000000000000000 1.0000000000000000 0.0000000000000000
0.0000000000000000 1.0000000000000000 0.0000000000000000
0.0000000000000000 1.0000000000000000 0.0000000000000000
0.0000000000000000 1.0000000000000000 0.0000000000000000
0.0000000000000000 1.0000000000000000 0.0000000000000000
0.0000000000000000 1.0000000000000000 0.0000000000000000
0.0000000000000000 1.0000000000000000 0.0000000000000000
0.0000000000000000 1.0000000000000000 0.0000000000000000
0.0000000000000000 1.0000000000000000 0.0000000000000000
0.0000000000000000 1.0000000000000000 0.0000000000000000
0.0000000000000000 1.0000000000000000 0.0000000000000000
0.0000000000000000 1.0000000000000000 0.0000000000000000
0.0000000000000000 1.0000000000000000 0.0000000000000000
0.0000000000000000 1.0000000000000000 0.0000000000000000
0.0000000000000000 1.0000000000000000 0.0000000000000000
0.0000000000000000 1.0000000000000000 0.0000000000000000
0.0000000000000000 1.0000000000000000 0.0000000000000000
0.0000000000000000 1.0000000000000000 0.0000000000000000
0.0000000000000000 1.0000000000000000 0.0000000000000000
0.0000000000000000 1.0000000000000000 0.0000000000000000
0.0000000000000000 1.0000000000000000 0.0000000000000000
0.0000000000000000 1.0000000000000000 0.0000000000000000
0.0000000000000000 1.0000000000000000 0.0000000000000000
0.0000000000000000 1.0000000000000000 0.0000000000000000
0.0000000000000000 1.0000000000000000 0.0000000000000000
0.0000000000000000 1.0000000000000000 0.0000000000000000
0.0000000000000000 1.0000000000000000 0.0000000000000000
0.0000000000000000 1.0000000000000000 0.0000000000000000
0.0000000000000000 1.0000000000000000 0.0000000000000000
0.0000000000000000 1.0000000000000000 0.0000000000000000
0.0000000000000000 1.0000000000000000 0.0000000000000000
0.0000000000000000 1.0000000000000000 0.0000000000000000
0.0000000000000000 1.0000000000000000 0.0000000000000000
0.0000000000000000 1.0000000000000000 0.0000000000000000
0.0000000000000000 1.0000000000000000 0.0000000000000000
0.0000000000000000 1.0000000000000000 0.0000000000000000
0.0000000000000000 1.0000000000000000 0.0000000000000000
0.0000000000000000 1.0000000000000000 0.0000000000000000
0.0000000000000000 1.0000000000000000 0.0000000000000000
0.0000000000000000 1.0000000000000000 0.0000000000000000
0.0000000000000000 1.0000000000000000 0.0000000000000000
0.0000000000000000 1.0000000000000000 0.0000000000000000
0.0000000000000000 1.0000000000000000 0.0000000000000000
0.0000000000000000 1.0000000000000000 0.0000000000000000
0.0000000000000000 1.0000000000000000 0.0000000000000000
0.0000000000000000 1.0000000000000000 0.0000000000000000
0.0000000000000000 1.0000000000000000 0.0000000000000000
0.0000000000000000 1.0000000000000000 0.0000000000000000
0.0000000000000000 1.0000000000000000 0.0000000000000000
0.0000000000000000 1.0000000000000000 0.0000000000000000
0.0000000000000000 1.0000000000000000 0.0000000000000000
0.0000000000000000 1.0000000000000000 0.0000000000000000
0.0000000000000000 1.0000000000000000 0.0000000000000000
0.0000000000000000 1.0000000000000000 0.0000000000000000
0.0000000000000000 1.0000000000000000 0.0000000000000000
0.0000000000000000 1.0000000000000000 0.0000000000000000
0.0000000000000000 1.0000000000000000 0.0000000000000000
0.0000000000000000 1.0000000000000000 0.0000000000000000
0.0000000000000000 1.0000000000000000 0.0000000000000000
0.0000000000000000 1.0000000000000000 0.0000000000000000
0.0000000000000000 1.0000000000000000 0.0000000000000000
0.0000000000000000 1.0000000000000000 0.0000000000000000
0.0000000000000000 1.0000000000000000 0.0000000000000000
0.0000000000000000 1.0000000000000000 0.0000000000000000
0.0000000000000000 1.0000000000000000 0.0000000000000000
0.0000000000000000 1.0000000000000000 0.0000000000000000
0.0000000000000000 1.0000000000000000 0.0000000000000000
0.0000000000000000 1.0000000000000000 0.0000000000000000
0.0000000000000000 1.0000000000000000 0.0000000000000000
0.0000000000000000 1.0000000000000000 0.0000000000000000
0.0000000000000000 1.0000000000000000 0.0000000000000000
0.0000000000000000 1.0000000000000000 0.0000000000000000
0.0000000000000000 1.0000000000000000 0.0000000000000000
0.0000000000000000 1.0000000000000000 0.0000000000000000
0.0000000000000000 1.0000000000000000 0.0000000000000000
0.0000000000000000 1.0000000000000000 0.0000000000000000
0.0000000000000000 1.0000000000000000 0.0000000000000000
0.0000000000000000 1.0000000000000000 0.0000000000000000
0.0000000000000000 1.0000000000000000 0.0000000000000000
0.0000000000000000 1.0000000000000000 0.0000000000000000
0.0000000000000000 1.0000000000000000 0.0000000000000000
0.0000000000000000 1.0000000000000000 0.0000000000000000
0.0000000000000000 1.0000000000000000 0.0000000000000000
0.0000000000000000 1.0000000000000000 0.0000000000000000
0.0000000000000000 1.0000000000000000 0.0000000000000000
0.0000000000000000 1.0000000000000000 0.0000000000000000
0.0000000000000000 1.0000000000000000 0.0000000000000000
0.0000000000000000 1.0000000000000000 0.0000000000000000
0.0000000000000000 1.0000000000000000 0.0000000000000000
0.0000000000000000 1.0000000000000000 0.0000000000000000
0.0000000000000000 1.0000000000000000 0.0000000000000000
0.0000000000000000 1.0000000000000000 0.0000000000000000
0.0000000000000000 1.0000000000000000 0.0000000000000000
0.0000000000000000 1.0000000000000000 0.0000000000000000
0.0000000000000000 1.0000000000000000 0.0000000000000000
0.0000000000000000 1.0000000000000000 0.0000000000000000
0.0000000000000000 1.0000000000000000 0.0000000000000000
0.0000000000000000 1.0000000000000000 0.0000000000000000
0.0000000000000000 1.0000000000000000 0.0000000000000000
0.0000000000000000 1.0000000000000000 0.0000000000000000
0.0000000000000000 1.0000000000000000 0.0000000000000000
0.0000000000000000 1.0000000000000000 0.0000000000000000
0.0000000000000000 1.0000000000000000 0.0000000000000000
0.0000000000000000 1.0000000000000000 0.0000000000000000
0.0000000000000000 1.0000000000000000 0.0000000000000000
0.0000000000000000 1.0000000000000000 0.0000000000000000
0.0000000000000000 1.0000000000000000 0.0000000000000000
0.0000000000000000 1.0000000000000000 0.0000000000000000
0.0000000000000000 1.0000000000000000 0.0000000000000000
0.0000000000000000 1.0000000000000000 0.0000000000000000
0.0000000000000000 1.0000000000000000 0.0000000000000000
0.0000000000000000 1.0000000000000000 0.0000000000000000
0.0000000000000000 1.0000000000000000 0.0000000000000000
0.0000000000000000 1.0000000000000000 0.0000000000000000
0.0000000000000000 1.0000000000000000 0.0000000000000000
0.0000000000000000 1.0000000000000000 0.0000000000000000
0.0000000000000000 1.0000000000000000 0.0000000000000000
0.0000000000000000 1.0000000000000000 0.0000000000000000
0.0000000000000000 1.0000000000000000 0.0000000000000000
0.0000000000000000 1.0000000000000000 0.0000000000000000
0.0000000000000000 1.0000000000000000 0.0000000000000000
0.0000000000000000 1.0000000000000000 0.0000000000000000
0.0000000000000000 1.0000000000000000 0.0000000000000000
0.0000000000000000 1.0000000000000000 0.0000000000000000
0.0000000000000000 1.0000000000000000 0.0000000000000000
0.0000000000000000 1.0000000000000000 0.0000000000000000
0.0000000000000000 1.0000000000000000 0.0000000000000000
0.0000000000000000 1.0000000000000000 0.0000000000000000
0.0000000000000000 1.0000000000000000 0.0000000000000000
0.0000000000000000 1.0000000000000000 0.0000000000000000
0.0000000000000000 1.0000000000000000 0.0000000000000000
0.0000000000000000 1.0000000000000000 0.0000000000000000
0.0000000000000000 1.0000000000000000 0.0000000000000000
0.0000000000000000 1.0000000000000000 0.0000000000000000
0.0000000000000000 1.0000000000000000 0.0000000000000000
0.0000000000000000 1.0000000000000000 0.0000000000000000
0.0000000000000000 1.0000000000000000 0.0000000000000000
0.0000000000000000 1.0000000000000000 0.0000000000000000
0.0000000000000000 1.0000000000000000 0.0000000000000000
0.0000000000000000 1.0000000000000000 0.0000000000000000
0.0000000000000000 1.0000000000000000 0.0000000000000000
0.0000000000000000 1.0000000000000000 0.0000000000000000
0.0000000000000000 1.0000000000000000 0.0000000000000000
0.0000000000000000 1.0000000000000000 0.0000000000000000
0.0000000000000000 1.0000000000000000 0.0000000000000000
0.0000000000000000 1.0000000000000000 0.0000000000000000
0.0000000000000000 1.0000000000000000 0.0000000000000000
0.0000000000000000 1.0000000000000000 0.0000000000000000
0.0000000000000000 1.0000000000000000 0.0000000000000000
0.0000000000000000 1.0000000000000000 0.0000000000000000
0.0000000000000000 1.0000000000000000 0.0000000000000000
0.0000000000000000 1.0000000000000000 0.0000000000000000
0.0000000000000000 1.0000000000000000 0.0000000000000000
0.0000000000000000 1.0000000000000000 0.0000000000000000
0.0000000000000000 1.0000000000000000 0.0000000000000000
0.0000000000000000 1.0000000000000000 0.0000000000000000
0.0000000000000000 1.0000000000000000 0.0000000000000000
0.0000000000000000 1.0000000000000000 0.0000000000000000
0.0000000000000000 1.0000000000000000 0.0000000000000000
0.0000000000000000 1.0000000000000000 0.0000000000000000
0.0000000000000000 1.0000000000000000 0.0000000000000000
0.0000000000000000 1.0000000000000000 0.0000000000000000
0.0000000000000000 1.0000000000000000 0.0000000000000000
0.0000000000000000 1.0000000000000000 0.0000000000000000
0.0000000000000000 1.0000000000000000 0.0000000000000000
0.0000000000000000 1.0000000000000000 0.0000000000000000
0.0000000000000000 1.0000000000000000 0.0000000000000000
0.0000000000000000 1.0000000000000000 0.0000000000000000
0.0000000000000000 1.0000000000000000 0.0000000000000000
0.0000000000000000 1.0000000000000000 0.0000000000000000
0.0000000000000000 1.0000000000000000 0.0000000000000000
0.0000000000000000 1.0000000000000000 0.0000000000000000
0.0000000000000000 1.0000000000000000 0.0000000000000000
0.0000000000000000 1.0000000000000000 0.0000000000000000
0.0000000000000000 1.0000000000000000 0.0000000000000000
0.0000000000000000 1.0000000000000000 0.0000000000000000
0.0000000000000000 1.0000000000000000 0.0000000000000000
0.0000000000000000 1.0000000000000000 0.0000000000000000
0.0000000000000000 1.0000000000000000 0.0000000000000000
0.0000000000000000 1.0000000000000000 0.0000000000000000
0.0000000000000000 1.0000000000000000 0.0000000000000000
0.0000000000000000 1.0000000000000000 0.0000000000000000
0.0000000000000000 1.0000000000000000 0.0000000000000000
0.0000000000000000 1.0000000000000000 0.0000000000000000
0.0000000000000000 1.0000000000000000 0.0000000000000000
0.0000000000000000 1.0000000000000000 0.0000000000000000
0.0000000000000000 1.0000000000000000 0.0000000000000000
0.0000000000000000 1.0000000000000000 0.0000000000000000
0.0000000000000000 1.0000000000000000 0.0000000000000000
0.0000000000000000 1.0000000000000000 0.0000000000000000
0.0000000000000000 1.0000000000000000 0.0000000000000000
0.0000000000000000 1.0000000000000000 0.0000000000000000
0.0000000000000000 1.0000000000000000 0.0000000000000000
0.0000000000000000 1.0000000000000000 0.0000000000000000
0.0000000000000000 1.0000000000000000 0.0000000000000000
0.0000000000000000 1.0000000000000000 0.0000000000000000
0.0000000000000000 1.0000000000000000 0.0000000000000000
0.0000000000000000 1.0000000000000000 0.0000000000000000
0.0000000000000000 1.0000000000000000 0.0000000000000000
0.0000000000000000 1.0000000000000000 0.0000000000000000
0.0000000000000000 1.0000000000000000 0.0000000000000000
0.0000000000000000 1.0000000000000000 0.0000000000000000
0.0000000000000000 1.0000000000000000 0.0000000000000000
0.0000000000000000 1.0000000000000000 0.0000000000000000
0.0000000000000000 1.0000000000000000 0.0000000000000000
0.0000000000000000 1.0000000000000000 0.0000000000000000
0.0000000000000000 1.0000000000000000 0.0000000000000000
0.0000000000000000 1.0000000000000000 0.0000000000000000
0.0000000000000000 1.0000000000000000 0.0000000000000000
0.0000000000000000 1.0000000000000000 0.0000000000000000
0.0000000000000000 1.0000000000000000 0.0000000000000000
0.0000000000000000 1.0000000000000000 0.0000000000000000
0.0000000000000000 1.0000000000000000 0.0000000000000000
0.0000000000000000 1.0000000000000000 0.0000000000000000
0.0000000000000000 1.0000000000000000 0.0000000000000000
0.0000000000000000 1.0000000000000000 0.0000000000000000
0.0000000000000000 1.0000000000000000 0.0000000000000000
0.0000000000000000 1.0000000000000000 0.0000000000000000
0.0000000000000000 1.0000000000000000 0.0000000000000000
0.0000000000000000 1.0000000000000000 0.0000000000000000
0.0000000000000000 1.0000000000000000 0.0000000000000000
0.0000000000000000 1.0000000000000000 0.0000000000000000
0.0000000000000000 1.0000000000000000 0.0000000000000000
0.0000000000000000 1.0000000000000000 0.0000000000000000
0.0000000000000000 1.0000000000000000 0.0000000000000000
0.0000000000000000 1.0000000000000000 0.0000000000000000
0.0000000000000000 1.0000000000000000 0.0000000000000000
0.0000000000000000 1.0000000000000000 0.0000000000000000
0.0000000000000000 1.0000000000000000 0.0000000000000000
0.0000000000000000 1.0000000000000000 0.0000000000000000
0.0000000000000000 1.0000000000000000 0.0000000000000000
0.0000000000000000 1.0000000000000000 0.0000000000000000
0.0000000000000000 1.0000000000000000 0.0000000000000000
0.0000000000000000 1.0000000000000000 0.0000000000000000
0.0000000000000000 1.0000000000000000 0.0000000000000000
0.0000000000000000 1.0000000000000000 0.0000000000000000
0.0000000000000000 1.0000000000000000 0.0000000000000000
0.0000000000000000 1.0000000000000000 0.0000000000000000
0.0000000000000000 1.0000000000000000 0.0000000000000000
0.0000000000000000 1.0000000000000000 0.0000000000000000
0.0000000000000000 1.0000000000000000 0.0000000000000000
0.0000000000000000 1.0000000000000000 0.0000000000000000
0.0000000000000000 1.0000000000000000 0.0000000000000000
0.0000000000000000 1.0000000000000000 0.0000000000000000
0.0000000000000000 1.0000000000000000 0.0000000000000000
0.0000000000000000 1.0000000000000000 0.0000000000000000
0.0000000000000000 1.0000000000000000 0.0000000000000000
0.0000000000000000 1.0000000000000000 0.0000000000000000
0.0000000000000000 1.0000000000000000 0.0000000000000000
0.0000000000000000 1.0000000000000000 0.0000000000000000
0.0000000000000000 1.0000000000000000 0.0000000000000000
0.0000000000000000 1.0000000000000000 0.0000000000000000
0.0000000000000000 1.0000000000000000 0.0000000000000000
0.0000000000000000 1.0000000000000000 0.0000000000000000
0.0000000000000000 1.0000000000000000 0.0000000000000000
0.0000000000000000 1.0000000000000000 0.0000000000000000
0.0000000000000000 1.0000000000000000 0.0000000000000000
0.0000000000000000 1.0000000000000000 0.0000000000000000
0.0000000000000000 1.0000000000000000 0.0000000000000000
0.0000000000000000 1.0000000000000000 0.0000000000000000
0.0000000000000000 1.0000000000000000 0.0000000000000000
0.0000000000000000 1.0000000000000000 0.0000000000000000
0.0000000000000000 1.0000000000000000 0.0000000000000000
0.0000000000000000 1.0000000000000000 0.0000000000000000
0.0000000000000000 1.0000000000000000 0.0000000000000000
0.0000000000000000 1.0000000000000000 0.0000000000000000
0.0000000000000000 1.0000000000000000 0.0000000000000000
0.0000000000000000 1.0000000000000000 0.0000000000000000
0.0000000000000000 1.0000000000000000 0.0000000000000000
0.0000000000000000 1.0000000000000000 0.0000000000000000
0.0000000000000000 1.0000000000000000 0.0000000000000000
0.0000000000000000 1.0000000000000000 0.0000000000000000
0.0000000000000000 1.0000000000000000 0.0000000000000000
0.0000000000000000 1.0000000000000000 0.0000000000000000
0.0000000000000000 1.0000000000000000 0.0000000000000000
0.0000000000000000 1.0000000000000000 0.0000000000000000
0.0000000000000000 1.0000000000000000 0.0000000000000000
0.0000000000000000 1.0000000000000000 0.0000000000000000
0.0000000000000000 1.0000000000000000 0.0000000000000000
0.0000000000000000 1.0000000000000000 0.0000000000000000
0.0000000000000000 1.0000000000000000 0.0000000000000000
0.0000000000000000 1.0000000000000000 0.0000000000000000
0.0000000000000000 1.0000000000000000 0.0000000000000000
0.0000000000000000 1.0000000000000000 0.0000000000000000
0.0000000000000000 1.0000000000000000 0.0000000000000000
0.0000000000000000 1.0000000000000000 0.0000000000000000
0.0000000000000000 1.0000000000000000 0.0000000000000000
0.0000000000000000 1.0000000000000000 0.0000000000000000
0.0000000000000000 1.0000000000000000 0.0000000000000000
0.0000000000000000 1.0000000000000000 0.0000000000000000
0.0000000000000000 1.0000000000000000 0.0000000000000000
0.0000000000000000 1.0000000000000000 0.0000000000000000
0.0000000000000000 1.0000000000000000 0.0000000000000000
0.0000000000000000 1.0000000000000000 0.0000000000000000
0.0000000000000000 1.0000000000000000 0.0000000000000000
0.0000000000000000 1.0000000000000000 0.0000000000000000
0.0000000000000000 1.0000000000000000 0.0000000000000000
0.0000000000000000 1.0000000000000000 0.0000000000000000
0.0000000000000000 1.0000000000000000 0.0000000000000000
0.0000000000000000 1.0000000000000000 0.0000000000000000
0.0000000000000000 1.0000000000000000 0.0000000000000000
0.0000000000000000 1.0000000000000000 0.0000000000000000
0.0000000000000000 1.0000000000000000 0.0000000000000000
0.0000000000000000 1.0000000000000000 0.0000000000000000
0.0000000000000000 1.0000000000000000 0.0000000000000000
0.0000000000000000 1.0000000000000000 0.0000000000000000
0.0000000000000000 1.0000000000000000 0.0000000000000000
0.0000000000000000 1.0000000000000000 0.0000000000000000
0.0000000000000000 1.0000000000000000 0.0000000000000000
0.0000000000000000 1.0000000000000000 0.0000000000000000
0.0000000000000000 1.0000000000000000 0.0000000000000000
0.0000000000000000 1.0000000000000000 0.0000000000000000
0.0000000000000000 1.0000000000000000 0.0000000000000000
0.0000000000000000 1.0000000000000000 0.0000000000000000
0.0000000000000000 1.0000000000000000 0.0000000000000000
0.0000000000000000 1.0000000000000000 0.0000000000000000
0.0000000000000000 1.0000000000000000 0.0000000000000000
0.0000000000000000 1.0000000000000000 0.0000000000000000
0.0000000000000000 1.0000000000000000 0.0000000000000000
0.0000000000000000 1.0000000000000000 0.0000000000000000
0.0000000000000000 1.0000000000000000 0.0000000000000000
0.0000000000000000 1.0000000000000000 0.0000000000000000
0.0000000000000000 1.0000000000000000 0.0000000000000000
0.0000000000000000 1.0000000000000000 0.0000000000000000
0.0000000000000000 1.0000000000000000 0.0000000000000000
0.0000000000000000 1.0000000000000000 0.0000000000000000
0.0000000000000000 1.0000000000000000 0.0000000000000000
0.0000000000000000 1.0000000000000000 0.0000000000000000
0.0000000000000000 1.0000000000000000 0.0000000000000000
0.0000000000000000 1.0000000000000000 0.0000000000000000
0.0000000000000000 1.0000000000000000 0.0000000000000000
0.0000000000000000 1.0000000000000000 0.0000000000000000
0.0000000000000000 1.0000000000000000 0.0000000000000000
0.0000000000000000 1.0000000000000000 0.0000000000000000
0.0000000000000000 1.0000000000000000 0.0000000000000000
0.0000000000000000 1.0000000000000000 0.0000000000000000
0.0000000000000000 1.0000000000000000 0.0000000000000000
0.0000000000000000 1.0000000000000000 0.0000000000000000
0.0000000000000000 1.0000000000000000 0.0000000000000000
0.0000000000000000 1.0000000000000000 0.0000000000000000
0.0000000000000000 1.0000000000000000 0.0000000000000000
0.0000000000000000 1.0000000000000000 0.0000000000000000
0.0000000000000000 1.0000000000000000 0.0000000000000000
0.0000000000000000 1.0000000000000000 0.0000000000000000
0.0000000000000000 1.0000000000000000 0.0000000000000000
0.0000000000000000 1.0000000000000000 0.0000000000000000
0.0000000000000000 1.0000000000000000 0.0000000000000000
0.0000000000000000 1.0000000000000000 0.0000000000000000
0.0000000000000000 1.0000000000000000 0.0000000000000000
0.0000000000000000 1.0000000000000000 0.0000000000000000
0.0000000000000000 1.0000000000000000 0.0000000000000000
0.0000000000000000 1.0000000000000000 0.0000000000000000
0.0000000000000000 1.0000000000000000 0.0000000000000000
0.0000000000000000 1.0000000000000000 0.0000000000000000
0.0000000000000000 1.0000000000000000 0.0000000000000000
0.0000000000000000 1.0000000000000000 0.0000000000000000
0.0000000000000000 1.0000000000000000 0.0000000000000000
0.0000000000000000 1.0000000000000000 0.0000000000000000
0.0000000000000000 1.0000000000000000 0.0000000000000000
0.0000000000000000 1.0000000000000000 0.0000000000000000
0.0000000000000000 1.0000000000000000 0.0000000000000000
0.0000000000000000 1.0000000000000000 0.0000000000000000
0.0000000000000000 1.0000000000000000 0.0000000000000000
0.0000000000000000 1.0000000000000000 0.0000000000000000
0.0000000000000000 1.0000000000000000 0.0000000000000000
0.0000000000000000 1.0000000000000000 0.0000000000000000
0.0000000000000000 1.0000000000000000 0.0000000000000000
0.0000000000000000 1.0000000000000000 0.0000000000000000
0.0000000000000000 1.0000000000000000 0.0000000000000000
0.0000000000000000 1.0000000000000000 0.0000000000000000
0.0000000000000000 1.0000000000000000 0.0000000000000000
0.0000000000000000 1.0000000000000000 0.0000000000000000
0.0000000000000000 1.0000000000000000 0.0000000000000000
0.0000000000000000 1.0000000000000000 0.0000000000000000
0.0000000000000000 1.0000000000000000 0.0000000000000000
0.0000000000000000 1.0000000000000000 0.0000000000000000
0.0000000000000000 1.0000000000000000 0.0000000000000000
0.0000000000000000 1.0000000000000000 0.0000000000000000
0.0000000000000000 1.0000000000000000 0.0000000000000000
0.0000000000000000 1.0000000000000000 0.0000000000000000
0.0000000000000000 1.0000000000000000 0.0000000000000000
0.0000000000000000 1.0000000000000000 0.0000000000000000
0.0000000000000000 1.0000000000000000 0.0000000000000000
0.0000000000000000 1.0000000000000000 0.0000000000000000
0.0000000000000000 1.0000000000000000 0.0000000000000000
0.0000000000000000 1.0000000000000000 0.0000000000000000
0.0000000000000000 1.0000000000000000 0.0000000000000000
0.0000000000000000 1.0000000000000000 0.0000000000000000
0.0000000000000000 1.0000000000000000 0.0000000000000000
0.0000000000000000 1.0000000000000000 0.0000000000000000
0.0000000000000000 1.0000000000000000 0.0000000000000000
0.0000000000000000 1.0000000000000000 0.0000000000000000
0.0000000000000000 1.0000000000000000 0.0000000000000000
0.0000000000000000 1.0000000000000000 0.0000000000000000
0.0000000000000000 1.0000000000000000 0.0000000000000000
0.0000000000000000 1.0000000000000000 0.0000000000000000
0.0000000000000000 1.0000000000000000 0.0000000000000000
0.0000000000000000 1.0000000000000000 0.0000000000000000
0.0000000000000000 1.0000000000000000 0.0000000000000000
0.0000000000000000 1.0000000000000000 0.0000000000000000
0.0000000000000000 1.0000000000000000 0.0000000000000000
0.0000000000000000 1.0000000000000000 0.0000000000000000
0.0000000000000000 1.0000000000000000 0.0000000000000000
0.0000000000000000 1.0000000000000000 0.0000000000000000
0.0000000000000000 1.0000000000000000 0.0000000000000000
0.0000000000000000 1.0000000000000000 0.0000000000000000
0.0000000000000000 1.0000000000000000 0.0000000000000000
0.0000000000000000 1.0000000000000000 0.0000000000000000
0.0000000000000000 1.0000000000000000 0.0000000000000000
0.0000000000000000 1.0000000000000000 0.0000000000000000
0.0000000000000000 1.0000000000000000 0.0000000000000000
0.0000000000000000 1.0000000000000000 0.0000000000000000
0.0000000000000000 1.0000000000000000 0.0000000000000000
0.0000000000000000 1.0000000000000000 0.0000000000000000
0.0000000000000000 1.0000000000000000 0.0000000000000000
0.0000000000000000 1.0000000000000000 0.0000000000000000
0.0000000000000000 1.0000000000000000 0.0000000000000000
0.0000000000000000 1.0000000000000000 0.0000000000000000
0.0000000000000000 1.0000000000000000 0.0000000000000000
0.0000000000000000 1.0000000000000000 0.0000000000000000
0.0000000000000000 1.0000000000000000 0.0000000000000000
0.0000000000000000 1.0000000000000000 0.0000000000000000
0.0000000000000000 1.0000000000000000 0.0000000000000000
0.0000000000000000 1.0000000000000000 0.0000000000000000
0.0000000000000000 1.0000000000000000 0.0000000000000000
0.0000000000000000 1.0000000000000000 0.0000000000000000
0.0000000000000000 1.0000000000000000 0.0000000000000000
0.0000000000000000 1.0000000000000000 0.0000000000000000
0.0000000000000000 1.0000000000000000 0.0000000000000000
0.0000000000000000 1.0000000000000000 0.0000000000000000
0.0000000000000000 1.0000000000000000 0.0000000000000000
0.0000000000000000 1.0000000000000000 0.0000000000000000
0.0000000000000000 1.0000000000000000 0.0000000000000000
0.0000000000000000 1.0000000000000000 0.0000000000000000
0.0000000000000000 1.0000000000000000 0.0000000000000000
0.0000000000000000 1.0000000000000000 0.0000000000000000
0.0000000000000000 1.0000000000000000 0.0000000000000000
0.0000000000000000 1.0000000000000000 0.0000000000000000
0.0000000000000000 1.0000000000000000 0.0000000000000000
0.0000000000000000 1.0000000000000000 0.0000000000000000
0.0000000000000000 1.0000000000000000 0.0000000000000000
0.0000000000000000 1.0000000000000000 0.0000000000000000
0.0000000000000000 1.0000000000000000 0.0000000000000000
0.0000000000000000 1.0000000000000000 0.0000000000000000
0.0000000000000000 1.0000000000000000 0.0000000000000000
0.0000000000000000 1.0000000000000000 0.0000000000000000
0.0000000000000000 1.0000000000000000 0.0000000000000000
0.0000000000000000 1.0000000000000000 0.0000000000000000
0.0000000000000000 1.0000000000000000 0.0000000000000000
0.0000000000000000 1.0000000000000000 0.0000000000000000
0.0000000000000000 1.0000000000000000 0.0000000000000000
0.0000000000000000 1.0000000000000000 0.0000000000000000
0.0000000000000000 1.0000000000000000 0.0000000000000000
0.0000000000000000 1.0000000000000000 0.0000000000000000
0.0000000000000000 1.0000000000000000 0.0000000000000000
0.0000000000000000 1.0000000000000000 0.0000000000000000
0.0000000000000000 1.0000000000000000 0.0000000000000000
0.0000000000000000 1.0000000000000000 0.0000000000000000
0.0000000000000000 1.0000000000000000 0.0000000000000000
0.0000000000000000 1.0000000000000000 0.0000000000000000
0.0000000000000000 1.0000000000000000 0.0000000000000000
0.0000000000000000 1.0000000000000000 0.0000000000000000
0.0000000000000000 1.0000000000000000 0.0000000000000000
0.0000000000000000 1.0000000000000000 0.0000000000000000
0.0000000000000000 1.0000000000000000 0.0000000000000000
0.0000000000000000 1.0000000000000000 0.0000000000000000
0.0000000000000000 1.0000000000000000 0.0000000000000000
0.0000000000000000 1.0000000000000000 0.0000000000000000
0.0000000000000000 1.0000000000000000 0.0000000000000000
0.0000000000000000 1.0000000000000000 0.0000000000000000
0.0000000000000000 1.0000000000000000 0.0000000000000000
0.0000000000000000 1.0000000000000000 0.0000000000000000
0.0000000000000000 1.0000000000000000 0.0000000000000000
0.0000000000000000 1.0000000000000000 0.0000000000000000
0.0000000000000000 1.0000000000000000 0.0000000000000000
0.0000000000000000 1.0000000000000000 0.0000000000000000
0.0000000000000000 1.0000000000000000 0.0000000000000000
0.0000000000000000 1.0000000000000000 0.0000000000000000
0.0000000000000000 1.0000000000000000 0.0000000000000000
0.0000000000000000 1.0000000000000000 0.0000000000000000
0.0000000000000000 1.0000000000000000 0.0000000000000000
0.0000000000000000 1.0000000000000000 0.0000000000000000
0.0000000000000000 1.0000000000000000 0.0000000000000000
0.0000000000000000 1.0000000000000000 0.0000000000000000
0.0000000000000000 1.0000000000000000 0.0000000000000000
0.0000000000000000 1.0000000000000000 0.0000000000000000
0.0000000000000000 1.0000000000000000 0.0000000000000000
0.0000000000000000 1.0000000000000000 0.0000000000000000
0.0000000000000000 1.0000000000000000 0.0000000000000000
0.0000000000000000 1.0000000000000000 0.0000000000000000
0.0000000000000000 1.0000000000000000 0.0000000000000000
0.0000000000000000 1.0000000000000000 0.0000000000000000
0.0000000000000000 1.0000000000000000 0.0000000000000000
0.0000000000000000 1.0000000000000000 0.0000000000000000
0.0000000000000000 1.0000000000000000 0.0000000000000000
0.0000000000000000 1.0000000000000000 0.0000000000000000
0.0000000000000000 1.0000000000000000 0.0000000000000000
0.0000000000000000 1.0000000000000000 0.0000000000000000
0.0000000000000000 1.0000000000000000 0.0000000000000000
0.0000000000000000 1.0000000000000000 0.0000000000000000
0.0000000000000000 1.0000000000000000 0.0000000000000000
0.0000000000000000 1.0000000000000000 0.0000000000000000
0.0000000000000000 1.0000000000000000 0.0000000000000000
0.0000000000000000 1.0000000000000000 0.0000000000000000
0.0000000000000000 1.0000000000000000 0.0000000000000000
0.0000000000000000 1.0000000000000000 0.0000000000000000
0.0000000000000000 1.0000000000000000 0.0000000000000000
0.0000000000000000 1.0000000000000000 0.0000000000000000
0.0000000000000000 1.0000000000000000 0.0000000000000000
0.0000000000000000 1.0000000000000000 0.0000000000000000
0.0000000000000000 1.0000000000000000 0.0000000000000000
0.0000000000000000 1.0000000000000000 0.0000000000000000
0.0000000000000000 1.0000000000000000 0.0000000000000000
0.0000000000000000 1.0000000000000000 0.0000000000000000
0.0000000000000000 1.0000000000000000 0.0000000000000000
0.0000000000000000 1.0000000000000000 0.0000000000000000
0.0000000000000000 1.0000000000000000 0.0000000000000000
0.0000000000000000 1.0000000000000000 0.0000000000000000
0.0000000000000000 1.0000000000000000 0.0000000000000000
0.0000000000000000 1.0000000000000000 0.0000000000000000
0.0000000000000000 1.0000000000000000 0.0000000000000000
0.0000000000000000 1.0000000000000000 0.0000000000000000
0.0000000000000000 1.0000000000000000 0.0000000000000000
0.0000000000000000 1.0000000000000000 0.0000000000000000
0.0000000000000000 1.0000000000000000 0.0000000000000000
0.0000000000000000 1.0000000000000000 0.0000000000000000
0.0000000000000000 1.0000000000000000 0.0000000000000000
0.0000000000000000 1.0000000000000000 0.0000000000000000
0.0000000000000000 1.0000000000000000 0.0000000000000000
0.0000000000000000 1.0000000000000000 0.0000000000000000
0.0000000000000000 1.0000000000000000 0.0000000000000000
0.0000000000000000 1.0000000000000000 0.0000000000000000
0.0000000000000000 1.0000000000000000 0.0000000000000000
0.0000000000000000 1.0000000000000000 0.0000000000000000
0.0000000000000000 1.0000000000000000 0.0000000000000000
0.0000000000000000 1.0000000000000000 0.0000000000000000
0.0000000000000000 1.0000000000000000 0.0000000000000000
0.0000000000000000 1.0000000000000000 0.0000000000000000
0.0000000000000000 1.0000000000000000 0.0000000000000000
0.0000000000000000 1.0000000000000000 0.0000000000000000
0.0000000000000000 1.0000000000000000 0.0000000000000000
0.0000000000000000 1.0000000000000000 0.0000000000000000
0.0000000000000000 1.0000000000000000 0.0000000000000000
0.0000000000000000 1.0000000000000000 0.0000000000000000
0.0000000000000000 1.0000000000000000 0.0000000000000000
0.0000000000000000 1.0000000000000000 0.0000000000000000
0.0000000000000000 1.0000000000000000 0.0000000000000000
0.0000000000000000 1.0000000000000000 0.0000000000000000
0.0000000000000000 1.0000000000000000 0.0000000000000000
0.0000000000000000 1.0000000000000000 0.0000000000000000
0.0000000000000000 1.0000000000000000 0.0000000000000000
0.0000000000000000 1.0000000000000000 0.0000000000000000
0.0000000000000000 1.0000000000000000 0.0000000000000000
0.0000000000000000 1.0000000000000000 0.0000000000000000
0.0000000000000000 1.0000000000000000 0.0000000000000000
0.0000000000000000 1.0000000000000000 0.0000000000000000
0.0000000000000000 1.0000000000000000 0.0000000000000000
0.0000000000000000 1.0000000000000000 0.0000000000000000
0.0000000000000000 1.0000000000000000 0.0000000000000000
0.0000000000000000 1.0000000000000000 0.0000000000000000
0.0000000000000000 1.0000000000000000 0.0000000000000000
0.0000000000000000 1.0000000000000000 0.0000000000000000
0.0000000000000000 1.0000000000000000 0.0000000000000000
0.0000000000000000 1.0000000000000000 0.0000000000000000
0.0000000000000000 1.0000000000000000 0.0000000000000000
0.0000000000000000 1.0000000000000000 0.0000000000000000
0.0000000000000000 1.0000000000000000 0.0000000000000000
0.0000000000000000 1.0000000000000000 0.0000000000000000
0.0000000000000000 1.0000000000000000 0.0000000000000000
0.0000000000000000 1.0000000000000000 0.0000000000000000
0.0000000000000000 1.0000000000000000 0.0000000000000000
0.0000000000000000 1.0000000000000000 0.0000000000000000
0.0000000000000000 1.0000000000000000 0.0000000000000000
0.0000000000000000 1.0000000000000000 0.0000000000000000
0.0000000000000000 1.0000000000000000 0.0000000000000000
0.0000000000000000 1.0000000000000000 0.0000000000000000
0.0000000000000000 1.0000000000000000 0.0000000000000000
0.0000000000000000 1.0000000000000000 0.0000000000000000
0.0000000000000000 1.0000000000000000 0.0000000000000000
0.0000000000000000 1.0000000000000000 0.0000000000000000
0.0000000000000000 1.0000000000000000 0.0000000000000000
0.0000000000000000 1.0000000000000000 0.0000000000000000
0.0000000000000000 1.0000000000000000 0.0000000000000000
0.0000000000000000 1.0000000000000000 0.0000000000000000
0.0000000000000000 1.0000000000000000 0.0000000000000000
0.0000000000000000 1.0000000000000000 0.0000000000000000
0.0000000000000000 1.0000000000000000 0.0000000000000000
0.0000000000000000 1.0000000000000000 0.0000000000000000
0.0000000000000000 1.0000000000000000 0.0000000000000000
0.0000000000000000 1.0000000000000000 0.0000000000000000
0.0000000000000000 1.0000000000000000 0.0000000000000000
0.0000000000000000 1.0000000000000000 0.0000000000000000
0.0000000000000000 1.0000000000000000 0.0000000000000000
0.0000000000000000 1.0000000000000000 0.0000000000000000
0.0000000000000000 1.0000000000000000 0.0000000000000000
0.0000000000000000 1.0000000000000000 0.0000000000000000
0.0000000000000000 1.0000000000000000 0.0000000000000000
0.0000000000000000 1.0000000000000000 0.0000000000000000
0.0000000000000000 1.0000000000000000 0.0000000000000000
0.0000000000000000 1.0000000000000000 0.0000000000000000
0.0000000000000000 1.0000000000000000 0.0000000000000000
0.0000000000000000 1.0000000000000000 0.0000000000000000
0.0000000000000000 1.0000000000000000 0.0000000000000000
0.0000000000000000 1.0000000000000000 0.0000000000000000
0.0000000000000000 1.0000000000000000 0.0000000000000000
0.0000000000000000 1.0000000000000000 0.0000000000000000
0.0000000000000000 1.0000000000000000 0.0000000000000000
0.0000000000000000 1.0000000000000000 0.0000000000000000
0.0000000000000000 1.0000000000000000 0.0000000000000000
0.0000000000000000 1.0000000000000000 0.0000000000000000
0.0000000000000000 1.0000000000000000 0.0000000000000000
0.0000000000000000 1.0000000000000000 0.0000000000000000
0.0000000000000000 1.0000000000000000 0.0000000000000000
0.0000000000000000 1.0000000000000000 0.0000000000000000
0.0000000000000000 1.0000000000000000 0.0000000000000000
0.0000000000000000 1.0000000000000000 0.0000000000000000
0.0000000000000000 1.0000000000000000 0.0000000000000000
0.0000000000000000 1.0000000000000000 0.0000000000000000
0.0000000000000000 1.0000000000000000 0.0000000000000000
0.0000000000000000 1.0000000000000000 0.0000000000000000
0.0000000000000000 1.0000000000000000 0.0000000000000000
0.0000000000000000 1.0000000000000000 0.0000000000000000
0.0000000000000000 1.0000000000000000 0.0000000000000000
0.0000000000000000 1.0000000000000000 0.0000000000000000
0.0000000000000000 1.0000000000000000 0.0000000000000000
0.0000000000000000 1.0000000000000000 0.0000000000000000
0.0000000000000000 1.0000000000000000 0.0000000000000000
0.0000000000000000 1.0000000000000000 0.0000000000000000
0.0000000000000000 1.0000000000000000 0.0000000000000000
0.0000000000000000 1.0000000000000000 0.0000000000000000
0.0000000000000000 1.0000000000000000 0.0000000000000000
0.0000000000000000 1.0000000000000000 0.0000000000000000
0.0000000000000000 1.0000000000000000 0.0000000000000000
0.0000000000000000 1.0000000000000000 0.0000000000000000
0.0000000000000000 1.0000000000000000 0.0000000000000000
0.0000000000000000 1.0000000000000000 0.0000000000000000
0.0000000000000000 1.0000000000000000 0.0000000000000000
0.0000000000000000 1.0000000000000000 0.0000000000000000
0.0000000000000000 1.0000000000000000 0.0000000000000000
0.0000000000000000 1.0000000000000000 0.0000000000000000
0.0000000000000000 1.0000000000000000 0.0000000000000000
0.0000000000000000 1.0000000000000000 0.0000000000000000
0.0000000000000000 1.0000000000000000 0.0000000000000000
0.0000000000000000 1.0000000000000000 0.0000000000000000
0.0000000000000000 1.0000000000000000 0.0000000000000000
0.0000000000000000 1.0000000000000000 0.0000000000000000
0.0000000000000000 1.0000000000000000 0.0000000000000000
0.0000000000000000 1.0000000000000000 0.0000000000000000
0.0000000000000000 1.0000000000000000 0.0000000000000000
0.0000000000000000 1.0000000000000000 0.0000000000000000
0.0000000000000000 1.0000000000000000 0.0000000000000000
0.0000000000000000 1.0000000000000000 0.0000000000000000
0.0000000000000000 1.0000000000000000 0.0000000000000000
0.0000000000000000 1.0000000000000000 0.0000000000000000
0.0000000000000000 1.0000000000000000 0.0000000000000000
0.0000000000000000 1.0000000000000000 0.0000000000000000
0.0000000000000000 1.0000000000000000 0.0000000000000000
0.0000000000000000 1.0000000000000000 0.0000000000000000
0.0000000000000000 1.0000000000000000 0.0000000000000000
0.0000000000000000 1.0000000000000000 0.0000000000000000
0.0000000000000000 1.0000000000000000 0.0000000000000000
0.0000000000000000 1.0000000000000000 0.0000000000000000
0.0000000000000000 1.0000000000000000 0.0000000000000000
0.0000000000000000 1.0000000000000000 0.0000000000000000
0.0000000000000000 1.0000000000000000 0.0000000000000000
0.0000000000000000 1.0000000000000000 0.0000000000000000
0.0000000000000000 1.0000000000000000 0.0000000000000000
0.0000000000000000 1.0000000000000000 0.0000000000000000
0.0000000000000000 1.0000000000000000 0.0000000000000000
0.0000000000000000 1.0000000000000000 0.0000000000000000
0.0000000000000000 1.0000000000000000 0.0000000000000000
0.0000000000000000 1.0000000000000000 0.0000000000000000
0.0000000000000000 1.0000000000000000 0.0000000000000000
0.0000000000000000 1.0000000000000000 0.0000000000000000
0.0000000000000000 1.0000000000000000 0.0000000000000000
0.0000000000000000 1.0000000000000000 0.0000000000000000
0.0000000000000000 1.0000000000000000 0.0000000000000000
0.0000000000000000 1.0000000000000000 0.0000000000000000
0.0000000000000000 1.0000000000000000 0.0000000000000000
0.0000000000000000 1.0000000000000000 0.0000000000000000
0.0000000000000000 1.0000000000000000 0.0000000000000000
0.0000000000000000 1.0000000000000000 0.0000000000000000
0.0000000000000000 1.0000000000000000 0.0000000000000000
0.0000000000000000 1.0000000000000000 0.0000000000000000
0.0000000000000000 1.0000000000000000 0.0000000000000000
0.0000000000000000 1.0000000000000000 0.0000000000000000
0.0000000000000000 1.0000000000000000 0.0000000000000000
0.0000000000000000 1.0000000000000000 0.0000000000000000
0.0000000000000000 1.0000000000000000 0.0000000000000000
0.0000000000000000 1.0000000000000000 0.0000000000000000
0.0000000000000000 1.0000000000000000 0.0000000000000000
0.0000000000000000 1.0000000000000000 0.0000000000000000
0.0000000000000000 1.0000000000000000 0.0000000000000000
0.0000000000000000 1.0000000000000000 0.0000000000000000
0.0000000000000000 1.0000000000000000 0.0000000000000000
0.0000000000000000 1.0000000000000000 0.0000000000000000
0.0000000000000000 1.0000000000000000 0.0000000000000000
0.0000000000000000 1.0000000000000000 0.0000000000000000
0.0000000000000000 1.0000000000000000 0.0000000000000000
0.0000000000000000 1.0000000000000000 0.0000000000000000
0.0000000000000000 1.0000000000000000 0.0000000000000000
0.0000000000000000 1.0000000000000000 0.0000000000000000
0.0000000000000000 1.0000000000000000 0.0000000000000000
0.0000000000000000 1.0000000000000000 0.0000000000000000
0.0000000000000000 1.0000000000000000 0.0000000000000000
0.0000000000000000 1.0000000000000000 0.0000000000000000
0.0000000000000000 1.0000000000000000 0.0000000000000000
0.0000000000000000 1.0000000000000000 0.0000000000000000
0.0000000000000000 1.0000000000000000 0.0000000000000000
0.0000000000000000 1.0000000000000000 0.0000000000000000
0.0000000000000000 1.0000000000000000 0.0000000000000000
0.0000000000000000 1.0000000000000000 0.0000000000000000
0.0000000000000000 1.0000000000000000 0.0000000000000000
0.0000000000000000 1.0000000000000000 0.0000000000000000
0.0000000000000000 1.0000000000000000 0.0000000000000000
0.0000000000000000 1.0000000000000000 0.0000000000000000
0.0000000000000000 1.0000000000000000 0.0000000000000000
0.0000000000000000 1.0000000000000000 0.0000000000000000
0.0000000000000000 1.0000000000000000 0.0000000000000000
0.0000000000000000 1.0000000000000000 0.0000000000000000
0.0000000000000000 1.0000000000000000 0.0000000000000000
0.0000000000000000 1.0000000000000000 0.0000000000000000
0.0000000000000000 1.0000000000000000 0.0000000000000000
0.0000000000000000 1.0000000000000000 0.0000000000000000
0.0000000000000000 1.0000000000000000 0.0000000000000000
0.0000000000000000 1.0000000000000000 0.0000000000000000
0.0000000000000000 1.0000000000000000 0.0000000000000000
0.0000000000000000 1.0000000000000000 0.0000000000000000
0.0000000000000000 1.0000000000000000 0.0000000000000000
0.0000000000000000 1.0000000000000000 0.0000000000000000
0.0000000000000000 1.0000000000000000 0.0000000000000000
0.0000000000000000 1.0000000000000000 0.0000000000000000
0.0000000000000000 1.0000000000000000 0.0000000000000000
0.0000000000000000 1.0000000000000000 0.0000000000000000
0.0000000000000000 1.0000000000000000 0.0000000000000000
0.0000000000000000 1.0000000000000000 0.0000000000000000
0.0000000000000000 1.0000000000000000 0.0000000000000000
0.0000000000000000 1.0000000000000000 0.0000000000000000
0.0000000000000000 1.0000000000000000 0.0000000000000000
0.0000000000000000 1.0000000000000000 0.0000000000000000
0.0000000000000000 1.0000000000000000 0.0000000000000000
0.0000000000000000 1.0000000000000000 0.0000000000000000
0.0000000000000000 1.0000000000000000 0.0000000000000000
0.0000000000000000 1.0000000000000000 0.0000000000000000
0.0000000000000000 1.0000000000000000 0.0000000000000000
0.0000000000000000 1.0000000000000000 0.0000000000000000
0.0000000000000000 1.0000000000000000 0.0000000000000000
0.0000000000000000 1.0000000000000000 0.0000000000000000
0.0000000000000000 1.0000000000000000 0.0000000000000000
0.0000000000000000 1.0000000000000000 0.0000000000000000
0.0000000000000000 1.0000000000000000 0.0000000000000000
0.0000000000000000 1.0000000000000000 0.0000000000000000
0.0000000000000000 1.0000000000000000 0.0000000000000000
0.0000000000000000 1.0000000000000000 0.0000000000000000
0.0000000000000000 1.0000000000000000 0.0000000000000000
0.0000000000000000 1.0000000000000000 0.0000000000000000
0.0000000000000000 1.0000000000000000 0.0000000000000000
0.0000000000000000 1.0000000000000000 0.0000000000000000
0.0000000000000000 1.0000000000000000 0.0000000000000000
0.0000000000000000 1.0000000000000000 0.0000000000000000
0.0000000000000000 1.0000000000000000 0.0000000000000000
0.0000000000000000 1.0000000000000000 0.0000000000000000
0.0000000000000000 1.0000000000000000 0.0000000000000000
0.0000000000000000 1.0000000000000000 0.0000000000000000
0.0000000000000000 1.0000000000000000 0.0000000000000000
0.0000000000000000 1.0000000000000000 0.0000000000000000
0.0000000000000000 1.0000000000000000 0.0000000000000000
0.0000000000000000 1.0000000000000000 0.0000000000000000
0.0000000000000000 1.0000000000000000 0.0000000000000000
0.0000000000000000 1.0000000000000000 0.0000000000000000
0.0000000000000000 1.0000000000000000 0.0000000000000000
0.0000000000000000 1.0000000000000000 0.0000000000000000
0.0000000000000000 1.0000000000000000 0.0000000000000000
0.0000000000000000 1.0000000000000000 0.0000000000000000
0.0000000000000000 1.0000000000000000 0.0000000000000000
0.0000000000000000 1.0000000000000000 0.0000000000000000
0.0000000000000000 1.0000000000000000 0.0000000000000000
0.0000000000000000 1.0000000000000000 0.0000000000000000
0.0000000000000000 1.0000000000000000 0.0000000000000000
0.0000000000000000 1.0000000000000000 0.0000000000000000
0.0000000000000000 1.0000000000000000 0.0000000000000000
0.0000000000000000 1.0000000000000000 0.0000000000000000
0.0000000000000000 1.0000000000000000 0.0000000000000000
0.0000000000000000 1.0000000000000000 0.0000000000000000
0.0000000000000000 1.0000000000000000 0.0000000000000000
0.0000000000000000 1.0000000000000000 0.0000000000000000
0.0000000000000000 1.0000000000000000 0.0000000000000000
0.0000000000000000 1.0000000000000000 0.0000000000000000
0.0000000000000000 1.0000000000000000 0.0000000000000000
0.0000000000000000 1.0000000000000000 0.0000000000000000
0.0000000000000000 1.0000000000000000 0.0000000000000000
0.0000000000000000 1.0000000000000000 0.0000000000000000
0.0000000000000000 1.0000000000000000 0.0000000000000000
0.0000000000000000 1.0000000000000000 0.0000000000000000
0.0000000000000000 1.0000000000000000 0.0000000000000000
0.0000000000000000 1.0000000000000000 0.0000000000000000
0.0000000000000000 1.0000000000000000 0.0000000000000000
0.0000000000000000 1.0000000000000000 0.0000000000000000
0.0000000000000000 1.0000000000000000 0.0000000000000000
0.0000000000000000 1.0000000000000000 0.0000000000000000
0.0000000000000000 1.0000000000000000 0.0000000000000000
0.0000000000000000 1.0000000000000000 0.0000000000000000
0.0000000000000000 1.0000000000000000 0.0000000000000000
0.0000000000000000 1.0000000000000000 0.0000000000000000
0.0000000000000000 1.0000000000000000 0.0000000000000000
0.0000000000000000 1.0000000000000000 0.0000000000000000
0.0000000000000000 1.0000000000000000 0.0000000000000000
0.0000000000000000 1.0000000000000000 0.0000000000000000
0.0000000000000000 1.0000000000000000 0.0000000000000000
0.0000000000000000 1.0000000000000000 0.0000000000000000
0.0000000000000000 1.0000000000000000 0.0000000000000000
0.0000000000000000 1.0000000000000000 0.0000000000000000
0.0000000000000000 1.0000000000000000 0.0000000000000000
0.0000000000000000 1.0000000000000000 0.0000000000000000
0.0000000000000000 1.0000000000000000 0.0000000000000000
0.0000000000000000 1.0000000000000000 0.0000000000000000
0.0000000000000000 1.0000000000000000 0.0000000000000000
0.0000000000000000 1.0000000000000000 0.0000000000000000
0.0000000000000000 1.0000000000000000 0.0000000000000000
0.0000000000000000 1.0000000000000000 0.0000000000000000
0.0000000000000000 1.0000000000000000 0.0000000000000000
0.0000000000000000 1.0000000000000000 0.0000000000000000
0.0000000000000000 1.0000000000000000 0.0000000000000000
0.0000000000000000 1.0000000000000000 0.0000000000000000
0.0000000000000000 1.0000000000000000 0.0000000000000000
0.0000000000000000 1.0000000000000000 0.0000000000000000
0.0000000000000000 1.0000000000000000 0.0000000000000000
0.0000000000000000 1.0000000000000000 0.0000000000000000
0.0000000000000000 1.0000000000000000 0.0000000000000000
0.0000000000000000 1.0000000000000000 0.0000000000000000
0.0000000000000000 1.0000000000000000 0.0000000000000000
0.0000000000000000 1.0000000000000000 0.0000000000000000
0.0000000000000000 1.0000000000000000 0.0000000000000000
0.0000000000000000 1.0000000000000000 0.0000000000000000
0.0000000000000000 1.0000000000000000 0.0000000000000000
0.0000000000000000 1.0000000000000000 0.0000000000000000
0.0000000000000000 1.0000000000000000 0.0000000000000000
0.0000000000000000 1.0000000000000000 0.0000000000000000
0.0000000000000000 1.0000000000000000 0.0000000000000000
0.0000000000000000 1.0000000000000000 0.0000000000000000
0.0000000000000000 1.0000000000000000 0.0000000000000000
0.0000000000000000 1.0000000000000000 0.0000000000000000
0.0000000000000000 1.0000000000000000 0.0000000000000000
0.0000000000000000 1.0000000000000000 0.0000000000000000
0.0000000000000000 1.0000000000000000 0.0000000000000000
0.0000000000000000 1.0000000000000000 0.0000000000000000
0.0000000000000000 1.0000000000000000 0.0000000000000000
0.0000000000000000 1.0000000000000000 0.0000000000000000
0.0000000000000000 1.0000000000000000 0.0000000000000000
0.0000000000000000 1.0000000000000000 0.0000000000000000
0.0000000000000000 1.0000000000000000 0.0000000000000000
0.0000000000000000 1.0000000000000000 0.0000000000000000
0.0000000000000000 1.0000000000000000 0.0000000000000000
0.0000000000000000 1.0000000000000000 0.0000000000000000
0.0000000000000000 1.0000000000000000 0.0000000000000000
0.0000000000000000 1.0000000000000000 0.0000000000000000
0.0000000000000000 1.0000000000000000 0.0000000000000000
0.0000000000000000 1.0000000000000000 0.0000000000000000
0.0000000000000000 1.0000000000000000 0.0000000000000000
0.0000000000000000 1.0000000000000000 0.0000000000000000
0.0000000000000000 1.0000000000000000 0.0000000000000000
0.0000000000000000 1.0000000000000000 0.0000000000000000
0.0000000000000000 1.0000000000000000 0.0000000000000000
0.0000000000000000 1.0000000000000000 0.0000000000000000
0.0000000000000000 1.0000000000000000 0.0000000000000000
0.0000000000000000 1.0000000000000000 0.0000000000000000
0.0000000000000000 1.0000000000000000 0.0000000000000000
0.0000000000000000 1.0000000000000000 0.0000000000000000
0.0000000000000000 1.0000000000000000 0.0000000000000000
0.0000000000000000 1.0000000000000000 0.0000000000000000
0.0000000000000000 1.0000000000000000 0.0000000000000000
0.0000000000000000 1.0000000000000000 0.0000000000000000
0.0000000000000000 1.0000000000000000 0.0000000000000000
0.0000000000000000 1.0000000000000000 0.0000000000000000
0.0000000000000000 1.0000000000000000 0.0000000000000000
0.0000000000000000 1.0000000000000000 0.0000000000000000
0.0000000000000000 1.0000000000000000 0.0000000000000000
0.0000000000000000 1.0000000000000000 0.0000000000000000
0.0000000000000000 1.0000000000000000 0.0000000000000000
0.0000000000000000 1.0000000000000000 0.0000000000000000
0.0000000000000000 1.0000000000000000 0.0000000000000000
0.0000000000000000 1.0000000000000000 0.0000000000000000
0.0000000000000000 1.0000000000000000 0.0000000000000000
0.0000000000000000 1.0000000000000000 0.0000000000000000
0.0000000000000000 1.0000000000000000 0.0000000000000000
0.0000000000000000 1.0000000000000000 0.0000000000000000
0.0000000000000000 1.0000000000000000 0.0000000000000000
0.0000000000000000 1.0000000000000000 0.0000000000000000
0.0000000000000000 1.0000000000000000 0.0000000000000000
0.0000000000000000 1.0000000000000000 0.0000000000000000
0.0000000000000000 1.0000000000000000 0.0000000000000000
0.0000000000000000 1.0000000000000000 0.0000000000000000
0.0000000000000000 1.0000000000000000 0.0000000000000000
0.0000000000000000 1.0000000000000000 0.0000000000000000
0.0000000000000000 1.0000000000000000 0.0000000000000000
0.0000000000000000 1.0000000000000000 0.0000000000000000
0.0000000000000000 1.0000000000000000 0.0000000000000000
0.0000000000000000 1.0000000000000000 0.0000000000000000
0.0000000000000000 1.0000000000000000 0.0000000000000000
0.0000000000000000 1.0000000000000000 0.0000000000000000
0.0000000000000000 1.0000000000000000 0.0000000000000000
0.0000000000000000 1.0000000000000000 0.0000000000000000
0.0000000000000000 1.0000000000000000 0.0000000000000000
0.0000000000000000 1.0000000000000000 0.0000000000000000
0.0000000000000000 1.0000000000000000 0.0000000000000000
0.0000000000000000 1.0000000000000000 0.0000000000000000
0.0000000000000000 1.0000000000000000 0.0000000000000000
0.0000000000000000 1.0000000000000000 0.0000000000000000
0.0000000000000000 1.0000000000000000 0.0000000000000000
0.0000000000000000 1.0000000000000000 0.0000000000000000
0.0000000000000000 1.0000000000000000 0.0000000000000000
0.0000000000000000 1.0000000000000000 0.0000000000000000
0.0000000000000000 1.0000000000000000 0.0000000000000000
0.0000000000000000 1.0000000000000000 0.0000000000000000
0.0000000000000000 1.0000000000000000 0.0000000000000000
0.0000000000000000 1.0000000000000000 0.0000000000000000
0.0000000000000000 1.0000000000000000 0.0000000000000000
0.0000000000000000 1.0000000000000000 0.0000000000000000
0.0000000000000000 1.0000000000000000 0.0000000000000000
0.0000000000000000 1.0000000000000000 0.0000000000000000
0.0000000000000000 1.0000000000000000 0.0000000000000000
0.0000000000000000 1.0000000000000000 0.0000000000000000
0.0000000000000000 1.0000000000000000 0.0000000000000000
0.0000000000000000 1.0000000000000000 0.0000000000000000
0.0000000000000000 1.0000000000000000 0.0000000000000000
0.0000000000000000 1.0000000000000000 0.0000000000000000
0.0000000000000000 1.0000000000000000 0.0000000000000000
0.0000000000000000 1.0000000000000000 0.0000000000000000
0.0000000000000000 1.0000000000000000 0.0000000000000000
0.0000000000000000 1.0000000000000000 0.0000000000000000
0.0000000000000000 1.0000000000000000 0.0000000000000000
0.0000000000000000 1.0000000000000000 0.0000000000000000
0.0000000000000000 1.0000000000000000 0.0000000000000000
0.0000000000000000 1.0000000000000000 0.0000000000000000
0.0000000000000000 1.0000000000000000 0.0000000000000000
0.0000000000000000 1.0000000000000000 0.0000000000000000
0.0000000000000000 1.0000000000000000 0.0000000000000000
0.0000000000000000 1.0000000000000000 0.0000000000000000
0.0000000000000000 1.0000000000000000 0.0000000000000000
0.0000000000000000 1.0000000000000000 0.0000000000000000
0.0000000000000000 1.0000000000000000 0.0000000000000000
0.0000000000000000 1.0000000000000000 0.0000000000000000
0.0000000000000000 1.0000000000000000 0.0000000000000000
0.0000000000000000 1.0000000000000000 0.0000000000000000
0.0000000000000000 1.0000000000000000 0.0000000000000000
0.0000000000000000 1.0000000000000000 0.0000000000000000
0.0000000000000000 1.0000000000000000 0.0000000000000000
0.0000000000000000 1.0000000000000000 0.0000000000000000
0.0000000000000000 1.0000000000000000 0.0000000000000000
0.0000000000000000 1.0000000000000000 0.0000000000000000
0.0000000000000000 1.0000000000000000 0.0000000000000000
0.0000000000000000 1.0000000000000000 0.0000000000000000
0.0000000000000000 1.0000000000000000 0.0000000000000000
0.0000000000000000 1.0000000000000000 0.0000000000000000
0.0000000000000000 1.0000000000000000 0.0000000000000000
0.0000000000000000 1.0000000000000000 0.0000000000000000
0.0000000000000000 1.0000000000000000 0.0000000000000000
0.0000000000000000 1.0000000000000000 0.0000000000000000
0.0000000000000000 1.0000000000000000 0.0000000000000000
0.0000000000000000 1.0000000000000000 0.0000000000000000
0.0000000000000000 1.0000000000000000 0.0000000000000000
0.0000000000000000 1.0000000000000000 0.0000000000000000
0.0000000000000000 1.0000000000000000 0.0000000000000000
0.0000000000000000 1.0000000000000000 0.0000000000000000
0.0000000000000000 1.0000000000000000 0.0000000000000000
0.0000000000000000 1.0000000000000000 0.0000000000000000
0.0000000000000000 1.0000000000000000 0.0000000000000000
0.0000000000000000 1.0000000000000000 0.0000000000000000
0.0000000000000000 1.0000000000000000 0.0000000000000000
0.0000000000000000 1.0000000000000000 0.0000000000000000
0.0000000000000000 1.0000000000000000 0.0000000000000000
0.0000000000000000 1.0000000000000000 0.0000000000000000
0.0000000000000000 1.0000000000000000 0.0000000000000000
0.0000000000000000 1.0000000000000000 0.0000000000000000
0.0000000000000000 1.0000000000000000 0.0000000000000000
0.0000000000000000 1.0000000000000000 0.0000000000000000
0.0000000000000000 1.0000000000000000 0.0000000000000000
0.0000000000000000 1.0000000000000000 0.0000000000000000
0.0000000000000000 1.0000000000000000 0.0000000000000000
0.0000000000000000 1.0000000000000000 0.0000000000000000
0.0000000000000000 1.0000000000000000 0.0000000000000000
0.0000000000000000 1.0000000000000000 0.0000000000000000
0.0000000000000000 1.0000000000000000 0.0000000000000000
0.0000000000000000 1.0000000000000000 0.0000000000000000
0.0000000000000000 1.0000000000000000 0.0000000000000000
0.0000000000000000 1.0000000000000000 0.0000000000000000
0.0000000000000000 1.0000000000000000 0.0000000000000000
0.0000000000000000 1.0000000000000000 0.0000000000000000
0.0000000000000000 1.0000000000000000 0.0000000000000000
0.0000000000000000 1.0000000000000000 0.0000000000000000
0.0000000000000000 1.0000000000000000 0.0000000000000000
0.0000000000000000 1.0000000000000000 0.0000000000000000
0.0000000000000000 1.0000000000000000 0.0000000000000000
0.0000000000000000 1.0000000000000000 0.0000000000000000
0.0000000000000000 1.0000000000000000 0.0000000000000000
0.0000000000000000 1.0000000000000000 0.0000000000000000
0.0000000000000000 1.0000000000000000 0.0000000000000000
0.0000000000000000 1.0000000000000000 0.0000000000000000
0.0000000000000000 1.0000000000000000 0.0000000000000000
0.0000000000000000 1.0000000000000000 0.0000000000000000
0.0000000000000000 1.0000000000000000 0.0000000000000000
0.0000000000000000 1.0000000000000000 0.0000000000000000
0.0000000000000000 1.0000000000000000 0.0000000000000000
0.0000000000000000 1.0000000000000000 0.0000000000000000
0.0000000000000000 1.0000000000000000 0.0000000000000000
0.0000000000000000 1.0000000000000000 0.0000000000000000
0.0000000000000000 1.0000000000000000 0.0000000000000000
0.0000000000000000 1.0000000000000000 0.0000000000000000
0.0000000000000000 1.0000000000000000 0.0000000000000000
0.0000000000000000 1.0000000000000000 0.0000000000000000
0.0000000000000000 1.0000000000000000 0.0000000000000000
0.0000000000000000 1.0000000000000000 0.0000000000000000
0.0000000000000000 1.0000000000000000 0.0000000000000000
0.0000000000000000 1.0000000000000000 0.0000000000000000
0.0000000000000000 1.0000000000000000 0.0000000000000000
0.0000000000000000 1.0000000000000000 0.0000000000000000
0.0000000000000000 1.0000000000000000 0.0000000000000000
0.0000000000000000 1.0000000000000000 0.0000000000000000
0.0000000000000000 1.0000000000000000 0.0000000000000000
0.0000000000000000 1.0000000000000000 0.0000000000000000
0.0000000000000000 1.0000000000000000 0.0000000000000000
0.0000000000000000 1.0000000000000000 0.0000000000000000
0.0000000000000000 1.0000000000000000 0.0000000000000000
0.0000000000000000 1.0000000000000000 0.0000000000000000
0.0000000000000000 1.0000000000000000 0.0000000000000000
0.0000000000000000 1.0000000000000000 0.0000000000000000
0.0000000000000000 1.0000000000000000 0.0000000000000000
0.0000000000000000 1.0000000000000000 0.0000000000000000
0.0000000000000000 1.0000000000000000 0.0000000000000000
0.0000000000000000 1.0000000000000000 0.0000000000000000
0.0000000000000000 1.0000000000000000 0.0000000000000000
0.0000000000000000 1.0000000000000000 0.0000000000000000
0.0000000000000000 1.0000000000000000 0.0000000000000000
0.0000000000000000 1.0000000000000000 0.0000000000000000
0.0000000000000000 1.0000000000000000 0.0000000000000000
0.0000000000000000 1.0000000000000000 0.0000000000000000
0.0000000000000000 1.0000000000000000 0.0000000000000000
0.0000000000000000 1.0000000000000000 0.0000000000000000
0.0000000000000000 1.0000000000000000 0.0000000000000000
0.0000000000000000 1.0000000000000000 0.0000000000000000
0.0000000000000000 1.0000000000000000 0.0000000000000000
0.0000000000000000 1.0000000000000000 0.0000000000000000
0.0000000000000000 1.0000000000000000 0.0000000000000000
0.0000000000000000 1.0000000000000000 0.0000000000000000
0.0000000000000000 1.0000000000000000 0.0000000000000000
0.0000000000000000 1.0000000000000000 0.0000000000000000
0.0000000000000000 1.0000000000000000 0.0000000000000000
0.0000000000000000 1.0000000000000000 0.0000000000000000
0.0000000000000000 1.0000000000000000 0.0000000000000000
0.0000000000000000 1.0000000000000000 0.0000000000000000
0.0000000000000000 1.0000000000000000 0.0000000000000000
0.0000000000000000 1.0000000000000000 0.0000000000000000
0.0000000000000000 1.0000000000000000 0.0000000000000000
0.0000000000000000 1.0000000000000000 0.0000000000000000
0.0000000000000000 1.0000000000000000 0.0000000000000000
0.0000000000000000 1.0000000000000000 0.0000000000000000
0.0000000000000000 1.0000000000000000 0.0000000000000000
0.0000000000000000 1.0000000000000000 0.0000000000000000
0.0000000000000000 1.0000000000000000 0.0000000000000000
0.0000000000000000 1.0000000000000000 0.0000000000000000
0.0000000000000000 1.0000000000000000 0.0000000000000000
0.0000000000000000 1.0000000000000000 0.0000000000000000
0.0000000000000000 1.0000000000000000 0.0000000000000000
0.0000000000000000 1.0000000000000000 0.0000000000000000
0.0000000000000000 1.0000000000000000 0.0000000000000000
0.0000000000000000 1.0000000000000000 0.0000000000000000
0.0000000000000000 1.0000000000000000 0.0000000000000000
0.0000000000000000 1.0000000000000000 0.0000000000000000
0.0000000000000000 1.0000000000000000 0.0000000000000000
0.0000000000000000 1.0000000000000000 0.0000000000000000
0.0000000000000000 1.0000000000000000 0.0000000000000000
0.0000000000000000 1.0000000000000000 0.0000000000000000
0.0000000000000000 1.0000000000000000 0.0000000000000000
0.0000000000000000 1.0000000000000000 0.0000000000000000
0.0000000000000000 1.0000000000000000 0.0000000000000000
0.0000000000000000 1.0000000000000000 0.0000000000000000
0.0000000000000000 1.0000000000000000 0.0000000000000000
0.0000000000000000 1.0000000000000000 0.0000000000000000
0.0000000000000000 1.0000000000000000 0.0000000000000000
0.0000000000000000 1.0000000000000000 0.0000000000000000
0.0000000000000000 1.0000000000000000 0.0000000000000000
0.0000000000000000 1.0000000000000000 0.0000000000000000
0.0000000000000000 1.0000000000000000 0.0000000000000000
0.0000000000000000 1.0000000000000000 0.0000000000000000
0.0000000000000000 1.0000000000000000 0.0000000000000000
0.0000000000000000 1.0000000000000000 0.0000000000000000
0.0000000000000000 1.0000000000000000 0.0000000000000000
0.0000000000000000 1.0000000000000000 0.0000000000000000
0.0000000000000000 1.0000000000000000 0.0000000000000000
0.0000000000000000 1.0000000000000000 0.0000000000000000
0.0000000000000000 1.0000000000000000 0.0000000000000000
0.0000000000000000 1.0000000000000000 0.0000000000000000
0.0000000000000000 1.0000000000000000 0.0000000000000000
0.0000000000000000 1.0000000000000000 0.0000000000000000
0.0000000000000000 1.0000000000000000 0.0000000000000000
0.0000000000000000 1.0000000000000000 0.0000000000000000
0.0000000000000000 1.0000000000000000 0.0000000000000000
0.0000000000000000 1.0000000000000000 0.0000000000000000
0.0000000000000000 1.0000000000000000 0.0000000000000000
0.0000000000000000 1.0000000000000000 0.0000000000000000
0.0000000000000000 1.0000000000000000 0.0000000000000000
0.0000000000000000 1.0000000000000000 0.0000000000000000
0.0000000000000000 1.0000000000000000 0.0000000000000000
0.0000000000000000 1.0000000000000000 0.0000000000000000
0.0000000000000000 1.0000000000000000 0.0000000000000000
0.0000000000000000 1.0000000000000000 0.0000000000000000
0.0000000000000000 1.0000000000000000 0.0000000000000000
0.0000000000000000 1.0000000000000000 0.0000000000000000
0.0000000000000000 1.0000000000000000 0.0000000000000000
0.0000000000000000 1.0000000000000000 0.0000000000000000
0.0000000000000000 1.0000000000000000 0.0000000000000000
0.0000000000000000 1.0000000000000000 0.0000000000000000
0.0000000000000000 1.0000000000000000 0.0000000000000000
0.0000000000000000 1.0000000000000000 0.0000000000000000
0.0000000000000000 1.0000000000000000 0.0000000000000000
0.0000000000000000 1.0000000000000000 0.0000000000000000
0.0000000000000000 1.0000000000000000 0.0000000000000000
0.0000000000000000 1.0000000000000000 0.0000000000000000
0.0000000000000000 1.0000000000000000 0.0000000000000000
0.0000000000000000 1.0000000000000000 0.0000000000000000
0.0000000000000000 1.0000000000000000 0.0000000000000000
0.0000000000000000 1.0000000000000000 0.0000000000000000
0.0000000000000000 1.0000000000000000 0.0000000000000000
0.0000000000000000 1.0000000000000000 0.0000000000000000
0.0000000000000000 1.0000000000000000 0.0000000000000000
0.0000000000000000 1.0000000000000000 0.0000000000000000
0.0000000000000000 1.0000000000000000 0.0000000000000000
0.0000000000000000 1.0000000000000000 0.0000000000000000
0.0000000000000000 1.0000000000000000 0.0000000000000000
0.0000000000000000 1.0000000000000000 0.0000000000000000
0.0000000000000000 1.0000000000000000 0.0000000000000000
0.0000000000000000 1.0000000000000000 0.0000000000000000
0.0000000000000000 1.0000000000000000 0.0000000000000000
0.0000000000000000 1.0000000000000000 0.0000000000000000
0.0000000000000000 1.0000000000000000 0.0000000000000000
0.0000000000000000 1.0000000000000000 0.0000000000000000
0.0000000000000000 1.0000000000000000 0.0000000000000000
0.0000000000000000 1.0000000000000000 0.0000000000000000
0.0000000000000000 1.0000000000000000 0.0000000000000000
0.0000000000000000 1.0000000000000000 0.0000000000000000
0.0000000000000000 1.0000000000000000 0.0000000000000000
0.0000000000000000 1.0000000000000000 0.0000000000000000
0.0000000000000000 1.0000000000000000 0.0000000000000000
0.0000000000000000 1.0000000000000000 0.0000000000000000
0.0000000000000000 1.0000000000000000 0.0000000000000000
0.0000000000000000 1.0000000000000000 0.0000000000000000
0.0000000000000000 1.0000000000000000 0.0000000000000000
0.0000000000000000 1.0000000000000000 0.0000000000000000
0.0000000000000000 1.0000000000000000 0.0000000000000000
0.0000000000000000 1.0000000000000000 0.0000000000000000
0.0000000000000000 1.0000000000000000 0.0000000000000000
0.0000000000000000 1.0000000000000000 0.0000000000000000
0.0000000000000000 1.0000000000000000 0.0000000000000000
0.0000000000000000 1.0000000000000000 0.0000000000000000
0.0000000000000000 1.0000000000000000 0.0000000000000000
0.0000000000000000 1.0000000000000000 0.0000000000000000
0.0000000000000000 1.0000000000000000 0.0000000000000000
0.0000000000000000 1.0000000000000000 0.0000000000000000
0.0000000000000000 1.0000000000000000 0.0000000000000000
0.0000000000000000 1.0000000000000000 0.0000000000000000
0.0000000000000000 1.0000000000000000 0.0000000000000000
0.0000000000000000 1.0000000000000000 0.0000000000000000
0.0000000000000000 1.0000000000000000 0.0000000000000000
0.0000000000000000 1.0000000000000000 0.0000000000000000
0.0000000000000000 1.0000000000000000 0.0000000000000000
0.0000000000000000 1.0000000000000000 0.0000000000000000
0.0000000000000000 1.0000000000000000 0.0000000000000000
0.0000000000000000 1.0000000000000000 0.0000000000000000
0.0000000000000000 1.0000000000000000 0.0000000000000000
0.0000000000000000 1.0000000000000000 0.0000000000000000
0.0000000000000000 1.0000000000000000 0.0000000000000000
0.0000000000000000 1.0000000000000000 0.0000000000000000
0.0000000000000000 1.0000000000000000 0.0000000000000000
0.0000000000000000 1.0000000000000000 0.0000000000000000
0.0000000000000000 1.0000000000000000 0.0000000000000000
0.0000000000000000 1.0000000000000000 0.0000000000000000
0.0000000000000000 1.0000000000000000 0.0000000000000000
0.0000000000000000 1.0000000000000000 0.0000000000000000
0.0000000000000000 1.0000000000000000 0.0000000000000000
0.0000000000000000 1.0000000000000000 0.0000000000000000
0.0000000000000000 1.0000000000000000 0.0000000000000000
0.0000000000000000 1.0000000000000000 0.0000000000000000
0.0000000000000000 1.0000000000000000 0.0000000000000000
0.0000000000000000 1.0000000000000000 0.0000000000000000
0.0000000000000000 1.0000000000000000 0.0000000000000000
0.0000000000000000 1.0000000000000000 0.0000000000000000
0.0000000000000000 1.0000000000000000 0.0000000000000000
0.0000000000000000 1.0000000000000000 0.0000000000000000
0.0000000000000000 1.0000000000000000 0.0000000000000000
0.0000000000000000 1.0000000000000000 0.0000000000000000
0.0000000000000000 1.0000000000000000 0.0000000000000000
0.0000000000000000 1.0000000000000000 0.0000000000000000
0.0000000000000000 1.0000000000000000 0.0000000000000000
0.0000000000000000 1.0000000000000000 0.0000000000000000
0.0000000000000000 1.0000000000000000 0.0000000000000000
0.0000000000000000 1.0000000000000000 0.0000000000000000
0.0000000000000000 1.0000000000000000 0.0000000000000000
0.0000000000000000 1.0000000000000000 0.0000000000000000
0.0000000000000000 1.0000000000000000 0.0000000000000000
0.0000000000000000 1.0000000000000000 0.0000000000000000
0.0000000000000000 1.0000000000000000 0.0000000000000000
0.0000000000000000 1.0000000000000000 0.0000000000000000
0.0000000000000000 1.0000000000000000 0.0000000000000000
0.0000000000000000 1.0000000000000000 0.0000000000000000
0.0000000000000000 1.0000000000000000 0.0000000000000000
0.0000000000000000 1.0000000000000000 0.0000000000000000
0.0000000000000000 1.0000000000000000 0.0000000000000000
0.0000000000000000 1.0000000000000000 0.0000000000000000
0.0000000000000000 1.0000000000000000 0.0000000000000000
0.0000000000000000 1.0000000000000000 0.0000000000000000
0.0000000000000000 1.0000000000000000 0.0000000000000000
0.0000000000000000 1.0000000000000000 0.0000000000000000
0.0000000000000000 1.0000000000000000 0.0000000000000000
0.0000000000000000 1.0000000000000000 0.0000000000000000
0.0000000000000000 1.0000000000000000 0.0000000000000000
0.0000000000000000 1.0000000000000000 0.0000000000000000
0.0000000000000000 1.0000000000000000 0.0000000000000000
0.0000000000000000 1.0000000000000000 0.0000000000000000
0.0000000000000000 1.0000000000000000 0.0000000000000000
0.0000000000000000 1.0000000000000000 0.0000000000000000
0.0000000000000000 1.0000000000000000 0.0000000000000000
0.0000000000000000 1.0000000000000000 0.0000000000000000
0.0000000000000000 1.0000000000000000 0.0000000000000000
0.0000000000000000 1.0000000000000000 0.0000000000000000
0.0000000000000000 1.0000000000000000 0.0000000000000000
0.0000000000000000 1.0000000000000000 0.0000000000000000
0.0000000000000000 1.0000000000000000 0.0000000000000000
0.0000000000000000 1.0000000000000000 0.0000000000000000
0.0000000000000000 1.0000000000000000 0.0000000000000000
0.0000000000000000 1.0000000000000000 0.0000000000000000
0.0000000000000000 1.0000000000000000 0.0000000000000000
0.0000000000000000 1.0000000000000000 0.0000000000000000
0.0000000000000000 1.0000000000000000 0.0000000000000000
0.0000000000000000 1.0000000000000000 0.0000000000000000
0.0000000000000000 1.0000000000000000 0.0000000000000000
0.0000000000000000 1.0000000000000000 0.0000000000000000
0.0000000000000000 1.0000000000000000 0.0000000000000000
0.0000000000000000 1.0000000000000000 0.0000000000000000
0.0000000000000000 1.0000000000000000 0.0000000000000000
0.0000000000000000 1.0000000000000000 0.0000000000000000
0.0000000000000000 1.0000000000000000 0.0000000000000000
0.0000000000000000 1.0000000000000000 0.0000000000000000
0.0000000000000000 1.0000000000000000 0.0000000000000000
0.0000000000000000 1.0000000000000000 0.0000000000000000
0.0000000000000000 1.0000000000000000 0.0000000000000000
0.0000000000000000 1.0000000000000000 0.0000000000000000
0.0000000000000000 1.0000000000000000 0.0000000000000000
0.0000000000000000 1.0000000000000000 0.0000000000000000
0.0000000000000000 1.0000000000000000 0.0000000000000000
0.0000000000000000 1.0000000000000000 0.0000000000000000
0.0000000000000000 1.0000000000000000 0.0000000000000000
0.0000000000000000 1.0000000000000000 0.0000000000000000
0.0000000000000000 1.0000000000000000 0.0000000000000000
0.0000000000000000 1.0000000000000000 0.0000000000000000
0.0000000000000000 1.0000000000000000 0.0000000000000000
0.0000000000000000 1.0000000000000000 0.0000000000000000
0.0000000000000000 1.0000000000000000 0.0000000000000000
0.0000000000000000 1.0000000000000000 0.0000000000000000
0.0000000000000000 1.0000000000000000 0.0000000000000000
0.0000000000000000 1.0000000000000000 0.0000000000000000
0.0000000000000000 1.0000000000000000 0.0000000000000000
0.0000000000000000 1.0000000000000000 0.0000000000000000
0.0000000000000000 1.0000000000000000 0.0000000000000000
0.0000000000000000 1.0000000000000000 0.0000000000000000
0.0000000000000000 1.0000000000000000 0.0000000000000000
0.0000000000000000 1.0000000000000000 0.0000000000000000
0.0000000000000000 1.0000000000000000 0.0000000000000000
0.0000000000000000 1.0000000000000000 0.0000000000000000
0.0000000000000000 1.0000000000000000 0.0000000000000000
0.0000000000000000 1.0000000000000000 0.0000000000000000
0.0000000000000000 1.0000000000000000 0.0000000000000000
0.0000000000000000 1.0000000000000000 0.0000000000000000
0.0000000000000000 1.0000000000000000 0.0000000000000000
0.0000000000000000 1.0000000000000000 0.0000000000000000
0.0000000000000000 1.0000000000000000 0.0000000000000000
0.0000000000000000 1.0000000000000000 0.0000000000000000
0.0000000000000000 1.0000000000000000 0.0000000000000000
0.0000000000000000 1.0000000000000000 0.0000000000000000
0.0000000000000000 1.0000000000000000 0.0000000000000000
0.0000000000000000 1.0000000000000000 0.0000000000000000
0.0000000000000000 1.0000000000000000 0.0000000000000000
0.0000000000000000 1.0000000000000000 0.0000000000000000
0.0000000000000000 1.0000000000000000 0.0000000000000000
0.0000000000000000 1.0000000000000000 0.0000000000000000
0.0000000000000000 1.0000000000000000 0.0000000000000000
0.0000000000000000 1.0000000000000000 0.0000000000000000
0.0000000000000000 1.0000000000000000 0.0000000000000000
0.0000000000000000 1.0000000000000000 0.0000000000000000
0.0000000000000000 1.0000000000000000 0.0000000000000000
0.0000000000000000 1.0000000000000000 0.0000000000000000
0.0000000000000000 1.0000000000000000 0.0000000000000000
0.0000000000000000 1.0000000000000000 0.0000000000000000
0.0000000000000000 1.0000000000000000 0.0000000000000000
0.0000000000000000 1.0000000000000000 0.0000000000000000
0.0000000000000000 1.0000000000000000 0.0000000000000000
0.0000000000000000 1.0000000000000000 0.0000000000000000
0.0000000000000000 1.0000000000000000 0.0000000000000000
0.0000000000000000 1.0000000000000000 0.0000000000000000
0.0000000000000000 1.0000000000000000 0.0000000000000000
0.0000000000000000 1.0000000000000000 0.0000000000000000
0.0000000000000000 1.0000000000000000 0.0000000000000000
0.0000000000000000 1.0000000000000000 0.0000000000000000
0.0000000000000000 1.0000000000000000 0.0000000000000000
0.0000000000000000 1.0000000000000000 0.0000000000000000
0.0000000000000000 1.0000000000000000 0.0000000000000000
0.0000000000000000 1.0000000000000000 0.0000000000000000
0.0000000000000000 1.0000000000000000 0.0000000000000000
0.0000000000000000 1.0000000000000000 0.0000000000000000
0.0000000000000000 1.0000000000000000 0.0000000000000000
0.0000000000000000 1.0000000000000000 0.0000000000000000
0.0000000000000000 1.0000000000000000 0.0000000000000000
0.0000000000000000 1.0000000000000000 0.0000000000000000
0.0000000000000000 1.0000000000000000 0.0000000000000000
0.0000000000000000 1.0000000000000000 0.0000000000000000
0.0000000000000000 1.0000000000000000 0.0000000000000000
0.0000000000000000 1.0000000000000000 0.0000000000000000
0.0000000000000000 1.0000000000000000 0.0000000000000000
0.0000000000000000 1.0000000000000000 0.0000000000000000
0.0000000000000000 1.0000000000000000 0.0000000000000000
0.0000000000000000 1.0000000000000000 0.0000000000000000
0.0000000000000000 1.0000000000000000 0.0000000000000000
0.0000000000000000 1.0000000000000000 0.0000000000000000
0.0000000000000000 1.0000000000000000 0.0000000000000000
0.0000000000000000 1.0000000000000000 0.0000000000000000
0.0000000000000000 1.0000000000000000 0.0000000000000000
0.0000000000000000 1.0000000000000000 0.0000000000000000
0.0000000000000000 1.0000000000000000 0.0000000000000000
0.0000000000000000 1.0000000000000000 0.0000000000000000
0.0000000000000000 1.0000000000000000 0.0000000000000000
0.0000000000000000 1.0000000000000000 0.0000000000000000
0.0000000000000000 1.0000000000000000 0.0000000000000000
0.0000000000000000 1.0000000000000000 0.0000000000000000
0.0000000000000000 1.0000000000000000 0.0000000000000000
0.0000000000000000 1.0000000000000000 0.0000000000000000
0.0000000000000000 1.0000000000000000 0.0000000000000000
0.0000000000000000 1.0000000000000000 0.0000000000000000
0.0000000000000000 1.0000000000000000 0.0000000000000000
0.0000000000000000 1.0000000000000000 0.0000000000000000
0.0000000000000000 1.0000000000000000 0.0000000000000000
0.0000000000000000 1.0000000000000000 0.0000000000000000
0.0000000000000000 1.0000000000000000 0.0000000000000000
0.0000000000000000 1.0000000000000000 0.0000000000000000
0.0000000000000000 1.0000000000000000 0.0000000000000000
0.0000000000000000 1.0000000000000000 0.0000000000000000
0.0000000000000000 1.0000000000000000 0.0000000000000000
0.0000000000000000 1.0000000000000000 0.0000000000000000
0.0000000000000000 1.0000000000000000 0.0000000000000000
0.0000000000000000 1.0000000000000000 0.0000000000000000
0.0000000000000000 1.0000000000000000 0.0000000000000000
0.0000000000000000 1.0000000000000000 0.0000000000000000
0.0000000000000000 1.0000000000000000 0.0000000000000000
0.0000000000000000 1.0000000000000000 0.0000000000000000
0.0000000000000000 1.0000000000000000 0.0000000000000000
0.0000000000000000 1.0000000000000000 0.0000000000000000
0.0000000000000000 1.0000000000000000 0.0000000000000000
0.0000000000000000 1.0000000000000000 0.0000000000000000
0.0000000000000000 1.0000000000000000 0.0000000000000000
0.0000000000000000 1.0000000000000000 0.0000000000000000
0.0000000000000000 1.0000000000000000 0.0000000000000000
0.0000000000000000 1.0000000000000000 0.0000000000000000
0.0000000000000000 1.0000000000000000 0.0000000000000000
0.0000000000000000 1.0000000000000000 0.0000000000000000
0.0000000000000000 1.0000000000000000 0.0000000000000000
0.0000000000000000 1.0000000000000000 0.0000000000000000
0.0000000000000000 1.0000000000000000 0.0000000000000000
0.0000000000000000 1.0000000000000000 0.0000000000000000
0.0000000000000000 1.0000000000000000 0.0000000000000000
0.0000000000000000 1.0000000000000000 0.0000000000000000
0.0000000000000000 1.0000000000000000 0.0000000000000000
0.0000000000000000 1.0000000000000000 0.0000000000000000
0.0000000000000000 1.0000000000000000 0.0000000000000000
0.0000000000000000 1.0000000000000000 0.0000000000000000
0.0000000000000000 1.0000000000000000 0.0000000000000000
0.0000000000000000 1.0000000000000000 0.0000000000000000
0.0000000000000000 1.0000000000000000 0.0000000000000000
0.0000000000000000 1.0000000000000000 0.0000000000000000
0.0000000000000000 1.0000000000000000 0.0000000000000000
0.0000000000000000 1.0000000000000000 0.0000000000000000
0.0000000000000000 1.0000000000000000 0.0000000000000000
0.0000000000000000 1.0000000000000000 0.0000000000000000
0.0000000000000000 1.0000000000000000 0.0000000000000000
0.0000000000000000 1.0000000000000000 0.0000000000000000
0.0000000000000000 1.0000000000000000 0.0000000000000000
0.0000000000000000 1.0000000000000000 0.0000000000000000
0.0000000000000000 1.0000000000000000 0.0000000000000000
0.0000000000000000 1.0000000000000000 0.0000000000000000
0.0000000000000000 1.0000000000000000 0.0000000000000000
0.0000000000000000 1.0000000000000000 0.0000000000000000
0.0000000000000000 1.0000000000000000 0.0000000000000000
0.0000000000000000 1.0000000000000000 0.0000000000000000
0.0000000000000000 1.0000000000000000 0.0000000000000000
0.0000000000000000 1.0000000000000000 0.0000000000000000
0.0000000000000000 1.0000000000000000 0.0000000000000000
0.0000000000000000 1.0000000000000000 0.0000000000000000
0.0000000000000000 1.0000000000000000 0.0000000000000000
0.0000000000000000 1.0000000000000000 0.0000000000000000
0.0000000000000000 1.0000000000000000 0.0000000000000000
0.0000000000000000 1.0000000000000000 0.0000000000000000
0.0000000000000000 1.0000000000000000 0.0000000000000000
0.0000000000000000 1.0000000000000000 0.0000000000000000
0.0000000000000000 1.0000000000000000 0.0000000000000000
0.0000000000000000 1.0000000000000000 0.0000000000000000
0.0000000000000000 1.0000000000000000 0.0000000000000000
0.0000000000000000 1.0000000000000000 0.0000000000000000
0.0000000000000000 1.0000000000000000 0.0000000000000000
0.0000000000000000 1.0000000000000000 0.0000000000000000
0.0000000000000000 1.0000000000000000 0.0000000000000000
0.0000000000000000 1.0000000000000000 0.0000000000000000
0.0000000000000000 1.0000000000000000 0.0000000000000000
0.0000000000000000 1.0000000000000000 0.0000000000000000
0.0000000000000000 1.0000000000000000 0.0000000000000000
0.0000000000000000 1.0000000000000000 0.0000000000000000
0.0000000000000000 1.0000000000000000 0.0000000000000000
0.0000000000000000 1.0000000000000000 0.0000000000000000
0.0000000000000000 1.0000000000000000 0.0000000000000000
0.0000000000000000 1.0000000000000000 0.0000000000000000
0.0000000000000000 1.0000000000000000 0.0000000000000000
0.0000000000000000 1.0000000000000000 0.0000000000000000
0.0000000000000000 1.0000000000000000 0.0000000000000000
0.0000000000000000 1.0000000000000000 0.0000000000000000
0.0000000000000000 1.0000000000000000 0.0000000000000000
0.0000000000000000 1.0000000000000000 0.0000000000000000
0.0000000000000000 1.0000000000000000 0.0000000000000000
0.0000000000000000 1.0000000000000000 0.0000000000000000
0.0000000000000000 1.0000000000000000 0.0000000000000000
0.0000000000000000 1.0000000000000000 0.0000000000000000
0.0000000000000000 1.0000000000000000 0.0000000000000000
0.0000000000000000 1.0000000000000000 0.0000000000000000
0.0000000000000000 1.0000000000000000 0.0000000000000000
0.0000000000000000 1.0000000000000000 0.0000000000000000
0.0000000000000000 1.0000000000000000 0.0000000000000000
0.0000000000000000 1.0000000000000000 0.0000000000000000
0.0000000000000000 1.0000000000000000 0.0000000000000000
0.0000000000000000 1.0000000000000000 0.0000000000000000
0.0000000000000000 1.0000000000000000 0.0000000000000000
0.0000000000000000 1.0000000000000000 0.0000000000000000
0.0000000000000000 1.0000000000000000 0.0000000000000000
0.0000000000000000 1.0000000000000000 0.0000000000000000
0.0000000000000000 1.0000000000000000 0.0000000000000000
0.0000000000000000 1.0000000000000000 0.0000000000000000
0.0000000000000000 1.0000000000000000 0.0000000000000000
0.0000000000000000 1.0000000000000000 0.0000000000000000
0.0000000000000000 1.0000000000000000 0.0000000000000000
0.0000000000000000 1.0000000000000000 0.0000000000000000
0.0000000000000000 1.0000000000000000 0.0000000000000000
0.0000000000000000 1.0000000000000000 0.0000000000000000
0.0000000000000000 1.0000000000000000 0.0000000000000000
0.0000000000000000 1.0000000000000000 0.0000000000000000
0.0000000000000000 1.0000000000000000 0.0000000000000000
0.0000000000000000 1.0000000000000000 0.0000000000000000
0.0000000000000000 1.0000000000000000 0.0000000000000000
0.0000000000000000 1.0000000000000000 0.0000000000000000
0.0000000000000000 1.0000000000000000 0.0000000000000000
0.0000000000000000 1.0000000000000000 0.0000000000000000
0.0000000000000000 1.0000000000000000 0.0000000000000000
0.0000000000000000 1.0000000000000000 0.0000000000000000
0.0000000000000000 1.0000000000000000 0.0000000000000000
0.0000000000000000 1.0000000000000000 0.0000000000000000
0.0000000000000000 1.0000000000000000 0.0000000000000000
0.0000000000000000 1.0000000000000000 0.0000000000000000
0.0000000000000000 1.0000000000000000 0.0000000000000000
0.0000000000000000 1.0000000000000000 0.0000000000000000
0.0000000000000000 1.0000000000000000 0.0000000000000000
0.0000000000000000 1.0000000000000000 0.0000000000000000
0.0000000000000000 1.0000000000000000 0.0000000000000000
0.0000000000000000 1.0000000000000000 0.0000000000000000
0.0000000000000000 1.0000000000000000 0.0000000000000000
0.0000000000000000 1.0000000000000000 0.0000000000000000
0.0000000000000000 1.0000000000000000 0.0000000000000000
0.0000000000000000 1.0000000000000000 0.0000000000000000
0.0000000000000000 1.0000000000000000 0.0000000000000000
0.0000000000000000 1.0000000000000000 0.0000000000000000
0.0000000000000000 1.0000000000000000 0.0000000000000000
0.0000000000000000 1.0000000000000000 0.0000000000000000
0.0000000000000000 1.0000000000000000 0.0000000000000000
0.0000000000000000 1.0000000000000000 0.0000000000000000
0.0000000000000000 1.0000000000000000 0.0000000000000000
0.0000000000000000 1.0000000000000000 0.0000000000000000
0.0000000000000000 1.0000000000000000 0.0000000000000000
0.0000000000000000 1.0000000000000000 0.0000000000000000
0.0000000000000000 1.0000000000000000 0.0000000000000000
0.0000000000000000 1.0000000000000000 0.0000000000000000
0.0000000000000000 1.0000000000000000 0.0000000000000000
0.0000000000000000 1.0000000000000000 0.0000000000000000
0.0000000000000000 1.0000000000000000 0.0000000000000000
0.0000000000000000 1.0000000000000000 0.0000000000000000
0.0000000000000000 1.0000000000000000 0.0000000000000000
0.0000000000000000 1.0000000000000000 0.0000000000000000
0.0000000000000000 1.0000000000000000 0.0000000000000000
0.0000000000000000 1.0000000000000000 0.0000000000000000
0.0000000000000000 1.0000000000000000 0.0000000000000000
0.0000000000000000 1.0000000000000000 0.0000000000000000
0.0000000000000000 1.0000000000000000 0.0000000000000000
0.0000000000000000 1.0000000000000000 0.0000000000000000
0.0000000000000000 1.0000000000000000 0.0000000000000000
0.0000000000000000 1.0000000000000000 0.0000000000000000
0.0000000000000000 1.0000000000000000 0.0000000000000000
0.0000000000000000 1.0000000000000000 0.0000000000000000
0.0000000000000000 1.0000000000000000 0.0000000000000000
0.0000000000000000 1.0000000000000000 0.0000000000000000
0.0000000000000000 1.0000000000000000 0.0000000000000000
0.0000000000000000 1.0000000000000000 0.0000000000000000
0.0000000000000000 1.0000000000000000 0.0000000000000000
0.0000000000000000 1.0000000000000000 0.0000000000000000
0.0000000000000000 1.0000000000000000 0.0000000000000000
0.0000000000000000 1.0000000000000000 0.0000000000000000
0.0000000000000000 1.0000000000000000 0.0000000000000000
0.0000000000000000 1.0000000000000000 0.0000000000000000
0.0000000000000000 1.0000000000000000 0.0000000000000000
0.0000000000000000 1.0000000000000000 0.0000000000000000
0.0000000000000000 1.0000000000000000 0.0000000000000000
0.0000000000000000 1.0000000000000000 0.0000000000000000
0.0000000000000000 1.0000000000000000 0.0000000000000000
0.0000000000000000 1.0000000000000000 0.0000000000000000
0.0000000000000000 1.0000000000000000 0.0000000000000000
0.0000000000000000 1.0000000000000000 0.0000000000000000
0.0000000000000000 1.0000000000000000 0.0000000000000000
0.0000000000000000 1.0000000000000000 0.0000000000000000
0.0000000000000000 1.0000000000000000 0.0000000000000000
0.0000000000000000 1.0000000000000000 0.0000000000000000
0.0000000000000000 1.0000000000000000 0.0000000000000000
0.0000000000000000 1.0000000000000000 0.0000000000000000
0.0000000000000000 1.0000000000000000 0.0000000000000000
0.0000000000000000 1.0000000000000000 0.0000000000000000
0.0000000000000000 1.0000000000000000 0.0000000000000000
0.0000000000000000 1.0000000000000000 0.0000000000000000
0.0000000000000000 1.0000000000000000 0.0000000000000000
0.0000000000000000 1.0000000000000000 0.0000000000000000
0.0000000000000000 1.0000000000000000 0.0000000000000000
0.0000000000000000 1.0000000000000000 0.0000000000000000
0.0000000000000000 1.0000000000000000 0.0000000000000000
0.0000000000000000 1.0000000000000000 0.0000000000000000
0.0000000000000000 1.0000000000000000 0.0000000000000000
0.0000000000000000 1.0000000000000000 0.0000000000000000
0.0000000000000000 1.0000000000000000 0.0000000000000000
0.0000000000000000 1.0000000000000000 0.0000000000000000
0.0000000000000000 1.0000000000000000 0.0000000000000000
0.0000000000000000 1.0000000000000000 0.0000000000000000
0.0000000000000000 1.0000000000000000 0.0000000000000000
0.0000000000000000 1.0000000000000000 0.0000000000000000
0.0000000000000000 1.0000000000000000 0.0000000000000000
0.0000000000000000 1.0000000000000000 0.0000000000000000
0.0000000000000000 1.0000000000000000 0.0000000000000000
0.0000000000000000 1.0000000000000000 0.0000000000000000
0.0000000000000000 1.0000000000000000 0.0000000000000000
0.0000000000000000 1.0000000000000000 0.0000000000000000
0.0000000000000000 1.0000000000000000 0.0000000000000000
0.0000000000000000 1.0000000000000000 0.0000000000000000
0.0000000000000000 1.0000000000000000 0.0000000000000000
0.0000000000000000 1.0000000000000000 0.0000000000000000
0.0000000000000000 1.0000000000000000 0.0000000000000000
0.0000000000000000 1.0000000000000000 0.0000000000000000
0.0000000000000000 1.0000000000000000 0.0000000000000000
0.0000000000000000 1.0000000000000000 0.0000000000000000
0.0000000000000000 1.0000000000000000 0.0000000000000000
0.0000000000000000 1.0000000000000000 0.0000000000000000
0.0000000000000000 1.0000000000000000 0.0000000000000000
0.0000000000000000 1.0000000000000000 0.0000000000000000
0.0000000000000000 1.0000000000000000 0.0000000000000000
0.0000000000000000 1.0000000000000000 0.0000000000000000
0.0000000000000000 1.0000000000000000 0.0000000000000000
0.0000000000000000 1.0000000000000000 0.0000000000000000
0.0000000000000000 1.0000000000000000 0.0000000000000000
0.0000000000000000 1.0000000000000000 0.0000000000000000
0.0000000000000000 1.0000000000000000 0.0000000000000000
0.0000000000000000 1.0000000000000000 0.0000000000000000
0.0000000000000000 1.0000000000000000 0.0000000000000000
0.0000000000000000 1.0000000000000000 0.0000000000000000
0.0000000000000000 1.0000000000000000 0.0000000000000000
0.0000000000000000 1.0000000000000000 0.0000000000000000
0.0000000000000000 1.0000000000000000 0.0000000000000000
0.0000000000000000 1.0000000000000000 0.0000000000000000
0.0000000000000000 1.0000000000000000 0.0000000000000000
0.0000000000000000 1.0000000000000000 0.0000000000000000
0.0000000000000000 1.0000000000000000 0.0000000000000000
0.0000000000000000 1.0000000000000000 0.0000000000000000
0.0000000000000000 1.0000000000000000 0.0000000000000000
0.0000000000000000 1.0000000000000000 0.0000000000000000
0.0000000000000000 1.0000000000000000 0.0000000000000000
0.0000000000000000 1.0000000000000000 0.0000000000000000
0.0000000000000000 1.0000000000000000 0.0000000000000000
0.0000000000000000 1.0000000000000000 0.0000000000000000
0.0000000000000000 1.0000000000000000 0.0000000000000000
0.0000000000000000 1.0000000000000000 0.0000000000000000
0.0000000000000000 1.0000000000000000 0.0000000000000000
0.0000000000000000 1.0000000000000000 0.0000000000000000
0.0000000000000000 1.0000000000000000 0.0000000000000000
0.0000000000000000 1.0000000000000000 0.0000000000000000
0.0000000000000000 1.0000000000000000 0.0000000000000000
0.0000000000000000 1.0000000000000000 0.0000000000000000
0.0000000000000000 1.0000000000000000 0.0000000000000000
0.0000000000000000 1.0000000000000000 0.0000000000000000
0.0000000000000000 1.0000000000000000 0.0000000000000000
0.0000000000000000 1.0000000000000000 0.0000000000000000
0.0000000000000000 1.0000000000000000 0.0000000000000000
0.0000000000000000 1.0000000000000000 0.0000000000000000
0.0000000000000000 1.0000000000000000 0.0000000000000000
0.0000000000000000 1.0000000000000000 0.0000000000000000
0.0000000000000000 1.0000000000000000 0.0000000000000000
0.0000000000000000 1.0000000000000000 0.0000000000000000
0.0000000000000000 1.0000000000000000 0.0000000000000000
0.0000000000000000 1.0000000000000000 0.0000000000000000
0.0000000000000000 1.0000000000000000 0.0000000000000000
0.0000000000000000 1.0000000000000000 0.0000000000000000
0.0000000000000000 1.0000000000000000 0.0000000000000000
0.0000000000000000 1.0000000000000000 0.0000000000000000
0.0000000000000000 1.0000000000000000 0.0000000000000000
0.0000000000000000 1.0000000000000000 0.0000000000000000
0.0000000000000000 1.0000000000000000 0.0000000000000000
0.0000000000000000 1.0000000000000000 0.0000000000000000
0.0000000000000000 1.0000000000000000 0.0000000000000000
0.0000000000000000 1.0000000000000000 0.0000000000000000
0.0000000000000000 1.0000000000000000 0.0000000000000000
0.0000000000000000 1.0000000000000000 0.0000000000000000
0.0000000000000000 1.0000000000000000 0.0000000000000000
0.0000000000000000 1.0000000000000000 0.0000000000000000
0.0000000000000000 1.0000000000000000 0.0000000000000000
0.0000000000000000 1.0000000000000000 0.0000000000000000
0.0000000000000000 1.0000000000000000 0.0000000000000000
0.0000000000000000 1.0000000000000000 0.0000000000000000
0.0000000000000000 1.0000000000000000 0.0000000000000000
0.0000000000000000 1.0000000000000000 0.0000000000000000
0.0000000000000000 1.0000000000000000 0.0000000000000000
0.0000000000000000 1.0000000000000000 0.0000000000000000
0.0000000000000000 1.0000000000000000 0.0000000000000000
0.0000000000000000 1.0000000000000000 0.0000000000000000
0.0000000000000000 1.0000000000000000 0.0000000000000000
0.0000000000000000 1.0000000000000000 0.0000000000000000
0.0000000000000000 1.0000000000000000 0.0000000000000000
0.0000000000000000 1.0000000000000000 0.0000000000000000
0.0000000000000000 1.0000000000000000 0.0000000000000000
0.0000000000000000 1.0000000000000000 0.0000000000000000
0.0000000000000000 1.0000000000000000 0.0000000000000000
0.0000000000000000 1.0000000000000000 0.0000000000000000
0.0000000000000000 1.0000000000000000 0.0000000000000000
0.0000000000000000 1.0000000000000000 0.0000000000000000
0.0000000000000000 1.0000000000000000 0.0000000000000000
0.0000000000000000 1.0000000000000000 0.0000000000000000
0.0000000000000000 1.0000000000000000 0.0000000000000000
0.0000000000000000 1.0000000000000000 0.0000000000000000
0.0000000000000000 1.0000000000000000 0.0000000000000000
0.0000000000000000 1.0000000000000000 0.0000000000000000
0.0000000000000000 1.0000000000000000 0.0000000000000000
0.0000000000000000 1.0000000000000000 0.0000000000000000
0.0000000000000000 1.0000000000000000 0.0000000000000000
0.0000000000000000 1.0000000000000000 0.0000000000000000
0.0000000000000000 1.0000000000000000 0.0000000000000000
0.0000000000000000 1.0000000000000000 0.0000000000000000
0.0000000000000000 1.0000000000000000 0.0000000000000000
0.0000000000000000 1.0000000000000000 0.0000000000000000
0.0000000000000000 1.0000000000000000 0.0000000000000000
0.0000000000000000 1.0000000000000000 0.0000000000000000
0.0000000000000000 1.0000000000000000 0.0000000000000000
0.0000000000000000 1.0000000000000000 0.0000000000000000
0.0000000000000000 1.0000000000000000 0.0000000000000000
0.0000000000000000 1.0000000000000000 0.0000000000000000
0.0000000000000000 1.0000000000000000 0.0000000000000000
0.0000000000000000 1.0000000000000000 0.0000000000000000
0.0000000000000000 1.0000000000000000 0.0000000000000000
0.0000000000000000 1.0000000000000000 0.0000000000000000
0.0000000000000000 1.0000000000000000 0.0000000000000000
0.0000000000000000 1.0000000000000000 0.0000000000000000
0.0000000000000000 1.0000000000000000 0.0000000000000000
0.0000000000000000 1.0000000000000000 0.0000000000000000
0.0000000000000000 1.0000000000000000 0.0000000000000000

SCALARS f:fiber_s double 3
LOOKUP_TABLE default
1.0000000000000000 0.0000000000000000 0.0000000000000000
1.0000000000000000 0.0000000000000000 0.0000000000000000
1.0000000000000000 0.0000000000000000 0.0000000000000000
1.0000000000000000 0.0000000000000000 0.0000000000000000
1.0000000000000000 0.0000000000000000 0.0000000000000000
1.0000000000000000 0.0000000000000000 0.0000000000000000
1.0000000000000000 0.0000000000000000 0.0000000000000000
1.0000000000000000 0.0000000000000000 0.0000000000000000
1.0000000000000000 0.0000000000000000 0.0000000000000000
1.0000000000000000 0.0000000000000000 0.0000000000000000
1.0000000000000000 0.0000000000000000 0.0000000000000000
1.0000000000000000 0.0000000000000000 0.0000000000000000
1.0000000000000000 0.0000000000000000 0.0000000000000000
1.0000000000000000 0.0000000000000000 0.0000000000000000
1.0000000000000000 0.0000000000000000 0.0000000000000000
1.0000000000000000 0.0000000000000000 0.0000000000000000
1.0000000000000000 0.0000000000000000 0.0000000000000000
1.0000000000000000 0.0000000000000000 0.0000000000000000
1.0000000000000000 0.0000000000000000 0.0000000000000000
1.0000000000000000 0.0000000000000000 0.0000000000000000
1.0000000000000000 0.0000000000000000 0.0000000000000000
1.0000000000000000 0.0000000000000000 0.0000000000000000
1.0000000000000000 0.0000000000000000 0.0000000000000000
1.0000000000000000 0.0000000000000000 0.0000000000000000
1.0000000000000000 0.0000000000000000 0.0000000000000000
1.0000000000000000 0.0000000000000000 0.0000000000000000
1.0000000000000000 0.0000000000000000 0.0000000000000000
1.0000000000000000 0.0000000000000000 0.0000000000000000
1.0000000000000000 0.0000000000000000 0.0000000000000000
1.0000000000000000 0.0000000000000000 0.0000000000000000
1.0000000000000000 0.0000000000000000 0.0000000000000000
1.0000000000000000 0.0000000000000000 0.0000000000000000
1.0000000000000000 0.0000000000000000 0.0000000000000000
1.0000000000000000 0.0000000000000000 0.0000000000000000
1.0000000000000000 0.0000000000000000 0.0000000000000000
1.0000000000000000 0.0000000000000000 0.0000000000000000
1.0000000000000000 0.0000000000000000 0.0000000000000000
1.0000000000000000 0.0000000000000000 0.0000000000000000
1.0000000000000000 0.0000000000000000 0.0000000000000000
1.0000000000000000 0.0000000000000000 0.0000000000000000
1.0000000000000000 0.0000000000000000 0.0000000000000000
1.0000000000000000 0.0000000000000000 0.0000000000000000
1.0000000000000000 0.0000000000000000 0.0000000000000000
1.0000000000000000 0.0000000000000000 0.0000000000000000
1.0000000000000000 0.0000000000000000 0.0000000000000000
1.0000000000000000 0.0000000000000000 0.0000000000000000
1.0000000000000000 0.0000000000000000 0.0000000000000000
1.0000000000000000 0.0000000000000000 0.0000000000000000
1.0000000000000000 0.0000000000000000 0.0000000000000000
1.0000000000000000 0.0000000000000000 0.0000000000000000
1.0000000000000000 0.0000000000000000 0.0000000000000000
1.0000000000000000 0.0000000000000000 0.0000000000000000
1.0000000000000000 0.0000000000000000 0.0000000000000000
1.0000000000000000 0.0000000000000000 0.0000000000000000
1.0000000000000000 0.0000000000000000 0.0000000000000000
1.0000000000000000 0.0000000000000000 0.0000000000000000
1.0000000000000000 0.0000000000000000 0.0000000000000000
1.0000000000000000 0.0000000000000000 0.0000000000000000
1.0000000000000000 0.0000000000000000 0.0000000000000000
1.0000000000000000 0.0000000000000000 0.0000000000000000
1.0000000000000000 0.0000000000000000 0.0000000000000000
1.0000000000000000 0.0000000000000000 0.0000000000000000
1.0000000000000000 0.0000000000000000 0.0000000000000000
1.0000000000000000 0.0000000000000000 0.0000000000000000
1.0000000000000000 0.0000000000000000 0.0000000000000000
1.0000000000000000 0.0000000000000000 0.0000000000000000
1.0000000000000000 0.0000000000000000 0.0000000000000000
1.0000000000000000 0.0000000000000000 0.0000000000000000
1.0000000000000000 0.0000000000000000 0.0000000000000000
1.0000000000000000 0.0000000000000000 0.0000000000000000
1.0000000000000000 0.0000000000000000 0.0000000000000000
1.0000000000000000 0.0000000000000000 0.0000000000000000
1.0000000000000000 0.0000000000000000 0.0000000000000000
1.0000000000000000 0.0000000000000000 0.0000000000000000
1.0000000000000000 0.0000000000000000 0.0000000000000000
1.0000000000000000 0.0000000000000000 0.0000000000000000
1.0000000000000000 0.0000000000000000 0.0000000000000000
1.0000000000000000 0.0000000000000000 0.0000000000000000
1.0000000000000000 0.0000000000000000 0.0000000000000000
1.0000000000000000 0.0000000000000000 0.0000000000000000
1.0000000000000000 0.0000000000000000 0.0000000000000000
1.0000000000000000 0.0000000000000000 0.0000000000000000
1.0000000000000000 0.0000000000000000 0.0000000000000000
1.0000000000000000 0.0000000000000000 0.0000000000000000
1.0000000000000000 0.0000000000000000 0.0000000000000000
1.0000000000000000 0.0000000000000000 0.0000000000000000
1.0000000000000000 0.0000000000000000 0.0000000000000000
1.0000000000000000 0.0000000000000000 0.0000000000000000
1.0000000000000000 0.0000000000000000 0.0000000000000000
1.0000000000000000 0.0000000000000000 0.0000000000000000
1.0000000000000000 0.0000000000000000 0.0000000000000000
1.0000000000000000 0.0000000000000000 0.0000000000000000
1.0000000000000000 0.0000000000000000 0.0000000000000000
1.0000000000000000 0.0000000000000000 0.0000000000000000
1.0000000000000000 0.0000000000000000 0.0000000000000000
1.0000000000000000 0.0000000000000000 0.0000000000000000
1.0000000000000000 0.0000000000000000 0.0000000000000000
1.0000000000000000 0.0000000000000000 0.0000000000000000
1.0000000000000000 0.0000000000000000 0.0000000000000000
1.0000000000000000 0.0000000000000000 0.0000000000000000
1.0000000000000000 0.0000000000000000 0.0000000000000000
1.0000000000000000 0.0000000000000000 0.0000000000000000
1.0000000000000000 0.0000000000000000 0.0000000000000000
1.0000000000000000 0.0000000000000000 0.0000000000000000
1.0000000000000000 0.0000000000000000 0.0000000000000000
1.0000000000000000 0.0000000000000000 0.0000000000000000
1.0000000000000000 0.0000000000000000 0.0000000000000000
1.0000000000000000 0.0000000000000000 0.0000000000000000
1.0000000000000000 0.0000000000000000 0.0000000000000000
1.0000000000000000 0.0000000000000000 0.0000000000000000
1.0000000000000000 0.0000000000000000 0.0000000000000000
1.0000000000000000 0.0000000000000000 0.0000000000000000
1.0000000000000000 0.0000000000000000 0.0000000000000000
1.0000000000000000 0.0000000000000000 0.0000000000000000
1.0000000000000000 0.0000000000000000 0.0000000000000000
1.0000000000000000 0.0000000000000000 0.0000000000000000
1.0000000000000000 0.0000000000000000 0.0000000000000000
1.0000000000000000 0.0000000000000000 0.0000000000000000
1.0000000000000000 0.0000000000000000 0.0000000000000000
1.0000000000000000 0.0000000000000000 0.0000000000000000
1.0000000000000000 0.0000000000000000 0.0000000000000000
1.0000000000000000 0.0000000000000000 0.0000000000000000
1.0000000000000000 0.0000000000000000 0.0000000000000000
1.0000000000000000 0.0000000000000000 0.0000000000000000
1.0000000000000000 0.0000000000000000 0.0000000000000000
1.0000000000000000 0.0000000000000000 0.0000000000000000
1.0000000000000000 0.0000000000000000 0.0000000000000000
1.0000000000000000 0.0000000000000000 0.0000000000000000
1.0000000000000000 0.0000000000000000 0.0000000000000000
1.0000000000000000 0.0000000000000000 0.0000000000000000
1.0000000000000000 0.0000000000000000 0.0000000000000000
1.0000000000000000 0.0000000000000000 0.0000000000000000
1.0000000000000000 0.0000000000000000 0.0000000000000000
1.0000000000000000 0.0000000000000000 0.0000000000000000
1.0000000000000000 0.0000000000000000 0.0000000000000000
1.0000000000000000 0.0000000000000000 0.0000000000000000
1.0000000000000000 0.0000000000000000 0.0000000000000000
1.0000000000000000 0.0000000000000000 0.0000000000000000
1.0000000000000000 0.0000000000000000 0.0000000000000000
1.0000000000000000 0.0000000000000000 0.0000000000000000
1.0000000000000000 0.0000000000000000 0.0000000000000000
1.0000000000000000 0.0000000000000000 0.0000000000000000
1.0000000000000000 0.0000000000000000 0.0000000000000000
1.0000000000000000 0.0000000000000000 0.0000000000000000
1.0000000000000000 0.0000000000000000 0.0000000000000000
1.0000000000000000 0.0000000000000000 0.0000000000000000
1.0000000000000000 0.0000000000000000 0.0000000000000000
1.0000000000000000 0.0000000000000000 0.0000000000000000
1.0000000000000000 0.0000000000000000 0.0000000000000000
1.0000000000000000 0.0000000000000000 0.0000000000000000
1.0000000000000000 0.0000000000000000 0.0000000000000000
1.0000000000000000 0.0000000000000000 0.0000000000000000
1.0000000000000000 0.0000000000000000 0.0000000000000000
1.0000000000000000 0.0000000000000000 0.0000000000000000
1.0000000000000000 0.0000000000000000 0.0000000000000000
1.0000000000000000 0.0000000000000000 0.0000000000000000
1.0000000000000000 0.0000000000000000 0.0000000000000000
1.0000000000000000 0.0000000000000000 0.0000000000000000
1.0000000000000000 0.0000000000000000 0.0000000000000000
1.0000000000000000 0.0000000000000000 0.0000000000000000
1.0000000000000000 0.0000000000000000 0.0000000000000000
1.0000000000000000 0.0000000000000000 0.0000000000000000
1.0000000000000000 0.0000000000000000 0.0000000000000000
1.0000000000000000 0.0000000000000000 0.0000000000000000
1.0000000000000000 0.0000000000000000 0.0000000000000000
1.0000000000000000 0.0000000000000000 0.0000000000000000
1.0000000000000000 0.0000000000000000 0.0000000000000000
1.0000000000000000 0.0000000000000000 0.0000000000000000
1.0000000000000000 0.0000000000000000 0.0000000000000000
1.0000000000000000 0.0000000000000000 0.0000000000000000
1.0000000000000000 0.0000000000000000 0.0000000000000000
1.0000000000000000 0.0000000000000000 0.0000000000000000
1.0000000000000000 0.0000000000000000 0.0000000000000000
1.0000000000000000 0.0000000000000000 0.0000000000000000
1.0000000000000000 0.0000000000000000 0.0000000000000000
1.0000000000000000 0.0000000000000000 0.0000000000000000
1.0000000000000000 0.0000000000000000 0.0000000000000000
1.0000000000000000 0.0000000000000000 0.0000000000000000
1.0000000000000000 0.0000000000000000 0.0000000000000000
1.0000000000000000 0.0000000000000000 0.0000000000000000
1.0000000000000000 0.0000000000000000 0.0000000000000000
1.0000000000000000 0.0000000000000000 0.0000000000000000
1.0000000000000000 0.0000000000000000 0.0000000000000000
1.0000000000000000 0.0000000000000000 0.0000000000000000
1.0000000000000000 0.0000000000000000 0.0000000000000000
1.0000000000000000 0.0000000000000000 0.0000000000000000
1.0000000000000000 0.0000000000000000 0.0000000000000000
1.0000000000000000 0.0000000000000000 0.0000000000000000
1.0000000000000000 0.0000000000000000 0.0000000000000000
1.0000000000000000 0.0000000000000000 0.0000000000000000
1.0000000000000000 0.0000000000000000 0.0000000000000000
1.0000000000000000 0.0000000000000000 0.0000000000000000
1.0000000000000000 0.0000000000000000 0.0000000000000000
1.0000000000000000 0.0000000000000000 0.0000000000000000
1.0000000000000000 0.0000000000000000 0.0000000000000000
1.0000000000000000 0.0000000000000000 0.0000000000000000
1.0000000000000000 0.0000000000000000 0.0000000000000000
1.0000000000000000 0.0000000000000000 0.0000000000000000
1.0000000000000000 0.0000000000000000 0.0000000000000000
1.0000000000000000 0.0000000000000000 0.0000000000000000
1.0000000000000000 0.0000000000000000 0.0000000000000000
1.0000000000000000 0.0000000000000000 0.0000000000000000
1.0000000000000000 0.0000000000000000 0.0000000000000000
1.0000000000000000 0.0000000000000000 0.0000000000000000
1.0000000000000000 0.0000000000000000 0.0000000000000000
1.0000000000000000 0.0000000000000000 0.0000000000000000
1.0000000000000000 0.0000000000000000 0.0000000000000000
1.0000000000000000 0.0000000000000000 0.0000000000000000
1.0000000000000000 0.0000000000000000 0.0000000000000000
1.0000000000000000 0.0000000000000000 0.0000000000000000
1.0000000000000000 0.0000000000000000 0.0000000000000000
1.0000000000000000 0.0000000000000000 0.0000000000000000
1.0000000000000000 0.0000000000000000 0.0000000000000000
1.0000000000000000 0.0000000000000000 0.0000000000000000
1.0000000000000000 0.0000000000000000 0.0000000000000000
1.0000000000000000 0.0000000000000000 0.0000000000000000
1.0000000000000000 0.0000000000000000 0.0000000000000000
1.0000000000000000 0.0000000000000000 0.0000000000000000
1.0000000000000000 0.0000000000000000 0.0000000000000000
1.0000000000000000 0.0000000000000000 0.0000000000000000
1.0000000000000000 0.0000000000000000 0.0000000000000000
1.0000000000000000 0.0000000000000000 0.0000000000000000
1.0000000000000000 0.0000000000000000 0.0000000000000000
1.0000000000000000 0.0000000000000000 0.0000000000000000
1.0000000000000000 0.0000000000000000 0.0000000000000000
1.0000000000000000 0.0000000000000000 0.0000000000000000
1.0000000000000000 0.0000000000000000 0.0000000000000000
1.0000000000000000 0.0000000000000000 0.0000000000000000
1.0000000000000000 0.0000000000000000 0.0000000000000000
1.0000000000000000 0.0000000000000000 0.0000000000000000
1.0000000000000000 0.0000000000000000 0.0000000000000000
1.0000000000000000 0.0000000000000000 0.0000000000000000
1.0000000000000000 0.0000000000000000 0.0000000000000000
1.0000000000000000 0.0000000000000000 0.0000000000000000
1.0000000000000000 0.0000000000000000 0.0000000000000000
1.0000000000000000 0.0000000000000000 0.0000000000000000
1.0000000000000000 0.0000000000000000 0.0000000000000000
1.0000000000000000 0.0000000000000000 0.0000000000000000
1.0000000000000000 0.0000000000000000 0.0000000000000000
1.0000000000000000 0.0000000000000000 0.0000000000000000
1.0000000000000000 0.0000000000000000 0.0000000000000000
1.0000000000000000 0.0000000000000000 0.0000000000000000
1.0000000000000000 0.0000000000000000 0.0000000000000000
1.0000000000000000 0.0000000000000000 0.0000000000000000
1.0000000000000000 0.0000000000000000 0.0000000000000000
1.0000000000000000 0.0000000000000000 0.0000000000000000
1.0000000000000000 0.0000000000000000 0.0000000000000000
1.0000000000000000 0.0000000000000000 0.0000000000000000
1.0000000000000000 0.0000000000000000 0.0000000000000000
1.0000000000000000 0.0000000000000000 0.0000000000000000
1.0000000000000000 0.0000000000000000 0.0000000000000000
1.0000000000000000 0.0000000000000000 0.0000000000000000
1.0000000000000000 0.0000000000000000 0.0000000000000000
1.0000000000000000 0.0000000000000000 0.0000000000000000
1.0000000000000000 0.0000000000000000 0.0000000000000000
1.0000000000000000 0.0000000000000000 0.0000000000000000
1.0000000000000000 0.0000000000000000 0.0000000000000000
1.0000000000000000 0.0000000000000000 0.0000000000000000
1.0000000000000000 0.0000000000000000 0.0000000000000000
1.0000000000000000 0.0000000000000000 0.0000000000000000
1.0000000000000000 0.0000000000000000 0.0000000000000000
1.0000000000000000 0.0000000000000000 0.0000000000000000
1.0000000000000000 0.0000000000000000 0.0000000000000000
1.0000000000000000 0.0000000000000000 0.0000000000000000
1.0000000000000000 0.0000000000000000 0.0000000000000000
1.0000000000000000 0.0000000000000000 0.0000000000000000
1.0000000000000000 0.0000000000000000 0.0000000000000000
1.0000000000000000 0.0000000000000000 0.0000000000000000
1.0000000000000000 0.0000000000000000 0.0000000000000000
1.0000000000000000 0.0000000000000000 0.0000000000000000
1.0000000000000000 0.0000000000000000 0.0000000000000000
1.0000000000000000 0.0000000000000000 0.0000000000000000
1.0000000000000000 0.0000000000000000 0.0000000000000000
1.0000000000000000 0.0000000000000000 0.0000000000000000
1.0000000000000000 0.0000000000000000 0.0000000000000000
1.0000000000000000 0.0000000000000000 0.0000000000000000
1.0000000000000000 0.0000000000000000 0.0000000000000000
1.0000000000000000 0.0000000000000000 0.0000000000000000
1.0000000000000000 0.0000000000000000 0.0000000000000000
1.0000000000000000 0.0000000000000000 0.0000000000000000
1.0000000000000000 0.0000000000000000 0.0000000000000000
1.0000000000000000 0.0000000000000000 0.0000000000000000
1.0000000000000000 0.0000000000000000 0.0000000000000000
1.0000000000000000 0.0000000000000000 0.0000000000000000
1.0000000000000000 0.0000000000000000 0.0000000000000000
1.0000000000000000 0.0000000000000000 0.0000000000000000
1.0000000000000000 0.0000000000000000 0.0000000000000000
1.0000000000000000 0.0000000000000000 0.0000000000000000
1.0000000000000000 0.0000000000000000 0.0000000000000000
1.0000000000000000 0.0000000000000000 0.0000000000000000
1.0000000000000000 0.0000000000000000 0.0000000000000000
1.0000000000000000 0.0000000000000000 0.0000000000000000
1.0000000000000000 0.0000000000000000 0.0000000000000000
1.0000000000000000 0.0000000000000000 0.0000000000000000
1.0000000000000000 0.0000000000000000 0.0000000000000000
1.0000000000000000 0.0000000000000000 0.0000000000000000
1.0000000000000000 0.0000000000000000 0.0000000000000000
1.0000000000000000 0.0000000000000000 0.0000000000000000
1.0000000000000000 0.0000000000000000 0.0000000000000000
1.0000000000000000 0.0000000000000000 0.0000000000000000
1.0000000000000000 0.0000000000000000 0.0000000000000000
1.0000000000000000 0.0000000000000000 0.0000000000000000
1.0000000000000000 0.0000000000000000 0.0000000000000000
1.0000000000000000 0.0000000000000000 0.0000000000000000
1.0000000000000000 0.0000000000000000 0.0000000000000000
1.0000000000000000 0.0000000000000000 0.0000000000000000
1.0000000000000000 0.0000000000000000 0.0000000000000000
1.0000000000000000 0.0000000000000000 0.0000000000000000
1.0000000000000000 0.0000000000000000 0.0000000000000000
1.0000000000000000 0.0000000000000000 0.0000000000000000
1.0000000000000000 0.0000000000000000 0.0000000000000000
1.0000000000000000 0.0000000000000000 0.0000000000000000
1.0000000000000000 0.0000000000000000 0.0000000000000000
1.0000000000000000 0.0000000000000000 0.0000000000000000
1.0000000000000000 0.0000000000000000 0.0000000000000000
1.0000000000000000 0.0000000000000000 0.0000000000000000
1.0000000000000000 0.0000000000000000 0.0000000000000000
1.0000000000000000 0.0000000000000000 0.0000000000000000
1.0000000000000000 0.0000000000000000 0.0000000000000000
1.0000000000000000 0.0000000000000000 0.0000000000000000
1.0000000000000000 0.0000000000000000 0.0000000000000000
1.0000000000000000 0.0000000000000000 0.0000000000000000
1.0000000000000000 0.0000000000000000 0.0000000000000000
1.0000000000000000 0.0000000000000000 0.0000000000000000
1.0000000000000000 0.0000000000000000 0.0000000000000000
1.0000000000000000 0.0000000000000000 0.0000000000000000
1.0000000000000000 0.0000000000000000 0.0000000000000000
1.0000000000000000 0.0000000000000000 0.0000000000000000
1.0000000000000000 0.0000000000000000 0.0000000000000000
1.0000000000000000 0.0000000000000000 0.0000000000000000
1.0000000000000000 0.0000000000000000 0.0000000000000000
1.0000000000000000 0.0000000000000000 0.0000000000000000
1.0000000000000000 0.0000000000000000 0.0000000000000000
1.0000000000000000 0.0000000000000000 0.0000000000000000
1.0000000000000000 0.0000000000000000 0.0000000000000000
1.0000000000000000 0.0000000000000000 0.0000000000000000
1.0000000000000000 0.0000000000000000 0.0000000000000000
1.0000000000000000 0.0000000000000000 0.0000000000000000
1.0000000000000000 0.0000000000000000 0.0000000000000000
1.0000000000000000 0.0000000000000000 0.0000000000000000
1.0000000000000000 0.0000000000000000 0.0000000000000000
1.0000000000000000 0.0000000000000000 0.0000000000000000
1.0000000000000000 0.0000000000000000 0.0000000000000000
1.0000000000000000 0.0000000000000000 0.0000000000000000
1.0000000000000000 0.0000000000000000 0.0000000000000000
1.0000000000000000 0.0000000000000000 0.0000000000000000
1.0000000000000000 0.0000000000000000 0.0000000000000000
1.0000000000000000 0.0000000000000000 0.0000000000000000
1.0000000000000000 0.0000000000000000 0.0000000000000000
1.0000000000000000 0.0000000000000000 0.0000000000000000
1.0000000000000000 0.0000000000000000 0.0000000000000000
1.0000000000000000 0.0000000000000000 0.0000000000000000
1.0000000000000000 0.0000000000000000 0.0000000000000000
1.0000000000000000 0.0000000000000000 0.0000000000000000
1.0000000000000000 0.0000000000000000 0.0000000000000000
1.0000000000000000 0.0000000000000000 0.0000000000000000
1.0000000000000000 0.0000000000000000 0.0000000000000000
1.0000000000000000 0.0000000000000000 0.0000000000000000
1.0000000000000000 0.0000000000000000 0.0000000000000000
1.0000000000000000 0.0000000000000000 0.0000000000000000
1.0000000000000000 0.0000000000000000 0.0000000000000000
1.0000000000000000 0.0000000000000000 0.0000000000000000
1.0000000000000000 0.0000000000000000 0.0000000000000000
1.0000000000000000 0.0000000000000000 0.0000000000000000
1.0000000000000000 0.0000000000000000 0.0000000000000000
1.0000000000000000 0.0000000000000000 0.0000000000000000
1.0000000000000000 0.0000000000000000 0.0000000000000000
1.0000000000000000 0.0000000000000000 0.0000000000000000
1.0000000000000000 0.0000000000000000 0.0000000000000000
1.0000000000000000 0.0000000000000000 0.0000000000000000
1.0000000000000000 0.0000000000000000 0.0000000000000000
1.0000000000000000 0.0000000000000000 0.0000000000000000
1.0000000000000000 0.0000000000000000 0.0000000000000000
1.0000000000000000 0.0000000000000000 0.0000000000000000
1.0000000000000000 0.0000000000000000 0.0000000000000000
1.0000000000000000 0.0000000000000000 0.0000000000000000
1.0000000000000000 0.0000000000000000 0.0000000000000000
1.0000000000000000 0.0000000000000000 0.0000000000000000
1.0000000000000000 0.0000000000000000 0.0000000000000000
1.0000000000000000 0.0000000000000000 0.0000000000000000
1.0000000000000000 0.0000000000000000 0.0000000000000000
1.0000000000000000 0.0000000000000000 0.0000000000000000
1.0000000000000000 0.0000000000000000 0.0000000000000000
1.0000000000000000 0.0000000000000000 0.0000000000000000
1.0000000000000000 0.0000000000000000 0.0000000000000000
1.0000000000000000 0.0000000000000000 0.0000000000000000
1.0000000000000000 0.0000000000000000 0.0000000000000000
1.0000000000000000 0.0000000000000000 0.0000000000000000
1.0000000000000000 0.0000000000000000 0.0000000000000000
1.0000000000000000 0.0000000000000000 0.0000000000000000
1.0000000000000000 0.0000000000000000 0.0000000000000000
1.0000000000000000 0.0000000000000000 0.0000000000000000
1.0000000000000000 0.0000000000000000 0.0000000000000000
1.0000000000000000 0.0000000000000000 0.0000000000000000
1.0000000000000000 0.0000000000000000 0.0000000000000000
1.0000000000000000 0.0000000000000000 0.0000000000000000
1.0000000000000000 0.0000000000000000 0.0000000000000000
1.0000000000000000 0.0000000000000000 0.0000000000000000
1.0000000000000000 0.0000000000000000 0.0000000000000000
1.0000000000000000 0.0000000000000000 0.0000000000000000
1.0000000000000000 0.0000000000000000 0.0000000000000000
1.0000000000000000 0.0000000000000000 0.0000000000000000
1.0000000000000000 0.0000000000000000 0.0000000000000000
1.0000000000000000 0.0000000000000000 0.0000000000000000
1.0000000000000000 0.0000000000000000 0.0000000000000000
1.0000000000000000 0.0000000000000000 0.0000000000000000
1.0000000000000000 0.0000000000000000 0.0000000000000000
1.0000000000000000 0.0000000000000000 0.0000000000000000
1.0000000000000000 0.0000000000000000 0.0000000000000000
1.0000000000000000 0.0000000000000000 0.0000000000000000
1.0000000000000000 0.0000000000000000 0.0000000000000000
1.0000000000000000 0.0000000000000000 0.0000000000000000
1.0000000000000000 0.0000000000000000 0.0000000000000000
1.0000000000000000 0.0000000000000000 0.0000000000000000
1.0000000000000000 0.0000000000000000 0.0000000000000000
1.0000000000000000 0.0000000000000000 0.0000000000000000
1.0000000000000000 0.0000000000000000 0.0000000000000000
1.0000000000000000 0.0000000000000000 0.0000000000000000
1.0000000000000000 0.0000000000000000 0.0000000000000000
1.0000000000000000 0.0000000000000000 0.0000000000000000
1.0000000000000000 0.0000000000000000 0.0000000000000000
1.0000000000000000 0.0000000000000000 0.0000000000000000
1.0000000000000000 0.0000000000000000 0.0000000000000000
1.0000000000000000 0.0000000000000000 0.0000000000000000
1.0000000000000000 0.0000000000000000 0.0000000000000000
1.0000000000000000 0.0000000000000000 0.0000000000000000
1.0000000000000000 0.0000000000000000 0.0000000000000000
1.0000000000000000 0.0000000000000000 0.0000000000000000
1.0000000000000000 0.0000000000000000 0.0000000000000000
1.0000000000000000 0.0000000000000000 0.0000000000000000
1.0000000000000000 0.0000000000000000 0.0000000000000000
1.0000000000000000 0.0000000000000000 0.0000000000000000
1.0000000000000000 0.0000000000000000 0.0000000000000000
1.0000000000000000 0.0000000000000000 0.0000000000000000
1.0000000000000000 0.0000000000000000 0.0000000000000000
1.0000000000000000 0.0000000000000000 0.0000000000000000
1.0000000000000000 0.0000000000000000 0.0000000000000000
1.0000000000000000 0.0000000000000000 0.0000000000000000
1.0000000000000000 0.0000000000000000 0.0000000000000000
1.0000000000000000 0.0000000000000000 0.0000000000000000
1.0000000000000000 0.0000000000000000 0.0000000000000000
1.0000000000000000 0.0000000000000000 0.0000000000000000
1.0000000000000000 0.0000000000000000 0.0000000000000000
1.0000000000000000 0.0000000000000000 0.0000000000000000
1.0000000000000000 0.0000000000000000 0.0000000000000000
1.0000000000000000 0.0000000000000000 0.0000000000000000
1.0000000000000000 0.0000000000000000 0.0000000000000000
1.0000000000000000 0.0000000000000000 0.0000000000000000
1.0000000000000000 0.0000000000000000 0.0000000000000000
1.0000000000000000 0.0000000000000000 0.0000000000000000
1.0000000000000000 0.0000000000000000 0.0000000000000000
1.0000000000000000 0.0000000000000000 0.0000000000000000
1.0000000000000000 0.0000000000000000 0.0000000000000000
1.0000000000000000 0.0000000000000000 0.0000000000000000
1.0000000000000000 0.0000000000000000 0.0000000000000000
1.0000000000000000 0.0000000000000000 0.0000000000000000
1.0000000000000000 0.0000000000000000 0.0000000000000000
1.0000000000000000 0.0000000000000000 0.0000000000000000
1.0000000000000000 0.0000000000000000 0.0000000000000000
1.0000000000000000 0.0000000000000000 0.0000000000000000
1.0000000000000000 0.0000000000000000 0.0000000000000000
1.0000000000000000 0.0000000000000000 0.0000000000000000
1.0000000000000000 0.0000000000000000 0.0000000000000000
1.0000000000000000 0.0000000000000000 0.0000000000000000
1.0000000000000000 0.0000000000000000 0.0000000000000000
1.0000000000000000 0.0000000000000000 0.0000000000000000
1.0000000000000000 0.0000000000000000 0.0000000000000000
1.0000000000000000 0.0000000000000000 0.0000000000000000
1.0000000000000000 0.0000000000000000 0.0000000000000000
1.0000000000000000 0.0000000000000000 0.0000000000000000
1.0000000000000000 0.0000000000000000 0.0000000000000000
1.0000000000000000 0.0000000000000000 0.0000000000000000
1.0000000000000000 0.0000000000000000 0.0000000000000000
1.0000000000000000 0.0000000000000000 0.0000000000000000
1.0000000000000000 0.0000000000000000 0.0000000000000000
1.0000000000000000 0.0000000000000000 0.0000000000000000
1.0000000000000000 0.0000000000000000 0.0000000000000000
1.0000000000000000 0.0000000000000000 0.0000000000000000
1.0000000000000000 0.0000000000000000 0.0000000000000000
1.0000000000000000 0.0000000000000000 0.0000000000000000
1.0000000000000000 0.0000000000000000 0.0000000000000000
1.0000000000000000 0.0000000000000000 0.0000000000000000
1.0000000000000000 0.0000000000000000 0.0000000000000000
1.0000000000000000 0.0000000000000000 0.0000000000000000
1.0000000000000000 0.0000000000000000 0.0000000000000000
1.0000000000000000 0.0000000000000000 0.0000000000000000
1.0000000000000000 0.0000000000000000 0.0000000000000000
1.0000000000000000 0.0000000000000000 0.0000000000000000
1.0000000000000000 0.0000000000000000 0.0000000000000000
1.0000000000000000 0.0000000000000000 0.0000000000000000
1.0000000000000000 0.0000000000000000 0.0000000000000000
1.0000000000000000 0.0000000000000000 0.0000000000000000
1.0000000000000000 0.0000000000000000 0.0000000000000000
1.0000000000000000 0.0000000000000000 0.0000000000000000
1.0000000000000000 0.0000000000000000 0.0000000000000000
1.0000000000000000 0.0000000000000000 0.0000000000000000
1.0000000000000000 0.0000000000000000 0.0000000000000000
1.0000000000000000 0.0000000000000000 0.0000000000000000
1.0000000000000000 0.0000000000000000 0.0000000000000000
1.0000000000000000 0.0000000000000000 0.0000000000000000
1.0000000000000000 0.0000000000000000 0.0000000000000000
1.0000000000000000 0.0000000000000000 0.0000000000000000
1.0000000000000000 0.0000000000000000 0.0000000000000000
1.0000000000000000 0.0000000000000000 0.0000000000000000
1.0000000000000000 0.0000000000000000 0.0000000000000000
1.0000000000000000 0.0000000000000000 0.0000000000000000
1.0000000000000000 0.0000000000000000 0.0000000000000000
1.0000000000000000 0.0000000000000000 0.0000000000000000
1.0000000000000000 0.0000000000000000 0.0000000000000000
1.0000000000000000 0.0000000000000000 0.0000000000000000
1.0000000000000000 0.0000000000000000 0.0000000000000000
1.0000000000000000 0.0000000000000000 0.0000000000000000
1.0000000000000000 0.0000000000000000 0.0000000000000000
1.0000000000000000 0.0000000000000000 0.0000000000000000
1.0000000000000000 0.0000000000000000 0.0000000000000000
1.0000000000000000 0.0000000000000000 0.0000000000000000
1.0000000000000000 0.0000000000000000 0.0000000000000000
1.0000000000000000 0.0000000000000000 0.0000000000000000
1.0000000000000000 0.0000000000000000 0.0000000000000000
1.0000000000000000 0.0000000000000000 0.0000000000000000
1.0000000000000000 0.0000000000000000 0.0000000000000000
1.0000000000000000 0.0000000000000000 0.0000000000000000
1.0000000000000000 0.0000000000000000 0.0000000000000000
1.0000000000000000 0.0000000000000000 0.0000000000000000
1.0000000000000000 0.0000000000000000 0.0000000000000000
1.0000000000000000 0.0000000000000000 0.0000000000000000
1.0000000000000000 0.0000000000000000 0.0000000000000000
1.0000000000000000 0.0000000000000000 0.0000000000000000
1.0000000000000000 0.0000000000000000 0.0000000000000000
1.0000000000000000 0.0000000000000000 0.0000000000000000
1.0000000000000000 0.0000000000000000 0.0000000000000000
1.0000000000000000 0.0000000000000000 0.0000000000000000
1.0000000000000000 0.0000000000000000 0.0000000000000000
1.0000000000000000 0.0000000000000000 0.0000000000000000
1.0000000000000000 0.0000000000000000 0.0000000000000000
1.0000000000000000 0.0000000000000000 0.0000000000000000
1.0000000000000000 0.0000000000000000 0.0000000000000000
1.0000000000000000 0.0000000000000000 0.0000000000000000
1.0000000000000000 0.0000000000000000 0.0000000000000000
1.0000000000000000 0.0000000000000000 0.0000000000000000
1.0000000000000000 0.0000000000000000 0.0000000000000000
1.0000000000000000 0.0000000000000000 0.0000000000000000
1.0000000000000000 0.0000000000000000 0.0000000000000000
1.0000000000000000 0.0000000000000000 0.0000000000000000
1.0000000000000000 0.0000000000000000 0.0000000000000000
1.0000000000000000 0.0000000000000000 0.0000000000000000
1.0000000000000000 0.0000000000000000 0.0000000000000000
1.0000000000000000 0.0000000000000000 0.0000000000000000
1.0000000000000000 0.0000000000000000 0.0000000000000000
1.0000000000000000 0.0000000000000000 0.0000000000000000
1.0000000000000000 0.0000000000000000 0.0000000000000000
1.0000000000000000 0.0000000000000000 0.0000000000000000
1.0000000000000000 0.0000000000000000 0.0000000000000000
1.0000000000000000 0.0000000000000000 0.0000000000000000
1.0000000000000000 0.0000000000000000 0.0000000000000000
1.0000000000000000 0.0000000000000000 0.0000000000000000
1.0000000000000000 0.0000000000000000 0.0000000000000000
1.0000000000000000 0.0000000000000000 0.0000000000000000
1.0000000000000000 0.0000000000000000 0.0000000000000000
1.0000000000000000 0.0000000000000000 0.0000000000000000
1.0000000000000000 0.0000000000000000 0.0000000000000000
1.0000000000000000 0.0000000000000000 0.0000000000000000
1.0000000000000000 0.0000000000000000 0.0000000000000000
1.0000000000000000 0.0000000000000000 0.0000000000000000
1.0000000000000000 0.0000000000000000 0.0000000000000000
1.0000000000000000 0.0000000000000000 0.0000000000000000
1.0000000000000000 0.0000000000000000 0.0000000000000000
1.0000000000000000 0.0000000000000000 0.0000000000000000
1.0000000000000000 0.0000000000000000 0.0000000000000000
1.0000000000000000 0.0000000000000000 0.0000000000000000
1.0000000000000000 0.0000000000000000 0.0000000000000000
1.0000000000000000 0.0000000000000000 0.0000000000000000
1.0000000000000000 0.0000000000000000 0.0000000000000000
1.0000000000000000 0.0000000000000000 0.0000000000000000
1.0000000000000000 0.0000000000000000 0.0000000000000000
1.0000000000000000 0.0000000000000000 0.0000000000000000
1.0000000000000000 0.0000000000000000 0.0000000000000000
1.0000000000000000 0.0000000000000000 0.0000000000000000
1.0000000000000000 0.0000000000000000 0.0000000000000000
1.0000000000000000 0.0000000000000000 0.0000000000000000
1.0000000000000000 0.0000000000000000 0.0000000000000000
1.0000000000000000 0.0000000000000000 0.0000000000000000
1.0000000000000000 0.0000000000000000 0.0000000000000000
1.0000000000000000 0.0000000000000000 0.0000000000000000
1.0000000000000000 0.0000000000000000 0.0000000000000000
1.0000000000000000 0.0000000000000000 0.0000000000000000
1.0000000000000000 0.0000000000000000 0.0000000000000000
1.0000000000000000 0.0000000000000000 0.0000000000000000
1.0000000000000000 0.0000000000000000 0.0000000000000000
1.0000000000000000 0.0000000000000000 0.0000000000000000
1.0000000000000000 0.0000000000000000 0.0000000000000000
1.0000000000000000 0.0000000000000000 0.0000000000000000
1.0000000000000000 0.0000000000000000 0.0000000000000000
1.0000000000000000 0.0000000000000000 0.0000000000000000
1.0000000000000000 0.0000000000000000 0.0000000000000000
1.0000000000000000 0.0000000000000000 0.0000000000000000
1.0000000000000000 0.0000000000000000 0.0000000000000000
1.0000000000000000 0.0000000000000000 0.0000000000000000
1.0000000000000000 0.0000000000000000 0.0000000000000000
1.0000000000000000 0.0000000000000000 0.0000000000000000
1.0000000000000000 0.0000000000000000 0.0000000000000000
1.0000000000000000 0.0000000000000000 0.0000000000000000
1.0000000000000000 0.0000000000000000 0.0000000000000000
1.0000000000000000 0.0000000000000000 0.0000000000000000
1.0000000000000000 0.0000000000000000 0.0000000000000000
1.0000000000000000 0.0000000000000000 0.0000000000000000
1.0000000000000000 0.0000000000000000 0.0000000000000000
1.0000000000000000 0.0000000000000000 0.0000000000000000
1.0000000000000000 0.0000000000000000 0.0000000000000000
1.0000000000000000 0.0000000000000000 0.0000000000000000
1.0000000000000000 0.0000000000000000 0.0000000000000000
1.0000000000000000 0.0000000000000000 0.0000000000000000
1.0000000000000000 0.0000000000000000 0.0000000000000000
1.0000000000000000 0.0000000000000000 0.0000000000000000
1.0000000000000000 0.0000000000000000 0.0000000000000000
1.0000000000000000 0.0000000000000000 0.0000000000000000
1.0000000000000000 0.0000000000000000 0.0000000000000000
1.0000000000000000 0.0000000000000000 0.0000000000000000
1.0000000000000000 0.0000000000000000 0.0000000000000000
1.0000000000000000 0.0000000000000000 0.0000000000000000
1.0000000000000000 0.0000000000000000 0.0000000000000000
1.0000000000000000 0.0000000000000000 0.0000000000000000
1.0000000000000000 0.0000000000000000 0.0000000000000000
1.0000000000000000 0.0000000000000000 0.0000000000000000
1.0000000000000000 0.0000000000000000 0.0000000000000000
1.0000000000000000 0.0000000000000000 0.0000000000000000
1.0000000000000000 0.0000000000000000 0.0000000000000000
1.0000000000000000 0.0000000000000000 0.0000000000000000
1.0000000000000000 0.0000000000000000 0.0000000000000000
1.0000000000000000 0.0000000000000000 0.0000000000000000
1.0000000000000000 0.0000000000000000 0.0000000000000000
1.0000000000000000 0.0000000000000000 0.0000000000000000
1.0000000000000000 0.0000000000000000 0.0000000000000000
1.0000000000000000 0.0000000000000000 0.0000000000000000
1.0000000000000000 0.0000000000000000 0.0000000000000000
1.0000000000000000 0.0000000000000000 0.0000000000000000
1.0000000000000000 0.0000000000000000 0.0000000000000000
1.0000000000000000 0.0000000000000000 0.0000000000000000
1.0000000000000000 0.0000000000000000 0.0000000000000000
1.0000000000000000 0.0000000000000000 0.0000000000000000
1.0000000000000000 0.0000000000000000 0.0000000000000000
1.0000000000000000 0.0000000000000000 0.0000000000000000
1.0000000000000000 0.0000000000000000 0.0000000000000000
1.0000000000000000 0.0000000000000000 0.0000000000000000
1.0000000000000000 0.0000000000000000 0.0000000000000000
1.0000000000000000 0.0000000000000000 0.0000000000000000
1.0000000000000000 0.0000000000000000 0.0000000000000000
1.0000000000000000 0.0000000000000000 0.0000000000000000
1.0000000000000000 0.0000000000000000 0.0000000000000000
1.0000000000000000 0.0000000000000000 0.0000000000000000
1.0000000000000000 0.0000000000000000 0.0000000000000000
1.0000000000000000 0.0000000000000000 0.0000000000000000
1.0000000000000000 0.0000000000000000 0.0000000000000000
1.0000000000000000 0.0000000000000000 0.0000000000000000
1.0000000000000000 0.0000000000000000 0.0000000000000000
1.0000000000000000 0.0000000000000000 0.0000000000000000
1.0000000000000000 0.0000000000000000 0.0000000000000000
1.0000000000000000 0.0000000000000000 0.0000000000000000
1.0000000000000000 0.0000000000000000 0.0000000000000000
1.0000000000000000 0.0000000000000000 0.0000000000000000
1.0000000000000000 0.0000000000000000 0.0000000000000000
1.0000000000000000 0.0000000000000000 0.0000000000000000
1.0000000000000000 0.0000000000000000 0.0000000000000000
1.0000000000000000 0.0000000000000000 0.0000000000000000
1.0000000000000000 0.0000000000000000 0.0000000000000000
1.0000000000000000 0.0000000000000000 0.0000000000000000
1.0000000000000000 0.0000000000000000 0.0000000000000000
1.0000000000000000 0.0000000000000000 0.0000000000000000
1.0000000000000000 0.0000000000000000 0.0000000000000000
1.0000000000000000 0.0000000000000000 0.0000000000000000
1.0000000000000000 0.0000000000000000 0.0000000000000000
1.0000000000000000 0.0000000000000000 0.0000000000000000
1.0000000000000000 0.0000000000000000 0.0000000000000000
1.0000000000000000 0.0000000000000000 0.0000000000000000
1.0000000000000000 0.0000000000000000 0.0000000000000000
1.0000000000000000 0.0000000000000000 0.0000000000000000
1.0000000000000000 0.0000000000000000 0.0000000000000000
1.0000000000000000 0.0000000000000000 0.0000000000000000
1.0000000000000000 0.0000000000000000 0.0000000000000000
1.0000000000000000 0.0000000000000000 0.0000000000000000
1.0000000000000000 0.0000000000000000 0.0000000000000000
1.0000000000000000 0.0000000000000000 0.0000000000000000
1.0000000000000000 0.0000000000000000 0.0000000000000000
1.0000000000000000 0.0000000000000000 0.0000000000000000
1.0000000000000000 0.0000000000000000 0.0000000000000000
1.0000000000000000 0.0000000000000000 0.0000000000000000
1.0000000000000000 0.0000000000000000 0.0000000000000000
1.0000000000000000 0.0000000000000000 0.0000000000000000
1.0000000000000000 0.0000000000000000 0.0000000000000000
1.0000000000000000 0.0000000000000000 0.0000000000000000
1.0000000000000000 0.0000000000000000 0.0000000000000000
1.0000000000000000 0.0000000000000000 0.0000000000000000
1.0000000000000000 0.0000000000000000 0.0000000000000000
1.0000000000000000 0.0000000000000000 0.0000000000000000
1.0000000000000000 0.0000000000000000 0.0000000000000000
1.0000000000000000 0.0000000000000000 0.0000000000000000
1.0000000000000000 0.0000000000000000 0.0000000000000000
1.0000000000000000 0.0000000000000000 0.0000000000000000
1.0000000000000000 0.0000000000000000 0.0000000000000000
1.0000000000000000 0.0000000000000000 0.0000000000000000
1.0000000000000000 0.0000000000000000 0.0000000000000000
1.0000000000000000 0.0000000000000000 0.0000000000000000
1.0000000000000000 0.0000000000000000 0.0000000000000000
1.0000000000000000 0.0000000000000000 0.0000000000000000
1.0000000000000000 0.0000000000000000 0.0000000000000000
1.0000000000000000 0.0000000000000000 0.0000000000000000
1.0000000000000000 0.0000000000000000 0.0000000000000000
1.0000000000000000 0.0000000000000000 0.0000000000000000
1.0000000000000000 0.0000000000000000 0.0000000000000000
1.0000000000000000 0.0000000000000000 0.0000000000000000
1.0000000000000000 0.0000000000000000 0.0000000000000000
1.0000000000000000 0.0000000000000000 0.0000000000000000
1.0000000000000000 0.0000000000000000 0.0000000000000000
1.0000000000000000 0.0000000000000000 0.0000000000000000
1.0000000000000000 0.0000000000000000 0.0000000000000000
1.0000000000000000 0.0000000000000000 0.0000000000000000
1.0000000000000000 0.0000000000000000 0.0000000000000000
1.0000000000000000 0.0000000000000000 0.0000000000000000
1.0000000000000000 0.0000000000000000 0.0000000000000000
1.0000000000000000 0.0000000000000000 0.0000000000000000
1.0000000000000000 0.0000000000000000 0.0000000000000000
1.0000000000000000 0.0000000000000000 0.0000000000000000
1.0000000000000000 0.0000000000000000 0.0000000000000000
1.0000000000000000 0.0000000000000000 0.0000000000000000
1.0000000000000000 0.0000000000000000 0.0000000000000000
1.0000000000000000 0.0000000000000000 0.0000000000000000
1.0000000000000000 0.0000000000000000 0.0000000000000000
1.0000000000000000 0.0000000000000000 0.0000000000000000
1.0000000000000000 0.0000000000000000 0.0000000000000000
1.0000000000000000 0.0000000000000000 0.0000000000000000
1.0000000000000000 0.0000000000000000 0.0000000000000000
1.0000000000000000 0.0000000000000000 0.0000000000000000
1.0000000000000000 0.0000000000000000 0.0000000000000000
1.0000000000000000 0.0000000000000000 0.0000000000000000
1.0000000000000000 0.0000000000000000 0.0000000000000000
1.0000000000000000 0.0000000000000000 0.0000000000000000
1.0000000000000000 0.0000000000000000 0.0000000000000000
1.0000000000000000 0.0000000000000000 0.0000000000000000
1.0000000000000000 0.0000000000000000 0.0000000000000000
1.0000000000000000 0.0000000000000000 0.0000000000000000
1.0000000000000000 0.0000000000000000 0.0000000000000000
1.0000000000000000 0.0000000000000000 0.0000000000000000
1.0000000000000000 0.0000000000000000 0.0000000000000000
1.0000000000000000 0.0000000000000000 0.0000000000000000
1.0000000000000000 0.0000000000000000 0.0000000000000000
1.0000000000000000 0.0000000000000000 0.0000000000000000
1.0000000000000000 0.0000000000000000 0.0000000000000000
1.0000000000000000 0.0000000000000000 0.0000000000000000
1.0000000000000000 0.0000000000000000 0.0000000000000000
1.0000000000000000 0.0000000000000000 0.0000000000000000
1.0000000000000000 0.0000000000000000 0.0000000000000000
1.0000000000000000 0.0000000000000000 0.0000000000000000
1.0000000000000000 0.0000000000000000 0.0000000000000000
1.0000000000000000 0.0000000000000000 0.0000000000000000
1.0000000000000000 0.0000000000000000 0.0000000000000000
1.0000000000000000 0.0000000000000000 0.0000000000000000
1.0000000000000000 0.0000000000000000 0.0000000000000000
1.0000000000000000 0.0000000000000000 0.0000000000000000
1.0000000000000000 0.0000000000000000 0.0000000000000000
1.0000000000000000 0.0000000000000000 0.0000000000000000
1.0000000000000000 0.0000000000000000 0.0000000000000000
1.0000000000000000 0.0000000000000000 0.0000000000000000
1.0000000000000000 0.0000000000000000 0.0000000000000000
1.0000000000000000 0.0000000000000000 0.0000000000000000
1.0000000000000000 0.0000000000000000 0.0000000000000000
1.0000000000000000 0.0000000000000000 0.0000000000000000
1.0000000000000000 0.0000000000000000 0.0000000000000000
1.0000000000000000 0.0000000000000000 0.0000000000000000
1.0000000000000000 0.0000000000000000 0.0000000000000000
1.0000000000000000 0.0000000000000000 0.0000000000000000
1.0000000000000000 0.0000000000000000 0.0000000000000000
1.0000000000000000 0.0000000000000000 0.0000000000000000
1.0000000000000000 0.0000000000000000 0.0000000000000000
1.0000000000000000 0.0000000000000000 0.0000000000000000
1.0000000000000000 0.0000000000000000 0.0000000000000000
1.0000000000000000 0.0000000000000000 0.0000000000000000
1.0000000000000000 0.0000000000000000 0.0000000000000000
1.0000000000000000 0.0000000000000000 0.0000000000000000
1.0000000000000000 0.0000000000000000 0.0000000000000000
1.0000000000000000 0.0000000000000000 0.0000000000000000
1.0000000000000000 0.0000000000000000 0.0000000000000000
1.0000000000000000 0.0000000000000000 0.0000000000000000
1.0000000000000000 0.0000000000000000 0.0000000000000000
1.0000000000000000 0.0000000000000000 0.0000000000000000
1.0000000000000000 0.0000000000000000 0.0000000000000000
1.0000000000000000 0.0000000000000000 0.0000000000000000
1.0000000000000000 0.0000000000000000 0.0000000000000000
1.0000000000000000 0.0000000000000000 0.0000000000000000
1.0000000000000000 0.0000000000000000 0.0000000000000000
1.0000000000000000 0.0000000000000000 0.0000000000000000
1.0000000000000000 0.0000000000000000 0.0000000000000000
1.0000000000000000 0.0000000000000000 0.0000000000000000
1.0000000000000000 0.0000000000000000 0.0000000000000000
1.0000000000000000 0.0000000000000000 0.0000000000000000
1.0000000000000000 0.0000000000000000 0.0000000000000000
1.0000000000000000 0.0000000000000000 0.0000000000000000
1.0000000000000000 0.0000000000000000 0.0000000000000000
1.0000000000000000 0.0000000000000000 0.0000000000000000
1.0000000000000000 0.0000000000000000 0.0000000000000000
1.0000000000000000 0.0000000000000000 0.0000000000000000
1.0000000000000000 0.0000000000000000 0.0000000000000000
1.0000000000000000 0.0000000000000000 0.0000000000000000
1.0000000000000000 0.0000000000000000 0.0000000000000000
1.0000000000000000 0.0000000000000000 0.0000000000000000
1.0000000000000000 0.0000000000000000 0.0000000000000000
1.0000000000000000 0.0000000000000000 0.0000000000000000
1.0000000000000000 0.0000000000000000 0.0000000000000000
1.0000000000000000 0.0000000000000000 0.0000000000000000
1.0000000000000000 0.0000000000000000 0.0000000000000000
1.0000000000000000 0.0000000000000000 0.0000000000000000
1.0000000000000000 0.0000000000000000 0.0000000000000000
1.0000000000000000 0.0000000000000000 0.0000000000000000
1.0000000000000000 0.0000000000000000 0.0000000000000000
1.0000000000000000 0.0000000000000000 0.0000000000000000
1.0000000000000000 0.0000000000000000 0.0000000000000000
1.0000000000000000 0.0000000000000000 0.0000000000000000
1.0000000000000000 0.0000000000000000 0.0000000000000000
1.0000000000000000 0.0000000000000000 0.0000000000000000
1.0000000000000000 0.0000000000000000 0.0000000000000000
1.0000000000000000 0.0000000000000000 0.0000000000000000
1.0000000000000000 0.0000000000000000 0.0000000000000000
1.0000000000000000 0.0000000000000000 0.0000000000000000
1.0000000000000000 0.0000000000000000 0.0000000000000000
1.0000000000000000 0.0000000000000000 0.0000000000000000
1.0000000000000000 0.0000000000000000 0.0000000000000000
1.0000000000000000 0.0000000000000000 0.0000000000000000
1.0000000000000000 0.0000000000000000 0.0000000000000000
1.0000000000000000 0.0000000000000000 0.0000000000000000
1.0000000000000000 0.0000000000000000 0.0000000000000000
1.0000000000000000 0.0000000000000000 0.0000000000000000
1.0000000000000000 0.0000000000000000 0.0000000000000000
1.0000000000000000 0.0000000000000000 0.0000000000000000
1.0000000000000000 0.0000000000000000 0.0000000000000000
1.0000000000000000 0.0000000000000000 0.0000000000000000
1.0000000000000000 0.0000000000000000 0.0000000000000000
1.0000000000000000 0.0000000000000000 0.0000000000000000
1.0000000000000000 0.0000000000000000 0.0000000000000000
1.0000000000000000 0.0000000000000000 0.0000000000000000
1.0000000000000000 0.0000000000000000 0.0000000000000000
1.0000000000000000 0.0000000000000000 0.0000000000000000
1.0000000000000000 0.0000000000000000 0.0000000000000000
1.0000000000000000 0.0000000000000000 0.0000000000000000
1.0000000000000000 0.0000000000000000 0.0000000000000000
1.0000000000000000 0.0000000000000000 0.0000000000000000
1.0000000000000000 0.0000000000000000 0.0000000000000000
1.0000000000000000 0.0000000000000000 0.0000000000000000
1.0000000000000000 0.0000000000000000 0.0000000000000000
1.0000000000000000 0.0000000000000000 0.0000000000000000
1.0000000000000000 0.0000000000000000 0.0000000000000000
1.0000000000000000 0.0000000000000000 0.0000000000000000
1.0000000000000000 0.0000000000000000 0.0000000000000000
1.0000000000000000 0.0000000000000000 0.0000000000000000
1.0000000000000000 0.0000000000000000 0.0000000000000000
1.0000000000000000 0.0000000000000000 0.0000000000000000
1.0000000000000000 0.0000000000000000 0.0000000000000000
1.0000000000000000 0.0000000000000000 0.0000000000000000
1.0000000000000000 0.0000000000000000 0.0000000000000000
1.0000000000000000 0.0000000000000000 0.0000000000000000
1.0000000000000000 0.0000000000000000 0.0000000000000000
1.0000000000000000 0.0000000000000000 0.0000000000000000
1.0000000000000000 0.0000000000000000 0.0000000000000000
1.0000000000000000 0.0000000000000000 0.0000000000000000
1.0000000000000000 0.0000000000000000 0.0000000000000000
1.0000000000000000 0.0000000000000000 0.0000000000000000
1.0000000000000000 0.0000000000000000 0.0000000000000000
1.0000000000000000 0.0000000000000000 0.0000000000000000
1.0000000000000000 0.0000000000000000 0.0000000000000000
1.0000000000000000 0.0000000000000000 0.0000000000000000
1.0000000000000000 0.0000000000000000 0.0000000000000000
1.0000000000000000 0.0000000000000000 0.0000000000000000
1.0000000000000000 0.0000000000000000 0.0000000000000000
1.0000000000000000 0.0000000000000000 0.0000000000000000
1.0000000000000000 0.0000000000000000 0.0000000000000000
1.0000000000000000 0.0000000000000000 0.0000000000000000
1.0000000000000000 0.0000000000000000 0.0000000000000000
1.0000000000000000 0.0000000000000000 0.0000000000000000
1.0000000000000000 0.0000000000000000 0.0000000000000000
1.0000000000000000 0.0000000000000000 0.0000000000000000
1.0000000000000000 0.0000000000000000 0.0000000000000000
1.0000000000000000 0.0000000000000000 0.0000000000000000
1.0000000000000000 0.0000000000000000 0.0000000000000000
1.0000000000000000 0.0000000000000000 0.0000000000000000
1.0000000000000000 0.0000000000000000 0.0000000000000000
1.0000000000000000 0.0000000000000000 0.0000000000000000
1.0000000000000000 0.0000000000000000 0.0000000000000000
1.0000000000000000 0.0000000000000000 0.0000000000000000
1.0000000000000000 0.0000000000000000 0.0000000000000000
1.0000000000000000 0.0000000000000000 0.0000000000000000
1.0000000000000000 0.0000000000000000 0.0000000000000000
1.0000000000000000 0.0000000000000000 0.0000000000000000
1.0000000000000000 0.0000000000000000 0.0000000000000000
1.0000000000000000 0.0000000000000000 0.0000000000000000
1.0000000000000000 0.0000000000000000 0.0000000000000000
1.0000000000000000 0.0000000000000000 0.0000000000000000
1.0000000000000000 0.0000000000000000 0.0000000000000000
1.0000000000000000 0.0000000000000000 0.0000000000000000
1.0000000000000000 0.0000000000000000 0.0000000000000000
1.0000000000000000 0.0000000000000000 0.0000000000000000
1.0000000000000000 0.0000000000000000 0.0000000000000000
1.0000000000000000 0.0000000000000000 0.0000000000000000
1.0000000000000000 0.0000000000000000 0.0000000000000000
1.0000000000000000 0.0000000000000000 0.0000000000000000
1.0000000000000000 0.0000000000000000 0.0000000000000000
1.0000000000000000 0.0000000000000000 0.0000000000000000
1.0000000000000000 0.0000000000000000 0.0000000000000000
1.0000000000000000 0.0000000000000000 0.0000000000000000
1.0000000000000000 0.0000000000000000 0.0000000000000000
1.0000000000000000 0.0000000000000000 0.0000000000000000
1.0000000000000000 0.0000000000000000 0.0000000000000000
1.0000000000000000 0.0000000000000000 0.0000000000000000
1.0000000000000000 0.0000000000000000 0.0000000000000000
1.0000000000000000 0.0000000000000000 0.0000000000000000
1.0000000000000000 0.0000000000000000 0.0000000000000000
1.0000000000000000 0.0000000000000000 0.0000000000000000
1.0000000000000000 0.0000000000000000 0.0000000000000000
1.0000000000000000 0.0000000000000000 0.0000000000000000
1.0000000000000000 0.0000000000000000 0.0000000000000000
1.0000000000000000 0.0000000000000000 0.0000000000000000
1.0000000000000000 0.0000000000000000 0.0000000000000000
1.0000000000000000 0.0000000000000000 0.0000000000000000
1.0000000000000000 0.0000000000000000 0.0000000000000000
1.0000000000000000 0.0000000000000000 0.0000000000000000
1.0000000000000000 0.0000000000000000 0.0000000000000000
1.0000000000000000 0.0000000000000000 0.0000000000000000
1.0000000000000000 0.0000000000000000 0.0000000000000000
1.0000000000000000 0.0000000000000000 0.0000000000000000
1.0000000000000000 0.0000000000000000 0.0000000000000000
1.0000000000000000 0.0000000000000000 0.0000000000000000
1.0000000000000000 0.0000000000000000 0.0000000000000000
1.0000000000000000 0.0000000000000000 0.0000000000000000
1.0000000000000000 0.0000000000000000 0.0000000000000000
1.0000000000000000 0.0000000000000000 0.0000000000000000
1.0000000000000000 0.0000000000000000 0.0000000000000000
1.0000000000000000 0.0000000000000000 0.0000000000000000
1.0000000000000000 0.0000000000000000 0.0000000000000000
1.0000000000000000 0.0000000000000000 0.0000000000000000
1.0000000000000000 0.0000000000000000 0.0000000000000000
1.0000000000000000 0.0000000000000000 0.0000000000000000
1.0000000000000000 0.0000000000000000 0.0000000000000000
1.0000000000000000 0.0000000000000000 0.0000000000000000
1.0000000000000000 0.0000000000000000 0.0000000000000000
1.0000000000000000 0.0000000000000000 0.0000000000000000
1.0000000000000000 0.0000000000000000 0.0000000000000000
1.0000000000000000 0.0000000000000000 0.0000000000000000
1.0000000000000000 0.0000000000000000 0.0000000000000000
1.0000000000000000 0.0000000000000000 0.0000000000000000
1.0000000000000000 0.0000000000000000 0.0000000000000000
1.0000000000000000 0.0000000000000000 0.0000000000000000
1.0000000000000000 0.0000000000000000 0.0000000000000000
1.0000000000000000 0.0000000000000000 0.0000000000000000
1.0000000000000000 0.0000000000000000 0.0000000000000000
1.0000000000000000 0.0000000000000000 0.0000000000000000
1.0000000000000000 0.0000000000000000 0.0000000000000000
1.0000000000000000 0.0000000000000000 0.0000000000000000
1.0000000000000000 0.0000000000000000 0.0000000000000000
1.0000000000000000 0.0000000000000000 0.0000000000000000
1.0000000000000000 0.0000000000000000 0.0000000000000000
1.0000000000000000 0.0000000000000000 0.0000000000000000
1.0000000000000000 0.0000000000000000 0.0000000000000000
1.0000000000000000 0.0000000000000000 0.0000000000000000
1.0000000000000000 0.0000000000000000 0.0000000000000000
1.0000000000000000 0.0000000000000000 0.0000000000000000
1.0000000000000000 0.0000000000000000 0.0000000000000000
1.0000000000000000 0.0000000000000000 0.0000000000000000
1.0000000000000000 0.0000000000000000 0.0000000000000000
1.0000000000000000 0.0000000000000000 0.0000000000000000
1.0000000000000000 0.0000000000000000 0.0000000000000000
1.0000000000000000 0.0000000000000000 0.0000000000000000
1.0000000000000000 0.0000000000000000 0.0000000000000000
1.0000000000000000 0.0000000000000000 0.0000000000000000
1.0000000000000000 0.0000000000000000 0.0000000000000000
1.0000000000000000 0.0000000000000000 0.0000000000000000
1.0000000000000000 0.0000000000000000 0.0000000000000000
1.0000000000000000 0.0000000000000000 0.0000000000000000
1.0000000000000000 0.0000000000000000 0.0000000000000000
1.0000000000000000 0.0000000000000000 0.0000000000000000
1.0000000000000000 0.0000000000000000 0.0000000000000000
1.0000000000000000 0.0000000000000000 0.0000000000000000
1.0000000000000000 0.0000000000000000 0.0000000000000000
1.0000000000000000 0.0000000000000000 0.0000000000000000
1.0000000000000000 0.0000000000000000 0.0000000000000000
1.0000000000000000 0.0000000000000000 0.0000000000000000
1.0000000000000000 0.0000000000000000 0.0000000000000000
1.0000000000000000 0.0000000000000000 0.0000000000000000
1.0000000000000000 0.0000000000000000 0.0000000000000000
1.0000000000000000 0.0000000000000000 0.0000000000000000
1.0000000000000000 0.0000000000000000 0.0000000000000000
1.0000000000000000 0.0000000000000000 0.0000000000000000
1.0000000000000000 0.0000000000000000 0.0000000000000000
1.0000000000000000 0.0000000000000000 0.0000000000000000
1.0000000000000000 0.0000000000000000 0.0000000000000000
1.0000000000000000 0.0000000000000000 0.0000000000000000
1.0000000000000000 0.0000000000000000 0.0000000000000000
1.0000000000000000 0.0000000000000000 0.0000000000000000
1.0000000000000000 0.0000000000000000 0.0000000000000000
1.0000000000000000 0.0000000000000000 0.0000000000000000
1.0000000000000000 0.0000000000000000 0.0000000000000000
1.0000000000000000 0.0000000000000000 0.0000000000000000
1.0000000000000000 0.0000000000000000 0.0000000000000000
1.0000000000000000 0.0000000000000000 0.0000000000000000
1.0000000000000000 0.0000000000000000 0.0000000000000000
1.0000000000000000 0.0000000000000000 0.0000000000000000
1.0000000000000000 0.0000000000000000 0.0000000000000000
1.0000000000000000 0.0000000000000000 0.0000000000000000
1.0000000000000000 0.0000000000000000 0.0000000000000000
1.0000000000000000 0.0000000000000000 0.0000000000000000
1.0000000000000000 0.0000000000000000 0.0000000000000000
1.0000000000000000 0.0000000000000000 0.0000000000000000
1.0000000000000000 0.0000000000000000 0.0000000000000000
1.0000000000000000 0.0000000000000000 0.0000000000000000
1.0000000000000000 0.0000000000000000 0.0000000000000000
1.0000000000000000 0.0000000000000000 0.0000000000000000
1.0000000000000000 0.0000000000000000 0.0000000000000000
1.0000000000000000 0.0000000000000000 0.0000000000000000
1.0000000000000000 0.0000000000000000 0.0000000000000000
1.0000000000000000 0.0000000000000000 0.0000000000000000
1.0000000000000000 0.0000000000000000 0.0000000000000000
1.0000000000000000 0.0000000000000000 0.0000000000000000
1.0000000000000000 0.0000000000000000 0.0000000000000000
1.0000000000000000 0.0000000000000000 0.0000000000000000
1.0000000000000000 0.0000000000000000 0.0000000000000000
1.0000000000000000 0.0000000000000000 0.0000000000000000
1.0000000000000000 0.0000000000000000 0.0000000000000000
1.0000000000000000 0.0000000000000000 0.0000000000000000
1.0000000000000000 0.0000000000000000 0.0000000000000000
1.0000000000000000 0.0000000000000000 0.0000000000000000
1.0000000000000000 0.0000000000000000 0.0000000000000000
1.0000000000000000 0.0000000000000000 0.0000000000000000
1.0000000000000000 0.0000000000000000 0.0000000000000000
1.0000000000000000 0.0000000000000000 0.0000000000000000
1.0000000000000000 0.0000000000000000 0.0000000000000000
1.0000000000000000 0.0000000000000000 0.0000000000000000
1.0000000000000000 0.0000000000000000 0.0000000000000000
1.0000000000000000 0.0000000000000000 0.0000000000000000
1.0000000000000000 0.0000000000000000 0.0000000000000000
1.0000000000000000 0.0000000000000000 0.0000000000000000
1.0000000000000000 0.0000000000000000 0.0000000000000000
1.0000000000000000 0.0000000000000000 0.0000000000000000
1.0000000000000000 0.0000000000000000 0.0000000000000000
1.0000000000000000 0.0000000000000000 0.0000000000000000
1.0000000000000000 0.0000000000000000 0.0000000000000000
1.0000000000000000 0.0000000000000000 0.0000000000000000
1.0000000000000000 0.0000000000000000 0.0000000000000000
1.0000000000000000 0.0000000000000000 0.0000000000000000
1.0000000000000000 0.0000000000000000 0.0000000000000000
1.0000000000000000 0.0000000000000000 0.0000000000000000
1.0000000000000000 0.0000000000000000 0.0000000000000000
1.0000000000000000 0.0000000000000000 0.0000000000000000
1.0000000000000000 0.0000000000000000 0.0000000000000000
1.0000000000000000 0.0000000000000000 0.0000000000000000
1.0000000000000000 0.0000000000000000 0.0000000000000000
1.0000000000000000 0.0000000000000000 0.0000000000000000
1.0000000000000000 0.0000000000000000 0.0000000000000000
1.0000000000000000 0.0000000000000000 0.0000000000000000
1.0000000000000000 0.0000000000000000 0.0000000000000000
1.0000000000000000 0.0000000000000000 0.0000000000000000
1.0000000000000000 0.0000000000000000 0.0000000000000000
1.0000000000000000 0.0000000000000000 0.0000000000000000
1.0000000000000000 0.0000000000000000 0.0000000000000000
1.0000000000000000 0.0000000000000000 0.0000000000000000
1.0000000000000000 0.0000000000000000 0.0000000000000000
1.0000000000000000 0.0000000000000000 0.0000000000000000
1.0000000000000000 0.0000000000000000 0.0000000000000000
1.0000000000000000 0.0000000000000000 0.0000000000000000
1.0000000000000000 0.0000000000000000 0.0000000000000000
1.0000000000000000 0.0000000000000000 0.0000000000000000
1.0000000000000000 0.0000000000000000 0.0000000000000000
1.0000000000000000 0.0000000000000000 0.0000000000000000
1.0000000000000000 0.0000000000000000 0.0000000000000000
1.0000000000000000 0.0000000000000000 0.0000000000000000
1.0000000000000000 0.0000000000000000 0.0000000000000000
1.0000000000000000 0.0000000000000000 0.0000000000000000
1.0000000000000000 0.0000000000000000 0.0000000000000000
1.0000000000000000 0.0000000000000000 0.0000000000000000
1.0000000000000000 0.0000000000000000 0.0000000000000000
1.0000000000000000 0.0000000000000000 0.0000000000000000
1.0000000000000000 0.0000000000000000 0.0000000000000000
1.0000000000000000 0.0000000000000000 0.0000000000000000
1.0000000000000000 0.0000000000000000 0.0000000000000000
1.0000000000000000 0.0000000000000000 0.0000000000000000
1.0000000000000000 0.0000000000000000 0.0000000000000000
1.0000000000000000 0.0000000000000000 0.0000000000000000
1.0000000000000000 0.0000000000000000 0.0000000000000000
1.0000000000000000 0.0000000000000000 0.0000000000000000
1.0000000000000000 0.0000000000000000 0.0000000000000000
1.0000000000000000 0.0000000000000000 0.0000000000000000
1.0000000000000000 0.0000000000000000 0.0000000000000000
1.0000000000000000 0.0000000000000000 0.0000000000000000
1.0000000000000000 0.0000000000000000 0.0000000000000000
1.0000000000000000 0.0000000000000000 0.0000000000000000
1.0000000000000000 0.0000000000000000 0.0000000000000000
1.0000000000000000 0.0000000000000000 0.0000000000000000
1.0000000000000000 0.0000000000000000 0.0000000000000000
1.0000000000000000 0.0000000000000000 0.0000000000000000
1.0000000000000000 0.0000000000000000 0.0000000000000000
1.0000000000000000 0.0000000000000000 0.0000000000000000
1.0000000000000000 0.0000000000000000 0.0000000000000000
1.0000000000000000 0.0000000000000000 0.0000000000000000
1.0000000000000000 0.0000000000000000 0.0000000000000000
1.0000000000000000 0.0000000000000000 0.0000000000000000
1.0000000000000000 0.0000000000000000 0.0000000000000000
1.0000000000000000 0.0000000000000000 0.0000000000000000
1.0000000000000000 0.0000000000000000 0.0000000000000000
1.0000000000000000 0.0000000000000000 0.0000000000000000
1.0000000000000000 0.0000000000000000 0.0000000000000000
1.0000000000000000 0.0000000000000000 0.0000000000000000
1.0000000000000000 0.0000000000000000 0.0000000000000000
1.0000000000000000 0.0000000000000000 0.0000000000000000
1.0000000000000000 0.0000000000000000 0.0000000000000000
1.0000000000000000 0.0000000000000000 0.0000000000000000
1.0000000000000000 0.0000000000000000 0.0000000000000000
1.0000000000000000 0.0000000000000000 0.0000000000000000
1.0000000000000000 0.0000000000000000 0.0000000000000000
1.0000000000000000 0.0000000000000000 0.0000000000000000
1.0000000000000000 0.0000000000000000 0.0000000000000000
1.0000000000000000 0.0000000000000000 0.0000000000000000
1.0000000000000000 0.0000000000000000 0.0000000000000000
1.0000000000000000 0.0000000000000000 0.0000000000000000
1.0000000000000000 0.0000000000000000 0.0000000000000000
1.0000000000000000 0.0000000000000000 0.0000000000000000
1.0000000000000000 0.0000000000000000 0.0000000000000000
1.0000000000000000 0.0000000000000000 0.0000000000000000
1.0000000000000000 0.0000000000000000 0.0000000000000000
1.0000000000000000 0.0000000000000000 0.0000000000000000
1.0000000000000000 0.0000000000000000 0.0000000000000000
1.0000000000000000 0.0000000000000000 0.0000000000000000
1.0000000000000000 0.0000000000000000 0.0000000000000000
1.0000000000000000 0.0000000000000000 0.0000000000000000
1.0000000000000000 0.0000000000000000 0.0000000000000000
1.0000000000000000 0.0000000000000000 0.0000000000000000
1.0000000000000000 0.0000000000000000 0.0000000000000000
1.0000000000000000 0.0000000000000000 0.0000000000000000
1.0000000000000000 0.0000000000000000 0.0000000000000000
1.0000000000000000 0.0000000000000000 0.0000000000000000
1.0000000000000000 0.0000000000000000 0.0000000000000000
1.0000000000000000 0.0000000000000000 0.0000000000000000
1.0000000000000000 0.0000000000000000 0.0000000000000000
1.0000000000000000 0.0000000000000000 0.0000000000000000
1.0000000000000000 0.0000000000000000 0.0000000000000000
1.0000000000000000 0.0000000000000000 0.0000000000000000
1.0000000000000000 0.0000000000000000 0.0000000000000000
1.0000000000000000 0.0000000000000000 0.0000000000000000
1.0000000000000000 0.0000000000000000 0.0000000000000000
1.0000000000000000 0.0000000000000000 0.0000000000000000
1.0000000000000000 0.0000000000000000 0.0000000000000000
1.0000000000000000 0.0000000000000000 0.0000000000000000
1.0000000000000000 0.0000000000000000 0.0000000000000000
1.0000000000000000 0.0000000000000000 0.0000000000000000
1.0000000000000000 0.0000000000000000 0.0000000000000000
1.0000000000000000 0.0000000000000000 0.0000000000000000
1.0000000000000000 0.0000000000000000 0.0000000000000000
1.0000000000000000 0.0000000000000000 0.0000000000000000
1.0000000000000000 0.0000000000000000 0.0000000000000000
1.0000000000000000 0.0000000000000000 0.0000000000000000
1.0000000000000000 0.0000000000000000 0.0000000000000000
1.0000000000000000 0.0000000000000000 0.0000000000000000
1.0000000000000000 0.0000000000000000 0.0000000000000000
1.0000000000000000 0.0000000000000000 0.0000000000000000
1.0000000000000000 0.0000000000000000 0.0000000000000000
1.0000000000000000 0.0000000000000000 0.0000000000000000
1.0000000000000000 0.0000000000000000 0.0000000000000000
1.0000000000000000 0.0000000000000000 0.0000000000000000
1.0000000000000000 0.0000000000000000 0.0000000000000000
1.0000000000000000 0.0000000000000000 0.0000000000000000
1.0000000000000000 0.0000000000000000 0.0000000000000000
1.0000000000000000 0.0000000000000000 0.0000000000000000
1.0000000000000000 0.0000000000000000 0.0000000000000000
1.0000000000000000 0.0000000000000000 0.0000000000000000
1.0000000000000000 0.0000000000000000 0.0000000000000000
1.0000000000000000 0.0000000000000000 0.0000000000000000
1.0000000000000000 0.0000000000000000 0.0000000000000000
1.0000000000000000 0.0000000000000000 0.0000000000000000
1.0000000000000000 0.0000000000000000 0.0000000000000000
1.0000000000000000 0.0000000000000000 0.0000000000000000
1.0000000000000000 0.0000000000000000 0.0000000000000000
1.0000000000000000 0.0000000000000000 0.0000000000000000
1.0000000000000000 0.0000000000000000 0.0000000000000000
1.0000000000000000 0.0000000000000000 0.0000000000000000
1.0000000000000000 0.0000000000000000 0.0000000000000000
1.0000000000000000 0.0000000000000000 0.0000000000000000
1.0000000000000000 0.0000000000000000 0.0000000000000000
1.0000000000000000 0.0000000000000000 0.0000000000000000
1.0000000000000000 0.0000000000000000 0.0000000000000000
1.0000000000000000 0.0000000000000000 0.0000000000000000
1.0000000000000000 0.0000000000000000 0.0000000000000000
1.0000000000000000 0.0000000000000000 0.0000000000000000
1.0000000000000000 0.0000000000000000 0.0000000000000000
1.0000000000000000 0.0000000000000000 0.0000000000000000
1.0000000000000000 0.0000000000000000 0.0000000000000000
1.0000000000000000 0.0000000000000000 0.0000000000000000
1.0000000000000000 0.0000000000000000 0.0000000000000000
1.0000000000000000 0.0000000000000000 0.0000000000000000
1.0000000000000000 0.0000000000000000 0.0000000000000000
1.0000000000000000 0.0000000000000000 0.0000000000000000
1.0000000000000000 0.0000000000000000 0.0000000000000000
1.0000000000000000 0.0000000000000000 0.0000000000000000
1.0000000000000000 0.0000000000000000 0.0000000000000000
1.0000000000000000 0.0000000000000000 0.0000000000000000
1.0000000000000000 0.0000000000000000 0.0000000000000000
1.0000000000000000 0.0000000000000000 0.0000000000000000
1.0000000000000000 0.0000000000000000 0.0000000000000000
1.0000000000000000 0.0000000000000000 0.0000000000000000
1.0000000000000000 0.0000000000000000 0.0000000000000000
1.0000000000000000 0.0000000000000000 0.0000000000000000
1.0000000000000000 0.0000000000000000 0.0000000000000000
1.0000000000000000 0.0000000000000000 0.0000000000000000
1.0000000000000000 0.0000000000000000 0.0000000000000000
1.0000000000000000 0.0000000000000000 0.0000000000000000
1.0000000000000000 0.0000000000000000 0.0000000000000000
1.0000000000000000 0.0000000000000000 0.0000000000000000
1.0000000000000000 0.0000000000000000 0.0000000000000000
1.0000000000000000 0.0000000000000000 0.0000000000000000
1.0000000000000000 0.0000000000000000 0.0000000000000000
1.0000000000000000 0.0000000000000000 0.0000000000000000
1.0000000000000000 0.0000000000000000 0.0000000000000000
1.0000000000000000 0.0000000000000000 0.0000000000000000
1.0000000000000000 0.0000000000000000 0.0000000000000000
1.0000000000000000 0.0000000000000000 0.0000000000000000
1.0000000000000000 0.0000000000000000 0.0000000000000000
1.0000000000000000 0.0000000000000000 0.0000000000000000
1.0000000000000000 0.0000000000000000 0.0000000000000000
1.0000000000000000 0.0000000000000000 0.0000000000000000
1.0000000000000000 0.0000000000000000 0.0000000000000000
1.0000000000000000 0.0000000000000000 0.0000000000000000
1.0000000000000000 0.0000000000000000 0.0000000000000000
1.0000000000000000 0.0000000000000000 0.0000000000000000
1.0000000000000000 0.0000000000000000 0.0000000000000000
1.0000000000000000 0.0000000000000000 0.0000000000000000
1.0000000000000000 0.0000000000000000 0.0000000000000000
1.0000000000000000 0.0000000000000000 0.0000000000000000
1.0000000000000000 0.0000000000000000 0.0000000000000000
1.0000000000000000 0.0000000000000000 0.0000000000000000
1.0000000000000000 0.0000000000000000 0.0000000000000000
1.0000000000000000 0.0000000000000000 0.0000000000000000
1.0000000000000000 0.0000000000000000 0.0000000000000000
1.0000000000000000 0.0000000000000000 0.0000000000000000
1.0000000000000000 0.0000000000000000 0.0000000000000000
1.0000000000000000 0.0000000000000000 0.0000000000000000
1.0000000000000000 0.0000000000000000 0.0000000000000000
1.0000000000000000 0.0000000000000000 0.0000000000000000
1.0000000000000000 0.0000000000000000 0.0000000000000000
1.0000000000000000 0.0000000000000000 0.0000000000000000
1.0000000000000000 0.0000000000000000 0.0000000000000000
1.0000000000000000 0.0000000000000000 0.0000000000000000
1.0000000000000000 0.0000000000000000 0.0000000000000000
1.0000000000000000 0.0000000000000000 0.0000000000000000
1.0000000000000000 0.0000000000000000 0.0000000000000000
1.0000000000000000 0.0000000000000000 0.0000000000000000
1.0000000000000000 0.0000000000000000 0.0000000000000000
1.0000000000000000 0.0000000000000000 0.0000000000000000
1.0000000000000000 0.0000000000000000 0.0000000000000000
1.0000000000000000 0.0000000000000000 0.0000000000000000
1.0000000000000000 0.0000000000000000 0.0000000000000000
1.0000000000000000 0.0000000000000000 0.0000000000000000
1.0000000000000000 0.0000000000000000 0.0000000000000000
1.0000000000000000 0.0000000000000000 0.0000000000000000
1.0000000000000000 0.0000000000000000 0.0000000000000000
1.0000000000000000 0.0000000000000000 0.0000000000000000
1.0000000000000000 0.0000000000000000 0.0000000000000000
1.0000000000000000 0.0000000000000000 0.0000000000000000
1.0000000000000000 0.0000000000000000 0.0000000000000000
1.0000000000000000 0.0000000000000000 0.0000000000000000
1.0000000000000000 0.0000000000000000 0.0000000000000000
1.0000000000000000 0.0000000000000000 0.0000000000000000
1.0000000000000000 0.0000000000000000 0.0000000000000000
1.0000000000000000 0.0000000000000000 0.0000000000000000
1.0000000000000000 0.0000000000000000 0.0000000000000000
1.0000000000000000 0.0000000000000000 0.0000000000000000
1.0000000000000000 0.0000000000000000 0.0000000000000000
1.0000000000000000 0.0000000000000000 0.0000000000000000
1.0000000000000000 0.0000000000000000 0.0000000000000000
1.0000000000000000 0.0000000000000000 0.0000000000000000
1.0000000000000000 0.0000000000000000 0.0000000000000000
1.0000000000000000 0.0000000000000000 0.0000000000000000
1.0000000000000000 0.0000000000000000 0.0000000000000000
1.0000000000000000 0.0000000000000000 0.0000000000000000
1.0000000000000000 0.0000000000000000 0.0000000000000000
1.0000000000000000 0.0000000000000000 0.0000000000000000
1.0000000000000000 0.0000000000000000 0.0000000000000000
1.0000000000000000 0.0000000000000000 0.0000000000000000
1.0000000000000000 0.0000000000000000 0.0000000000000000
1.0000000000000000 0.0000000000000000 0.0000000000000000
1.0000000000000000 0.0000000000000000 0.0000000000000000
1.0000000000000000 0.0000000000000000 0.0000000000000000
1.0000000000000000 0.0000000000000000 0.0000000000000000
1.0000000000000000 0.0000000000000000 0.0000000000000000
1.0000000000000000 0.0000000000000000 0.0000000000000000
1.0000000000000000 0.0000000000000000 0.0000000000000000
1.0000000000000000 0.0000000000000000 0.0000000000000000
1.0000000000000000 0.0000000000000000 0.0000000000000000
1.0000000000000000 0.0000000000000000 0.0000000000000000
1.0000000000000000 0.0000000000000000 0.0000000000000000
1.0000000000000000 0.0000000000000000 0.0000000000000000
1.0000000000000000 0.0000000000000000 0.0000000000000000
1.0000000000000000 0.0000000000000000 0.0000000000000000
1.0000000000000000 0.0000000000000000 0.0000000000000000
1.0000000000000000 0.0000000000000000 0.0000000000000000
1.0000000000000000 0.0000000000000000 0.0000000000000000
1.0000000000000000 0.0000000000000000 0.0000000000000000
1.0000000000000000 0.0000000000000000 0.0000000000000000
1.0000000000000000 0.0000000000000000 0.0000000000000000
1.0000000000000000 0.0000000000000000 0.0000000000000000
1.0000000000000000 0.0000000000000000 0.0000000000000000
1.0000000000000000 0.0000000000000000 0.0000000000000000
1.0000000000000000 0.0000000000000000 0.0000000000000000
1.0000000000000000 0.0000000000000000 0.0000000000000000
1.0000000000000000 0.0000000000000000 0.0000000000000000
1.0000000000000000 0.0000000000000000 0.0000000000000000
1.0000000000000000 0.0000000000000000 0.0000000000000000
1.0000000000000000 0.0000000000000000 0.0000000000000000
1.0000000000000000 0.0000000000000000 0.0000000000000000
1.0000000000000000 0.0000000000000000 0.0000000000000000
1.0000000000000000 0.0000000000000000 0.0000000000000000
1.0000000000000000 0.0000000000000000 0.0000000000000000
1.0000000000000000 0.0000000000000000 0.0000000000000000
1.0000000000000000 0.0000000000000000 0.0000000000000000
1.0000000000000000 0.0000000000000000 0.0000000000000000
1.0000000000000000 0.0000000000000000 0.0000000000000000
1.0000000000000000 0.0000000000000000 0.0000000000000000
1.0000000000000000 0.0000000000000000 0.0000000000000000
1.0000000000000000 0.0000000000000000 0.0000000000000000
1.0000000000000000 0.0000000000000000 0.0000000000000000
1.0000000000000000 0.0000000000000000 0.0000000000000000
1.0000000000000000 0.0000000000000000 0.0000000000000000
1.0000000000000000 0.0000000000000000 0.0000000000000000
1.0000000000000000 0.0000000000000000 0.0000000000000000
1.0000000000000000 0.0000000000000000 0.0000000000000000
1.0000000000000000 0.0000000000000000 0.0000000000000000
1.0000000000000000 0.0000000000000000 0.0000000000000000
1.0000000000000000 0.0000000000000000 0.0000000000000000
1.0000000000000000 0.0000000000000000 0.0000000000000000
1.0000000000000000 0.0000000000000000 0.0000000000000000
1.0000000000000000 0.0000000000000000 0.0000000000000000
1.0000000000000000 0.0000000000000000 0.0000000000000000
1.0000000000000000 0.0000000000000000 0.0000000000000000
1.0000000000000000 0.0000000000000000 0.0000000000000000
1.0000000000000000 0.0000000000000000 0.0000000000000000
1.0000000000000000 0.0000000000000000 0.0000000000000000
1.0000000000000000 0.0000000000000000 0.0000000000000000
1.0000000000000000 0.0000000000000000 0.0000000000000000
1.0000000000000000 0.0000000000000000 0.0000000000000000
1.0000000000000000 0.0000000000000000 0.0000000000000000
1.0000000000000000 0.0000000000000000 0.0000000000000000
1.0000000000000000 0.0000000000000000 0.0000000000000000
1.0000000000000000 0.0000000000000000 0.0000000000000000
1.0000000000000000 0.0000000000000000 0.0000000000000000
1.0000000000000000 0.0000000000000000 0.0000000000000000
1.0000000000000000 0.0000000000000000 0.0000000000000000
1.0000000000000000 0.0000000000000000 0.0000000000000000
1.0000000000000000 0.0000000000000000 0.0000000000000000
1.0000000000000000 0.0000000000000000 0.0000000000000000
1.0000000000000000 0.0000000000000000 0.0000000000000000
1.0000000000000000 0.0000000000000000 0.0000000000000000
1.0000000000000000 0.0000000000000000 0.0000000000000000
1.0000000000000000 0.0000000000000000 0.0000000000000000
1.0000000000000000 0.0000000000000000 0.0000000000000000
1.0000000000000000 0.0000000000000000 0.0000000000000000
1.0000000000000000 0.0000000000000000 0.0000000000000000
1.0000000000000000 0.0000000000000000 0.0000000000000000
1.0000000000000000 0.0000000000000000 0.0000000000000000
1.0000000000000000 0.0000000000000000 0.0000000000000000
1.0000000000000000 0.0000000000000000 0.0000000000000000
1.0000000000000000 0.0000000000000000 0.0000000000000000
1.0000000000000000 0.0000000000000000 0.0000000000000000
1.0000000000000000 0.0000000000000000 0.0000000000000000
1.0000000000000000 0.0000000000000000 0.0000000000000000
1.0000000000000000 0.0000000000000000 0.0000000000000000
1.0000000000000000 0.0000000000000000 0.0000000000000000
1.0000000000000000 0.0000000000000000 0.0000000000000000
1.0000000000000000 0.0000000000000000 0.0000000000000000
1.0000000000000000 0.0000000000000000 0.0000000000000000
1.0000000000000000 0.0000000000000000 0.0000000000000000
1.0000000000000000 0.0000000000000000 0.0000000000000000
1.0000000000000000 0.0000000000000000 0.0000000000000000
1.0000000000000000 0.0000000000000000 0.0000000000000000
1.0000000000000000 0.0000000000000000 0.0000000000000000
1.0000000000000000 0.0000000000000000 0.0000000000000000
1.0000000000000000 0.0000000000000000 0.0000000000000000
1.0000000000000000 0.0000000000000000 0.0000000000000000
1.0000000000000000 0.0000000000000000 0.0000000000000000
1.0000000000000000 0.0000000000000000 0.0000000000000000
1.0000000000000000 0.0000000000000000 0.0000000000000000
1.0000000000000000 0.0000000000000000 0.0000000000000000
1.0000000000000000 0.0000000000000000 0.0000000000000000
1.0000000000000000 0.0000000000000000 0.0000000000000000
1.0000000000000000 0.0000000000000000 0.0000000000000000
1.0000000000000000 0.0000000000000000 0.0000000000000000
1.0000000000000000 0.0000000000000000 0.0000000000000000
1.0000000000000000 0.0000000000000000 0.0000000000000000
1.0000000000000000 0.0000000000000000 0.0000000000000000
1.0000000000000000 0.0000000000000000 0.0000000000000000
1.0000000000000000 0.0000000000000000 0.0000000000000000
1.0000000000000000 0.0000000000000000 0.0000000000000000
1.0000000000000000 0.0000000000000000 0.0000000000000000
1.0000000000000000 0.0000000000000000 0.0000000000000000
1.0000000000000000 0.0000000000000000 0.0000000000000000
1.0000000000000000 0.0000000000000000 0.0000000000000000
1.0000000000000000 0.0000000000000000 0.0000000000000000
1.0000000000000000 0.0000000000000000 0.0000000000000000
1.0000000000000000 0.0000000000000000 0.0000000000000000
1.0000000000000000 0.0000000000000000 0.0000000000000000
1.0000000000000000 0.0000000000000000 0.0000000000000000
1.0000000000000000 0.0000000000000000 0.0000000000000000
1.0000000000000000 0.0000000000000000 0.0000000000000000
1.0000000000000000 0.0000000000000000 0.0000000000000000
1.0000000000000000 0.0000000000000000 0.0000000000000000
1.0000000000000000 0.0000000000000000 0.0000000000000000
1.0000000000000000 0.0000000000000000 0.0000000000000000
1.0000000000000000 0.0000000000000000 0.0000000000000000
1.0000000000000000 0.0000000000000000 0.0000000000000000
1.0000000000000000 0.0000000000000000 0.0000000000000000
1.0000000000000000 0.0000000000000000 0.0000000000000000
1.0000000000000000 0.0000000000000000 0.0000000000000000
1.0000000000000000 0.0000000000000000 0.0000000000000000
1.0000000000000000 0.0000000000000000 0.0000000000000000
1.0000000000000000 0.0000000000000000 0.0000000000000000
1.0000000000000000 0.0000000000000000 0.0000000000000000
1.0000000000000000 0.0000000000000000 0.0000000000000000
1.0000000000000000 0.0000000000000000 0.0000000000000000
1.0000000000000000 0.0000000000000000 0.0000000000000000
1.0000000000000000 0.0000000000000000 0.0000000000000000
1.0000000000000000 0.0000000000000000 0.0000000000000000
1.0000000000000000 0.0000000000000000 0.0000000000000000
1.0000000000000000 0.0000000000000000 0.0000000000000000
1.0000000000000000 0.0000000000000000 0.0000000000000000
1.0000000000000000 0.0000000000000000 0.0000000000000000
1.0000000000000000 0.0000000000000000 0.0000000000000000
1.0000000000000000 0.0000000000000000 0.0000000000000000
1.0000000000000000 0.0000000000000000 0.0000000000000000
1.0000000000000000 0.0000000000000000 0.0000000000000000
1.0000000000000000 0.0000000000000000 0.0000000000000000
1.0000000000000000 0.0000000000000000 0.0000000000000000
1.0000000000000000 0.0000000000000000 0.0000000000000000
1.0000000000000000 0.0000000000000000 0.0000000000000000
1.0000000000000000 0.0000000000000000 0.0000000000000000
1.0000000000000000 0.0000000000000000 0.0000000000000000
1.0000000000000000 0.0000000000000000 0.0000000000000000
1.0000000000000000 0.0000000000000000 0.0000000000000000
1.0000000000000000 0.0000000000000000 0.0000000000000000
1.0000000000000000 0.0000000000000000 0.0000000000000000
1.0000000000000000 0.0000000000000000 0.0000000000000000
1.0000000000000000 0.0000000000000000 0.0000000000000000
1.0000000000000000 0.0000000000000000 0.0000000000000000
1.0000000000000000 0.0000000000000000 0.0000000000000000
1.0000000000000000 0.0000000000000000 0.0000000000000000
1.0000000000000000 0.0000000000000000 0.0000000000000000
1.0000000000000000 0.0000000000000000 0.0000000000000000
1.0000000000000000 0.0000000000000000 0.0000000000000000
1.0000000000000000 0.0000000000000000 0.0000000000000000
1.0000000000000000 0.0000000000000000 0.0000000000000000
1.0000000000000000 0.0000000000000000 0.0000000000000000
1.0000000000000000 0.0000000000000000 0.0000000000000000
1.0000000000000000 0.0000000000000000 0.0000000000000000
1.0000000000000000 0.0000000000000000 0.0000000000000000
1.0000000000000000 0.0000000000000000 0.0000000000000000
1.0000000000000000 0.0000000000000000 0.0000000000000000
1.0000000000000000 0.0000000000000000 0.0000000000000000
1.0000000000000000 0.0000000000000000 0.0000000000000000
1.0000000000000000 0.0000000000000000 0.0000000000000000
1.0000000000000000 0.0000000000000000 0.0000000000000000
1.0000000000000000 0.0000000000000000 0.0000000000000000
1.0000000000000000 0.0000000000000000 0.0000000000000000
1.0000000000000000 0.0000000000000000 0.0000000000000000
1.0000000000000000 0.0000000000000000 0.0000000000000000
1.0000000000000000 0.0000000000000000 0.0000000000000000
1.0000000000000000 0.0000000000000000 0.0000000000000000
1.0000000000000000 0.0000000000000000 0.0000000000000000
1.0000000000000000 0.0000000000000000 0.0000000000000000
1.0000000000000000 0.0000000000000000 0.0000000000000000
1.0000000000000000 0.0000000000000000 0.0000000000000000
1.0000000000000000 0.0000000000000000 0.0000000000000000
1.0000000000000000 0.0000000000000000 0.0000000000000000
1.0000000000000000 0.0000000000000000 0.0000000000000000
1.0000000000000000 0.0000000000000000 0.0000000000000000
1.0000000000000000 0.0000000000000000 0.0000000000000000
1.0000000000000000 0.0000000000000000 0.0000000000000000
1.0000000000000000 0.0000000000000000 0.0000000000000000
1.0000000000000000 0.0000000000000000 0.0000000000000000
1.0000000000000000 0.0000000000000000 0.0000000000000000
1.0000000000000000 0.0000000000000000 0.0000000000000000
1.0000000000000000 0.0000000000000000 0.0000000000000000
1.0000000000000000 0.0000000000000000 0.0000000000000000
1.0000000000000000 0.0000000000000000 0.0000000000000000
1.0000000000000000 0.0000000000000000 0.0000000000000000
1.0000000000000000 0.0000000000000000 0.0000000000000000
1.0000000000000000 0.0000000000000000 0.0000000000000000
1.0000000000000000 0.0000000000000000 0.0000000000000000
1.0000000000000000 0.0000000000000000 0.0000000000000000
1.0000000000000000 0.0000000000000000 0.0000000000000000
1.0000000000000000 0.0000000000000000 0.0000000000000000
1.0000000000000000 0.0000000000000000 0.0000000000000000
1.0000000000000000 0.0000000000000000 0.0000000000000000
1.0000000000000000 0.0000000000000000 0.0000000000000000
1.0000000000000000 0.0000000000000000 0.0000000000000000
1.0000000000000000 0.0000000000000000 0.0000000000000000
1.0000000000000000 0.0000000000000000 0.0000000000000000
1.0000000000000000 0.0000000000000000 0.0000000000000000
1.0000000000000000 0.0000000000000000 0.0000000000000000
1.0000000000000000 0.0000000000000000 0.0000000000000000
1.0000000000000000 0.0000000000000000 0.0000000000000000
1.0000000000000000 0.0000000000000000 0.0000000000000000
1.0000000000000000 0.0000000000000000 0.0000000000000000
1.0000000000000000 0.0000000000000000 0.0000000000000000
1.0000000000000000 0.0000000000000000 0.0000000000000000
1.0000000000000000 0.0000000000000000 0.0000000000000000
1.0000000000000000 0.0000000000000000 0.0000000000000000
1.0000000000000000 0.0000000000000000 0.0000000000000000
1.0000000000000000 0.0000000000000000 0.0000000000000000
1.0000000000000000 0.0000000000000000 0.0000000000000000
1.0000000000000000 0.0000000000000000 0.0000000000000000
1.0000000000000000 0.0000000000000000 0.0000000000000000
1.0000000000000000 0.0000000000000000 0.0000000000000000
1.0000000000000000 0.0000000000000000 0.0000000000000000
1.0000000000000000 0.0000000000000000 0.0000000000000000
1.0000000000000000 0.0000000000000000 0.0000000000000000
1.0000000000000000 0.0000000000000000 0.0000000000000000
1.0000000000000000 0.0000000000000000 0.0000000000000000
1.0000000000000000 0.0000000000000000 0.0000000000000000
1.0000000000000000 0.0000000000000000 0.0000000000000000
1.0000000000000000 0.0000000000000000 0.0000000000000000
1.0000000000000000 0.0000000000000000 0.0000000000000000
1.0000000000000000 0.0000000000000000 0.0000000000000000
1.0000000000000000 0.0000000000000000 0.0000000000000000
1.0000000000000000 0.0000000000000000 0.0000000000000000
1.0000000000000000 0.0000000000000000 0.0000000000000000
1.0000000000000000 0.0000000000000000 0.0000000000000000
1.0000000000000000 0.0000000000000000 0.0000000000000000
1.0000000000000000 0.0000000000000000 0.0000000000000000
1.0000000000000000 0.0000000000000000 0.0000000000000000
1.0000000000000000 0.0000000000000000 0.0000000000000000
1.0000000000000000 0.0000000000000000 0.0000000000000000
1.0000000000000000 0.0000000000000000 0.0000000000000000
1.0000000000000000 0.0000000000000000 0.0000000000000000
1.0000000000000000 0.0000000000000000 0.0000000000000000
1.0000000000000000 0.0000000000000000 0.0000000000000000
1.0000000000000000 0.0000000000000000 0.0000000000000000
1.0000000000000000 0.0000000000000000 0.0000000000000000
1.0000000000000000 0.0000000000000000 0.0000000000000000
1.0000000000000000 0.0000000000000000 0.0000000000000000
1.0000000000000000 0.0000000000000000 0.0000000000000000
1.0000000000000000 0.0000000000000000 0.0000000000000000
1.0000000000000000 0.0000000000000000 0.0000000000000000
1.0000000000000000 0.0000000000000000 0.0000000000000000
1.0000000000000000 0.0000000000000000 0.0000000000000000
1.0000000000000000 0.0000000000000000 0.0000000000000000
1.0000000000000000 0.0000000000000000 0.0000000000000000
1.0000000000000000 0.0000000000000000 0.0000000000000000
1.0000000000000000 0.0000000000000000 0.0000000000000000
1.0000000000000000 0.0000000000000000 0.0000000000000000
1.0000000000000000 0.0000000000000000 0.0000000000000000
1.0000000000000000 0.0000000000000000 0.0000000000000000
1.0000000000000000 0.0000000000000000 0.0000000000000000
1.0000000000000000 0.0000000000000000 0.0000000000000000
1.0000000000000000 0.0000000000000000 0.0000000000000000
1.0000000000000000 0.0000000000000000 0.0000000000000000
1.0000000000000000 0.0000000000000000 0.0000000000000000
1.0000000000000000 0.0000000000000000 0.0000000000000000
1.0000000000000000 0.0000000000000000 0.0000000000000000
1.0000000000000000 0.0000000000000000 0.0000000000000000
1.0000000000000000 0.0000000000000000 0.0000000000000000
1.0000000000000000 0.0000000000000000 0.0000000000000000
1.0000000000000000 0.0000000000000000 0.0000000000000000
1.0000000000000000 0.0000000000000000 0.0000000000000000
1.0000000000000000 0.0000000000000000 0.0000000000000000
1.0000000000000000 0.0000000000000000 0.0000000000000000
1.0000000000000000 0.0000000000000000 0.0000000000000000
1.0000000000000000 0.0000000000000000 0.0000000000000000
1.0000000000000000 0.0000000000000000 0.0000000000000000
1.0000000000000000 0.0000000000000000 0.0000000000000000
1.0000000000000000 0.0000000000000000 0.0000000000000000
1.0000000000000000 0.0000000000000000 0.0000000000000000
1.0000000000000000 0.0000000000000000 0.0000000000000000
1.0000000000000000 0.0000000000000000 0.0000000000000000
1.0000000000000000 0.0000000000000000 0.0000000000000000
1.0000000000000000 0.0000000000000000 0.0000000000000000
1.0000000000000000 0.0000000000000000 0.0000000000000000
1.0000000000000000 0.0000000000000000 0.0000000000000000
1.0000000000000000 0.0000000000000000 0.0000000000000000
1.0000000000000000 0.0000000000000000 0.0000000000000000
1.0000000000000000 0.0000000000000000 0.0000000000000000
1.0000000000000000 0.0000000000000000 0.0000000000000000
1.0000000000000000 0.0000000000000000 0.0000000000000000
1.0000000000000000 0.0000000000000000 0.0000000000000000
1.0000000000000000 0.0000000000000000 0.0000000000000000
1.0000000000000000 0.0000000000000000 0.0000000000000000
1.0000000000000000 0.0000000000000000 0.0000000000000000
1.0000000000000000 0.0000000000000000 0.0000000000000000
1.0000000000000000 0.0000000000000000 0.0000000000000000
1.0000000000000000 0.0000000000000000 0.0000000000000000
1.0000000000000000 0.0000000000000000 0.0000000000000000
1.0000000000000000 0.0000000000000000 0.0000000000000000
1.0000000000000000 0.0000000000000000 0.0000000000000000
1.0000000000000000 0.0000000000000000 0.0000000000000000
1.0000000000000000 0.0000000000000000 0.0000000000000000
1.0000000000000000 0.0000000000000000 0.0000000000000000
1.0000000000000000 0.0000000000000000 0.0000000000000000
1.0000000000000000 0.0000000000000000 0.0000000000000000
1.0000000000000000 0.0000000000000000 0.0000000000000000
1.0000000000000000 0.0000000000000000 0.0000000000000000
1.0000000000000000 0.0000000000000000 0.0000000000000000
1.0000000000000000 0.0000000000000000 0.0000000000000000
1.0000000000000000 0.0000000000000000 0.0000000000000000
1.0000000000000000 0.0000000000000000 0.0000000000000000
1.0000000000000000 0.0000000000000000 0.0000000000000000
1.0000000000000000 0.0000000000000000 0.0000000000000000
1.0000000000000000 0.0000000000000000 0.0000000000000000
1.0000000000000000 0.0000000000000000 0.0000000000000000
1.0000000000000000 0.0000000000000000 0.0000000000000000
1.0000000000000000 0.0000000000000000 0.0000000000000000
1.0000000000000000 0.0000000000000000 0.0000000000000000
1.0000000000000000 0.0000000000000000 0.0000000000000000
1.0000000000000000 0.0000000000000000 0.0000000000000000
1.0000000000000000 0.0000000000000000 0.0000000000000000
1.0000000000000000 0.0000000000000000 0.0000000000000000
1.0000000000000000 0.0000000000000000 0.0000000000000000
1.0000000000000000 0.0000000000000000 0.0000000000000000
1.0000000000000000 0.0000000000000000 0.0000000000000000
1.0000000000000000 0.0000000000000000 0.0000000000000000
1.0000000000000000 0.0000000000000000 0.0000000000000000
1.0000000000000000 0.0000000000000000 0.0000000000000000
1.0000000000000000 0.0000000000000000 0.0000000000000000
1.0000000000000000 0.0000000000000000 0.0000000000000000
1.0000000000000000 0.0000000000000000 0.0000000000000000
1.0000000000000000 0.0000000000000000 0.0000000000000000
1.0000000000000000 0.0000000000000000 0.0000000000000000
1.0000000000000000 0.0000000000000000 0.0000000000000000
1.0000000000000000 0.0000000000000000 0.0000000000000000
1.0000000000000000 0.0000000000000000 0.0000000000000000
1.0000000000000000 0.0000000000000000 0.0000000000000000
1.0000000000000000 0.0000000000000000 0.0000000000000000
1.0000000000000000 0.0000000000000000 0.0000000000000000
1.0000000000000000 0.0000000000000000 0.0000000000000000
1.0000000000000000 0.0000000000000000 0.0000000000000000
1.0000000000000000 0.0000000000000000 0.0000000000000000
1.0000000000000000 0.0000000000000000 0.0000000000000000
1.0000000000000000 0.0000000000000000 0.0000000000000000
1.0000000000000000 0.0000000000000000 0.0000000000000000
1.0000000000000000 0.0000000000000000 0.0000000000000000
1.0000000000000000 0.0000000000000000 0.0000000000000000
1.0000000000000000 0.0000000000000000 0.0000000000000000
1.0000000000000000 0.0000000000000000 0.0000000000000000
1.0000000000000000 0.0000000000000000 0.0000000000000000
1.0000000000000000 0.0000000000000000 0.0000000000000000
1.0000000000000000 0.0000000000000000 0.0000000000000000
1.0000000000000000 0.0000000000000000 0.0000000000000000
1.0000000000000000 0.0000000000000000 0.0000000000000000
1.0000000000000000 0.0000000000000000 0.0000000000000000
1.0000000000000000 0.0000000000000000 0.0000000000000000
1.0000000000000000 0.0000000000000000 0.0000000000000000
1.0000000000000000 0.0000000000000000 0.0000000000000000
1.0000000000000000 0.0000000000000000 0.0000000000000000
1.0000000000000000 0.0000000000000000 0.0000000000000000
1.0000000000000000 0.0000000000000000 0.0000000000000000
1.0000000000000000 0.0000000000000000 0.0000000000000000
1.0000000000000000 0.0000000000000000 0.0000000000000000
1.0000000000000000 0.0000000000000000 0.0000000000000000
1.0000000000000000 0.0000000000000000 0.0000000000000000
1.0000000000000000 0.0000000000000000 0.0000000000000000
1.0000000000000000 0.0000000000000000 0.0000000000000000
1.0000000000000000 0.0000000000000000 0.0000000000000000
1.0000000000000000 0.0000000000000000 0.0000000000000000
1.0000000000000000 0.0000000000000000 0.0000000000000000
1.0000000000000000 0.0000000000000000 0.0000000000000000
1.0000000000000000 0.0000000000000000 0.0000000000000000
1.0000000000000000 0.0000000000000000 0.0000000000000000
1.0000000000000000 0.0000000000000000 0.0000000000000000
1.0000000000000000 0.0000000000000000 0.0000000000000000
1.0000000000000000 0.0000000000000000 0.0000000000000000
1.0000000000000000 0.0000000000000000 0.0000000000000000
1.0000000000000000 0.0000000000000000 0.0000000000000000
1.0000000000000000 0.0000000000000000 0.0000000000000000
1.0000000000000000 0.0000000000000000 0.0000000000000000
1.0000000000000000 0.0000000000000000 0.0000000000000000
1.0000000000000000 0.0000000000000000 0.0000000000000000
1.0000000000000000 0.0000000000000000 0.0000000000000000
1.0000000000000000 0.0000000000000000 0.0000000000000000
1.0000000000000000 0.0000000000000000 0.0000000000000000
1.0000000000000000 0.0000000000000000 0.0000000000000000
1.0000000000000000 0.0000000000000000 0.0000000000000000
1.0000000000000000 0.0000000000000000 0.0000000000000000
1.0000000000000000 0.0000000000000000 0.0000000000000000
1.0000000000000000 0.0000000000000000 0.0000000000000000
1.0000000000000000 0.0000000000000000 0.0000000000000000
1.0000000000000000 0.0000000000000000 0.0000000000000000
1.0000000000000000 0.0000000000000000 0.0000000000000000
1.0000000000000000 0.0000000000000000 0.0000000000000000
1.0000000000000000 0.0000000000000000 0.0000000000000000
1.0000000000000000 0.0000000000000000 0.0000000000000000
1.0000000000000000 0.0000000000000000 0.0000000000000000
1.0000000000000000 0.0000000000000000 0.0000000000000000
1.0000000000000000 0.0000000000000000 0.0000000000000000
1.0000000000000000 0.0000000000000000 0.0000000000000000
1.0000000000000000 0.0000000000000000 0.0000000000000000
1.0000000000000000 0.0000000000000000 0.0000000000000000
1.0000000000000000 0.0000000000000000 0.0000000000000000
1.0000000000000000 0.0000000000000000 0.0000000000000000
1.0000000000000000 0.0000000000000000 0.0000000000000000
1.0000000000000000 0.0000000000000000 0.0000000000000000
1.0000000000000000 0.0000000000000000 0.0000000000000000
1.0000000000000000 0.0000000000000000 0.0000000000000000
1.0000000000000000 0.0000000000000000 0.0000000000000000
1.0000000000000000 0.0000000000000000 0.0000000000000000
1.0000000000000000 0.0000000000000000 0.0000000000000000
1.0000000000000000 0.0000000000000000 0.0000000000000000
1.0000000000000000 0.0000000000000000 0.0000000000000000
1.0000000000000000 0.0000000000000000 0.0000000000000000
1.0000000000000000 0.0000000000000000 0.0000000000000000
1.0000000000000000 0.0000000000000000 0.0000000000000000
1.0000000000000000 0.0000000000000000 0.0000000000000000
1.0000000000000000 0.0000000000000000 0.0000000000000000
1.0000000000000000 0.0000000000000000 0.0000000000000000
1.0000000000000000 0.0000000000000000 0.0000000000000000
1.0000000000000000 0.0000000000000000 0.0000000000000000
1.0000000000000000 0.0000000000000000 0.0000000000000000
1.0000000000000000 0.0000000000000000 0.0000000000000000
1.0000000000000000 0.0000000000000000 0.0000000000000000
1.0000000000000000 0.0000000000000000 0.0000000000000000
1.0000000000000000 0.0000000000000000 0.0000000000000000
1.0000000000000000 0.0000000000000000 0.0000000000000000
1.0000000000000000 0.0000000000000000 0.0000000000000000
1.0000000000000000 0.0000000000000000 0.0000000000000000
1.0000000000000000 0.0000000000000000 0.0000000000000000
1.0000000000000000 0.0000000000000000 0.0000000000000000
1.0000000000000000 0.0000000000000000 0.0000000000000000
1.0000000000000000 0.0000000000000000 0.0000000000000000
1.0000000000000000 0.0000000000000000 0.0000000000000000
1.0000000000000000 0.0000000000000000 0.0000000000000000
1.0000000000000000 0.0000000000000000 0.0000000000000000
1.0000000000000000 0.0000000000000000 0.0000000000000000
1.0000000000000000 0.0000000000000000 0.0000000000000000
1.0000000000000000 0.0000000000000000 0.0000000000000000
1.0000000000000000 0.0000000000000000 0.0000000000000000
1.0000000000000000 0.0000000000000000 0.0000000000000000
1.0000000000000000 0.0000000000000000 0.0000000000000000
1.0000000000000000 0.0000000000000000 0.0000000000000000
1.0000000000000000 0.0000000000000000 0.0000000000000000
1.0000000000000000 0.0000000000000000 0.0000000000000000
1.0000000000000000 0.0000000000000000 0.0000000000000000
1.0000000000000000 0.0000000000000000 0.0000000000000000
1.0000000000000000 0.0000000000000000 0.0000000000000000
1.0000000000000000 0.0000000000000000 0.0000000000000000
1.0000000000000000 0.0000000000000000 0.0000000000000000
1.0000000000000000 0.0000000000000000 0.0000000000000000
1.0000000000000000 0.0000000000000000 0.0000000000000000
1.0000000000000000 0.0000000000000000 0.0000000000000000
1.0000000000000000 0.0000000000000000 0.0000000000000000
1.0000000000000000 0.0000000000000000 0.0000000000000000
1.0000000000000000 0.0000000000000000 0.0000000000000000
1.0000000000000000 0.0000000000000000 0.0000000000000000
1.0000000000000000 0.0000000000000000 0.0000000000000000
1.0000000000000000 0.0000000000000000 0.0000000000000000
1.0000000000000000 0.0000000000000000 0.0000000000000000
1.0000000000000000 0.0000000000000000 0.0000000000000000
1.0000000000000000 0.0000000000000000 0.0000000000000000
1.0000000000000000 0.0000000000000000 0.0000000000000000
1.0000000000000000 0.0000000000000000 0.0000000000000000
1.0000000000000000 0.0000000000000000 0.0000000000000000
1.0000000000000000 0.0000000000000000 0.0000000000000000
1.0000000000000000 0.0000000000000000 0.0000000000000000
1.0000000000000000 0.0000000000000000 0.0000000000000000
1.0000000000000000 0.0000000000000000 0.0000000000000000
1.0000000000000000 0.0000000000000000 0.0000000000000000
1.0000000000000000 0.0000000000000000 0.0000000000000000
1.0000000000000000 0.0000000000000000 0.0000000000000000
1.0000000000000000 0.0000000000000000 0.0000000000000000
1.0000000000000000 0.0000000000000000 0.0000000000000000
1.0000000000000000 0.0000000000000000 0.0000000000000000
1.0000000000000000 0.0000000000000000 0.0000000000000000
1.0000000000000000 0.0000000000000000 0.0000000000000000
1.0000000000000000 0.0000000000000000 0.0000000000000000
1.0000000000000000 0.0000000000000000 0.0000000000000000
1.0000000000000000 0.0000000000000000 0.0000000000000000
1.0000000000000000 0.0000000000000000 0.0000000000000000
1.0000000000000000 0.0000000000000000 0.0000000000000000
1.0000000000000000 0.0000000000000000 0.0000000000000000
1.0000000000000000 0.0000000000000000 0.0000000000000000
1.0000000000000000 0.0000000000000000 0.0000000000000000
1.0000000000000000 0.0000000000000000 0.0000000000000000
1.0000000000000000 0.0000000000000000 0.0000000000000000
1.0000000000000000 0.0000000000000000 0.0000000000000000
1.0000000000000000 0.0000000000000000 0.0000000000000000
1.0000000000000000 0.0000000000000000 0.0000000000000000
1.0000000000000000 0.0000000000000000 0.0000000000000000
1.0000000000000000 0.0000000000000000 0.0000000000000000
1.0000000000000000 0.0000000000000000 0.0000000000000000
1.0000000000000000 0.0000000000000000 0.0000000000000000
1.0000000000000000 0.0000000000000000 0.0000000000000000
1.0000000000000000 0.0000000000000000 0.0000000000000000
1.0000000000000000 0.0000000000000000 0.0000000000000000
1.0000000000000000 0.0000000000000000 0.0000000000000000
1.0000000000000000 0.0000000000000000 0.0000000000000000
1.0000000000000000 0.0000000000000000 0.0000000000000000
1.0000000000000000 0.0000000000000000 0.0000000000000000
1.0000000000000000 0.0000000000000000 0.0000000000000000
1.0000000000000000 0.0000000000000000 0.0000000000000000
1.0000000000000000 0.0000000000000000 0.0000000000000000
1.0000000000000000 0.0000000000000000 0.0000000000000000
1.0000000000000000 0.0000000000000000 0.0000000000000000
1.0000000000000000 0.0000000000000000 0.0000000000000000
1.0000000000000000 0.0000000000000000 0.0000000000000000
1.0000000000000000 0.0000000000000000 0.0000000000000000
1.0000000000000000 0.0000000000000000 0.0000000000000000
1.0000000000000000 0.0000000000000000 0.0000000000000000
1.0000000000000000 0.0000000000000000 0.0000000000000000
1.0000000000000000 0.0000000000000000 0.0000000000000000
1.0000000000000000 0.0000000000000000 0.0000000000000000
1.0000000000000000 0.0000000000000000 0.0000000000000000
1.0000000000000000 0.0000000000000000 0.0000000000000000
1.0000000000000000 0.0000000000000000 0.0000000000000000
1.0000000000000000 0.0000000000000000 0.0000000000000000
1.0000000000000000 0.0000000000000000 0.0000000000000000
1.0000000000000000 0.0000000000000000 0.0000000000000000
1.0000000000000000 0.0000000000000000 0.0000000000000000
1.0000000000000000 0.0000000000000000 0.0000000000000000
1.0000000000000000 0.0000000000000000 0.0000000000000000
1.0000000000000000 0.0000000000000000 0.0000000000000000
1.0000000000000000 0.0000000000000000 0.0000000000000000
1.0000000000000000 0.0000000000000000 0.0000000000000000
1.0000000000000000 0.0000000000000000 0.0000000000000000
1.0000000000000000 0.0000000000000000 0.0000000000000000
1.0000000000000000 0.0000000000000000 0.0000000000000000
1.0000000000000000 0.0000000000000000 0.0000000000000000
1.0000000000000000 0.0000000000000000 0.0000000000000000
1.0000000000000000 0.0000000000000000 0.0000000000000000
1.0000000000000000 0.0000000000000000 0.0000000000000000
1.0000000000000000 0.0000000000000000 0.0000000000000000
1.0000000000000000 0.0000000000000000 0.0000000000000000
1.0000000000000000 0.0000000000000000 0.0000000000000000
1.0000000000000000 0.0000000000000000 0.0000000000000000
1.0000000000000000 0.0000000000000000 0.0000000000000000
1.0000000000000000 0.0000000000000000 0.0000000000000000
1.0000000000000000 0.0000000000000000 0.0000000000000000
1.0000000000000000 0.0000000000000000 0.0000000000000000
1.0000000000000000 0.0000000000000000 0.0000000000000000
1.0000000000000000 0.0000000000000000 0.0000000000000000
1.0000000000000000 0.0000000000000000 0.0000000000000000
1.0000000000000000 0.0000000000000000 0.0000000000000000
1.0000000000000000 0.0000000000000000 0.0000000000000000
1.0000000000000000 0.0000000000000000 0.0000000000000000
1.0000000000000000 0.0000000000000000 0.0000000000000000
1.0000000000000000 0.0000000000000000 0.0000000000000000
1.0000000000000000 0.0000000000000000 0.0000000000000000
1.0000000000000000 0.0000000000000000 0.0000000000000000
1.0000000000000000 0.0000000000000000 0.0000000000000000
1.0000000000000000 0.0000000000000000 0.0000000000000000
1.0000000000000000 0.0000000000000000 0.0000000000000000
1.0000000000000000 0.0000000000000000 0.0000000000000000
1.0000000000000000 0.0000000000000000 0.0000000000000000
1.0000000000000000 0.0000000000000000 0.0000000000000000
1.0000000000000000 0.0000000000000000 0.0000000000000000
1.0000000000000000 0.0000000000000000 0.0000000000000000
1.0000000000000000 0.0000000000000000 0.0000000000000000
1.0000000000000000 0.0000000000000000 0.0000000000000000
1.0000000000000000 0.0000000000000000 0.0000000000000000
1.0000000000000000 0.0000000000000000 0.0000000000000000
1.0000000000000000 0.0000000000000000 0.0000000000000000
1.0000000000000000 0.0000000000000000 0.0000000000000000
1.0000000000000000 0.0000000000000000 0.0000000000000000
1.0000000000000000 0.0000000000000000 0.0000000000000000
1.0000000000000000 0.0000000000000000 0.0000000000000000
1.0000000000000000 0.0000000000000000 0.0000000000000000
1.0000000000000000 0.0000000000000000 0.0000000000000000
1.0000000000000000 0.0000000000000000 0.0000000000000000
1.0000000000000000 0.0000000000000000 0.0000000000000000
1.0000000000000000 0.0000000000000000 0.0000000000000000
1.0000000000000000 0.0000000000000000 0.0000000000000000
1.0000000000000000 0.0000000000000000 0.0000000000000000
1.0000000000000000 0.0000000000000000 0.0000000000000000
1.0000000000000000 0.0000000000000000 0.0000000000000000
1.0000000000000000 0.0000000000000000 0.0000000000000000
1.0000000000000000 0.0000000000000000 0.0000000000000000
1.0000000000000000 0.0000000000000000 0.0000000000000000
1.0000000000000000 0.0000000000000000 0.0000000000000000
1.0000000000000000 0.0000000000000000 0.0000000000000000
1.0000000000000000 0.0000000000000000 0.0000000000000000
1.0000000000000000 0.0000000000000000 0.0000000000000000
1.0000000000000000 0.0000000000000000 0.0000000000000000
1.0000000000000000 0.0000000000000000 0.0000000000000000
1.0000000000000000 0.0000000000000000 0.0000000000000000
1.0000000000000000 0.0000000000000000 0.0000000000000000
1.0000000000000000 0.0000000000000000 0.0000000000000000
1.0000000000000000 0.0000000000000000 0.0000000000000000
1.0000000000000000 0.0000000000000000 0.0000000000000000
1.0000000000000000 0.0000000000000000 0.0000000000000000
1.0000000000000000 0.0000000000000000 0.0000000000000000
1.0000000000000000 0.0000000000000000 0.0000000000000000
1.0000000000000000 0.0000000000000000 0.0000000000000000
1.0000000000000000 0.0000000000000000 0.0000000000000000
1.0000000000000000 0.0000000000000000 0.0000000000000000
1.0000000000000000 0.0000000000000000 0.0000000000000000
1.0000000000000000 0.0000000000000000 0.0000000000000000
1.0000000000000000 0.0000000000000000 0.0000000000000000
1.0000000000000000 0.0000000000000000 0.0000000000000000
1.0000000000000000 0.0000000000000000 0.0000000000000000
1.0000000000000000 0.0000000000000000 0.0000000000000000
1.0000000000000000 0.0000000000000000 0.0000000000000000
1.0000000000000000 0.0000000000000000 0.0000000000000000
1.0000000000000000 0.0000000000000000 0.0000000000000000
1.0000000000000000 0.0000000000000000 0.0000000000000000
1.0000000000000000 0.0000000000000000 0.0000000000000000
1.0000000000000000 0.0000000000000000 0.0000000000000000
1.0000000000000000 0.0000000000000000 0.0000000000000000
1.0000000000000000 0.0000000000000000 0.0000000000000000
1.0000000000000000 0.0000000000000000 0.0000000000000000
1.0000000000000000 0.0000000000000000 0.0000000000000000
1.0000000000000000 0.0000000000000000 0.0000000000000000
1.0000000000000000 0.0000000000000000 0.0000000000000000
1.0000000000000000 0.0000000000000000 0.0000000000000000
1.0000000000000000 0.0000000000000000 0.0000000000000000
1.0000000000000000 0.0000000000000000 0.0000000000000000
1.0000000000000000 0.0000000000000000 0.0000000000000000
1.0000000000000000 0.0000000000000000 0.0000000000000000
1.0000000000000000 0.0000000000000000 0.0000000000000000
1.0000000000000000 0.0000000000000000 0.0000000000000000
1.0000000000000000 0.0000000000000000 0.0000000000000000
1.0000000000000000 0.0000000000000000 0.0000000000000000
1.0000000000000000 0.0000000000000000 0.0000000000000000
1.0000000000000000 0.0000000000000000 0.0000000000000000
1.0000000000000000 0.0000000000000000 0.0000000000000000
1.0000000000000000 0.0000000000000000 0.0000000000000000
1.0000000000000000 0.0000000000000000 0.0000000000000000
1.0000000000000000 0.0000000000000000 0.0000000000000000
1.0000000000000000 0.0000000000000000 0.0000000000000000
1.0000000000000000 0.0000000000000000 0.0000000000000000
1.0000000000000000 0.0000000000000000 0.0000000000000000
1.0000000000000000 0.0000000000000000 0.0000000000000000
1.0000000000000000 0.0000000000000000 0.0000000000000000
1.0000000000000000 0.0000000000000000 0.0000000000000000
1.0000000000000000 0.0000000000000000 0.0000000000000000
1.0000000000000000 0.0000000000000000 0.0000000000000000
1.0000000000000000 0.0000000000000000 0.0000000000000000
1.0000000000000000 0.0000000000000000 0.0000000000000000
1.0000000000000000 0.0000000000000000 0.0000000000000000
1.0000000000000000 0.0000000000000000 0.0000000000000000
1.0000000000000000 0.0000000000000000 0.0000000000000000
1.0000000000000000 0.0000000000000000 0.0000000000000000
1.0000000000000000 0.0000000000000000 0.0000000000000000
1.0000000000000000 0.0000000000000000 0.0000000000000000
1.0000000000000000 0.0000000000000000 0.0000000000000000
1.0000000000000000 0.0000000000000000 0.0000000000000000
1.0000000000000000 0.0000000000000000 0.0000000000000000
1.0000000000000000 0.0000000000000000 0.0000000000000000
1.0000000000000000 0.0000000000000000 0.0000000000000000
1.0000000000000000 0.0000000000000000 0.0000000000000000
1.0000000000000000 0.0000000000000000 0.0000000000000000
1.0000000000000000 0.0000000000000000 0.0000000000000000
1.0000000000000000 0.0000000000000000 0.0000000000000000
1.0000000000000000 0.0000000000000000 0.0000000000000000
1.0000000000000000 0.0000000000000000 0.0000000000000000
1.0000000000000000 0.0000000000000000 0.0000000000000000
1.0000000000000000 0.0000000000000000 0.0000000000000000
1.0000000000000000 0.0000000000000000 0.0000000000000000
1.0000000000000000 0.0000000000000000 0.0000000000000000
1.0000000000000000 0.0000000000000000 0.0000000000000000
1.0000000000000000 0.0000000000000000 0.0000000000000000
1.0000000000000000 0.0000000000000000 0.0000000000000000
1.0000000000000000 0.0000000000000000 0.0000000000000000
1.0000000000000000 0.0000000000000000 0.0000000000000000
1.0000000000000000 0.0000000000000000 0.0000000000000000
1.0000000000000000 0.0000000000000000 0.0000000000000000
1.0000000000000000 0.0000000000000000 0.0000000000000000
1.0000000000000000 0.0000000000000000 0.0000000000000000
1.0000000000000000 0.0000000000000000 0.0000000000000000
1.0000000000000000 0.0000000000000000 0.0000000000000000
1.0000000000000000 0.0000000000000000 0.0000000000000000
1.0000000000000000 0.0000000000000000 0.0000000000000000
1.0000000000000000 0.0000000000000000 0.0000000000000000
1.0000000000000000 0.0000000000000000 0.0000000000000000
1.0000000000000000 0.0000000000000000 0.0000000000000000
1.0000000000000000 0.0000000000000000 0.0000000000000000
1.0000000000000000 0.0000000000000000 0.0000000000000000
1.0000000000000000 0.0000000000000000 0.0000000000000000
1.0000000000000000 0.0000000000000000 0.0000000000000000
1.0000000000000000 0.0000000000000000 0.0000000000000000
1.0000000000000000 0.0000000000000000 0.0000000000000000
1.0000000000000000 0.0000000000000000 0.0000000000000000
1.0000000000000000 0.0000000000000000 0.0000000000000000
1.0000000000000000 0.0000000000000000 0.0000000000000000
1.0000000000000000 0.0000000000000000 0.0000000000000000
1.0000000000000000 0.0000000000000000 0.0000000000000000
1.0000000000000000 0.0000000000000000 0.0000000000000000
1.0000000000000000 0.0000000000000000 0.0000000000000000
1.0000000000000000 0.0000000000000000 0.0000000000000000
1.0000000000000000 0.0000000000000000 0.0000000000000000
1.0000000000000000 0.0000000000000000 0.0000000000000000
1.0000000000000000 0.0000000000000000 0.0000000000000000
1.0000000000000000 0.0000000000000000 0.0000000000000000
1.0000000000000000 0.0000000000000000 0.0000000000000000
1.0000000000000000 0.0000000000000000 0.0000000000000000
1.0000000000000000 0.0000000000000000 0.0000000000000000
1.0000000000000000 0.0000000000000000 0.0000000000000000
1.0000000000000000 0.0000000000000000 0.0000000000000000
1.0000000000000000 0.0000000000000000 0.0000000000000000
1.0000000000000000 0.0000000000000000 0.0000000000000000
1.0000000000000000 0.0000000000000000 0.0000000000000000
1.0000000000000000 0.0000000000000000 0.0000000000000000
1.0000000000000000 0.0000000000000000 0.0000000000000000
1.0000000000000000 0.0000000000000000 0.0000000000000000
1.0000000000000000 0.0000000000000000 0.0000000000000000
1.0000000000000000 0.0000000000000000 0.0000000000000000
1.0000000000000000 0.0000000000000000 0.0000000000000000
1.0000000000000000 0.0000000000000000 0.0000000000000000
1.0000000000000000 0.0000000000000000 0.0000000000000000
1.0000000000000000 0.0000000000000000 0.0000000000000000
1.0000000000000000 0.0000000000000000 0.0000000000000000
1.0000000000000000 0.0000000000000000 0.0000000000000000
1.0000000000000000 0.0000000000000000 0.0000000000000000
1.0000000000000000 0.0000000000000000 0.0000000000000000
1.0000000000000000 0.0000000000000000 0.0000000000000000
1.0000000000000000 0.0000000000000000 0.0000000000000000
1.0000000000000000 0.0000000000000000 0.0000000000000000
1.0000000000000000 0.0000000000000000 0.0000000000000000
1.0000000000000000 0.0000000000000000 0.0000000000000000
1.0000000000000000 0.0000000000000000 0.0000000000000000
1.0000000000000000 0.0000000000000000 0.0000000000000000
1.0000000000000000 0.0000000000000000 0.0000000000000000
1.0000000000000000 0.0000000000000000 0.0000000000000000
1.0000000000000000 0.0000000000000000 0.0000000000000000
1.0000000000000000 0.0000000000000000 0.0000000000000000
1.0000000000000000 0.0000000000000000 0.0000000000000000
1.0000000000000000 0.0000000000000000 0.0000000000000000
1.0000000000000000 0.0000000000000000 0.0000000000000000
1.0000000000000000 0.0000000000000000 0.0000000000000000
1.0000000000000000 0.0000000000000000 0.0000000000000000
1.0000000000000000 0.0000000000000000 0.0000000000000000
1.0000000000000000 0.0000000000000000 0.0000000000000000
1.0000000000000000 0.0000000000000000 0.0000000000000000
1.0000000000000000 0.0000000000000000 0.0000000000000000
1.0000000000000000 0.0000000000000000 0.0000000000000000
1.0000000000000000 0.0000000000000000 0.0000000000000000
1.0000000000000000 0.0000000000000000 0.0000000000000000
1.0000000000000000 0.0000000000000000 0.0000000000000000
1.0000000000000000 0.0000000000000000 0.0000000000000000
1.0000000000000000 0.0000000000000000 0.0000000000000000
1.0000000000000000 0.0000000000000000 0.0000000000000000
1.0000000000000000 0.0000000000000000 0.0000000000000000
1.0000000000000000 0.0000000000000000 0.0000000000000000
1.0000000000000000 0.0000000000000000 0.0000000000000000
1.0000000000000000 0.0000000000000000 0.0000000000000000
1.0000000000000000 0.0000000000000000 0.0000000000000000
1.0000000000000000 0.0000000000000000 0.0000000000000000
1.0000000000000000 0.0000000000000000 0.0000000000000000
1.0000000000000000 0.0000000000000000 0.0000000000000000
1.0000000000000000 0.0000000000000000 0.0000000000000000
1.0000000000000000 0.0000000000000000 0.0000000000000000
1.0000000000000000 0.0000000000000000 0.0000000000000000
1.0000000000000000 0.0000000000000000 0.0000000000000000
1.0000000000000000 0.0000000000000000 0.0000000000000000
1.0000000000000000 0.0000000000000000 0.0000000000000000
1.0000000000000000 0.0000000000000000 0.0000000000000000
1.0000000000000000 0.0000000000000000 0.0000000000000000
1.0000000000000000 0.0000000000000000 0.0000000000000000
1.0000000000000000 0.0000000000000000 0.0000000000000000
1.0000000000000000 0.0000000000000000 0.0000000000000000
1.0000000000000000 0.0000000000000000 0.0000000000000000
1.0000000000000000 0.0000000000000000 0.0000000000000000
1.0000000000000000 0.0000000000000000 0.0000000000000000
1.0000000000000000 0.0000000000000000 0.0000000000000000
1.0000000000000000 0.0000000000000000 0.0000000000000000
1.0000000000000000 0.0000000000000000 0.0000000000000000
1.0000000000000000 0.0000000000000000 0.0000000000000000
1.0000000000000000 0.0000000000000000 0.0000000000000000
1.0000000000000000 0.0000000000000000 0.0000000000000000
1.0000000000000000 0.0000000000000000 0.0000000000000000
1.0000000000000000 0.0000000000000000 0.0000000000000000
1.0000000000000000 0.0000000000000000 0.0000000000000000
1.0000000000000000 0.0000000000000000 0.0000000000000000
1.0000000000000000 0.0000000000000000 0.0000000000000000
1.0000000000000000 0.0000000000000000 0.0000000000000000
1.0000000000000000 0.0000000000000000 0.0000000000000000
1.0000000000000000 0.0000000000000000 0.0000000000000000
1.0000000000000000 0.0000000000000000 0.0000000000000000
1.0000000000000000 0.0000000000000000 0.0000000000000000
1.0000000000000000 0.0000000000000000 0.0000000000000000
1.0000000000000000 0.0000000000000000 0.0000000000000000
1.0000000000000000 0.0000000000000000 0.0000000000000000
1.0000000000000000 0.0000000000000000 0.0000000000000000
1.0000000000000000 0.0000000000000000 0.0000000000000000
1.0000000000000000 0.0000000000000000 0.0000000000000000
1.0000000000000000 0.0000000000000000 0.0000000000000000
1.0000000000000000 0.0000000000000000 0.0000000000000000
1.0000000000000000 0.0000000000000000 0.0000000000000000
1.0000000000000000 0.0000000000000000 0.0000000000000000
1.0000000000000000 0.0000000000000000 0.0000000000000000
1.0000000000000000 0.0000000000000000 0.0000000000000000
1.0000000000000000 0.0000000000000000 0.0000000000000000
1.0000000000000000 0.0000000000000000 0.0000000000000000
1.0000000000000000 0.0000000000000000 0.0000000000000000
1.0000000000000000 0.0000000000000000 0.0000000000000000
1.0000000000000000 0.0000000000000000 0.0000000000000000
1.0000000000000000 0.0000000000000000 0.0000000000000000
1.0000000000000000 0.0000000000000000 0.0000000000000000
1.0000000000000000 0.0000000000000000 0.0000000000000000
1.0000000000000000 0.0000000000000000 0.0000000000000000
1.0000000000000000 0.0000000000000000 0.0000000000000000
1.0000000000000000 0.0000000000000000 0.0000000000000000
1.0000000000000000 0.0000000000000000 0.0000000000000000
1.0000000000000000 0.0000000000000000 0.0000000000000000
1.0000000000000000 0.0000000000000000 0.0000000000000000
1.0000000000000000 0.0000000000000000 0.0000000000000000
1.0000000000000000 0.0000000000000000 0.0000000000000000
1.0000000000000000 0.0000000000000000 0.0000000000000000
1.0000000000000000 0.0000000000000000 0.0000000000000000
1.0000000000000000 0.0000000000000000 0.0000000000000000
1.0000000000000000 0.0000000000000000 0.0000000000000000
1.0000000000000000 0.0000000000000000 0.0000000000000000
1.0000000000000000 0.0000000000000000 0.0000000000000000
1.0000000000000000 0.0000000000000000 0.0000000000000000
1.0000000000000000 0.0000000000000000 0.0000000000000000
1.0000000000000000 0.0000000000000000 0.0000000000000000
1.0000000000000000 0.0000000000000000 0.0000000000000000
1.0000000000000000 0.0000000000000000 0.0000000000000000
1.0000000000000000 0.0000000000000000 0.0000000000000000
1.0000000000000000 0.0000000000000000 0.0000000000000000
1.0000000000000000 0.0000000000000000 0.0000000000000000
1.0000000000000000 0.0000000000000000 0.0000000000000000
1.0000000000000000 0.0000000000000000 0.0000000000000000
1.0000000000000000 0.0000000000000000 0.0000000000000000
1.0000000000000000 0.0000000000000000 0.0000000000000000
1.0000000000000000 0.0000000000000000 0.0000000000000000
1.0000000000000000 0.0000000000000000 0.0000000000000000
1.0000000000000000 0.0000000000000000 0.0000000000000000
1.0000000000000000 0.0000000000000000 0.0000000000000000
1.0000000000000000 0.0000000000000000 0.0000000000000000
1.0000000000000000 0.0000000000000000 0.0000000000000000
1.0000000000000000 0.0000000000000000 0.0000000000000000
1.0000000000000000 0.0000000000000000 0.0000000000000000
1.0000000000000000 0.0000000000000000 0.0000000000000000
1.0000000000000000 0.0000000000000000 0.0000000000000000
1.0000000000000000 0.0000000000000000 0.0000000000000000
1.0000000000000000 0.0000000000000000 0.0000000000000000
1.0000000000000000 0.0000000000000000 0.0000000000000000
1.0000000000000000 0.0000000000000000 0.0000000000000000
1.0000000000000000 0.0000000000000000 0.0000000000000000
1.0000000000000000 0.0000000000000000 0.0000000000000000
1.0000000000000000 0.0000000000000000 0.0000000000000000
1.0000000000000000 0.0000000000000000 0.0000000000000000
1.0000000000000000 0.0000000000000000 0.0000000000000000
1.0000000000000000 0.0000000000000000 0.0000000000000000
1.0000000000000000 0.0000000000000000 0.0000000000000000
1.0000000000000000 0.0000000000000000 0.0000000000000000
1.0000000000000000 0.0000000000000000 0.0000000000000000
1.0000000000000000 0.0000000000000000 0.0000000000000000
1.0000000000000000 0.0000000000000000 0.0000000000000000
1.0000000000000000 0.0000000000000000 0.0000000000000000
1.0000000000000000 0.0000000000000000 0.0000000000000000
1.0000000000000000 0.0000000000000000 0.0000000000000000
1.0000000000000000 0.0000000000000000 0.0000000000000000
1.0000000000000000 0.0000000000000000 0.0000000000000000
1.0000000000000000 0.0000000000000000 0.0000000000000000
1.0000000000000000 0.0000000000000000 0.0000000000000000
1.0000000000000000 0.0000000000000000 0.0000000000000000
1.0000000000000000 0.0000000000000000 0.0000000000000000
1.0000000000000000 0.0000000000000000 0.0000000000000000
1.0000000000000000 0.0000000000000000 0.0000000000000000
1.0000000000000000 0.0000000000000000 0.0000000000000000
1.0000000000000000 0.0000000000000000 0.0000000000000000
1.0000000000000000 0.0000000000000000 0.0000000000000000
1.0000000000000000 0.0000000000000000 0.0000000000000000
1.0000000000000000 0.0000000000000000 0.0000000000000000
1.0000000000000000 0.0000000000000000 0.0000000000000000
1.0000000000000000 0.0000000000000000 0.0000000000000000
1.0000000000000000 0.0000000000000000 0.0000000000000000
1.0000000000000000 0.0000000000000000 0.0000000000000000
1.0000000000000000 0.0000000000000000 0.0000000000000000
1.0000000000000000 0.0000000000000000 0.0000000000000000
1.0000000000000000 0.0000000000000000 0.0000000000000000
1.0000000000000000 0.0000000000000000 0.0000000000000000
1.0000000000000000 0.0000000000000000 0.0000000000000000
1.0000000000000000 0.0000000000000000 0.0000000000000000
1.0000000000000000 0.0000000000000000 0.0000000000000000
1.0000000000000000 0.0000000000000000 0.0000000000000000
1.0000000000000000 0.0000000000000000 0.0000000000000000
1.0000000000000000 0.0000000000000000 0.0000000000000000
1.0000000000000000 0.0000000000000000 0.0000000000000000
1.0000000000000000 0.0000000000000000 0.0000000000000000
1.0000000000000000 0.0000000000000000 0.0000000000000000
1.0000000000000000 0.0000000000000000 0.0000000000000000
1.0000000000000000 0.0000000000000000 0.0000000000000000
1.0000000000000000 0.0000000000000000 0.0000000000000000
1.0000000000000000 0.0000000000000000 0.0000000000000000
1.0000000000000000 0.0000000000000000 0.0000000000000000
1.0000000000000000 0.0000000000000000 0.0000000000000000
1.0000000000000000 0.0000000000000000 0.0000000000000000
1.0000000000000000 0.0000000000000000 0.0000000000000000
1.0000000000000000 0.0000000000000000 0.0000000000000000
1.0000000000000000 0.0000000000000000 0.0000000000000000
1.0000000000000000 0.0000000000000000 0.0000000000000000
1.0000000000000000 0.0000000000000000 0.0000000000000000
1.0000000000000000 0.0000000000000000 0.0000000000000000
1.0000000000000000 0.0000000000000000 0.0000000000000000
1.0000000000000000 0.0000000000000000 0.0000000000000000
1.0000000000000000 0.0000000000000000 0.0000000000000000
1.0000000000000000 0.0000000000000000 0.0000000000000000
1.0000000000000000 0.0000000000000000 0.0000000000000000
1.0000000000000000 0.0000000000000000 0.0000000000000000
1.0000000000000000 0.0000000000000000 0.0000000000000000
1.0000000000000000 0.0000000000000000 0.0000000000000000
1.0000000000000000 0.0000000000000000 0.0000000000000000
1.0000000000000000 0.0000000000000000 0.0000000000000000
1.0000000000000000 0.0000000000000000 0.0000000000000000
1.0000000000000000 0.0000000000000000 0.0000000000000000
1.0000000000000000 0.0000000000000000 0.0000000000000000
1.0000000000000000 0.0000000000000000 0.0000000000000000
1.0000000000000000 0.0000000000000000 0.0000000000000000
1.0000000000000000 0.0000000000000000 0.0000000000000000
1.0000000000000000 0.0000000000000000 0.0000000000000000
1.0000000000000000 0.0000000000000000 0.0000000000000000
1.0000000000000000 0.0000000000000000 0.0000000000000000
1.0000000000000000 0.0000000000000000 0.0000000000000000
1.0000000000000000 0.0000000000000000 0.0000000000000000
1.0000000000000000 0.0000000000000000 0.0000000000000000
1.0000000000000000 0.0000000000000000 0.0000000000000000
1.0000000000000000 0.0000000000000000 0.0000000000000000
1.0000000000000000 0.0000000000000000 0.0000000000000000
1.0000000000000000 0.0000000000000000 0.0000000000000000
1.0000000000000000 0.0000000000000000 0.0000000000000000
1.0000000000000000 0.0000000000000000 0.0000000000000000
1.0000000000000000 0.0000000000000000 0.0000000000000000
1.0000000000000000 0.0000000000000000 0.0000000000000000
1.0000000000000000 0.0000000000000000 0.0000000000000000
1.0000000000000000 0.0000000000000000 0.0000000000000000
1.0000000000000000 0.0000000000000000 0.0000000000000000
1.0000000000000000 0.0000000000000000 0.0000000000000000
1.0000000000000000 0.0000000000000000 0.0000000000000000
1.0000000000000000 0.0000000000000000 0.0000000000000000
1.0000000000000000 0.0000000000000000 0.0000000000000000
1.0000000000000000 0.0000000000000000 0.0000000000000000
1.0000000000000000 0.0000000000000000 0.0000000000000000
1.0000000000000000 0.0000000000000000 0.0000000000000000
1.0000000000000000 0.0000000000000000 0.0000000000000000
1.0000000000000000 0.0000000000000000 0.0000000000000000
1.0000000000000000 0.0000000000000000 0.0000000000000000
1.0000000000000000 0.0000000000000000 0.0000000000000000
1.0000000000000000 0.0000000000000000 0.0000000000000000
1.0000000000000000 0.0000000000000000 0.0000000000000000
1.0000000000000000 0.0000000000000000 0.0000000000000000
1.0000000000000000 0.0000000000000000 0.0000000000000000
1.0000000000000000 0.0000000000000000 0.0000000000000000
1.0000000000000000 0.0000000000000000 0.0000000000000000
1.0000000000000000 0.0000000000000000 0.0000000000000000
1.0000000000000000 0.0000000000000000 0.0000000000000000
1.0000000000000000 0.0000000000000000 0.0000000000000000
1.0000000000000000 0.0000000000000000 0.0000000000000000
1.0000000000000000 0.0000000000000000 0.0000000000000000
1.0000000000000000 0.0000000000000000 0.0000000000000000
1.0000000000000000 0.0000000000000000 0.0000000000000000
1.0000000000000000 0.0000000000000000 0.0000000000000000
1.0000000000000000 0.0000000000000000 0.0000000000000000
1.0000000000000000 0.0000000000000000 0.0000000000000000
1.0000000000000000 0.0000000000000000 0.0000000000000000
1.0000000000000000 0.0000000000000000 0.0000000000000000
1.0000000000000000 0.0000000000000000 0.0000000000000000
1.0000000000000000 0.0000000000000000 0.0000000000000000
1.0000000000000000 0.0000000000000000 0.0000000000000000
1.0000000000000000 0.0000000000000000 0.0000000000000000
1.0000000000000000 0.0000000000000000 0.0000000000000000
1.0000000000000000 0.0000000000000000 0.0000000000000000
1.0000000000000000 0.0000000000000000 0.0000000000000000
1.0000000000000000 0.0000000000000000 0.0000000000000000
1.0000000000000000 0.0000000000000000 0.0000000000000000
1.0000000000000000 0.0000000000000000 0.0000000000000000
1.0000000000000000 0.0000000000000000 0.0000000000000000
1.0000000000000000 0.0000000000000000 0.0000000000000000
1.0000000000000000 0.0000000000000000 0.0000000000000000
1.0000000000000000 0.0000000000000000 0.0000000000000000
1.0000000000000000 0.0000000000000000 0.0000000000000000
1.0000000000000000 0.0000000000000000 0.0000000000000000
1.0000000000000000 0.0000000000000000 0.0000000000000000
1.0000000000000000 0.0000000000000000 0.0000000000000000
1.0000000000000000 0.0000000000000000 0.0000000000000000
1.0000000000000000 0.0000000000000000 0.0000000000000000
1.0000000000000000 0.0000000000000000 0.0000000000000000
1.0000000000000000 0.0000000000000000 0.0000000000000000
1.0000000000000000 0.0000000000000000 0.0000000000000000
1.0000000000000000 0.0000000000000000 0.0000000000000000
1.0000000000000000 0.0000000000000000 0.0000000000000000
1.0000000000000000 0.0000000000000000 0.0000000000000000
1.0000000000000000 0.0000000000000000 0.0000000000000000
1.0000000000000000 0.0000000000000000 0.0000000000000000
1.0000000000000000 0.0000000000000000 0.0000000000000000
1.0000000000000000 0.0000000000000000 0.0000000000000000
1.0000000000000000 0.0000000000000000 0.0000000000000000
1.0000000000000000 0.0000000000000000 0.0000000000000000
1.0000000000000000 0.0000000000000000 0.0000000000000000
1.0000000000000000 0.0000000000000000 0.0000000000000000
1.0000000000000000 0.0000000000000000 0.0000000000000000
1.0000000000000000 0.0000000000000000 0.0000000000000000
1.0000000000000000 0.0000000000000000 0.0000000000000000
1.0000000000000000 0.0000000000000000 0.0000000000000000
1.0000000000000000 0.0000000000000000 0.0000000000000000
1.0000000000000000 0.0000000000000000 0.0000000000000000
1.0000000000000000 0.0000000000000000 0.0000000000000000
1.0000000000000000 0.0000000000000000 0.0000000000000000
1.0000000000000000 0.0000000000000000 0.0000000000000000
1.0000000000000000 0.0000000000000000 0.0000000000000000
1.0000000000000000 0.0000000000000000 0.0000000000000000
1.0000000000000000 0.0000000000000000 0.0000000000000000
1.0000000000000000 0.0000000000000000 0.0000000000000000
1.0000000000000000 0.0000000000000000 0.0000000000000000
1.0000000000000000 0.0000000000000000 0.0000000000000000
1.0000000000000000 0.0000000000000000 0.0000000000000000
1.0000000000000000 0.0000000000000000 0.0000000000000000
1.0000000000000000 0.0000000000000000 0.0000000000000000
1.0000000000000000 0.0000000000000000 0.0000000000000000
1.0000000000000000 0.0000000000000000 0.0000000000000000
1.0000000000000000 0.0000000000000000 0.0000000000000000
1.0000000000000000 0.0000000000000000 0.0000000000000000
1.0000000000000000 0.0000000000000000 0.0000000000000000
1.0000000000000000 0.0000000000000000 0.0000000000000000
1.0000000000000000 0.0000000000000000 0.0000000000000000
1.0000000000000000 0.0000000000000000 0.0000000000000000
1.0000000000000000 0.0000000000000000 0.0000000000000000
1.0000000000000000 0.0000000000000000 0.0000000000000000
1.0000000000000000 0.0000000000000000 0.0000000000000000
1.0000000000000000 0.0000000000000000 0.0000000000000000
1.0000000000000000 0.0000000000000000 0.0000000000000000
1.0000000000000000 0.0000000000000000 0.0000000000000000
1.0000000000000000 0.0000000000000000 0.0000000000000000
1.0000000000000000 0.0000000000000000 0.0000000000000000
1.0000000000000000 0.0000000000000000 0.0000000000000000
1.0000000000000000 0.0000000000000000 0.0000000000000000
1.0000000000000000 0.0000000000000000 0.0000000000000000
1.0000000000000000 0.0000000000000000 0.0000000000000000
1.0000000000000000 0.0000000000000000 0.0000000000000000
1.0000000000000000 0.0000000000000000 0.0000000000000000
1.0000000000000000 0.0000000000000000 0.0000000000000000
1.0000000000000000 0.0000000000000000 0.0000000000000000
1.0000000000000000 0.0000000000000000 0.0000000000000000
1.0000000000000000 0.0000000000000000 0.0000000000000000
1.0000000000000000 0.0000000000000000 0.0000000000000000
1.0000000000000000 0.0000000000000000 0.0000000000000000
1.0000000000000000 0.0000000000000000 0.0000000000000000
1.0000000000000000 0.0000000000000000 0.0000000000000000
1.0000000000000000 0.0000000000000000 0.0000000000000000
1.0000000000000000 0.0000000000000000 0.0000000000000000
1.0000000000000000 0.0000000000000000 0.0000000000000000
1.0000000000000000 0.0000000000000000 0.0000000000000000
1.0000000000000000 0.0000000000000000 0.0000000000000000
1.0000000000000000 0.0000000000000000 0.0000000000000000
1.0000000000000000 0.0000000000000000 0.0000000000000000
1.0000000000000000 0.0000000000000000 0.0000000000000000
1.0000000000000000 0.0000000000000000 0.0000000000000000
1.0000000000000000 0.0000000000000000 0.0000000000000000
1.0000000000000000 0.0000000000000000 0.0000000000000000
1.0000000000000000 0.0000000000000000 0.0000000000000000
1.0000000000000000 0.0000000000000000 0.0000000000000000
1.0000000000000000 0.0000000000000000 0.0000000000000000
1.0000000000000000 0.0000000000000000 0.0000000000000000
1.0000000000000000 0.0000000000000000 0.0000000000000000
1.0000000000000000 0.0000000000000000 0.0000000000000000
1.0000000000000000 0.0000000000000000 0.0000000000000000
1.0000000000000000 0.0000000000000000 0.0000000000000000
1.0000000000000000 0.0000000000000000 0.0000000000000000
1.0000000000000000 0.0000000000000000 0.0000000000000000
1.0000000000000000 0.0000000000000000 0.0000000000000000
1.0000000000000000 0.0000000000000000 0.0000000000000000
1.0000000000000000 0.0000000000000000 0.0000000000000000
1.0000000000000000 0.0000000000000000 0.0000000000000000
1.0000000000000000 0.0000000000000000 0.0000000000000000
1.0000000000000000 0.0000000000000000 0.0000000000000000
1.0000000000000000 0.0000000000000000 0.0000000000000000
1.0000000000000000 0.0000000000000000 0.0000000000000000
1.0000000000000000 0.0000000000000000 0.0000000000000000
1.0000000000000000 0.0000000000000000 0.0000000000000000
1.0000000000000000 0.0000000000000000 0.0000000000000000
1.0000000000000000 0.0000000000000000 0.0000000000000000
1.0000000000000000 0.0000000000000000 0.0000000000000000
1.0000000000000000 0.0000000000000000 0.0000000000000000
1.0000000000000000 0.0000000000000000 0.0000000000000000
1.0000000000000000 0.0000000000000000 0.0000000000000000
1.0000000000000000 0.0000000000000000 0.0000000000000000
1.0000000000000000 0.0000000000000000 0.0000000000000000
1.0000000000000000 0.0000000000000000 0.0000000000000000
1.0000000000000000 0.0000000000000000 0.0000000000000000
1.0000000000000000 0.0000000000000000 0.0000000000000000
1.0000000000000000 0.0000000000000000 0.0000000000000000
1.0000000000000000 0.0000000000000000 0.0000000000000000
1.0000000000000000 0.0000000000000000 0.0000000000000000
1.0000000000000000 0.0000000000000000 0.0000000000000000
1.0000000000000000 0.0000000000000000 0.0000000000000000
1.0000000000000000 0.0000000000000000 0.0000000000000000
1.0000000000000000 0.0000000000000000 0.0000000000000000
1.0000000000000000 0.0000000000000000 0.0000000000000000
1.0000000000000000 0.0000000000000000 0.0000000000000000
1.0000000000000000 0.0000000000000000 0.0000000000000000
1.0000000000000000 0.0000000000000000 0.0000000000000000
1.0000000000000000 0.0000000000000000 0.0000000000000000
1.0000000000000000 0.0000000000000000 0.0000000000000000
1.0000000000000000 0.0000000000000000 0.0000000000000000
1.0000000000000000 0.0000000000000000 0.0000000000000000
1.0000000000000000 0.0000000000000000 0.0000000000000000
1.0000000000000000 0.0000000000000000 0.0000000000000000
1.0000000000000000 0.0000000000000000 0.0000000000000000
1.0000000000000000 0.0000000000000000 0.0000000000000000
1.0000000000000000 0.0000000000000000 0.0000000000000000
1.0000000000000000 0.0000000000000000 0.0000000000000000
1.0000000000000000 0.0000000000000000 0.0000000000000000
1.0000000000000000 0.0000000000000000 0.0000000000000000
1.0000000000000000 0.0000000000000000 0.0000000000000000
1.0000000000000000 0.0000000000000000 0.0000000000000000
1.0000000000000000 0.0000000000000000 0.0000000000000000
1.0000000000000000 0.0000000000000000 0.0000000000000000
1.0000000000000000 0.0000000000000000 0.0000000000000000
1.0000000000000000 0.0000000000000000 0.0000000000000000
1.0000000000000000 0.0000000000000000 0.0000000000000000
1.0000000000000000 0.0000000000000000 0.0000000000000000
1.0000000000000000 0.0000000000000000 0.0000000000000000
1.0000000000000000 0.0000000000000000 0.0000000000000000
1.0000000000000000 0.0000000000000000 0.0000000000000000
1.0000000000000000 0.0000000000000000 0.0000000000000000
1.0000000000000000 0.0000000000000000 0.0000000000000000
1.0000000000000000 0.0000000000000000 0.0000000000000000
1.0000000000000000 0.0000000000000000 0.0000000000000000
1.0000000000000000 0.0000000000000000 0.0000000000000000
1.0000000000000000 0.0000000000000000 0.0000000000000000
1.0000000000000000 0.0000000000000000 0.0000000000000000
1.0000000000000000 0.0000000000000000 0.0000000000000000
1.0000000000000000 0.0000000000000000 0.0000000000000000
1.0000000000000000 0.0000000000000000 0.0000000000000000
1.0000000000000000 0.0000000000000000 0.0000000000000000
1.0000000000000000 0.0000000000000000 0.0000000000000000
1.0000000000000000 0.0000000000000000 0.0000000000000000
1.0000000000000000 0.0000000000000000 0.0000000000000000
1.0000000000000000 0.0000000000000000 0.0000000000000000
1.0000000000000000 0.0000000000000000 0.0000000000000000
1.0000000000000000 0.0000000000000000 0.0000000000000000
1.0000000000000000 0.0000000000000000 0.0000000000000000
1.0000000000000000 0.0000000000000000 0.0000000000000000
1.0000000000000000 0.0000000000000000 0.0000000000000000
1.0000000000000000 0.0000000000000000 0.0000000000000000
1.0000000000000000 0.0000000000000000 0.0000000000000000
1.0000000000000000 0.0000000000000000 0.0000000000000000
1.0000000000000000 0.0000000000000000 0.0000000000000000
1.0000000000000000 0.0000000000000000 0.0000000000000000
1.0000000000000000 0.0000000000000000 0.0000000000000000
1.0000000000000000 0.0000000000000000 0.0000000000000000
1.0000000000000000 0.0000000000000000 0.0000000000000000
1.0000000000000000 0.0000000000000000 0.0000000000000000
1.0000000000000000 0.0000000000000000 0.0000000000000000
1.0000000000000000 0.0000000000000000 0.0000000000000000
1.0000000000000000 0.0000000000000000 0.0000000000000000
1.0000000000000000 0.0000000000000000 0.0000000000000000
1.0000000000000000 0.0000000000000000 0.0000000000000000
1.0000000000000000 0.0000000000000000 0.0000000000000000
1.0000000000000000 0.0000000000000000 0.0000000000000000
1.0000000000000000 0.0000000000000000 0.0000000000000000
1.0000000000000000 0.0000000000000000 0.0000000000000000
1.0000000000000000 0.0000000000000000 0.0000000000000000
1.0000000000000000 0.0000000000000000 0.0000000000000000
1.0000000000000000 0.0000000000000000 0.0000000000000000
1.0000000000000000 0.0000000000000000 0.0000000000000000
1.0000000000000000 0.0000000000000000 0.0000000000000000
1.0000000000000000 0.0000000000000000 0.0000000000000000
1.0000000000000000 0.0000000000000000 0.0000000000000000
1.0000000000000000 0.0000000000000000 0.0000000000000000
1.0000000000000000 0.0000000000000000 0.0000000000000000
1.0000000000000000 0.0000000000000000 0.0000000000000000
1.0000000000000000 0.0000000000000000 0.0000000000000000
1.0000000000000000 0.0000000000000000 0.0000000000000000
1.0000000000000000 0.0000000000000000 0.0000000000000000
1.0000000000000000 0.0000000000000000 0.0000000000000000
1.0000000000000000 0.0000000000000000 0.0000000000000000
1.0000000000000000 0.0000000000000000 0.0000000000000000
1.0000000000000000 0.0000000000000000 0.0000000000000000
1.0000000000000000 0.0000000000000000 0.0000000000000000
1.0000000000000000 0.0000000000000000 0.0000000000000000
1.0000000000000000 0.0000000000000000 0.0000000000000000
1.0000000000000000 0.0000000000000000 0.0000000000000000
1.0000000000000000 0.0000000000000000 0.0000000000000000
1.0000000000000000 0.0000000000000000 0.0000000000000000
1.0000000000000000 0.0000000000000000 0.0000000000000000
1.0000000000000000 0.0000000000000000 0.0000000000000000
1.0000000000000000 0.0000000000000000 0.0000000000000000
1.0000000000000000 0.0000000000000000 0.0000000000000000
1.0000000000000000 0.0000000000000000 0.0000000000000000
1.0000000000000000 0.0000000000000000 0.0000000000000000
1.0000000000000000 0.0000000000000000 0.0000000000000000
1.0000000000000000 0.0000000000000000 0.0000000000000000
1.0000000000000000 0.0000000000000000 0.0000000000000000
1.0000000000000000 0.0000000000000000 0.0000000000000000
1.0000000000000000 0.0000000000000000 0.0000000000000000
1.0000000000000000 0.0000000000000000 0.0000000000000000
1.0000000000000000 0.0000000000000000 0.0000000000000000
1.0000000000000000 0.0000000000000000 0.0000000000000000
1.0000000000000000 0.0000000000000000 0.0000000000000000
1.0000000000000000 0.0000000000000000 0.0000000000000000
1.0000000000000000 0.0000000000000000 0.0000000000000000
1.0000000000000000 0.0000000000000000 0.0000000000000000
1.0000000000000000 0.0000000000000000 0.0000000000000000
1.0000000000000000 0.0000000000000000 0.0000000000000000
1.0000000000000000 0.0000000000000000 0.0000000000000000
1.0000000000000000 0.0000000000000000 0.0000000000000000
1.0000000000000000 0.0000000000000000 0.0000000000000000
1.0000000000000000 0.0000000000000000 0.0000000000000000
1.0000000000000000 0.0000000000000000 0.0000000000000000
1.0000000000000000 0.0000000000000000 0.0000000000000000
1.0000000000000000 0.0000000000000000 0.0000000000000000
1.0000000000000000 0.0000000000000000 0.0000000000000000
1.0000000000000000 0.0000000000000000 0.0000000000000000
1.0000000000000000 0.0000000000000000 0.0000000000000000
1.0000000000000000 0.0000000000000000 0.0000000000000000
1.0000000000000000 0.0000000000000000 0.0000000000000000
1.0000000000000000 0.0000000000000000 0.0000000000000000
1.0000000000000000 0.0000000000000000 0.0000000000000000
1.0000000000000000 0.0000000000000000 0.0000000000000000
1.0000000000000000 0.0000000000000000 0.0000000000000000
1.0000000000000000 0.0000000000000000 0.0000000000000000
1.0000000000000000 0.0000000000000000 0.0000000000000000
1.0000000000000000 0.0000000000000000 0.0000000000000000
1.0000000000000000 0.0000000000000000 0.0000000000000000
1.0000000000000000 0.0000000000000000 0.0000000000000000
1.0000000000000000 0.0000000000000000 0.0000000000000000
1.0000000000000000 0.0000000000000000 0.0000000000000000
1.0000000000000000 0.0000000000000000 0.0000000000000000
1.0000000000000000 0.0000000000000000 0.0000000000000000
1.0000000000000000 0.0000000000000000 0.0000000000000000
1.0000000000000000 0.0000000000000000 0.0000000000000000
1.0000000000000000 0.0000000000000000 0.0000000000000000
1.0000000000000000 0.0000000000000000 0.0000000000000000
1.0000000000000000 0.0000000000000000 0.0000000000000000
1.0000000000000000 0.0000000000000000 0.0000000000000000
1.0000000000000000 0.0000000000000000 0.0000000000000000
1.0000000000000000 0.0000000000000000 0.0000000000000000
1.0000000000000000 0.0000000000000000 0.0000000000000000
1.0000000000000000 0.0000000000000000 0.0000000000000000
1.0000000000000000 0.0000000000000000 0.0000000000000000
1.0000000000000000 0.0000000000000000 0.0000000000000000
1.0000000000000000 0.0000000000000000 0.0000000000000000
1.0000000000000000 0.0000000000000000 0.0000000000000000
1.0000000000000000 0.0000000000000000 0.0000000000000000
1.0000000000000000 0.0000000000000000 0.0000000000000000
1.0000000000000000 0.0000000000000000 0.0000000000000000
1.0000000000000000 0.0000000000000000 0.0000000000000000
1.0000000000000000 0.0000000000000000 0.0000000000000000
1.0000000000000000 0.0000000000000000 0.0000000000000000
1.0000000000000000 0.0000000000000000 0.0000000000000000
1.0000000000000000 0.0000000000000000 0.0000000000000000
1.0000000000000000 0.0000000000000000 0.0000000000000000
1.0000000000000000 0.0000000000000000 0.0000000000000000
1.0000000000000000 0.0000000000000000 0.0000000000000000
1.0000000000000000 0.0000000000000000 0.0000000000000000
1.0000000000000000 0.0000000000000000 0.0000000000000000
1.0000000000000000 0.0000000000000000 0.0000000000000000
1.0000000000000000 0.0000000000000000 0.0000000000000000
1.0000000000000000 0.0000000000000000 0.0000000000000000
1.0000000000000000 0.0000000000000000 0.0000000000000000
1.0000000000000000 0.0000000000000000 0.0000000000000000
1.0000000000000000 0.0000000000000000 0.0000000000000000
1.0000000000000000 0.0000000000000000 0.0000000000000000
1.0000000000000000 0.0000000000000000 0.0000000000000000
1.0000000000000000 0.0000000000000000 0.0000000000000000
1.0000000000000000 0.0000000000000000 0.0000000000000000
1.0000000000000000 0.0000000000000000 0.0000000000000000
1.0000000000000000 0.0000000000000000 0.0000000000000000
1.0000000000000000 0.0000000000000000 0.0000000000000000
1.0000000000000000 0.0000000000000000 0.0000000000000000
1.0000000000000000 0.0000000000000000 0.0000000000000000
1.0000000000000000 0.0000000000000000 0.0000000000000000
1.0000000000000000 0.0000000000000000 0.0000000000000000
1.0000000000000000 0.0000000000000000 0.0000000000000000
1.0000000000000000 0.0000000000000000 0.0000000000000000
1.0000000000000000 0.0000000000000000 0.0000000000000000
1.0000000000000000 0.0000000000000000 0.0000000000000000
1.0000000000000000 0.0000000000000000 0.0000000000000000
1.0000000000000000 0.0000000000000000 0.0000000000000000
1.0000000000000000 0.0000000000000000 0.0000000000000000
1.0000000000000000 0.0000000000000000 0.0000000000000000
1.0000000000000000 0.0000000000000000 0.0000000000000000
1.0000000000000000 0.0000000000000000 0.0000000000000000
1.0000000000000000 0.0000000000000000 0.0000000000000000
1.0000000000000000 0.0000000000000000 0.0000000000000000
1.0000000000000000 0.0000000000000000 0.0000000000000000
1.0000000000000000 0.0000000000000000 0.0000000000000000
1.0000000000000000 0.0000000000000000 0.0000000000000000
1.0000000000000000 0.0000000000000000 0.0000000000000000
1.0000000000000000 0.0000000000000000 0.0000000000000000
1.0000000000000000 0.0000000000000000 0.0000000000000000
1.0000000000000000 0.0000000000000000 0.0000000000000000
1.0000000000000000 0.0000000000000000 0.0000000000000000
1.0000000000000000 0.0000000000000000 0.0000000000000000
1.0000000000000000 0.0000000000000000 0.0000000000000000
1.0000000000000000 0.0000000000000000 0.0000000000000000
1.0000000000000000 0.0000000000000000 0.0000000000000000
1.0000000000000000 0.0000000000000000 0.0000000000000000
1.0000000000000000 0.0000000000000000 0.0000000000000000
1.0000000000000000 0.0000000000000000 0.0000000000000000
1.0000000000000000 0.0000000000000000 0.0000000000000000
1.0000000000000000 0.0000000000000000 0.0000000000000000
1.0000000000000000 0.0000000000000000 0.0000000000000000
1.0000000000000000 0.0000000000000000 0.0000000000000000
1.0000000000000000 0.0000000000000000 0.0000000000000000
1.0000000000000000 0.0000000000000000 0.0000000000000000
1.0000000000000000 0.0000000000000000 0.0000000000000000
1.0000000000000000 0.0000000000000000 0.0000000000000000
1.0000000000000000 0.0000000000000000 0.0000000000000000
1.0000000000000000 0.0000000000000000 0.0000000000000000
1.0000000000000000 0.0000000000000000 0.0000000000000000
1.0000000000000000 0.0000000000000000 0.0000000000000000
1.0000000000000000 0.0000000000000000 0.0000000000000000
1.0000000000000000 0.0000000000000000 0.0000000000000000
1.0000000000000000 0.0000000000000000 0.0000000000000000
1.0000000000000000 0.0000000000000000 0.0000000000000000
1.0000000000000000 0.0000000000000000 0.0000000000000000
1.0000000000000000 0.0000000000000000 0.0000000000000000
1.0000000000000000 0.0000000000000000 0.0000000000000000
1.0000000000000000 0.0000000000000000 0.0000000000000000
1.0000000000000000 0.0000000000000000 0.0000000000000000
1.0000000000000000 0.0000000000000000 0.0000000000000000
1.0000000000000000 0.0000000000000000 0.0000000000000000
1.0000000000000000 0.0000000000000000 0.0000000000000000
1.0000000000000000 0.0000000000000000 0.0000000000000000
1.0000000000000000 0.0000000000000000 0.0000000000000000
1.0000000000000000 0.0000000000000000 0.0000000000000000
1.0000000000000000 0.0000000000000000 0.0000000000000000
1.0000000000000000 0.0000000000000000 0.0000000000000000
1.0000000000000000 0.0000000000000000 0.0000000000000000
1.0000000000000000 0.0000000000000000 0.0000000000000000
1.0000000000000000 0.0000000000000000 0.0000000000000000
1.0000000000000000 0.0000000000000000 0.0000000000000000
1.0000000000000000 0.0000000000000000 0.0000000000000000
1.0000000000000000 0.0000000000000000 0.0000000000000000
1.0000000000000000 0.0000000000000000 0.0000000000000000
1.0000000000000000 0.0000000000000000 0.0000000000000000
1.0000000000000000 0.0000000000000000 0.0000000000000000
1.0000000000000000 0.0000000000000000 0.0000000000000000
1.0000000000000000 0.0000000000000000 0.0000000000000000
1.0000000000000000 0.0000000000000000 0.0000000000000000
1.0000000000000000 0.0000000000000000 0.0000000000000000
1.0000000000000000 0.0000000000000000 0.0000000000000000
1.0000000000000000 0.0000000000000000 0.0000000000000000
1.0000000000000000 0.0000000000000000 0.0000000000000000
1.0000000000000000 0.0000000000000000 0.0000000000000000
1.0000000000000000 0.0000000000000000 0.0000000000000000
1.0000000000000000 0.0000000000000000 0.0000000000000000
1.0000000000000000 0.0000000000000000 0.0000000000000000
1.0000000000000000 0.0000000000000000 0.0000000000000000
1.0000000000000000 0.0000000000000000 0.0000000000000000
1.0000000000000000 0.0000000000000000 0.0000000000000000
1.0000000000000000 0.0000000000000000 0.0000000000000000
1.0000000000000000 0.0000000000000000 0.0000000000000000
1.0000000000000000 0.0000000000000000 0.0000000000000000
1.0000000000000000 0.0000000000000000 0.0000000000000000
1.0000000000000000 0.0000000000000000 0.0000000000000000
1.0000000000000000 0.0000000000000000 0.0000000000000000
1.0000000000000000 0.0000000000000000 0.0000000000000000
1.0000000000000000 0.0000000000000000 0.0000000000000000
1.0000000000000000 0.0000000000000000 0.0000000000000000
1.0000000000000000 0.0000000000000000 0.0000000000000000
1.0000000000000000 0.0000000000000000 0.0000000000000000
1.0000000000000000 0.0000000000000000 0.0000000000000000
1.0000000000000000 0.0000000000000000 0.0000000000000000
1.0000000000000000 0.0000000000000000 0.0000000000000000
1.0000000000000000 0.0000000000000000 0.0000000000000000
1.0000000000000000 0.0000000000000000 0.0000000000000000
1.0000000000000000 0.0000000000000000 0.0000000000000000
1.0000000000000000 0.0000000000000000 0.0000000000000000
1.0000000000000000 0.0000000000000000 0.0000000000000000
1.0000000000000000 0.0000000000000000 0.0000000000000000
1.0000000000000000 0.0000000000000000 0.0000000000000000
1.0000000000000000 0.0000000000000000 0.0000000000000000
1.0000000000000000 0.0000000000000000 0.0000000000000000
1.0000000000000000 0.0000000000000000 0.0000000000000000
1.0000000000000000 0.0000000000000000 0.0000000000000000
1.0000000000000000 0.0000000000000000 0.0000000000000000
1.0000000000000000 0.0000000000000000 0.0000000000000000
1.0000000000000000 0.0000000000000000 0.0000000000000000
1.0000000000000000 0.0000000000000000 0.0000000000000000
1.0000000000000000 0.0000000000000000 0.0000000000000000
1.0000000000000000 0.0000000000000000 0.0000000000000000
1.0000000000000000 0.0000000000000000 0.0000000000000000
1.0000000000000000 0.0000000000000000 0.0000000000000000
1.0000000000000000 0.0000000000000000 0.0000000000000000
1.0000000000000000 0.0000000000000000 0.0000000000000000
1.0000000000000000 0.0000000000000000 0.0000000000000000
1.0000000000000000 0.0000000000000000 0.0000000000000000
1.0000000000000000 0.0000000000000000 0.0000000000000000
1.0000000000000000 0.0000000000000000 0.0000000000000000
1.0000000000000000 0.0000000000000000 0.0000000000000000
1.0000000000000000 0.0000000000000000 0.0000000000000000
1.0000000000000000 0.0000000000000000 0.0000000000000000
1.0000000000000000 0.0000000000000000 0.0000000000000000
1.0000000000000000 0.0000000000000000 0.0000000000000000
1.0000000000000000 0.0000000000000000 0.0000000000000000
1.0000000000000000 0.0000000000000000 0.0000000000000000
1.0000000000000000 0.0000000000000000 0.0000000000000000
1.0000000000000000 0.0000000000000000 0.0000000000000000
1.0000000000000000 0.0000000000000000 0.0000000000000000
1.0000000000000000 0.0000000000000000 0.0000000000000000
1.0000000000000000 0.0000000000000000 0.0000000000000000
1.0000000000000000 0.0000000000000000 0.0000000000000000
1.0000000000000000 0.0000000000000000 0.0000000000000000
1.0000000000000000 0.0000000000000000 0.0000000000000000
1.0000000000000000 0.0000000000000000 0.0000000000000000
1.0000000000000000 0.0000000000000000 0.0000000000000000
1.0000000000000000 0.0000000000000000 0.0000000000000000
1.0000000000000000 0.0000000000000000 0.0000000000000000
1.0000000000000000 0.0000000000000000 0.0000000000000000
1.0000000000000000 0.0000000000000000 0.0000000000000000
1.0000000000000000 0.0000000000000000 0.0000000000000000
1.0000000000000000 0.0000000000000000 0.0000000000000000
1.0000000000000000 0.0000000000000000 0.0000000000000000
1.0000000000000000 0.0000000000000000 0.0000000000000000
1.0000000000000000 0.0000000000000000 0.0000000000000000
1.0000000000000000 0.0000000000000000 0.0000000000000000
1.0000000000000000 0.0000000000000000 0.0000000000000000
1.0000000000000000 0.0000000000000000 0.0000000000000000
1.0000000000000000 0.0000000000000000 0.0000000000000000
1.0000000000000000 0.0000000000000000 0.0000000000000000
1.0000000000000000 0.0000000000000000 0.0000000000000000
1.0000000000000000 0.0000000000000000 0.0000000000000000
1.0000000000000000 0.0000000000000000 0.0000000000000000
1.0000000000000000 0.0000000000000000 0.0000000000000000
1.0000000000000000 0.0000000000000000 0.0000000000000000
1.0000000000000000 0.0000000000000000 0.0000000000000000
1.0000000000000000 0.0000000000000000 0.0000000000000000
1.0000000000000000 0.0000000000000000 0.0000000000000000
1.0000000000000000 0.0000000000000000 0.0000000000000000
1.0000000000000000 0.0000000000000000 0.0000000000000000
1.0000000000000000 0.0000000000000000 0.0000000000000000
1.0000000000000000 0.0000000000000000 0.0000000000000000
1.0000000000000000 0.0000000000000000 0.0000000000000000
1.0000000000000000 0.0000000000000000 0.0000000000000000
1.0000000000000000 0.0000000000000000 0.0000000000000000
1.0000000000000000 0.0000000000000000 0.0000000000000000
1.0000000000000000 0.0000000000000000 0.0000000000000000
1.0000000000000000 0.0000000000000000 0.0000000000000000
1.0000000000000000 0.0000000000000000 0.0000000000000000
1.0000000000000000 0.0000000000000000 0.0000000000000000
1.0000000000000000 0.0000000000000000 0.0000000000000000
1.0000000000000000 0.0000000000000000 0.0000000000000000
1.0000000000000000 0.0000000000000000 0.0000000000000000
1.0000000000000000 0.0000000000000000 0.0000000000000000
1.0000000000000000 0.0000000000000000 0.0000000000000000
1.0000000000000000 0.0000000000000000 0.0000000000000000
1.0000000000000000 0.0000000000000000 0.0000000000000000
1.0000000000000000 0.0000000000000000 0.0000000000000000
1.0000000000000000 0.0000000000000000 0.0000000000000000
1.0000000000000000 0.0000000000000000 0.0000000000000000
1.0000000000000000 0.0000000000000000 0.0000000000000000
1.0000000000000000 0.0000000000000000 0.0000000000000000
1.0000000000000000 0.0000000000000000 0.0000000000000000
1.0000000000000000 0.0000000000000000 0.0000000000000000
1.0000000000000000 0.0000000000000000 0.0000000000000000
1.0000000000000000 0.0000000000000000 0.0000000000000000
1.0000000000000000 0.0000000000000000 0.0000000000000000
1.0000000000000000 0.0000000000000000 0.0000000000000000
1.0000000000000000 0.0000000000000000 0.0000000000000000
1.0000000000000000 0.0000000000000000 0.0000000000000000
1.0000000000000000 0.0000000000000000 0.0000000000000000
1.0000000000000000 0.0000000000000000 0.0000000000000000
1.0000000000000000 0.0000000000000000 0.0000000000000000
1.0000000000000000 0.0000000000000000 0.0000000000000000
1.0000000000000000 0.0000000000000000 0.0000000000000000
1.0000000000000000 0.0000000000000000 0.0000000000000000
1.0000000000000000 0.0000000000000000 0.0000000000000000
1.0000000000000000 0.0000000000000000 0.0000000000000000
1.0000000000000000 0.0000000000000000 0.0000000000000000
1.0000000000000000 0.0000000000000000 0.0000000000000000
1.0000000000000000 0.0000000000000000 0.0000000000000000
1.0000000000000000 0.0000000000000000 0.0000000000000000
1.0000000000000000 0.0000000000000000 0.0000000000000000
1.0000000000000000 0.0000000000000000 0.0000000000000000
1.0000000000000000 0.0000000000000000 0.0000000000000000
1.0000000000000000 0.0000000000000000 0.0000000000000000
1.0000000000000000 0.0000000000000000 0.0000000000000000
1.0000000000000000 0.0000000000000000 0.0000000000000000
1.0000000000000000 0.0000000000000000 0.0000000000000000
1.0000000000000000 0.0000000000000000 0.0000000000000000
1.0000000000000000 0.0000000000000000 0.0000000000000000
1.0000000000000000 0.0000000000000000 0.0000000000000000
1.0000000000000000 0.0000000000000000 0.0000000000000000
1.0000000000000000 0.0000000000000000 0.0000000000000000
1.0000000000000000 0.0000000000000000 0.0000000000000000
1.0000000000000000 0.0000000000000000 0.0000000000000000
1.0000000000000000 0.0000000000000000 0.0000000000000000
1.0000000000000000 0.0000000000000000 0.0000000000000000
1.0000000000000000 0.0000000000000000 0.0000000000000000
1.0000000000000000 0.0000000000000000 0.0000000000000000
1.0000000000000000 0.0000000000000000 0.0000000000000000
1.0000000000000000 0.0000000000000000 0.0000000000000000
1.0000000000000000 0.0000000000000000 0.0000000000000000
1.0000000000000000 0.0000000000000000 0.0000000000000000
1.0000000000000000 0.0000000000000000 0.0000000000000000
1.0000000000000000 0.0000000000000000 0.0000000000000000
1.0000000000000000 0.0000000000000000 0.0000000000000000
1.0000000000000000 0.0000000000000000 0.0000000000000000
1.0000000000000000 0.0000000000000000 0.0000000000000000
1.0000000000000000 0.0000000000000000 0.0000000000000000
1.0000000000000000 0.0000000000000000 0.0000000000000000
1.0000000000000000 0.0000000000000000 0.0000000000000000
1.0000000000000000 0.0000000000000000 0.0000000000000000
1.0000000000000000 0.0000000000000000 0.0000000000000000
1.0000000000000000 0.0000000000000000 0.0000000000000000
1.0000000000000000 0.0000000000000000 0.0000000000000000
1.0000000000000000 0.0000000000000000 0.0000000000000000
1.0000000000000000 0.0000000000000000 0.0000000000000000
1.0000000000000000 0.0000000000000000 0.0000000000000000
1.0000000000000000 0.0000000000000000 0.0000000000000000
1.0000000000000000 0.0000000000000000 0.0000000000000000
1.0000000000000000 0.0000000000000000 0.0000000000000000
1.0000000000000000 0.0000000000000000 0.0000000000000000
1.0000000000000000 0.0000000000000000 0.0000000000000000
1.0000000000000000 0.0000000000000000 0.0000000000000000
1.0000000000000000 0.0000000000000000 0.0000000000000000
1.0000000000000000 0.0000000000000000 0.0000000000000000
1.0000000000000000 0.0000000000000000 0.0000000000000000
1.0000000000000000 0.0000000000000000 0.0000000000000000
1.0000000000000000 0.0000000000000000 0.0000000000000000
1.0000000000000000 0.0000000000000000 0.0000000000000000
1.0000000000000000 0.0000000000000000 0.0000000000000000
1.0000000000000000 0.0000000000000000 0.0000000000000000
1.0000000000000000 0.0000000000000000 0.0000000000000000
1.0000000000000000 0.0000000000000000 0.0000000000000000
1.0000000000000000 0.0000000000000000 0.0000000000000000
1.0000000000000000 0.0000000000000000 0.0000000000000000
1.0000000000000000 0.0000000000000000 0.0000000000000000
1.0000000000000000 0.0000000000000000 0.0000000000000000
1.0000000000000000 0.0000000000000000 0.0000000000000000
1.0000000000000000 0.0000000000000000 0.0000000000000000
1.0000000000000000 0.0000000000000000 0.0000000000000000
1.0000000000000000 0.0000000000000000 0.0000000000000000
1.0000000000000000 0.0000000000000000 0.0000000000000000
1.0000000000000000 0.0000000000000000 0.0000000000000000
1.0000000000000000 0.0000000000000000 0.0000000000000000
1.0000000000000000 0.0000000000000000 0.0000000000000000
1.0000000000000000 0.0000000000000000 0.0000000000000000
1.0000000000000000 0.0000000000000000 0.0000000000000000
1.0000000000000000 0.0000000000000000 0.0000000000000000
1.0000000000000000 0.0000000000000000 0.0000000000000000
1.0000000000000000 0.0000000000000000 0.0000000000000000
1.0000000000000000 0.0000000000000000 0.0000000000000000
1.0000000000000000 0.0000000000000000 0.0000000000000000
1.0000000000000000 0.0000000000000000 0.0000000000000000
1.0000000000000000 0.0000000000000000 0.0000000000000000
1.0000000000000000 0.0000000000000000 0.0000000000000000
1.0000000000000000 0.0000000000000000 0.0000000000000000
1.0000000000000000 0.0000000000000000 0.0000000000000000
1.0000000000000000 0.0000000000000000 0.0000000000000000
1.0000000000000000 0.0000000000000000 0.0000000000000000
1.0000000000000000 0.0000000000000000 0.0000000000000000
1.0000000000000000 0.0000000000000000 0.0000000000000000
1.0000000000000000 0.0000000000000000 0.0000000000000000
1.0000000000000000 0.0000000000000000 0.0000000000000000
1.0000000000000000 0.0000000000000000 0.0000000000000000
1.0000000000000000 0.0000000000000000 0.0000000000000000
1.0000000000000000 0.0000000000000000 0.0000000000000000
1.0000000000000000 0.0000000000000000 0.0000000000000000
1.0000000000000000 0.0000000000000000 0.0000000000000000
1.0000000000000000 0.0000000000000000 0.0000000000000000
1.0000000000000000 0.0000000000000000 0.0000000000000000
1.0000000000000000 0.0000000000000000 0.0000000000000000
1.0000000000000000 0.0000000000000000 0.0000000000000000
1.0000000000000000 0.0000000000000000 0.0000000000000000
1.0000000000000000 0.0000000000000000 0.0000000000000000
1.0000000000000000 0.0000000000000000 0.0000000000000000
1.0000000000000000 0.0000000000000000 0.0000000000000000
1.0000000000000000 0.0000000000000000 0.0000000000000000
1.0000000000000000 0.0000000000000000 0.0000000000000000
1.0000000000000000 0.0000000000000000 0.0000000000000000
1.0000000000000000 0.0000000000000000 0.0000000000000000
1.0000000000000000 0.0000000000000000 0.0000000000000000
1.0000000000000000 0.0000000000000000 0.0000000000000000
1.0000000000000000 0.0000000000000000 0.0000000000000000
1.0000000000000000 0.0000000000000000 0.0000000000000000
1.0000000000000000 0.0000000000000000 0.0000000000000000
1.0000000000000000 0.0000000000000000 0.0000000000000000
1.0000000000000000 0.0000000000000000 0.0000000000000000
1.0000000000000000 0.0000000000000000 0.0000000000000000
1.0000000000000000 0.0000000000000000 0.0000000000000000
1.0000000000000000 0.0000000000000000 0.0000000000000000
1.0000000000000000 0.0000000000000000 0.0000000000000000
1.0000000000000000 0.0000000000000000 0.0000000000000000
1.0000000000000000 0.0000000000000000 0.0000000000000000
1.0000000000000000 0.0000000000000000 0.0000000000000000
1.0000000000000000 0.0000000000000000 0.0000000000000000
1.0000000000000000 0.0000000000000000 0.0000000000000000
1.0000000000000000 0.0000000000000000 0.0000000000000000
1.0000000000000000 0.0000000000000000 0.0000000000000000
1.0000000000000000 0.0000000000000000 0.0000000000000000
1.0000000000000000 0.0000000000000000 0.0000000000000000
1.0000000000000000 0.0000000000000000 0.0000000000000000
1.0000000000000000 0.0000000000000000 0.0000000000000000
1.0000000000000000 0.0000000000000000 0.0000000000000000
1.0000000000000000 0.0000000000000000 0.0000000000000000
1.0000000000000000 0.0000000000000000 0.0000000000000000
1.0000000000000000 0.0000000000000000 0.0000000000000000
1.0000000000000000 0.0000000000000000 0.0000000000000000
1.0000000000000000 0.0000000000000000 0.0000000000000000
1.0000000000000000 0.0000000000000000 0.0000000000000000
1.0000000000000000 0.0000000000000000 0.0000000000000000
1.0000000000000000 0.0000000000000000 0.0000000000000000
1.0000000000000000 0.0000000000000000 0.0000000000000000
1.0000000000000000 0.0000000000000000 0.0000000000000000
1.0000000000000000 0.0000000000000000 0.0000000000000000
1.0000000000000000 0.0000000000000000 0.0000000000000000
1.0000000000000000 0.0000000000000000 0.0000000000000000
1.0000000000000000 0.0000000000000000 0.0000000000000000
1.0000000000000000 0.0000000000000000 0.0000000000000000
1.0000000000000000 0.0000000000000000 0.0000000000000000
1.0000000000000000 0.0000000000000000 0.0000000000000000
1.0000000000000000 0.0000000000000000 0.0000000000000000
1.0000000000000000 0.0000000000000000 0.0000000000000000
1.0000000000000000 0.0000000000000000 0.0000000000000000
1.0000000000000000 0.0000000000000000 0.0000000000000000
1.0000000000000000 0.0000000000000000 0.0000000000000000
1.0000000000000000 0.0000000000000000 0.0000000000000000
1.0000000000000000 0.0000000000000000 0.0000000000000000
1.0000000000000000 0.0000000000000000 0.0000000000000000
1.0000000000000000 0.0000000000000000 0.0000000000000000
1.0000000000000000 0.0000000000000000 0.0000000000000000
1.0000000000000000 0.0000000000000000 0.0000000000000000
1.0000000000000000 0.0000000000000000 0.0000000000000000
1.0000000000000000 0.0000000000000000 0.0000000000000000
1.0000000000000000 0.0000000000000000 0.0000000000000000
1.0000000000000000 0.0000000000000000 0.0000000000000000
1.0000000000000000 0.0000000000000000 0.0000000000000000
1.0000000000000000 0.0000000000000000 0.0000000000000000
1.0000000000000000 0.0000000000000000 0.0000000000000000
1.0000000000000000 0.0000000000000000 0.0000000000000000
1.0000000000000000 0.0000000000000000 0.0000000000000000
1.0000000000000000 0.0000000000000000 0.0000000000000000
1.0000000000000000 0.0000000000000000 0.0000000000000000
1.0000000000000000 0.0000000000000000 0.0000000000000000
1.0000000000000000 0.0000000000000000 0.0000000000000000
1.0000000000000000 0.0000000000000000 0.0000000000000000
1.0000000000000000 0.0000000000000000 0.0000000000000000
1.0000000000000000 0.0000000000000000 0.0000000000000000
1.0000000000000000 0.0000000000000000 0.0000000000000000
1.0000000000000000 0.0000000000000000 0.0000000000000000
1.0000000000000000 0.0000000000000000 0.0000000000000000
1.0000000000000000 0.0000000000000000 0.0000000000000000
1.0000000000000000 0.0000000000000000 0.0000000000000000
1.0000000000000000 0.0000000000000000 0.0000000000000000
1.0000000000000000 0.0000000000000000 0.0000000000000000
1.0000000000000000 0.0000000000000000 0.0000000000000000
1.0000000000000000 0.0000000000000000 0.0000000000000000
1.0000000000000000 0.0000000000000000 0.0000000000000000
1.0000000000000000 0.0000000000000000 0.0000000000000000
1.0000000000000000 0.0000000000000000 0.0000000000000000
1.0000000000000000 0.0000000000000000 0.0000000000000000
1.0000000000000000 0.0000000000000000 0.0000000000000000
1.0000000000000000 0.0000000000000000 0.0000000000000000
1.0000000000000000 0.0000000000000000 0.0000000000000000
1.0000000000000000 0.0000000000000000 0.0000000000000000
1.0000000000000000 0.0000000000000000 0.0000000000000000
1.0000000000000000 0.0000000000000000 0.0000000000000000
1.0000000000000000 0.0000000000000000 0.0000000000000000
1.0000000000000000 0.0000000000000000 0.0000000000000000
1.0000000000000000 0.0000000000000000 0.0000000000000000
1.0000000000000000 0.0000000000000000 0.0000000000000000
1.0000000000000000 0.0000000000000000 0.0000000000000000
1.0000000000000000 0.0000000000000000 0.0000000000000000
1.0000000000000000 0.0000000000000000 0.0000000000000000
1.0000000000000000 0.0000000000000000 0.0000000000000000
1.0000000000000000 0.0000000000000000 0.0000000000000000
1.0000000000000000 0.0000000000000000 0.0000000000000000
1.0000000000000000 0.0000000000000000 0.0000000000000000
1.0000000000000000 0.0000000000000000 0.0000000000000000
1.0000000000000000 0.0000000000000000 0.0000000000000000
1.0000000000000000 0.0000000000000000 0.0000000000000000
1.0000000000000000 0.0000000000000000 0.0000000000000000
1.0000000000000000 0.0000000000000000 0.0000000000000000
1.0000000000000000 0.0000000000000000 0.0000000000000000
1.0000000000000000 0.0000000000000000 0.0000000000000000
1.0000000000000000 0.0000000000000000 0.0000000000000000
1.0000000000000000 0.0000000000000000 0.0000000000000000
1.0000000000000000 0.0000000000000000 0.0000000000000000
1.0000000000000000 0.0000000000000000 0.0000000000000000
1.0000000000000000 0.0000000000000000 0.0000000000000000
1.0000000000000000 0.0000000000000000 0.0000000000000000
1.0000000000000000 0.0000000000000000 0.0000000000000000
1.0000000000000000 0.0000000000000000 0.0000000000000000
1.0000000000000000 0.0000000000000000 0.0000000000000000
1.0000000000000000 0.0000000000000000 0.0000000000000000
1.0000000000000000 0.0000000000000000 0.0000000000000000
1.0000000000000000 0.0000000000000000 0.0000000000000000
1.0000000000000000 0.0000000000000000 0.0000000000000000
1.0000000000000000 0.0000000000000000 0.0000000000000000
1.0000000000000000 0.0000000000000000 0.0000000000000000
1.0000000000000000 0.0000000000000000 0.0000000000000000
1.0000000000000000 0.0000000000000000 0.0000000000000000
1.0000000000000000 0.0000000000000000 0.0000000000000000
1.0000000000000000 0.0000000000000000 0.0000000000000000
1.0000000000000000 0.0000000000000000 0.0000000000000000
1.0000000000000000 0.0000000000000000 0.0000000000000000
1.0000000000000000 0.0000000000000000 0.0000000000000000
1.0000000000000000 0.0000000000000000 0.0000000000000000
1.0000000000000000 0.0000000000000000 0.0000000000000000
1.0000000000000000 0.0000000000000000 0.0000000000000000
1.0000000000000000 0.0000000000000000 0.0000000000000000
1.0000000000000000 0.0000000000000000 0.0000000000000000
1.0000000000000000 0.0000000000000000 0.0000000000000000
1.0000000000000000 0.0000000000000000 0.0000000000000000
1.0000000000000000 0.0000000000000000 0.0000000000000000
1.0000000000000000 0.0000000000000000 0.0000000000000000
1.0000000000000000 0.0000000000000000 0.0000000000000000
1.0000000000000000 0.0000000000000000 0.0000000000000000
1.0000000000000000 0.0000000000000000 0.0000000000000000
1.0000000000000000 0.0000000000000000 0.0000000000000000
1.0000000000000000 0.0000000000000000 0.0000000000000000
1.0000000000000000 0.0000000000000000 0.0000000000000000
1.0000000000000000 0.0000000000000000 0.0000000000000000
1.0000000000000000 0.0000000000000000 0.0000000000000000
1.0000000000000000 0.0000000000000000 0.0000000000000000
1.0000000000000000 0.0000000000000000 0.0000000000000000
1.0000000000000000 0.0000000000000000 0.0000000000000000
1.0000000000000000 0.0000000000000000 0.0000000000000000
1.0000000000000000 0.0000000000000000 0.0000000000000000
1.0000000000000000 0.0000000000000000 0.0000000000000000
1.0000000000000000 0.0000000000000000 0.0000000000000000
1.0000000000000000 0.0000000000000000 0.0000000000000000
1.0000000000000000 0.0000000000000000 0.0000000000000000
1.0000000000000000 0.0000000000000000 0.0000000000000000
1.0000000000000000 0.0000000000000000 0.0000000000000000
1.0000000000000000 0.0000000000000000 0.0000000000000000
1.0000000000000000 0.0000000000000000 0.0000000000000000
1.0000000000000000 0.0000000000000000 0.0000000000000000
1.0000000000000000 0.0000000000000000 0.0000000000000000
1.0000000000000000 0.0000000000000000 0.0000000000000000
1.0000000000000000 0.0000000000000000 0.0000000000000000
1.0000000000000000 0.0000000000000000 0.0000000000000000
1.0000000000000000 0.0000000000000000 0.0000000000000000
1.0000000000000000 0.0000000000000000 0.0000000000000000
1.0000000000000000 0.0000000000000000 0.0000000000000000
1.0000000000000000 0.0000000000000000 0.0000000000000000
1.0000000000000000 0.0000000000000000 0.0000000000000000
1.0000000000000000 0.0000000000000000 0.0000000000000000
1.0000000000000000 0.0000000000000000 0.0000000000000000
1.0000000000000000 0.0000000000000000 0.0000000000000000
1.0000000000000000 0.0000000000000000 0.0000000000000000
1.0000000000000000 0.0000000000000000 0.0000000000000000
1.0000000000000000 0.0000000000000000 0.0000000000000000
1.0000000000000000 0.0000000000000000 0.0000000000000000
1.0000000000000000 0.0000000000000000 0.0000000000000000
1.0000000000000000 0.0000000000000000 0.0000000000000000
1.0000000000000000 0.0000000000000000 0.0000000000000000
1.0000000000000000 0.0000000000000000 0.0000000000000000
1.0000000000000000 0.0000000000000000 0.0000000000000000
1.0000000000000000 0.0000000000000000 0.0000000000000000
1.0000000000000000 0.0000000000000000 0.0000000000000000
1.0000000000000000 0.0000000000000000 0.0000000000000000
1.0000000000000000 0.0000000000000000 0.0000000000000000
1.0000000000000000 0.0000000000000000 0.0000000000000000
1.0000000000000000 0.0000000000000000 0.0000000000000000
1.0000000000000000 0.0000000000000000 0.0000000000000000
1.0000000000000000 0.0000000000000000 0.0000000000000000
1.0000000000000000 0.0000000000000000 0.0000000000000000
1.0000000000000000 0.0000000000000000 0.0000000000000000
1.0000000000000000 0.0000000000000000 0.0000000000000000
1.0000000000000000 0.0000000000000000 0.0000000000000000
1.0000000000000000 0.0000000000000000 0.0000000000000000
1.0000000000000000 0.0000000000000000 0.0000000000000000
1.0000000000000000 0.0000000000000000 0.0000000000000000
1.0000000000000000 0.0000000000000000 0.0000000000000000
1.0000000000000000 0.0000000000000000 0.0000000000000000
1.0000000000000000 0.0000000000000000 0.0000000000000000
1.0000000000000000 0.0000000000000000 0.0000000000000000
1.0000000000000000 0.0000000000000000 0.0000000000000000
1.0000000000000000 0.0000000000000000 0.0000000000000000
1.0000000000000000 0.0000000000000000 0.0000000000000000
1.0000000000000000 0.0000000000000000 0.0000000000000000
1.0000000000000000 0.0000000000000000 0.0000000000000000
1.0000000000000000 0.0000000000000000 0.0000000000000000
1.0000000000000000 0.0000000000000000 0.0000000000000000
1.0000000000000000 0.0000000000000000 0.0000000000000000
1.0000000000000000 0.0000000000000000 0.0000000000000000
1.0000000000000000 0.0000000000000000 0.0000000000000000
1.0000000000000000 0.0000000000000000 0.0000000000000000
1.0000000000000000 0.0000000000000000 0.0000000000000000
1.0000000000000000 0.0000000000000000 0.0000000000000000
1.0000000000000000 0.0000000000000000 0.0000000000000000
1.0000000000000000 0.0000000000000000 0.0000000000000000
1.0000000000000000 0.0000000000000000 0.0000000000000000
1.0000000000000000 0.0000000000000000 0.0000000000000000
1.0000000000000000 0.0000000000000000 0.0000000000000000
1.0000000000000000 0.0000000000000000 0.0000000000000000
1.0000000000000000 0.0000000000000000 0.0000000000000000
1.0000000000000000 0.0000000000000000 0.0000000000000000
1.0000000000000000 0.0000000000000000 0.0000000000000000
1.0000000000000000 0.0000000000000000 0.0000000000000000
1.0000000000000000 0.0000000000000000 0.0000000000000000
1.0000000000000000 0.0000000000000000 0.0000000000000000
1.0000000000000000 0.0000000000000000 0.0000000000000000
1.0000000000000000 0.0000000000000000 0.0000000000000000
1.0000000000000000 0.0000000000000000 0.0000000000000000
1.0000000000000000 0.0000000000000000 0.0000000000000000
1.0000000000000000 0.0000000000000000 0.0000000000000000
1.0000000000000000 0.0000000000000000 0.0000000000000000
1.0000000000000000 0.0000000000000000 0.0000000000000000
1.0000000000000000 0.0000000000000000 0.0000000000000000
1.0000000000000000 0.0000000000000000 0.0000000000000000
1.0000000000000000 0.0000000000000000 0.0000000000000000
1.0000000000000000 0.0000000000000000 0.0000000000000000
1.0000000000000000 0.0000000000000000 0.0000000000000000
1.0000000000000000 0.0000000000000000 0.0000000000000000
1.0000000000000000 0.0000000000000000 0.0000000000000000
1.0000000000000000 0.0000000000000000 0.0000000000000000
1.0000000000000000 0.0000000000000000 0.0000000000000000
1.0000000000000000 0.0000000000000000 0.0000000000000000
1.0000000000000000 0.0000000000000000 0.0000000000000000
1.0000000000000000 0.0000000000000000 0.0000000000000000
1.0000000000000000 0.0000000000000000 0.0000000000000000
1.0000000000000000 0.0000000000000000 0.0000000000000000
1.0000000000000000 0.0000000000000000 0.0000000000000000
1.0000000000000000 0.0000000000000000 0.0000000000000000
1.0000000000000000 0.0000000000000000 0.0000000000000000
1.0000000000000000 0.0000000000000000 0.0000000000000000
1.0000000000000000 0.0000000000000000 0.0000000000000000
1.0000000000000000 0.0000000000000000 0.0000000000000000
1.0000000000000000 0.0000000000000000 0.0000000000000000
1.0000000000000000 0.0000000000000000 0.0000000000000000
1.0000000000000000 0.0000000000000000 0.0000000000000000
1.0000000000000000 0.0000000000000000 0.0000000000000000
1.0000000000000000 0.0000000000000000 0.0000000000000000
1.0000000000000000 0.0000000000000000 0.0000000000000000
1.0000000000000000 0.0000000000000000 0.0000000000000000
1.0000000000000000 0.0000000000000000 0.0000000000000000
1.0000000000000000 0.0000000000000000 0.0000000000000000
1.0000000000000000 0.0000000000000000 0.0000000000000000
1.0000000000000000 0.0000000000000000 0.0000000000000000
1.0000000000000000 0.0000000000000000 0.0000000000000000
1.0000000000000000 0.0000000000000000 0.0000000000000000
1.0000000000000000 0.0000000000000000 0.0000000000000000
1.0000000000000000 0.0000000000000000 0.0000000000000000
1.0000000000000000 0.0000000000000000 0.0000000000000000
1.0000000000000000 0.0000000000000000 0.0000000000000000
1.0000000000000000 0.0000000000000000 0.0000000000000000
1.0000000000000000 0.0000000000000000 0.0000000000000000
1.0000000000000000 0.0000000000000000 0.0000000000000000
1.0000000000000000 0.0000000000000000 0.0000000000000000
1.0000000000000000 0.0000000000000000 0.0000000000000000
1.0000000000000000 0.0000000000000000 0.0000000000000000
1.0000000000000000 0.0000000000000000 0.0000000000000000
1.0000000000000000 0.0000000000000000 0.0000000000000000
1.0000000000000000 0.0000000000000000 0.0000000000000000
1.0000000000000000 0.0000000000000000 0.0000000000000000
1.0000000000000000 0.0000000000000000 0.0000000000000000
1.0000000000000000 0.0000000000000000 0.0000000000000000
1.0000000000000000 0.0000000000000000 0.0000000000000000
1.0000000000000000 0.0000000000000000 0.0000000000000000
1.0000000000000000 0.0000000000000000 0.0000000000000000
1.0000000000000000 0.0000000000000000 0.0000000000000000
1.0000000000000000 0.0000000000000000 0.0000000000000000
1.0000000000000000 0.0000000000000000 0.0000000000000000
1.0000000000000000 0.0000000000000000 0.0000000000000000
1.0000000000000000 0.0000000000000000 0.0000000000000000
1.0000000000000000 0.0000000000000000 0.0000000000000000
1.0000000000000000 0.0000000000000000 0.0000000000000000
1.0000000000000000 0.0000000000000000 0.0000000000000000
1.0000000000000000 0.0000000000000000 0.0000000000000000
1.0000000000000000 0.0000000000000000 0.0000000000000000
1.0000000000000000 0.0000000000000000 0.0000000000000000
1.0000000000000000 0.0000000000000000 0.0000000000000000
1.0000000000000000 0.0000000000000000 0.0000000000000000
1.0000000000000000 0.0000000000000000 0.0000000000000000
1.0000000000000000 0.0000000000000000 0.0000000000000000
1.0000000000000000 0.0000000000000000 0.0000000000000000
1.0000000000000000 0.0000000000000000 0.0000000000000000
1.0000000000000000 0.0000000000000000 0.0000000000000000
1.0000000000000000 0.0000000000000000 0.0000000000000000
1.0000000000000000 0.0000000000000000 0.0000000000000000
1.0000000000000000 0.0000000000000000 0.0000000000000000
1.0000000000000000 0.0000000000000000 0.0000000000000000
1.0000000000000000 0.0000000000000000 0.0000000000000000
1.0000000000000000 0.0000000000000000 0.0000000000000000
1.0000000000000000 0.0000000000000000 0.0000000000000000
1.0000000000000000 0.0000000000000000 0.0000000000000000
1.0000000000000000 0.0000000000000000 0.0000000000000000
1.0000000000000000 0.0000000000000000 0.0000000000000000
1.0000000000000000 0.0000000000000000 0.0000000000000000
1.0000000000000000 0.0000000000000000 0.0000000000000000
1.0000000000000000 0.0000000000000000 0.0000000000000000
1.0000000000000000 0.0000000000000000 0.0000000000000000
1.0000000000000000 0.0000000000000000 0.0000000000000000
1.0000000000000000 0.0000000000000000 0.0000000000000000
1.0000000000000000 0.0000000000000000 0.0000000000000000
1.0000000000000000 0.0000000000000000 0.0000000000000000
1.0000000000000000 0.0000000000000000 0.0000000000000000
1.0000000000000000 0.0000000000000000 0.0000000000000000
1.0000000000000000 0.0000000000000000 0.0000000000000000
1.0000000000000000 0.0000000000000000 0.0000000000000000
1.0000000000000000 0.0000000000000000 0.0000000000000000
1.0000000000000000 0.0000000000000000 0.0000000000000000
1.0000000000000000 0.0000000000000000 0.0000000000000000
1.0000000000000000 0.0000000000000000 0.0000000000000000
1.0000000000000000 0.0000000000000000 0.0000000000000000
1.0000000000000000 0.0000000000000000 0.0000000000000000
1.0000000000000000 0.0000000000000000 0.0000000000000000
1.0000000000000000 0.0000000000000000 0.0000000000000000
1.0000000000000000 0.0000000000000000 0.0000000000000000
1.0000000000000000 0.0000000000000000 0.0000000000000000
1.0000000000000000 0.0000000000000000 0.0000000000000000
1.0000000000000000 0.0000000000000000 0.0000000000000000
1.0000000000000000 0.0000000000000000 0.0000000000000000
1.0000000000000000 0.0000000000000000 0.0000000000000000
1.0000000000000000 0.0000000000000000 0.0000000000000000
1.0000000000000000 0.0000000000000000 0.0000000000000000
1.0000000000000000 0.0000000000000000 0.0000000000000000
1.0000000000000000 0.0000000000000000 0.0000000000000000
1.0000000000000000 0.0000000000000000 0.0000000000000000
1.0000000000000000 0.0000000000000000 0.0000000000000000
1.0000000000000000 0.0000000000000000 0.0000000000000000
1.0000000000000000 0.0000000000000000 0.0000000000000000
1.0000000000000000 0.0000000000000000 0.0000000000000000
1.0000000000000000 0.0000000000000000 0.0000000000000000
1.0000000000000000 0.0000000000000000 0.0000000000000000
1.0000000000000000 0.0000000000000000 0.0000000000000000
1.0000000000000000 0.0000000000000000 0.0000000000000000
1.0000000000000000 0.0000000000000000 0.0000000000000000
1.0000000000000000 0.0000000000000000 0.0000000000000000
1.0000000000000000 0.0000000000000000 0.0000000000000000
1.0000000000000000 0.0000000000000000 0.0000000000000000
1.0000000000000000 0.0000000000000000 0.0000000000000000
1.0000000000000000 0.0000000000000000 0.0000000000000000
1.0000000000000000 0.0000000000000000 0.0000000000000000
1.0000000000000000 0.0000000000000000 0.0000000000000000
1.0000000000000000 0.0000000000000000 0.0000000000000000
1.0000000000000000 0.0000000000000000 0.0000000000000000
1.0000000000000000 0.0000000000000000 0.0000000000000000
1.0000000000000000 0.0000000000000000 0.0000000000000000
1.0000000000000000 0.0000000000000000 0.0000000000000000
1.0000000000000000 0.0000000000000000 0.0000000000000000
1.0000000000000000 0.0000000000000000 0.0000000000000000
1.0000000000000000 0.0000000000000000 0.0000000000000000
1.0000000000000000 0.0000000000000000 0.0000000000000000
1.0000000000000000 0.0000000000000000 0.0000000000000000
1.0000000000000000 0.0000000000000000 0.0000000000000000
1.0000000000000000 0.0000000000000000 0.0000000000000000
1.0000000000000000 0.0000000000000000 0.0000000000000000
1.0000000000000000 0.0000000000000000 0.0000000000000000
1.0000000000000000 0.0000000000000000 0.0000000000000000
1.0000000000000000 0.0000000000000000 0.0000000000000000
1.0000000000000000 0.0000000000000000 0.0000000000000000
1.0000000000000000 0.0000000000000000 0.0000000000000000
1.0000000000000000 0.0000000000000000 0.0000000000000000
1.0000000000000000 0.0000000000000000 0.0000000000000000
1.0000000000000000 0.0000000000000000 0.0000000000000000
1.0000000000000000 0.0000000000000000 0.0000000000000000
1.0000000000000000 0.0000000000000000 0.0000000000000000
1.0000000000000000 0.0000000000000000 0.0000000000000000
1.0000000000000000 0.0000000000000000 0.0000000000000000
1.0000000000000000 0.0000000000000000 0.0000000000000000
1.0000000000000000 0.0000000000000000 0.0000000000000000
1.0000000000000000 0.0000000000000000 0.0000000000000000
1.0000000000000000 0.0000000000000000 0.0000000000000000
1.0000000000000000 0.0000000000000000 0.0000000000000000
1.0000000000000000 0.0000000000000000 0.0000000000000000
1.0000000000000000 0.0000000000000000 0.0000000000000000
1.0000000000000000 0.0000000000000000 0.0000000000000000
1.0000000000000000 0.0000000000000000 0.0000000000000000
1.0000000000000000 0.0000000000000000 0.0000000000000000
1.0000000000000000 0.0000000000000000 0.0000000000000000
1.0000000000000000 0.0000000000000000 0.0000000000000000
1.0000000000000000 0.0000000000000000 0.0000000000000000
1.0000000000000000 0.0000000000000000 0.0000000000000000
1.0000000000000000 0.0000000000000000 0.0000000000000000
1.0000000000000000 0.0000000000000000 0.0000000000000000
1.0000000000000000 0.0000000000000000 0.0000000000000000
1.0000000000000000 0.0000000000000000 0.0000000000000000
1.0000000000000000 0.0000000000000000 0.0000000000000000
1.0000000000000000 0.0000000000000000 0.0000000000000000
1.0000000000000000 0.0000000000000000 0.0000000000000000
1.0000000000000000 0.0000000000000000 0.0000000000000000
1.0000000000000000 0.0000000000000000 0.0000000000000000
1.0000000000000000 0.0000000000000000 0.0000000000000000
1.0000000000000000 0.0000000000000000 0.0000000000000000
1.0000000000000000 0.0000000000000000 0.0000000000000000
1.0000000000000000 0.0000000000000000 0.0000000000000000
1.0000000000000000 0.0000000000000000 0.0000000000000000
1.0000000000000000 0.0000000000000000 0.0000000000000000
1.0000000000000000 0.0000000000000000 0.0000000000000000
1.0000000000000000 0.0000000000000000 0.0000000000000000
1.0000000000000000 0.0000000000000000 0.0000000000000000
1.0000000000000000 0.0000000000000000 0.0000000000000000
1.0000000000000000 0.0000000000000000 0.0000000000000000
1.0000000000000000 0.0000000000000000 0.0000000000000000
1.0000000000000000 0.0000000000000000 0.0000000000000000
1.0000000000000000 0.0000000000000000 0.0000000000000000
1.0000000000000000 0.0000000000000000 0.0000000000000000
1.0000000000000000 0.0000000000000000 0.0000000000000000
1.0000000000000000 0.0000000000000000 0.0000000000000000
1.0000000000000000 0.0000000000000000 0.0000000000000000
1.0000000000000000 0.0000000000000000 0.0000000000000000
1.0000000000000000 0.0000000000000000 0.0000000000000000
1.0000000000000000 0.0000000000000000 0.0000000000000000
1.0000000000000000 0.0000000000000000 0.0000000000000000
1.0000000000000000 0.0000000000000000 0.0000000000000000
1.0000000000000000 0.0000000000000000 0.0000000000000000
1.0000000000000000 0.0000000000000000 0.0000000000000000
1.0000000000000000 0.0000000000000000 0.0000000000000000
1.0000000000000000 0.0000000000000000 0.0000000000000000
1.0000000000000000 0.0000000000000000 0.0000000000000000
1.0000000000000000 0.0000000000000000 0.0000000000000000
1.0000000000000000 0.0000000000000000 0.0000000000000000
1.0000000000000000 0.0000000000000000 0.0000000000000000
1.0000000000000000 0.0000000000000000 0.0000000000000000
1.0000000000000000 0.0000000000000000 0.0000000000000000
1.0000000000000000 0.0000000000000000 0.0000000000000000
1.0000000000000000 0.0000000000000000 0.0000000000000000
1.0000000000000000 0.0000000000000000 0.0000000000000000
1.0000000000000000 0.0000000000000000 0.0000000000000000
1.0000000000000000 0.0000000000000000 0.0000000000000000
1.0000000000000000 0.0000000000000000 0.0000000000000000
1.0000000000000000 0.0000000000000000 0.0000000000000000
1.0000000000000000 0.0000000000000000 0.0000000000000000
1.0000000000000000 0.0000000000000000 0.0000000000000000
1.0000000000000000 0.0000000000000000 0.0000000000000000
1.0000000000000000 0.0000000000000000 0.0000000000000000
1.0000000000000000 0.0000000000000000 0.0000000000000000
1.0000000000000000 0.0000000000000000 0.0000000000000000
1.0000000000000000 0.0000000000000000 0.0000000000000000
1.0000000000000000 0.0000000000000000 0.0000000000000000
1.0000000000000000 0.0000000000000000 0.0000000000000000
1.0000000000000000 0.0000000000000000 0.0000000000000000
1.0000000000000000 0.0000000000000000 0.0000000000000000
1.0000000000000000 0.0000000000000000 0.0000000000000000
1.0000000000000000 0.0000000000000000 0.0000000000000000
1.0000000000000000 0.0000000000000000 0.0000000000000000
1.0000000000000000 0.0000000000000000 0.0000000000000000
1.0000000000000000 0.0000000000000000 0.0000000000000000
1.0000000000000000 0.0000000000000000 0.0000000000000000
1.0000000000000000 0.0000000000000000 0.0000000000000000
1.0000000000000000 0.0000000000000000 0.0000000000000000
1.0000000000000000 0.0000000000000000 0.0000000000000000
1.0000000000000000 0.0000000000000000 0.0000000000000000
1.0000000000000000 0.0000000000000000 0.0000000000000000
1.0000000000000000 0.0000000000000000 0.0000000000000000
1.0000000000000000 0.0000000000000000 0.0000000000000000
1.0000000000000000 0.0000000000000000 0.0000000000000000
1.0000000000000000 0.0000000000000000 0.0000000000000000
1.0000000000000000 0.0000000000000000 0.0000000000000000
1.0000000000000000 0.0000000000000000 0.0000000000000000
1.0000000000000000 0.0000000000000000 0.0000000000000000
1.0000000000000000 0.0000000000000000 0.0000000000000000
1.0000000000000000 0.0000000000000000 0.0000000000000000
1.0000000000000000 0.0000000000000000 0.0000000000000000
1.0000000000000000 0.0000000000000000 0.0000000000000000
1.0000000000000000 0.0000000000000000 0.0000000000000000
1.0000000000000000 0.0000000000000000 0.0000000000000000
1.0000000000000000 0.0000000000000000 0.0000000000000000
1.0000000000000000 0.0000000000000000 0.0000000000000000
1.0000000000000000 0.0000000000000000 0.0000000000000000
1.0000000000000000 0.0000000000000000 0.0000000000000000
1.0000000000000000 0.0000000000000000 0.0000000000000000
1.0000000000000000 0.0000000000000000 0.0000000000000000
1.0000000000000000 0.0000000000000000 0.0000000000000000
1.0000000000000000 0.0000000000000000 0.0000000000000000
1.0000000000000000 0.0000000000000000 0.0000000000000000
1.0000000000000000 0.0000000000000000 0.0000000000000000
1.0000000000000000 0.0000000000000000 0.0000000000000000
1.0000000000000000 0.0000000000000000 0.0000000000000000
1.0000000000000000 0.0000000000000000 0.0000000000000000
1.0000000000000000 0.0000000000000000 0.0000000000000000
1.0000000000000000 0.0000000000000000 0.0000000000000000
1.0000000000000000 0.0000000000000000 0.0000000000000000
1.0000000000000000 0.0000000000000000 0.0000000000000000
1.0000000000000000 0.0000000000000000 0.0000000000000000
1.0000000000000000 0.0000000000000000 0.0000000000000000
1.0000000000000000 0.0000000000000000 0.0000000000000000
1.0000000000000000 0.0000000000000000 0.0000000000000000
1.0000000000000000 0.0000000000000000 0.0000000000000000
1.0000000000000000 0.0000000000000000 0.0000000000000000
1.0000000000000000 0.0000000000000000 0.0000000000000000
1.0000000000000000 0.0000000000000000 0.0000000000000000
1.0000000000000000 0.0000000000000000 0.0000000000000000
1.0000000000000000 0.0000000000000000 0.0000000000000000
1.0000000000000000 0.0000000000000000 0.0000000000000000
1.0000000000000000 0.0000000000000000 0.0000000000000000
1.0000000000000000 0.0000000000000000 0.0000000000000000
1.0000000000000000 0.0000000000000000 0.0000000000000000
1.0000000000000000 0.0000000000000000 0.0000000000000000
1.0000000000000000 0.0000000000000000 0.0000000000000000
1.0000000000000000 0.0000000000000000 0.0000000000000000
1.0000000000000000 0.0000000000000000 0.0000000000000000
1.0000000000000000 0.0000000000000000 0.0000000000000000
1.0000000000000000 0.0000000000000000 0.0000000000000000
1.0000000000000000 0.0000000000000000 0.0000000000000000
1.0000000000000000 0.0000000000000000 0.0000000000000000
1.0000000000000000 0.0000000000000000 0.0000000000000000
1.0000000000000000 0.0000000000000000 0.0000000000000000
1.0000000000000000 0.0000000000000000 0.0000000000000000
1.0000000000000000 0.0000000000000000 0.0000000000000000
1.0000000000000000 0.0000000000000000 0.0000000000000000
1.0000000000000000 0.0000000000000000 0.0000000000000000
1.0000000000000000 0.0000000000000000 0.0000000000000000
1.0000000000000000 0.0000000000000000 0.0000000000000000
1.0000000000000000 0.0000000000000000 0.0000000000000000
1.0000000000000000 0.0000000000000000 0.0000000000000000
1.0000000000000000 0.0000000000000000 0.0000000000000000
1.0000000000000000 0.0000000000000000 0.0000000000000000
1.0000000000000000 0.0000000000000000 0.0000000000000000
1.0000000000000000 0.0000000000000000 0.0000000000000000
1.0000000000000000 0.0000000000000000 0.0000000000000000
1.0000000000000000 0.0000000000000000 0.0000000000000000
1.0000000000000000 0.0000000000000000 0.0000000000000000
1.0000000000000000 0.0000000000000000 0.0000000000000000
1.0000000000000000 0.0000000000000000 0.0000000000000000
1.0000000000000000 0.0000000000000000 0.0000000000000000
1.0000000000000000 0.0000000000000000 0.0000000000000000
1.0000000000000000 0.0000000000000000 0.0000000000000000
1.0000000000000000 0.0000000000000000 0.0000000000000000
1.0000000000000000 0.0000000000000000 0.0000000000000000
1.0000000000000000 0.0000000000000000 0.0000000000000000
1.0000000000000000 0.0000000000000000 0.0000000000000000
1.0000000000000000 0.0000000000000000 0.0000000000000000
1.0000000000000000 0.0000000000000000 0.0000000000000000
1.0000000000000000 0.0000000000000000 0.0000000000000000
1.0000000000000000 0.0000000000000000 0.0000000000000000
1.0000000000000000 0.0000000000000000 0.0000000000000000
1.0000000000000000 0.0000000000000000 0.0000000000000000
1.0000000000000000 0.0000000000000000 0.0000000000000000
1.0000000000000000 0.0000000000000000 0.0000000000000000
1.0000000000000000 0.0000000000000000 0.0000000000000000
1.0000000000000000 0.0000000000000000 0.0000000000000000
1.0000000000000000 0.0000000000000000 0.0000000000000000
1.0000000000000000 0.0000000000000000 0.0000000000000000
1.0000000000000000 0.0000000000000000 0.0000000000000000
1.0000000000000000 0.0000000000000000 0.0000000000000000
1.0000000000000000 0.0000000000000000 0.0000000000000000
1.0000000000000000 0.0000000000000000 0.0000000000000000
1.0000000000000000 0.0000000000000000 0.0000000000000000
1.0000000000000000 0.0000000000000000 0.0000000000000000
1.0000000000000000 0.0000000000000000 0.0000000000000000
1.0000000000000000 0.0000000000000000 0.0000000000000000
1.0000000000000000 0.0000000000000000 0.0000000000000000
1.0000000000000000 0.0000000000000000 0.0000000000000000
1.0000000000000000 0.0000000000000000 0.0000000000000000
1.0000000000000000 0.0000000000000000 0.0000000000000000
1.0000000000000000 0.0000000000000000 0.0000000000000000
1.0000000000000000 0.0000000000000000 0.0000000000000000
1.0000000000000000 0.0000000000000000 0.0000000000000000
1.0000000000000000 0.0000000000000000 0.0000000000000000
1.0000000000000000 0.0000000000000000 0.0000000000000000
1.0000000000000000 0.0000000000000000 0.0000000000000000
1.0000000000000000 0.0000000000000000 0.0000000000000000
1.0000000000000000 0.0000000000000000 0.0000000000000000
1.0000000000000000 0.0000000000000000 0.0000000000000000
1.0000000000000000 0.0000000000000000 0.0000000000000000
1.0000000000000000 0.0000000000000000 0.0000000000000000
1.0000000000000000 0.0000000000000000 0.0000000000000000
1.0000000000000000 0.0000000000000000 0.0000000000000000
1.0000000000000000 0.0000000000000000 0.0000000000000000
1.0000000000000000 0.0000000000000000 0.0000000000000000
1.0000000000000000 0.0000000000000000 0.0000000000000000
1.0000000000000000 0.0000000000000000 0.0000000000000000
1.0000000000000000 0.0000000000000000 0.0000000000000000
1.0000000000000000 0.0000000000000000 0.0000000000000000
1.0000000000000000 0.0000000000000000 0.0000000000000000
1.0000000000000000 0.0000000000000000 0.0000000000000000
1.0000000000000000 0.0000000000000000 0.0000000000000000
1.0000000000000000 0.0000000000000000 0.0000000000000000
1.0000000000000000 0.0000000000000000 0.0000000000000000
1.0000000000000000 0.0000000000000000 0.0000000000000000
1.0000000000000000 0.0000000000000000 0.0000000000000000
1.0000000000000000 0.0000000000000000 0.0000000000000000
1.0000000000000000 0.0000000000000000 0.0000000000000000
1.0000000000000000 0.0000000000000000 0.0000000000000000
1.0000000000000000 0.0000000000000000 0.0000000000000000
1.0000000000000000 0.0000000000000000 0.0000000000000000
1.0000000000000000 0.0000000000000000 0.0000000000000000
1.0000000000000000 0.0000000000000000 0.0000000000000000
1.0000000000000000 0.0000000000000000 0.0000000000000000
1.0000000000000000 0.0000000000000000 0.0000000000000000
1.0000000000000000 0.0000000000000000 0.0000000000000000
1.0000000000000000 0.0000000000000000 0.0000000000000000
1.0000000000000000 0.0000000000000000 0.0000000000000000
1.0000000000000000 0.0000000000000000 0.0000000000000000
1.0000000000000000 0.0000000000000000 0.0000000000000000
1.0000000000000000 0.0000000000000000 0.0000000000000000
1.0000000000000000 0.0000000000000000 0.0000000000000000
1.0000000000000000 0.0000000000000000 0.0000000000000000
1.0000000000000000 0.0000000000000000 0.0000000000000000
1.0000000000000000 0.0000000000000000 0.0000000000000000
1.0000000000000000 0.0000000000000000 0.0000000000000000
1.0000000000000000 0.0000000000000000 0.0000000000000000
1.0000000000000000 0.0000000000000000 0.0000000000000000
1.0000000000000000 0.0000000000000000 0.0000000000000000
1.0000000000000000 0.0000000000000000 0.0000000000000000
1.0000000000000000 0.0000000000000000 0.0000000000000000
1.0000000000000000 0.0000000000000000 0.0000000000000000
1.0000000000000000 0.0000000000000000 0.0000000000000000
1.0000000000000000 0.0000000000000000 0.0000000000000000
1.0000000000000000 0.0000000000000000 0.0000000000000000
1.0000000000000000 0.0000000000000000 0.0000000000000000
1.0000000000000000 0.0000000000000000 0.0000000000000000
1.0000000000000000 0.0000000000000000 0.0000000000000000
1.0000000000000000 0.0000000000000000 0.0000000000000000
1.0000000000000000 0.0000000000000000 0.0000000000000000
1.0000000000000000 0.0000000000000000 0.0000000000000000
1.0000000000000000 0.0000000000000000 0.0000000000000000
1.0000000000000000 0.0000000000000000 0.0000000000000000
1.0000000000000000 0.0000000000000000 0.0000000000000000
1.0000000000000000 0.0000000000000000 0.0000000000000000
1.0000000000000000 0.0000000000000000 0.0000000000000000
1.0000000000000000 0.0000000000000000 0.0000000000000000
1.0000000000000000 0.0000000000000000 0.0000000000000000
1.0000000000000000 0.0000000000000000 0.0000000000000000
1.0000000000000000 0.0000000000000000 0.0000000000000000
1.0000000000000000 0.0000000000000000 0.0000000000000000
1.0000000000000000 0.0000000000000000 0.0000000000000000
1.0000000000000000 0.0000000000000000 0.0000000000000000
1.0000000000000000 0.0000000000000000 0.0000000000000000
1.0000000000000000 0.0000000000000000 0.0000000000000000
1.0000000000000000 0.0000000000000000 0.0000000000000000
1.0000000000000000 0.0000000000000000 0.0000000000000000
1.0000000000000000 0.0000000000000000 0.0000000000000000
1.0000000000000000 0.0000000000000000 0.0000000000000000
1.0000000000000000 0.0000000000000000 0.0000000000000000
1.0000000000000000 0.0000000000000000 0.0000000000000000
1.0000000000000000 0.0000000000000000 0.0000000000000000
1.0000000000000000 0.0000000000000000 0.0000000000000000
1.0000000000000000 0.0000000000000000 0.0000000000000000
1.0000000000000000 0.0000000000000000 0.0000000000000000
1.0000000000000000 0.0000000000000000 0.0000000000000000
1.0000000000000000 0.0000000000000000 0.0000000000000000
1.0000000000000000 0.0000000000000000 0.0000000000000000
1.0000000000000000 0.0000000000000000 0.0000000000000000
1.0000000000000000 0.0000000000000000 0.0000000000000000
1.0000000000000000 0.0000000000000000 0.0000000000000000
1.0000000000000000 0.0000000000000000 0.0000000000000000
1.0000000000000000 0.0000000000000000 0.0000000000000000
1.0000000000000000 0.0000000000000000 0.0000000000000000
1.0000000000000000 0.0000000000000000 0.0000000000000000
1.0000000000000000 0.0000000000000000 0.0000000000000000
1.0000000000000000 0.0000000000000000 0.0000000000000000
1.0000000000000000 0.0000000000000000 0.0000000000000000
1.0000000000000000 0.0000000000000000 0.0000000000000000
1.0000000000000000 0.0000000000000000 0.0000000000000000
1.0000000000000000 0.0000000000000000 0.0000000000000000
1.0000000000000000 0.0000000000000000 0.0000000000000000
1.0000000000000000 0.0000000000000000 0.0000000000000000
1.0000000000000000 0.0000000000000000 0.0000000000000000
1.0000000000000000 0.0000000000000000 0.0000000000000000
1.0000000000000000 0.0000000000000000 0.0000000000000000
1.0000000000000000 0.0000000000000000 0.0000000000000000
1.0000000000000000 0.0000000000000000 0.0000000000000000
1.0000000000000000 0.0000000000000000 0.0000000000000000
1.0000000000000000 0.0000000000000000 0.0000000000000000
1.0000000000000000 0.0000000000000000 0.0000000000000000
1.0000000000000000 0.0000000000000000 0.0000000000000000
1.0000000000000000 0.0000000000000000 0.0000000000000000
1.0000000000000000 0.0000000000000000 0.0000000000000000
1.0000000000000000 0.0000000000000000 0.0000000000000000
1.0000000000000000 0.0000000000000000 0.0000000000000000
1.0000000000000000 0.0000000000000000 0.0000000000000000
1.0000000000000000 0.0000000000000000 0.0000000000000000
1.0000000000000000 0.0000000000000000 0.0000000000000000
1.0000000000000000 0.0000000000000000 0.0000000000000000
1.0000000000000000 0.0000000000000000 0.0000000000000000
1.0000000000000000 0.0000000000000000 0.0000000000000000
1.0000000000000000 0.0000000000000000 0.0000000000000000
1.0000000000000000 0.0000000000000000 0.0000000000000000
1.0000000000000000 0.0000000000000000 0.0000000000000000
1.0000000000000000 0.0000000000000000 0.0000000000000000
1.0000000000000000 0.0000000000000000 0.0000000000000000
1.0000000000000000 0.0000000000000000 0.0000000000000000
1.0000000000000000 0.0000000000000000 0.0000000000000000
1.0000000000000000 0.0000000000000000 0.0000000000000000
1.0000000000000000 0.0000000000000000 0.0000000000000000
1.0000000000000000 0.0000000000000000 0.0000000000000000
1.0000000000000000 0.0000000000000000 0.0000000000000000
1.0000000000000000 0.0000000000000000 0.0000000000000000
1.0000000000000000 0.0000000000000000 0.0000000000000000
1.0000000000000000 0.0000000000000000 0.0000000000000000
1.0000000000000000 0.0000000000000000 0.0000000000000000
1.0000000000000000 0.0000000000000000 0.0000000000000000
1.0000000000000000 0.0000000000000000 0.0000000000000000
1.0000000000000000 0.0000000000000000 0.0000000000000000
1.0000000000000000 0.0000000000000000 0.0000000000000000
1.0000000000000000 0.0000000000000000 0.0000000000000000
1.0000000000000000 0.0000000000000000 0.0000000000000000
1.0000000000000000 0.0000000000000000 0.0000000000000000
1.0000000000000000 0.0000000000000000 0.0000000000000000
1.0000000000000000 0.0000000000000000 0.0000000000000000
1.0000000000000000 0.0000000000000000 0.0000000000000000
1.0000000000000000 0.0000000000000000 0.0000000000000000
1.0000000000000000 0.0000000000000000 0.0000000000000000
1.0000000000000000 0.0000000000000000 0.0000000000000000
1.0000000000000000 0.0000000000000000 0.0000000000000000
1.0000000000000000 0.0000000000000000 0.0000000000000000
1.0000000000000000 0.0000000000000000 0.0000000000000000
1.0000000000000000 0.0000000000000000 0.0000000000000000
1.0000000000000000 0.0000000000000000 0.0000000000000000
1.0000000000000000 0.0000000000000000 0.0000000000000000
1.0000000000000000 0.0000000000000000 0.0000000000000000
1.0000000000000000 0.0000000000000000 0.0000000000000000
1.0000000000000000 0.0000000000000000 0.0000000000000000
1.0000000000000000 0.0000000000000000 0.0000000000000000
1.0000000000000000 0.0000000000000000 0.0000000000000000
1.0000000000000000 0.0000000000000000 0.0000000000000000
1.0000000000000000 0.0000000000000000 0.0000000000000000
1.0000000000000000 0.0000000000000000 0.0000000000000000
1.0000000000000000 0.0000000000000000 0.0000000000000000
1.0000000000000000 0.0000000000000000 0.0000000000000000
1.0000000000000000 0.0000000000000000 0.0000000000000000
1.0000000000000000 0.0000000000000000 0.0000000000000000
1.0000000000000000 0.0000000000000000 0.0000000000000000
1.0000000000000000 0.0000000000000000 0.0000000000000000
1.0000000000000000 0.0000000000000000 0.0000000000000000
1.0000000000000000 0.0000000000000000 0.0000000000000000
1.0000000000000000 0.0000000000000000 0.0000000000000000
1.0000000000000000 0.0000000000000000 0.0000000000000000
1.0000000000000000 0.0000000000000000 0.0000000000000000
1.0000000000000000 0.0000000000000000 0.0000000000000000
1.0000000000000000 0.0000000000000000 0.0000000000000000
1.0000000000000000 0.0000000000000000 0.0000000000000000
1.0000000000000000 0.0000000000000000 0.0000000000000000
1.0000000000000000 0.0000000000000000 0.0000000000000000
1.0000000000000000 0.0000000000000000 0.0000000000000000
1.0000000000000000 0.0000000000000000 0.0000000000000000
1.0000000000000000 0.0000000000000000 0.0000000000000000
1.0000000000000000 0.0000000000000000 0.0000000000000000
1.0000000000000000 0.0000000000000000 0.0000000000000000
1.0000000000000000 0.0000000000000000 0.0000000000000000
1.0000000000000000 0.0000000000000000 0.0000000000000000
1.0000000000000000 0.0000000000000000 0.0000000000000000
1.0000000000000000 0.0000000000000000 0.0000000000000000
1.0000000000000000 0.0000000000000000 0.0000000000000000
1.0000000000000000 0.0000000000000000 0.0000000000000000
1.0000000000000000 0.0000000000000000 0.0000000000000000
1.0000000000000000 0.0000000000000000 0.0000000000000000
1.0000000000000000 0.0000000000000000 0.0000000000000000
1.0000000000000000 0.0000000000000000 0.0000000000000000
1.0000000000000000 0.0000000000000000 0.0000000000000000
1.0000000000000000 0.0000000000000000 0.0000000000000000
1.0000000000000000 0.0000000000000000 0.0000000000000000
1.0000000000000000 0.0000000000000000 0.0000000000000000
1.0000000000000000 0.0000000000000000 0.0000000000000000
1.0000000000000000 0.0000000000000000 0.0000000000000000
1.0000000000000000 0.0000000000000000 0.0000000000000000
1.0000000000000000 0.0000000000000000 0.0000000000000000
1.0000000000000000 0.0000000000000000 0.0000000000000000
1.0000000000000000 0.0000000000000000 0.0000000000000000
1.0000000000000000 0.0000000000000000 0.0000000000000000
1.0000000000000000 0.0000000000000000 0.0000000000000000
1.0000000000000000 0.0000000000000000 0.0000000000000000
1.0000000000000000 0.0000000000000000 0.0000000000000000
1.0000000000000000 0.0000000000000000 0.0000000000000000
1.0000000000000000 0.0000000000000000 0.0000000000000000
1.0000000000000000 0.0000000000000000 0.0000000000000000
1.0000000000000000 0.0000000000000000 0.0000000000000000
1.0000000000000000 0.0000000000000000 0.0000000000000000
1.0000000000000000 0.0000000000000000 0.0000000000000000
1.0000000000000000 0.0000000000000000 0.0000000000000000
1.0000000000000000 0.0000000000000000 0.0000000000000000
1.0000000000000000 0.0000000000000000 0.0000000000000000
1.0000000000000000 0.0000000000000000 0.0000000000000000
1.0000000000000000 0.0000000000000000 0.0000000000000000
1.0000000000000000 0.0000000000000000 0.0000000000000000
1.0000000000000000 0.0000000000000000 0.0000000000000000
1.0000000000000000 0.0000000000000000 0.0000000000000000
1.0000000000000000 0.0000000000000000 0.0000000000000000
1.0000000000000000 0.0000000000000000 0.0000000000000000
1.0000000000000000 0.0000000000000000 0.0000000000000000
1.0000000000000000 0.0000000000000000 0.0000000000000000
1.0000000000000000 0.0000000000000000 0.0000000000000000
1.0000000000000000 0.0000000000000000 0.0000000000000000
1.0000000000000000 0.0000000000000000 0.0000000000000000
1.0000000000000000 0.0000000000000000 0.0000000000000000
1.0000000000000000 0.0000000000000000 0.0000000000000000
1.0000000000000000 0.0000000000000000 0.0000000000000000
1.0000000000000000 0.0000000000000000 0.0000000000000000
1.0000000000000000 0.0000000000000000 0.0000000000000000
1.0000000000000000 0.0000000000000000 0.0000000000000000
1.0000000000000000 0.0000000000000000 0.0000000000000000
1.0000000000000000 0.0000000000000000 0.0000000000000000
1.0000000000000000 0.0000000000000000 0.0000000000000000
1.0000000000000000 0.0000000000000000 0.0000000000000000
1.0000000000000000 0.0000000000000000 0.0000000000000000
1.0000000000000000 0.0000000000000000 0.0000000000000000
1.0000000000000000 0.0000000000000000 0.0000000000000000
1.0000000000000000 0.0000000000000000 0.0000000000000000
1.0000000000000000 0.0000000000000000 0.0000000000000000
1.0000000000000000 0.0000000000000000 0.0000000000000000
1.0000000000000000 0.0000000000000000 0.0000000000000000
1.0000000000000000 0.0000000000000000 0.0000000000000000
1.0000000000000000 0.0000000000000000 0.0000000000000000
1.0000000000000000 0.0000000000000000 0.0000000000000000
1.0000000000000000 0.0000000000000000 0.0000000000000000
1.0000000000000000 0.0000000000000000 0.0000000000000000
1.0000000000000000 0.0000000000000000 0.0000000000000000
1.0000000000000000 0.0000000000000000 0.0000000000000000
1.0000000000000000 0.0000000000000000 0.0000000000000000
1.0000000000000000 0.0000000000000000 0.0000000000000000
1.0000000000000000 0.0000000000000000 0.0000000000000000
1.0000000000000000 0.0000000000000000 0.0000000000000000
1.0000000000000000 0.0000000000000000 0.0000000000000000
1.0000000000000000 0.0000000000000000 0.0000000000000000
1.0000000000000000 0.0000000000000000 0.0000000000000000
1.0000000000000000 0.0000000000000000 0.0000000000000000
1.0000000000000000 0.0000000000000000 0.0000000000000000
1.0000000000000000 0.0000000000000000 0.0000000000000000
1.0000000000000000 0.0000000000000000 0.0000000000000000
1.0000000000000000 0.0000000000000000 0.0000000000000000
1.0000000000000000 0.0000000000000000 0.0000000000000000
1.0000000000000000 0.0000000000000000 0.0000000000000000
1.0000000000000000 0.0000000000000000 0.0000000000000000
1.0000000000000000 0.0000000000000000 0.0000000000000000
1.0000000000000000 0.0000000000000000 0.0000000000000000
1.0000000000000000 0.0000000000000000 0.0000000000000000
1.0000000000000000 0.0000000000000000 0.0000000000000000
1.0000000000000000 0.0000000000000000 0.0000000000000000
1.0000000000000000 0.0000000000000000 0.0000000000000000
1.0000000000000000 0.0000000000000000 0.0000000000000000
1.0000000000000000 0.0000000000000000 0.0000000000000000
1.0000000000000000 0.0000000000000000 0.0000000000000000
1.0000000000000000 0.0000000000000000 0.0000000000000000
1.0000000000000000 0.0000000000000000 0.0000000000000000
1.0000000000000000 0.0000000000000000 0.0000000000000000
1.0000000000000000 0.0000000000000000 0.0000000000000000
1.0000000000000000 0.0000000000000000 0.0000000000000000
1.0000000000000000 0.0000000000000000 0.0000000000000000
1.0000000000000000 0.0000000000000000 0.0000000000000000
1.0000000000000000 0.0000000000000000 0.0000000000000000
1.0000000000000000 0.0000000000000000 0.0000000000000000
1.0000000000000000 0.0000000000000000 0.0000000000000000
1.0000000000000000 0.0000000000000000 0.0000000000000000
1.0000000000000000 0.0000000000000000 0.0000000000000000
1.0000000000000000 0.0000000000000000 0.0000000000000000
1.0000000000000000 0.0000000000000000 0.0000000000000000
1.0000000000000000 0.0000000000000000 0.0000000000000000
1.0000000000000000 0.0000000000000000 0.0000000000000000
1.0000000000000000 0.0000000000000000 0.0000000000000000
1.0000000000000000 0.0000000000000000 0.0000000000000000
1.0000000000000000 0.0000000000000000 0.0000000000000000
1.0000000000000000 0.0000000000000000 0.0000000000000000
1.0000000000000000 0.0000000000000000 0.0000000000000000
1.0000000000000000 0.0000000000000000 0.0000000000000000
1.0000000000000000 0.0000000000000000 0.0000000000000000
1.0000000000000000 0.0000000000000000 0.0000000000000000
1.0000000000000000 0.0000000000000000 0.0000000000000000
1.0000000000000000 0.0000000000000000 0.0000000000000000
1.0000000000000000 0.0000000000000000 0.0000000000000000
1.0000000000000000 0.0000000000000000 0.0000000000000000
1.0000000000000000 0.0000000000000000 0.0000000000000000
1.0000000000000000 0.0000000000000000 0.0000000000000000
1.0000000000000000 0.0000000000000000 0.0000000000000000
1.0000000000000000 0.0000000000000000 0.0000000000000000
1.0000000000000000 0.0000000000000000 0.0000000000000000
1.0000000000000000 0.0000000000000000 0.0000000000000000
1.0000000000000000 0.0000000000000000 0.0000000000000000
1.0000000000000000 0.0000000000000000 0.0000000000000000
1.0000000000000000 0.0000000000000000 0.0000000000000000
1.0000000000000000 0.0000000000000000 0.0000000000000000
1.0000000000000000 0.0000000000000000 0.0000000000000000
1.0000000000000000 0.0000000000000000 0.0000000000000000
1.0000000000000000 0.0000000000000000 0.0000000000000000
1.0000000000000000 0.0000000000000000 0.0000000000000000
1.0000000000000000 0.0000000000000000 0.0000000000000000
1.0000000000000000 0.0000000000000000 0.0000000000000000
1.0000000000000000 0.0000000000000000 0.0000000000000000
1.0000000000000000 0.0000000000000000 0.0000000000000000
1.0000000000000000 0.0000000000000000 0.0000000000000000
1.0000000000000000 0.0000000000000000 0.0000000000000000
1.0000000000000000 0.0000000000000000 0.0000000000000000
1.0000000000000000 0.0000000000000000 0.0000000000000000
1.0000000000000000 0.0000000000000000 0.0000000000000000
1.0000000000000000 0.0000000000000000 0.0000000000000000
1.0000000000000000 0.0000000000000000 0.0000000000000000
1.0000000000000000 0.0000000000000000 0.0000000000000000
1.0000000000000000 0.0000000000000000 0.0000000000000000
1.0000000000000000 0.0000000000000000 0.0000000000000000
1.0000000000000000 0.0000000000000000 0.0000000000000000
1.0000000000000000 0.0000000000000000 0.0000000000000000
1.0000000000000000 0.0000000000000000 0.0000000000000000
1.0000000000000000 0.0000000000000000 0.0000000000000000
1.0000000000000000 0.0000000000000000 0.0000000000000000
1.0000000000000000 0.0000000000000000 0.0000000000000000
1.0000000000000000 0.0000000000000000 0.0000000000000000
1.0000000000000000 0.0000000000000000 0.0000000000000000
1.0000000000000000 0.0000000000000000 0.0000000000000000
1.0000000000000000 0.0000000000000000 0.0000000000000000
1.0000000000000000 0.0000000000000000 0.0000000000000000
1.0000000000000000 0.0000000000000000 0.0000000000000000
1.0000000000000000 0.0000000000000000 0.0000000000000000
1.0000000000000000 0.0000000000000000 0.0000000000000000
1.0000000000000000 0.0000000000000000 0.0000000000000000
1.0000000000000000 0.0000000000000000 0.0000000000000000
1.0000000000000000 0.0000000000000000 0.0000000000000000
1.0000000000000000 0.0000000000000000 0.0000000000000000
1.0000000000000000 0.0000000000000000 0.0000000000000000
1.0000000000000000 0.0000000000000000 0.0000000000000000
1.0000000000000000 0.0000000000000000 0.0000000000000000
1.0000000000000000 0.0000000000000000 0.0000000000000000
1.0000000000000000 0.0000000000000000 0.0000000000000000
1.0000000000000000 0.0000000000000000 0.0000000000000000
1.0000000000000000 0.0000000000000000 0.0000000000000000
1.0000000000000000 0.0000000000000000 0.0000000000000000
1.0000000000000000 0.0000000000000000 0.0000000000000000
1.0000000000000000 0.0000000000000000 0.0000000000000000
1.0000000000000000 0.0000000000000000 0.0000000000000000
1.0000000000000000 0.0000000000000000 0.0000000000000000
1.0000000000000000 0.0000000000000000 0.0000000000000000
1.0000000000000000 0.0000000000000000 0.0000000000000000
1.0000000000000000 0.0000000000000000 0.0000000000000000
1.0000000000000000 0.0000000000000000 0.0000000000000000
1.0000000000000000 0.0000000000000000 0.0000000000000000
1.0000000000000000 0.0000000000000000 0.0000000000000000
1.0000000000000000 0.0000000000000000 0.0000000000000000
1.0000000000000000 0.0000000000000000 0.0000000000000000
1.0000000000000000 0.0000000000000000 0.0000000000000000
1.0000000000000000 0.0000000000000000 0.0000000000000000
1.0000000000000000 0.0000000000000000 0.0000000000000000
1.0000000000000000 0.0000000000000000 0.0000000000000000
1.0000000000000000 0.0000000000000000 0.0000000000000000
1.0000000000000000 0.0000000000000000 0.0000000000000000
1.0000000000000000 0.0000000000000000 0.0000000000000000
1.0000000000000000 0.0000000000000000 0.0000000000000000
1.0000000000000000 0.0000000000000000 0.0000000000000000
1.0000000000000000 0.0000000000000000 0.0000000000000000
1.0000000000000000 0.0000000000000000 0.0000000000000000
1.0000000000000000 0.0000000000000000 0.0000000000000000
1.0000000000000000 0.0000000000000000 0.0000000000000000
1.0000000000000000 0.0000000000000000 0.0000000000000000
1.0000000000000000 0.0000000000000000 0.0000000000000000
1.0000000000000000 0.0000000000000000 0.0000000000000000
1.0000000000000000 0.0000000000000000 0.0000000000000000
1.0000000000000000 0.0000000000000000 0.0000000000000000
1.0000000000000000 0.0000000000000000 0.0000000000000000
1.0000000000000000 0.0000000000000000 0.0000000000000000
1.0000000000000000 0.0000000000000000 0.0000000000000000
1.0000000000000000 0.0000000000000000 0.0000000000000000
1.0000000000000000 0.0000000000000000 0.0000000000000000
1.0000000000000000 0.0000000000000000 0.0000000000000000
1.0000000000000000 0.0000000000000000 0.0000000000000000
1.0000000000000000 0.0000000000000000 0.0000000000000000
1.0000000000000000 0.0000000000000000 0.0000000000000000
1.0000000000000000 0.0000000000000000 0.0000000000000000
1.0000000000000000 0.0000000000000000 0.0000000000000000
1.0000000000000000 0.0000000000000000 0.0000000000000000
1.0000000000000000 0.0000000000000000 0.0000000000000000
1.0000000000000000 0.0000000000000000 0.0000000000000000
1.0000000000000000 0.0000000000000000 0.0000000000000000
1.0000000000000000 0.0000000000000000 0.0000000000000000
1.0000000000000000 0.0000000000000000 0.0000000000000000
1.0000000000000000 0.0000000000000000 0.0000000000000000
1.0000000000000000 0.0000000000000000 0.0000000000000000
1.0000000000000000 0.0000000000000000 0.0000000000000000
1.0000000000000000 0.0000000000000000 0.0000000000000000
1.0000000000000000 0.0000000000000000 0.0000000000000000
1.0000000000000000 0.0000000000000000 0.0000000000000000
1.0000000000000000 0.0000000000000000 0.0000000000000000
1.0000000000000000 0.0000000000000000 0.0000000000000000
1.0000000000000000 0.0000000000000000 0.0000000000000000
1.0000000000000000 0.0000000000000000 0.0000000000000000
1.0000000000000000 0.0000000000000000 0.0000000000000000
1.0000000000000000 0.0000000000000000 0.0000000000000000
1.0000000000000000 0.0000000000000000 0.0000000000000000
1.0000000000000000 0.0000000000000000 0.0000000000000000
1.0000000000000000 0.0000000000000000 0.0000000000000000
1.0000000000000000 0.0000000000000000 0.0000000000000000
1.0000000000000000 0.0000000000000000 0.0000000000000000
1.0000000000000000 0.0000000000000000 0.0000000000000000
1.0000000000000000 0.0000000000000000 0.0000000000000000
1.0000000000000000 0.0000000000000000 0.0000000000000000
1.0000000000000000 0.0000000000000000 0.0000000000000000
1.0000000000000000 0.0000000000000000 0.0000000000000000
1.0000000000000000 0.0000000000000000 0.0000000000000000
1.0000000000000000 0.0000000000000000 0.0000000000000000
1.0000000000000000 0.0000000000000000 0.0000000000000000
1.0000000000000000 0.0000000000000000 0.0000000000000000
1.0000000000000000 0.0000000000000000 0.0000000000000000
1.0000000000000000 0.0000000000000000 0.0000000000000000
1.0000000000000000 0.0000000000000000 0.0000000000000000
1.0000000000000000 0.0000000000000000 0.0000000000000000
1.0000000000000000 0.0000000000000000 0.0000000000000000
1.0000000000000000 0.0000000000000000 0.0000000000000000
1.0000000000000000 0.0000000000000000 0.0000000000000000
1.0000000000000000 0.0000000000000000 0.0000000000000000
1.0000000000000000 0.0000000000000000 0.0000000000000000
1.0000000000000000 0.0000000000000000 0.0000000000000000
1.0000000000000000 0.0000000000000000 0.0000000000000000
1.0000000000000000 0.0000000000000000 0.0000000000000000
1.0000000000000000 0.0000000000000000 0.0000000000000000
1.0000000000000000 0.0000000000000000 0.0000000000000000
1.0000000000000000 0.0000000000000000 0.0000000000000000
1.0000000000000000 0.0000000000000000 0.0000000000000000
1.0000000000000000 0.0000000000000000 0.0000000000000000
1.0000000000000000 0.0000000000000000 0.0000000000000000
1.0000000000000000 0.0000000000000000 0.0000000000000000
1.0000000000000000 0.0000000000000000 0.0000000000000000
1.0000000000000000 0.0000000000000000 0.0000000000000000
1.0000000000000000 0.0000000000000000 0.0000000000000000
1.0000000000000000 0.0000000000000000 0.0000000000000000
1.0000000000000000 0.0000000000000000 0.0000000000000000
1.0000000000000000 0.0000000000000000 0.0000000000000000
1.0000000000000000 0.0000000000000000 0.0000000000000000
1.0000000000000000 0.0000000000000000 0.0000000000000000
1.0000000000000000 0.0000000000000000 0.0000000000000000
1.0000000000000000 0.0000000000000000 0.0000000000000000
1.0000000000000000 0.0000000000000000 0.0000000000000000
1.0000000000000000 0.0000000000000000 0.0000000000000000
1.0000000000000000 0.0000000000000000 0.0000000000000000
1.0000000000000000 0.0000000000000000 0.0000000000000000
1.0000000000000000 0.0000000000000000 0.0000000000000000
1.0000000000000000 0.0000000000000000 0.0000000000000000
1.0000000000000000 0.0000000000000000 0.0000000000000000
1.0000000000000000 0.0000000000000000 0.0000000000000000
1.0000000000000000 0.0000000000000000 0.0000000000000000
1.0000000000000000 0.0000000000000000 0.0000000000000000
1.0000000000000000 0.0000000000000000 0.0000000000000000
1.0000000000000000 0.0000000000000000 0.0000000000000000
1.0000000000000000 0.0000000000000000 0.0000000000000000
1.0000000000000000 0.0000000000000000 0.0000000000000000
1.0000000000000000 0.0000000000000000 0.0000000000000000
1.0000000000000000 0.0000000000000000 0.0000000000000000
1.0000000000000000 0.0000000000000000 0.0000000000000000
1.0000000000000000 0.0000000000000000 0.0000000000000000
1.0000000000000000 0.0000000000000000 0.0000000000000000
1.0000000000000000 0.0000000000000000 0.0000000000000000
1.0000000000000000 0.0000000000000000 0.0000000000000000
1.0000000000000000 0.0000000000000000 0.0000000000000000
1.0000000000000000 0.0000000000000000 0.0000000000000000
1.0000000000000000 0.0000000000000000 0.0000000000000000
1.0000000000000000 0.0000000000000000 0.0000000000000000
1.0000000000000000 0.0000000000000000 0.0000000000000000
1.0000000000000000 0.0000000000000000 0.0000000000000000
1.0000000000000000 0.0000000000000000 0.0000000000000000
1.0000000000000000 0.0000000000000000 0.0000000000000000
1.0000000000000000 0.0000000000000000 0.0000000000000000
1.0000000000000000 0.0000000000000000 0.0000000000000000
1.0000000000000000 0.0000000000000000 0.0000000000000000
1.0000000000000000 0.0000000000000000 0.0000000000000000
1.0000000000000000 0.0000000000000000 0.0000000000000000
1.0000000000000000 0.0000000000000000 0.0000000000000000
1.0000000000000000 0.0000000000000000 0.0000000000000000
1.0000000000000000 0.0000000000000000 0.0000000000000000
1.0000000000000000 0.0000000000000000 0.0000000000000000
1.0000000000000000 0.0000000000000000 0.0000000000000000
1.0000000000000000 0.0000000000000000 0.0000000000000000
1.0000000000000000 0.0000000000000000 0.0000000000000000
1.0000000000000000 0.0000000000000000 0.0000000000000000
1.0000000000000000 0.0000000000000000 0.0000000000000000
1.0000000000000000 0.0000000000000000 0.0000000000000000
1.0000000000000000 0.0000000000000000 0.0000000000000000
1.0000000000000000 0.0000000000000000 0.0000000000000000
1.0000000000000000 0.0000000000000000 0.0000000000000000
1.0000000000000000 0.0000000000000000 0.0000000000000000
1.0000000000000000 0.0000000000000000 0.0000000000000000
1.0000000000000000 0.0000000000000000 0.0000000000000000
1.0000000000000000 0.0000000000000000 0.0000000000000000
1.0000000000000000 0.0000000000000000 0.0000000000000000
1.0000000000000000 0.0000000000000000 0.0000000000000000
1.0000000000000000 0.0000000000000000 0.0000000000000000
1.0000000000000000 0.0000000000000000 0.0000000000000000
1.0000000000000000 0.0000000000000000 0.0000000000000000
1.0000000000000000 0.0000000000000000 0.0000000000000000
1.0000000000000000 0.0000000000000000 0.0000000000000000
1.0000000000000000 0.0000000000000000 0.0000000000000000
1.0000000000000000 0.0000000000000000 0.0000000000000000
1.0000000000000000 0.0000000000000000 0.0000000000000000
1.0000000000000000 0.0000000000000000 0.0000000000000000
1.0000000000000000 0.0000000000000000 0.0000000000000000
1.0000000000000000 0.0000000000000000 0.0000000000000000
1.0000000000000000 0.0000000000000000 0.0000000000000000
1.0000000000000000 0.0000000000000000 0.0000000000000000
1.0000000000000000 0.0000000000000000 0.0000000000000000
1.0000000000000000 0.0000000000000000 0.0000000000000000
1.0000000000000000 0.0000000000000000 0.0000000000000000
1.0000000000000000 0.0000000000000000 0.0000000000000000
1.0000000000000000 0.0000000000000000 0.0000000000000000
1.0000000000000000 0.0000000000000000 0.0000000000000000
1.0000000000000000 0.0000000000000000 0.0000000000000000
1.0000000000000000 0.0000000000000000 0.0000000000000000
1.0000000000000000 0.0000000000000000 0.0000000000000000
1.0000000000000000 0.0000000000000000 0.0000000000000000
1.0000000000000000 0.0000000000000000 0.0000000000000000
1.0000000000000000 0.0000000000000000 0.0000000000000000
1.0000000000000000 0.0000000000000000 0.0000000000000000
1.0000000000000000 0.0000000000000000 0.0000000000000000
1.0000000000000000 0.0000000000000000 0.0000000000000000
1.0000000000000000 0.0000000000000000 0.0000000000000000
1.0000000000000000 0.0000000000000000 0.0000000000000000
1.0000000000000000 0.0000000000000000 0.0000000000000000
1.0000000000000000 0.0000000000000000 0.0000000000000000
1.0000000000000000 0.0000000000000000 0.0000000000000000
1.0000000000000000 0.0000000000000000 0.0000000000000000
1.0000000000000000 0.0000000000000000 0.0000000000000000
1.0000000000000000 0.0000000000000000 0.0000000000000000
1.0000000000000000 0.0000000000000000 0.0000000000000000
1.0000000000000000 0.0000000000000000 0.0000000000000000
1.0000000000000000 0.0000000000000000 0.0000000000000000
1.0000000000000000 0.0000000000000000 0.0000000000000000
1.0000000000000000 0.0000000000000000 0.0000000000000000
1.0000000000000000 0.0000000000000000 0.0000000000000000
1.0000000000000000 0.0000000000000000 0.0000000000000000
1.0000000000000000 0.0000000000000000 0.0000000000000000
1.0000000000000000 0.0000000000000000 0.0000000000000000
1.0000000000000000 0.0000000000000000 0.0000000000000000
1.0000000000000000 0.0000000000000000 0.0000000000000000
1.0000000000000000 0.0000000000000000 0.0000000000000000
1.0000000000000000 0.0000000000000000 0.0000000000000000
1.0000000000000000 0.0000000000000000 0.0000000000000000
1.0000000000000000 0.0000000000000000 0.0000000000000000
1.0000000000000000 0.0000000000000000 0.0000000000000000
1.0000000000000000 0.0000000000000000 0.0000000000000000
1.0000000000000000 0.0000000000000000 0.0000000000000000
1.0000000000000000 0.0000000000000000 0.0000000000000000
1.0000000000000000 0.0000000000000000 0.0000000000000000
1.0000000000000000 0.0000000000000000 0.0000000000000000
1.0000000000000000 0.0000000000000000 0.0000000000000000
1.0000000000000000 0.0000000000000000 0.0000000000000000
1.0000000000000000 0.0000000000000000 0.0000000000000000
1.0000000000000000 0.0000000000000000 0.0000000000000000
1.0000000000000000 0.0000000000000000 0.0000000000000000
1.0000000000000000 0.0000000000000000 0.0000000000000000
1.0000000000000000 0.0000000000000000 0.0000000000000000
1.0000000000000000 0.0000000000000000 0.0000000000000000
1.0000000000000000 0.0000000000000000 0.0000000000000000
1.0000000000000000 0.0000000000000000 0.0000000000000000
1.0000000000000000 0.0000000000000000 0.0000000000000000
1.0000000000000000 0.0000000000000000 0.0000000000000000
1.0000000000000000 0.0000000000000000 0.0000000000000000
1.0000000000000000 0.0000000000000000 0.0000000000000000
1.0000000000000000 0.0000000000000000 0.0000000000000000
1.0000000000000000 0.0000000000000000 0.0000000000000000
1.0000000000000000 0.0000000000000000 0.0000000000000000
1.0000000000000000 0.0000000000000000 0.0000000000000000
1.0000000000000000 0.0000000000000000 0.0000000000000000
1.0000000000000000 0.0000000000000000 0.0000000000000000
1.0000000000000000 0.0000000000000000 0.0000000000000000
1.0000000000000000 0.0000000000000000 0.0000000000000000
1.0000000000000000 0.0000000000000000 0.0000000000000000
1.0000000000000000 0.0000000000000000 0.0000000000000000
1.0000000000000000 0.0000000000000000 0.0000000000000000
1.0000000000000000 0.0000000000000000 0.0000000000000000
1.0000000000000000 0.0000000000000000 0.0000000000000000
1.0000000000000000 0.0000000000000000 0.0000000000000000
1.0000000000000000 0.0000000000000000 0.0000000000000000
1.0000000000000000 0.0000000000000000 0.0000000000000000
1.0000000000000000 0.0000000000000000 0.0000000000000000
1.0000000000000000 0.0000000000000000 0.0000000000000000
1.0000000000000000 0.0000000000000000 0.0000000000000000
1.0000000000000000 0.0000000000000000 0.0000000000000000
1.0000000000000000 0.0000000000000000 0.0000000000000000
1.0000000000000000 0.0000000000000000 0.0000000000000000
1.0000000000000000 0.0000000000000000 0.0000000000000000
1.0000000000000000 0.0000000000000000 0.0000000000000000
1.0000000000000000 0.0000000000000000 0.0000000000000000
1.0000000000000000 0.0000000000000000 0.0000000000000000
1.0000000000000000 0.0000000000000000 0.0000000000000000
1.0000000000000000 0.0000000000000000 0.0000000000000000
1.0000000000000000 0.0000000000000000 0.0000000000000000
1.0000000000000000 0.0000000000000000 0.0000000000000000
1.0000000000000000 0.0000000000000000 0.0000000000000000
1.0000000000000000 0.0000000000000000 0.0000000000000000
1.0000000000000000 0.0000000000000000 0.0000000000000000
1.0000000000000000 0.0000000000000000 0.0000000000000000
1.0000000000000000 0.0000000000000000 0.0000000000000000
1.0000000000000000 0.0000000000000000 0.0000000000000000
1.0000000000000000 0.0000000000000000 0.0000000000000000
1.0000000000000000 0.0000000000000000 0.0000000000000000
1.0000000000000000 0.0000000000000000 0.0000000000000000
1.0000000000000000 0.0000000000000000 0.0000000000000000
1.0000000000000000 0.0000000000000000 0.0000000000000000
1.0000000000000000 0.0000000000000000 0.0000000000000000
1.0000000000000000 0.0000000000000000 0.0000000000000000
1.0000000000000000 0.0000000000000000 0.0000000000000000
1.0000000000000000 0.0000000000000000 0.0000000000000000
1.0000000000000000 0.0000000000000000 0.0000000000000000
1.0000000000000000 0.0000000000000000 0.0000000000000000
1.0000000000000000 0.0000000000000000 0.0000000000000000
1.0000000000000000 0.0000000000000000 0.0000000000000000
1.0000000000000000 0.0000000000000000 0.0000000000000000
1.0000000000000000 0.0000000000000000 0.0000000000000000
1.0000000000000000 0.0000000000000000 0.0000000000000000
1.0000000000000000 0.0000000000000000 0.0000000000000000
1.0000000000000000 0.0000000000000000 0.0000000000000000
1.0000000000000000 0.0000000000000000 0.0000000000000000
1.0000000000000000 0.0000000000000000 0.0000000000000000
1.0000000000000000 0.0000000000000000 0.0000000000000000
1.0000000000000000 0.0000000000000000 0.0000000000000000
1.0000000000000000 0.0000000000000000 0.0000000000000000
1.0000000000000000 0.0000000000000000 0.0000000000000000
1.0000000000000000 0.0000000000000000 0.0000000000000000
1.0000000000000000 0.0000000000000000 0.0000000000000000
1.0000000000000000 0.0000000000000000 0.0000000000000000
1.0000000000000000 0.0000000000000000 0.0000000000000000
1.0000000000000000 0.0000000000000000 0.0000000000000000
1.0000000000000000 0.0000000000000000 0.0000000000000000
1.0000000000000000 0.0000000000000000 0.0000000000000000
1.0000000000000000 0.0000000000000000 0.0000000000000000
1.0000000000000000 0.0000000000000000 0.0000000000000000
1.0000000000000000 0.0000000000000000 0.0000000000000000
1.0000000000000000 0.0000000000000000 0.0000000000000000
1.0000000000000000 0.0000000000000000 0.0000000000000000
1.0000000000000000 0.0000000000000000 0.0000000000000000
1.0000000000000000 0.0000000000000000 0.0000000000000000
1.0000000000000000 0.0000000000000000 0.0000000000000000
1.0000000000000000 0.0000000000000000 0.0000000000000000
1.0000000000000000 0.0000000000000000 0.0000000000000000
1.0000000000000000 0.0000000000000000 0.0000000000000000
1.0000000000000000 0.0000000000000000 0.0000000000000000
1.0000000000000000 0.0000000000000000 0.0000000000000000
1.0000000000000000 0.0000000000000000 0.0000000000000000
1.0000000000000000 0.0000000000000000 0.0000000000000000
1.0000000000000000 0.0000000000000000 0.0000000000000000
1.0000000000000000 0.0000000000000000 0.0000000000000000
1.0000000000000000 0.0000000000000000 0.0000000000000000
1.0000000000000000 0.0000000000000000 0.0000000000000000
1.0000000000000000 0.0000000000000000 0.0000000000000000
1.0000000000000000 0.0000000000000000 0.0000000000000000
1.0000000000000000 0.0000000000000000 0.0000000000000000
1.0000000000000000 0.0000000000000000 0.0000000000000000
1.0000000000000000 0.0000000000000000 0.0000000000000000
1.0000000000000000 0.0000000000000000 0.0000000000000000
1.0000000000000000 0.0000000000000000 0.0000000000000000
1.0000000000000000 0.0000000000000000 0.0000000000000000
1.0000000000000000 0.0000000000000000 0.0000000000000000
1.0000000000000000 0.0000000000000000 0.0000000000000000
1.0000000000000000 0.0000000000000000 0.0000000000000000
1.0000000000000000 0.0000000000000000 0.0000000000000000
1.0000000000000000 0.0000000000000000 0.0000000000000000
1.0000000000000000 0.0000000000000000 0.0000000000000000
1.0000000000000000 0.0000000000000000 0.0000000000000000
1.0000000000000000 0.0000000000000000 0.0000000000000000
1.0000000000000000 0.0000000000000000 0.0000000000000000
1.0000000000000000 0.0000000000000000 0.0000000000000000
1.0000000000000000 0.0000000000000000 0.0000000000000000
1.0000000000000000 0.0000000000000000 0.0000000000000000
1.0000000000000000 0.0000000000000000 0.0000000000000000
1.0000000000000000 0.0000000000000000 0.0000000000000000
1.0000000000000000 0.0000000000000000 0.0000000000000000
1.0000000000000000 0.0000000000000000 0.0000000000000000
1.0000000000000000 0.0000000000000000 0.0000000000000000
1.0000000000000000 0.0000000000000000 0.0000000000000000
1.0000000000000000 0.0000000000000000 0.0000000000000000
1.0000000000000000 0.0000000000000000 0.0000000000000000
1.0000000000000000 0.0000000000000000 0.0000000000000000
1.0000000000000000 0.0000000000000000 0.0000000000000000
1.0000000000000000 0.0000000000000000 0.0000000000000000
1.0000000000000000 0.0000000000000000 0.0000000000000000
1.0000000000000000 0.0000000000000000 0.0000000000000000
1.0000000000000000 0.0000000000000000 0.0000000000000000
1.0000000000000000 0.0000000000000000 0.0000000000000000
1.0000000000000000 0.0000000000000000 0.0000000000000000
1.0000000000000000 0.0000000000000000 0.0000000000000000
1.0000000000000000 0.0000000000000000 0.0000000000000000
1.0000000000000000 0.0000000000000000 0.0000000000000000
1.0000000000000000 0.0000000000000000 0.0000000000000000
1.0000000000000000 0.0000000000000000 0.0000000000000000
1.0000000000000000 0.0000000000000000 0.0000000000000000
1.0000000000000000 0.0000000000000000 0.0000000000000000
1.0000000000000000 0.0000000000000000 0.0000000000000000
1.0000000000000000 0.0000000000000000 0.0000000000000000
1.0000000000000000 0.0000000000000000 0.0000000000000000
1.0000000000000000 0.0000000000000000 0.0000000000000000
1.0000000000000000 0.0000000000000000 0.0000000000000000
1.0000000000000000 0.0000000000000000 0.0000000000000000
1.0000000000000000 0.0000000000000000 0.0000000000000000
1.0000000000000000 0.0000000000000000 0.0000000000000000
1.0000000000000000 0.0000000000000000 0.0000000000000000
1.0000000000000000 0.0000000000000000 0.0000000000000000
1.0000000000000000 0.0000000000000000 0.0000000000000000
1.0000000000000000 0.0000000000000000 0.0000000000000000
1.0000000000000000 0.0000000000000000 0.0000000000000000
1.0000000000000000 0.0000000000000000 0.0000000000000000
1.0000000000000000 0.0000000000000000 0.0000000000000000
1.0000000000000000 0.0000000000000000 0.0000000000000000
1.0000000000000000 0.0000000000000000 0.0000000000000000
1.0000000000000000 0.0000000000000000 0.0000000000000000
1.0000000000000000 0.0000000000000000 0.0000000000000000
1.0000000000000000 0.0000000000000000 0.0000000000000000
1.0000000000000000 0.0000000000000000 0.0000000000000000
1.0000000000000000 0.0000000000000000 0.0000000000000000
1.0000000000000000 0.0000000000000000 0.0000000000000000
1.0000000000000000 0.0000000000000000 0.0000000000000000
1.0000000000000000 0.0000000000000000 0.0000000000000000
1.0000000000000000 0.0000000000000000 0.0000000000000000
1.0000000000000000 0.0000000000000000 0.0000000000000000
1.0000000000000000 0.0000000000000000 0.0000000000000000
1.0000000000000000 0.0000000000000000 0.0000000000000000
1.0000000000000000 0.0000000000000000 0.0000000000000000
1.0000000000000000 0.0000000000000000 0.0000000000000000
1.0000000000000000 0.0000000000000000 0.0000000000000000
1.0000000000000000 0.0000000000000000 0.0000000000000000
1.0000000000000000 0.0000000000000000 0.0000000000000000
1.0000000000000000 0.0000000000000000 0.0000000000000000
1.0000000000000000 0.0000000000000000 0.0000000000000000
1.0000000000000000 0.0000000000000000 0.0000000000000000
1.0000000000000000 0.0000000000000000 0.0000000000000000
1.0000000000000000 0.0000000000000000 0.0000000000000000
1.0000000000000000 0.0000000000000000 0.0000000000000000
1.0000000000000000 0.0000000000000000 0.0000000000000000
1.0000000000000000 0.0000000000000000 0.0000000000000000
1.0000000000000000 0.0000000000000000 0.0000000000000000
1.0000000000000000 0.0000000000000000 0.0000000000000000
1.0000000000000000 0.0000000000000000 0.0000000000000000
1.0000000000000000 0.0000000000000000 0.0000000000000000
1.0000000000000000 0.0000000000000000 0.0000000000000000
1.0000000000000000 0.0000000000000000 0.0000000000000000
1.0000000000000000 0.0000000000000000 0.0000000000000000
1.0000000000000000 0.0000000000000000 0.0000000000000000
1.0000000000000000 0.0000000000000000 0.0000000000000000
1.0000000000000000 0.0000000000000000 0.0000000000000000
1.0000000000000000 0.0000000000000000 0.0000000000000000
1.0000000000000000 0.0000000000000000 0.0000000000000000
1.0000000000000000 0.0000000000000000 0.0000000000000000
1.0000000000000000 0.0000000000000000 0.0000000000000000
1.0000000000000000 0.0000000000000000 0.0000000000000000
1.0000000000000000 0.0000000000000000 0.0000000000000000
1.0000000000000000 0.0000000000000000 0.0000000000000000
1.0000000000000000 0.0000000000000000 0.0000000000000000
1.0000000000000000 0.0000000000000000 0.0000000000000000
1.0000000000000000 0.0000000000000000 0.0000000000000000
1.0000000000000000 0.0000000000000000 0.0000000000000000
1.0000000000000000 0.0000000000000000 0.0000000000000000
1.0000000000000000 0.0000000000000000 0.0000000000000000
1.0000000000000000 0.0000000000000000 0.0000000000000000
1.0000000000000000 0.0000000000000000 0.0000000000000000
1.0000000000000000 0.0000000000000000 0.0000000000000000
1.0000000000000000 0.0000000000000000 0.0000000000000000
1.0000000000000000 0.0000000000000000 0.0000000000000000
1.0000000000000000 0.0000000000000000 0.0000000000000000
1.0000000000000000 0.0000000000000000 0.0000000000000000
1.0000000000000000 0.0000000000000000 0.0000000000000000
1.0000000000000000 0.0000000000000000 0.0000000000000000
1.0000000000000000 0.0000000000000000 0.0000000000000000
1.0000000000000000 0.0000000000000000 0.0000000000000000
1.0000000000000000 0.0000000000000000 0.0000000000000000
1.0000000000000000 0.0000000000000000 0.0000000000000000
1.0000000000000000 0.0000000000000000 0.0000000000000000
1.0000000000000000 0.0000000000000000 0.0000000000000000
1.0000000000000000 0.0000000000000000 0.0000000000000000
1.0000000000000000 0.0000000000000000 0.0000000000000000
1.0000000000000000 0.0000000000000000 0.0000000000000000
1.0000000000000000 0.0000000000000000 0.0000000000000000
1.0000000000000000 0.0000000000000000 0.0000000000000000
1.0000000000000000 0.0000000000000000 0.0000000000000000
1.0000000000000000 0.0000000000000000 0.0000000000000000
1.0000000000000000 0.0000000000000000 0.0000000000000000
1.0000000000000000 0.0000000000000000 0.0000000000000000
1.0000000000000000 0.0000000000000000 0.0000000000000000
1.0000000000000000 0.0000000000000000 0.0000000000000000
1.0000000000000000 0.0000000000000000 0.0000000000000000
1.0000000000000000 0.0000000000000000 0.0000000000000000
1.0000000000000000 0.0000000000000000 0.0000000000000000
1.0000000000000000 0.0000000000000000 0.0000000000000000
1.0000000000000000 0.0000000000000000 0.0000000000000000
1.0000000000000000 0.0000000000000000 0.0000000000000000
1.0000000000000000 0.0000000000000000 0.0000000000000000
1.0000000000000000 0.0000000000000000 0.0000000000000000
1.0000000000000000 0.0000000000000000 0.0000000000000000
1.0000000000000000 0.0000000000000000 0.0000000000000000
1.0000000000000000 0.0000000000000000 0.0000000000000000
1.0000000000000000 0.0000000000000000 0.0000000000000000
1.0000000000000000 0.0000000000000000 0.0000000000000000
1.0000000000000000 0.0000000000000000 0.0000000000000000
1.0000000000000000 0.0000000000000000 0.0000000000000000
1.0000000000000000 0.0000000000000000 0.0000000000000000
1.0000000000000000 0.0000000000000000 0.0000000000000000
1.0000000000000000 0.0000000000000000 0.0000000000000000
1.0000000000000000 0.0000000000000000 0.0000000000000000
1.0000000000000000 0.0000000000000000 0.0000000000000000
1.0000000000000000 0.0000000000000000 0.0000000000000000
1.0000000000000000 0.0000000000000000 0.0000000000000000
1.0000000000000000 0.0000000000000000 0.0000000000000000
1.0000000000000000 0.0000000000000000 0.0000000000000000
1.0000000000000000 0.0000000000000000 0.0000000000000000
1.0000000000000000 0.0000000000000000 0.0000000000000000
1.0000000000000000 0.0000000000000000 0.0000000000000000
1.0000000000000000 0.0000000000000000 0.0000000000000000
1.0000000000000000 0.0000000000000000 0.0000000000000000
1.0000000000000000 0.0000000000000000 0.0000000000000000
1.0000000000000000 0.0000000000000000 0.0000000000000000
1.0000000000000000 0.0000000000000000 0.0000000000000000
1.0000000000000000 0.0000000000000000 0.0000000000000000
1.0000000000000000 0.0000000000000000 0.0000000000000000
1.0000000000000000 0.0000000000000000 0.0000000000000000
1.0000000000000000 0.0000000000000000 0.0000000000000000
1.0000000000000000 0.0000000000000000 0.0000000000000000
1.0000000000000000 0.0000000000000000 0.0000000000000000
1.0000000000000000 0.0000000000000000 0.0000000000000000
1.0000000000000000 0.0000000000000000 0.0000000000000000
1.0000000000000000 0.0000000000000000 0.0000000000000000
1.0000000000000000 0.0000000000000000 0.0000000000000000
1.0000000000000000 0.0000000000000000 0.0000000000000000
1.0000000000000000 0.0000000000000000 0.0000000000000000
1.0000000000000000 0.0000000000000000 0.0000000000000000
1.0000000000000000 0.0000000000000000 0.0000000000000000
1.0000000000000000 0.0000000000000000 0.0000000000000000
1.0000000000000000 0.0000000000000000 0.0000000000000000
1.0000000000000000 0.0000000000000000 0.0000000000000000
1.0000000000000000 0.0000000000000000 0.0000000000000000
1.0000000000000000 0.0000000000000000 0.0000000000000000
1.0000000000000000 0.0000000000000000 0.0000000000000000
1.0000000000000000 0.0000000000000000 0.0000000000000000
1.0000000000000000 0.0000000000000000 0.0000000000000000
1.0000000000000000 0.0000000000000000 0.0000000000000000
1.0000000000000000 0.0000000000000000 0.0000000000000000
1.0000000000000000 0.0000000000000000 0.0000000000000000
1.0000000000000000 0.0000000000000000 0.0000000000000000
1.0000000000000000 0.0000000000000000 0.0000000000000000
1.0000000000000000 0.0000000000000000 0.0000000000000000
1.0000000000000000 0.0000000000000000 0.0000000000000000
1.0000000000000000 0.0000000000000000 0.0000000000000000
1.0000000000000000 0.0000000000000000 0.0000000000000000
1.0000000000000000 0.0000000000000000 0.0000000000000000
1.0000000000000000 0.0000000000000000 0.0000000000000000
1.0000000000000000 0.0000000000000000 0.0000000000000000
1.0000000000000000 0.0000000000000000 0.0000000000000000
1.0000000000000000 0.0000000000000000 0.0000000000000000
1.0000000000000000 0.0000000000000000 0.0000000000000000
1.0000000000000000 0.0000000000000000 0.0000000000000000
1.0000000000000000 0.0000000000000000 0.0000000000000000
1.0000000000000000 0.0000000000000000 0.0000000000000000
1.0000000000000000 0.0000000000000000 0.0000000000000000
1.0000000000000000 0.0000000000000000 0.0000000000000000
1.0000000000000000 0.0000000000000000 0.0000000000000000
1.0000000000000000 0.0000000000000000 0.0000000000000000
1.0000000000000000 0.0000000000000000 0.0000000000000000
1.0000000000000000 0.0000000000000000 0.0000000000000000
1.0000000000000000 0.0000000000000000 0.0000000000000000
1.0000000000000000 0.0000000000000000 0.0000000000000000
1.0000000000000000 0.0000000000000000 0.0000000000000000
1.0000000000000000 0.0000000000000000 0.0000000000000000
1.0000000000000000 0.0000000000000000 0.0000000000000000
1.0000000000000000 0.0000000000000000 0.0000000000000000
1.0000000000000000 0.0000000000000000 0.0000000000000000
1.0000000000000000 0.0000000000000000 0.0000000000000000
1.0000000000000000 0.0000000000000000 0.0000000000000000
1.0000000000000000 0.0000000000000000 0.0000000000000000
1.0000000000000000 0.0000000000000000 0.0000000000000000
1.0000000000000000 0.0000000000000000 0.0000000000000000
1.0000000000000000 0.0000000000000000 0.0000000000000000
1.0000000000000000 0.0000000000000000 0.0000000000000000
1.0000000000000000 0.0000000000000000 0.0000000000000000
1.0000000000000000 0.0000000000000000 0.0000000000000000
1.0000000000000000 0.0000000000000000 0.0000000000000000
1.0000000000000000 0.0000000000000000 0.0000000000000000
1.0000000000000000 0.0000000000000000 0.0000000000000000
1.0000000000000000 0.0000000000000000 0.0000000000000000
1.0000000000000000 0.0000000000000000 0.0000000000000000
1.0000000000000000 0.0000000000000000 0.0000000000000000
1.0000000000000000 0.0000000000000000 0.0000000000000000
1.0000000000000000 0.0000000000000000 0.0000000000000000
1.0000000000000000 0.0000000000000000 0.0000000000000000
1.0000000000000000 0.0000000000000000 0.0000000000000000
1.0000000000000000 0.0000000000000000 0.0000000000000000
1.0000000000000000 0.0000000000000000 0.0000000000000000
1.0000000000000000 0.0000000000000000 0.0000000000000000
1.0000000000000000 0.0000000000000000 0.0000000000000000
1.0000000000000000 0.0000000000000000 0.0000000000000000
1.0000000000000000 0.0000000000000000 0.0000000000000000
1.0000000000000000 0.0000000000000000 0.0000000000000000
1.0000000000000000 0.0000000000000000 0.0000000000000000
1.0000000000000000 0.0000000000000000 0.0000000000000000
1.0000000000000000 0.0000000000000000 0.0000000000000000
1.0000000000000000 0.0000000000000000 0.0000000000000000
1.0000000000000000 0.0000000000000000 0.0000000000000000
1.0000000000000000 0.0000000000000000 0.0000000000000000
1.0000000000000000 0.0000000000000000 0.0000000000000000
1.0000000000000000 0.0000000000000000 0.0000000000000000
1.0000000000000000 0.0000000000000000 0.0000000000000000
1.0000000000000000 0.0000000000000000 0.0000000000000000
1.0000000000000000 0.0000000000000000 0.0000000000000000
1.0000000000000000 0.0000000000000000 0.0000000000000000
1.0000000000000000 0.0000000000000000 0.0000000000000000
1.0000000000000000 0.0000000000000000 0.0000000000000000
1.0000000000000000 0.0000000000000000 0.0000000000000000
1.0000000000000000 0.0000000000000000 0.0000000000000000
1.0000000000000000 0.0000000000000000 0.0000000000000000
1.0000000000000000 0.0000000000000000 0.0000000000000000
1.0000000000000000 0.0000000000000000 0.0000000000000000
1.0000000000000000 0.0000000000000000 0.0000000000000000
1.0000000000000000 0.0000000000000000 0.0000000000000000
1.0000000000000000 0.0000000000000000 0.0000000000000000
1.0000000000000000 0.0000000000000000 0.0000000000000000
1.0000000000000000 0.0000000000000000 0.0000000000000000
1.0000000000000000 0.0000000000000000 0.0000000000000000
1.0000000000000000 0.0000000000000000 0.0000000000000000
1.0000000000000000 0.0000000000000000 0.0000000000000000
1.0000000000000000 0.0000000000000000 0.0000000000000000
1.0000000000000000 0.0000000000000000 0.0000000000000000
1.0000000000000000 0.0000000000000000 0.0000000000000000
1.0000000000000000 0.0000000000000000 0.0000000000000000
1.0000000000000000 0.0000000000000000 0.0000000000000000
1.0000000000000000 0.0000000000000000 0.0000000000000000
1.0000000000000000 0.0000000000000000 0.0000000000000000
1.0000000000000000 0.0000000000000000 0.0000000000000000
1.0000000000000000 0.0000000000000000 0.0000000000000000
1.0000000000000000 0.0000000000000000 0.0000000000000000
1.0000000000000000 0.0000000000000000 0.0000000000000000
1.0000000000000000 0.0000000000000000 0.0000000000000000
1.0000000000000000 0.0000000000000000 0.0000000000000000
1.0000000000000000 0.0000000000000000 0.0000000000000000
1.0000000000000000 0.0000000000000000 0.0000000000000000
1.0000000000000000 0.0000000000000000 0.0000000000000000
1.0000000000000000 0.0000000000000000 0.0000000000000000
1.0000000000000000 0.0000000000000000 0.0000000000000000
1.0000000000000000 0.0000000000000000 0.0000000000000000
1.0000000000000000 0.0000000000000000 0.0000000000000000
1.0000000000000000 0.0000000000000000 0.0000000000000000
1.0000000000000000 0.0000000000000000 0.0000000000000000
1.0000000000000000 0.0000000000000000 0.0000000000000000
1.0000000000000000 0.0000000000000000 0.0000000000000000
1.0000000000000000 0.0000000000000000 0.0000000000000000
1.0000000000000000 0.0000000000000000 0.0000000000000000
1.0000000000000000 0.0000000000000000 0.0000000000000000
1.0000000000000000 0.0000000000000000 0.0000000000000000
1.0000000000000000 0.0000000000000000 0.0000000000000000
1.0000000000000000 0.0000000000000000 0.0000000000000000
1.0000000000000000 0.0000000000000000 0.0000000000000000
1.0000000000000000 0.0000000000000000 0.0000000000000000
1.0000000000000000 0.0000000000000000 0.0000000000000000
1.0000000000000000 0.0000000000000000 0.0000000000000000
1.0000000000000000 0.0000000000000000 0.0000000000000000
1.0000000000000000 0.0000000000000000 0.0000000000000000
1.0000000000000000 0.0000000000000000 0.0000000000000000
1.0000000000000000 0.0000000000000000 0.0000000000000000
1.0000000000000000 0.0000000000000000 0.0000000000000000
1.0000000000000000 0.0000000000000000 0.0000000000000000
1.0000000000000000 0.0000000000000000 0.0000000000000000
1.0000000000000000 0.0000000000000000 0.0000000000000000
1.0000000000000000 0.0000000000000000 0.0000000000000000
1.0000000000000000 0.0000000000000000 0.0000000000000000
1.0000000000000000 0.0000000000000000 0.0000000000000000
1.0000000000000000 0.0000000000000000 0.0000000000000000
1.0000000000000000 0.0000000000000000 0.0000000000000000
1.0000000000000000 0.0000000000000000 0.0000000000000000
1.0000000000000000 0.0000000000000000 0.0000000000000000
1.0000000000000000 0.0000000000000000 0.0000000000000000
1.0000000000000000 0.0000000000000000 0.0000000000000000
1.0000000000000000 0.0000000000000000 0.0000000000000000
1.0000000000000000 0.0000000000000000 0.0000000000000000
1.0000000000000000 0.0000000000000000 0.0000000000000000
1.0000000000000000 0.0000000000000000 0.0000000000000000
1.0000000000000000 0.0000000000000000 0.0000000000000000
1.0000000000000000 0.0000000000000000 0.0000000000000000
1.0000000000000000 0.0000000000000000 0.0000000000000000
1.0000000000000000 0.0000000000000000 0.0000000000000000
1.0000000000000000 0.0000000000000000 0.0000000000000000
1.0000000000000000 0.0000000000000000 0.0000000000000000
1.0000000000000000 0.0000000000000000 0.0000000000000000
1.0000000000000000 0.0000000000000000 0.0000000000000000
1.0000000000000000 0.0000000000000000 0.0000000000000000
1.0000000000000000 0.0000000000000000 0.0000000000000000
1.0000000000000000 0.0000000000000000 0.0000000000000000
1.0000000000000000 0.0000000000000000 0.0000000000000000
1.0000000000000000 0.0000000000000000 0.0000000000000000
1.0000000000000000 0.0000000000000000 0.0000000000000000
1.0000000000000000 0.0000000000000000 0.0000000000000000
1.0000000000000000 0.0000000000000000 0.0000000000000000
1.0000000000000000 0.0000000000000000 0.0000000000000000
1.0000000000000000 0.0000000000000000 0.0000000000000000
1.0000000000000000 0.0000000000000000 0.0000000000000000
1.0000000000000000 0.0000000000000000 0.0000000000000000
1.0000000000000000 0.0000000000000000 0.0000000000000000
1.0000000000000000 0.0000000000000000 0.0000000000000000
1.0000000000000000 0.0000000000000000 0.0000000000000000
1.0000000000000000 0.0000000000000000 0.0000000000000000
1.0000000000000000 0.0000000000000000 0.0000000000000000
1.0000000000000000 0.0000000000000000 0.0000000000000000
1.0000000000000000 0.0000000000000000 0.0000000000000000
1.0000000000000000 0.0000000000000000 0.0000000000000000
1.0000000000000000 0.0000000000000000 0.0000000000000000
1.0000000000000000 0.0000000000000000 0.0000000000000000
1.0000000000000000 0.0000000000000000 0.0000000000000000
1.0000000000000000 0.0000000000000000 0.0000000000000000
1.0000000000000000 0.0000000000000000 0.0000000000000000
1.0000000000000000 0.0000000000000000 0.0000000000000000
1.0000000000000000 0.0000000000000000 0.0000000000000000
1.0000000000000000 0.0000000000000000 0.0000000000000000
1.0000000000000000 0.0000000000000000 0.0000000000000000
1.0000000000000000 0.0000000000000000 0.0000000000000000
1.0000000000000000 0.0000000000000000 0.0000000000000000
1.0000000000000000 0.0000000000000000 0.0000000000000000
1.0000000000000000 0.0000000000000000 0.0000000000000000
1.0000000000000000 0.0000000000000000 0.0000000000000000
1.0000000000000000 0.0000000000000000 0.0000000000000000
1.0000000000000000 0.0000000000000000 0.0000000000000000
1.0000000000000000 0.0000000000000000 0.0000000000000000
1.0000000000000000 0.0000000000000000 0.0000000000000000
1.0000000000000000 0.0000000000000000 0.0000000000000000
1.0000000000000000 0.0000000000000000 0.0000000000000000
1.0000000000000000 0.0000000000000000 0.0000000000000000
1.0000000000000000 0.0000000000000000 0.0000000000000000
1.0000000000000000 0.0000000000000000 0.0000000000000000
1.0000000000000000 0.0000000000000000 0.0000000000000000
1.0000000000000000 0.0000000000000000 0.0000000000000000
1.0000000000000000 0.0000000000000000 0.0000000000000000
1.0000000000000000 0.0000000000000000 0.0000000000000000
1.0000000000000000 0.0000000000000000 0.0000000000000000
1.0000000000000000 0.0000000000000000 0.0000000000000000
1.0000000000000000 0.0000000000000000 0.0000000000000000
1.0000000000000000 0.0000000000000000 0.0000000000000000
1.0000000000000000 0.0000000000000000 0.0000000000000000
1.0000000000000000 0.0000000000000000 0.0000000000000000
1.0000000000000000 0.0000000000000000 0.0000000000000000
1.0000000000000000 0.0000000000000000 0.0000000000000000
1.0000000000000000 0.0000000000000000 0.0000000000000000
1.0000000000000000 0.0000000000000000 0.0000000000000000
1.0000000000000000 0.0000000000000000 0.0000000000000000
1.0000000000000000 0.0000000000000000 0.0000000000000000
1.0000000000000000 0.0000000000000000 0.0000000000000000
1.0000000000000000 0.0000000000000000 0.0000000000000000
1.0000000000000000 0.0000000000000000 0.0000000000000000
1.0000000000000000 0.0000000000000000 0.0000000000000000
1.0000000000000000 0.0000000000000000 0.0000000000000000
1.0000000000000000 0.0000000000000000 0.0000000000000000
1.0000000000000000 0.0000000000000000 0.0000000000000000
1.0000000000000000 0.0000000000000000 0.0000000000000000
1.0000000000000000 0.0000000000000000 0.0000000000000000
1.0000000000000000 0.0000000000000000 0.0000000000000000
1.0000000000000000 0.0000000000000000 0.0000000000000000
1.0000000000000000 0.0000000000000000 0.0000000000000000
1.0000000000000000 0.0000000000000000 0.0000000000000000
1.0000000000000000 0.0000000000000000 0.0000000000000000
1.0000000000000000 0.0000000000000000 0.0000000000000000
1.0000000000000000 0.0000000000000000 0.0000000000000000
1.0000000000000000 0.0000000000000000 0.0000000000000000
1.0000000000000000 0.0000000000000000 0.0000000000000000
1.0000000000000000 0.0000000000000000 0.0000000000000000
1.0000000000000000 0.0000000000000000 0.0000000000000000
1.0000000000000000 0.0000000000000000 0.0000000000000000
1.0000000000000000 0.0000000000000000 0.0000000000000000
1.0000000000000000 0.0000000000000000 0.0000000000000000
1.0000000000000000 0.0000000000000000 0.0000000000000000
1.0000000000000000 0.0000000000000000 0.0000000000000000
1.0000000000000000 0.0000000000000000 0.0000000000000000
1.0000000000000000 0.0000000000000000 0.0000000000000000
1.0000000000000000 0.0000000000000000 0.0000000000000000
1.0000000000000000 0.0000000000000000 0.0000000000000000
1.0000000000000000 0.0000000000000000 0.0000000000000000
1.0000000000000000 0.0000000000000000 0.0000000000000000
1.0000000000000000 0.0000000000000000 0.0000000000000000
1.0000000000000000 0.0000000000000000 0.0000000000000000
1.0000000000000000 0.0000000000000000 0.0000000000000000
1.0000000000000000 0.0000000000000000 0.0000000000000000
1.0000000000000000 0.0000000000000000 0.0000000000000000
1.0000000000000000 0.0000000000000000 0.0000000000000000
1.0000000000000000 0.0000000000000000 0.0000000000000000
1.0000000000000000 0.0000000000000000 0.0000000000000000
1.0000000000000000 0.0000000000000000 0.0000000000000000
1.0000000000000000 0.0000000000000000 0.0000000000000000
1.0000000000000000 0.0000000000000000 0.0000000000000000
1.0000000000000000 0.0000000000000000 0.0000000000000000
1.0000000000000000 0.0000000000000000 0.0000000000000000
1.0000000000000000 0.0000000000000000 0.0000000000000000
1.0000000000000000 0.0000000000000000 0.0000000000000000
1.0000000000000000 0.0000000000000000 0.0000000000000000
1.0000000000000000 0.0000000000000000 0.0000000000000000
1.0000000000000000 0.0000000000000000 0.0000000000000000
1.0000000000000000 0.0000000000000000 0.0000000000000000
1.0000000000000000 0.0000000000000000 0.0000000000000000
1.0000000000000000 0.0000000000000000 0.0000000000000000
1.0000000000000000 0.0000000000000000 0.0000000000000000
1.0000000000000000 0.0000000000000000 0.0000000000000000
1.0000000000000000 0.0000000000000000 0.0000000000000000
1.0000000000000000 0.0000000000000000 0.0000000000000000
1.0000000000000000 0.0000000000000000 0.0000000000000000
1.0000000000000000 0.0000000000000000 0.0000000000000000
1.0000000000000000 0.0000000000000000 0.0000000000000000
1.0000000000000000 0.0000000000000000 0.0000000000000000
1.0000000000000000 0.0000000000000000 0.0000000000000000
1.0000000000000000 0.0000000000000000 0.0000000000000000
1.0000000000000000 0.0000000000000000 0.0000000000000000
1.0000000000000000 0.0000000000000000 0.0000000000000000
1.0000000000000000 0.0000000000000000 0.0000000000000000
1.0000000000000000 0.0000000000000000 0.0000000000000000
1.0000000000000000 0.0000000000000000 0.0000000000000000
1.0000000000000000 0.0000000000000000 0.0000000000000000
1.0000000000000000 0.0000000000000000 0.0000000000000000
1.0000000000000000 0.0000000000000000 0.0000000000000000
1.0000000000000000 0.0000000000000000 0.0000000000000000
1.0000000000000000 0.0000000000000000 0.0000000000000000
1.0000000000000000 0.0000000000000000 0.0000000000000000
1.0000000000000000 0.0000000000000000 0.0000000000000000
1.0000000000000000 0.0000000000000000 0.0000000000000000
1.0000000000000000 0.0000000000000000 0.0000000000000000
1.0000000000000000 0.0000000000000000 0.0000000000000000
1.0000000000000000 0.0000000000000000 0.0000000000000000
1.0000000000000000 0.0000000000000000 0.0000000000000000
1.0000000000000000 0.0000000000000000 0.0000000000000000
1.0000000000000000 0.0000000000000000 0.0000000000000000
1.0000000000000000 0.0000000000000000 0.0000000000000000
1.0000000000000000 0.0000000000000000 0.0000000000000000
1.0000000000000000 0.0000000000000000 0.0000000000000000
1.0000000000000000 0.0000000000000000 0.0000000000000000
1.0000000000000000 0.0000000000000000 0.0000000000000000
1.0000000000000000 0.0000000000000000 0.0000000000000000
1.0000000000000000 0.0000000000000000 0.0000000000000000
1.0000000000000000 0.0000000000000000 0.0000000000000000
1.0000000000000000 0.0000000000000000 0.0000000000000000
1.0000000000000000 0.0000000000000000 0.0000000000000000
1.0000000000000000 0.0000000000000000 0.0000000000000000
1.0000000000000000 0.0000000000000000 0.0000000000000000
1.0000000000000000 0.0000000000000000 0.0000000000000000
1.0000000000000000 0.0000000000000000 0.0000000000000000
1.0000000000000000 0.0000000000000000 0.0000000000000000
1.0000000000000000 0.0000000000000000 0.0000000000000000
1.0000000000000000 0.0000000000000000 0.0000000000000000
1.0000000000000000 0.0000000000000000 0.0000000000000000
1.0000000000000000 0.0000000000000000 0.0000000000000000
1.0000000000000000 0.0000000000000000 0.0000000000000000
1.0000000000000000 0.0000000000000000 0.0000000000000000
1.0000000000000000 0.0000000000000000 0.0000000000000000
1.0000000000000000 0.0000000000000000 0.0000000000000000
1.0000000000000000 0.0000000000000000 0.0000000000000000
1.0000000000000000 0.0000000000000000 0.0000000000000000
1.0000000000000000 0.0000000000000000 0.0000000000000000
1.0000000000000000 0.0000000000000000 0.0000000000000000
1.0000000000000000 0.0000000000000000 0.0000000000000000
1.0000000000000000 0.0000000000000000 0.0000000000000000
1.0000000000000000 0.0000000000000000 0.0000000000000000
1.0000000000000000 0.0000000000000000 0.0000000000000000
1.0000000000000000 0.0000000000000000 0.0000000000000000
1.0000000000000000 0.0000000000000000 0.0000000000000000
1.0000000000000000 0.0000000000000000 0.0000000000000000
1.0000000000000000 0.0000000000000000 0.0000000000000000
1.0000000000000000 0.0000000000000000 0.0000000000000000
1.0000000000000000 0.0000000000000000 0.0000000000000000
1.0000000000000000 0.0000000000000000 0.0000000000000000
1.0000000000000000 0.0000000000000000 0.0000000000000000
1.0000000000000000 0.0000000000000000 0.0000000000000000
1.0000000000000000 0.0000000000000000 0.0000000000000000
1.0000000000000000 0.0000000000000000 0.0000000000000000
1.0000000000000000 0.0000000000000000 0.0000000000000000
1.0000000000000000 0.0000000000000000 0.0000000000000000
1.0000000000000000 0.0000000000000000 0.0000000000000000
1.0000000000000000 0.0000000000000000 0.0000000000000000
1.0000000000000000 0.0000000000000000 0.0000000000000000
1.0000000000000000 0.0000000000000000 0.0000000000000000
1.0000000000000000 0.0000000000000000 0.0000000000000000
1.0000000000000000 0.0000000000000000 0.0000000000000000
1.0000000000000000 0.0000000000000000 0.0000000000000000
1.0000000000000000 0.0000000000000000 0.0000000000000000
1.0000000000000000 0.0000000000000000 0.0000000000000000
1.0000000000000000 0.0000000000000000 0.0000000000000000
1.0000000000000000 0.0000000000000000 0.0000000000000000
1.0000000000000000 0.0000000000000000 0.0000000000000000
1.0000000000000000 0.0000000000000000 0.0000000000000000
1.0000000000000000 0.0000000000000000 0.0000000000000000
1.0000000000000000 0.0000000000000000 0.0000000000000000
1.0000000000000000 0.0000000000000000 0.0000000000000000
1.0000000000000000 0.0000000000000000 0.0000000000000000
1.0000000000000000 0.0000000000000000 0.0000000000000000
1.0000000000000000 0.0000000000000000 0.0000000000000000
1.0000000000000000 0.0000000000000000 0.0000000000000000
1.0000000000000000 0.0000000000000000 0.0000000000000000
1.0000000000000000 0.0000000000000000 0.0000000000000000
1.0000000000000000 0.0000000000000000 0.0000000000000000
1.0000000000000000 0.0000000000000000 0.0000000000000000
1.0000000000000000 0.0000000000000000 0.0000000000000000
1.0000000000000000 0.0000000000000000 0.0000000000000000
1.0000000000000000 0.0000000000000000 0.0000000000000000
1.0000000000000000 0.0000000000000000 0.0000000000000000
1.0000000000000000 0.0000000000000000 0.0000000000000000
1.0000000000000000 0.0000000000000000 0.0000000000000000
1.0000000000000000 0.0000000000000000 0.0000000000000000
1.0000000000000000 0.0000000000000000 0.0000000000000000
1.0000000000000000 0.0000000000000000 0.0000000000000000
1.0000000000000000 0.0000000000000000 0.0000000000000000
1.0000000000000000 0.0000000000000000 0.0000000000000000
1.0000000000000000 0.0000000000000000 0.0000000000000000
1.0000000000000000 0.0000000000000000 0.0000000000000000
1.0000000000000000 0.0000000000000000 0.0000000000000000
1.0000000000000000 0.0000000000000000 0.0000000000000000
1.0000000000000000 0.0000000000000000 0.0000000000000000
1.0000000000000000 0.0000000000000000 0.0000000000000000
1.0000000000000000 0.0000000000000000 0.0000000000000000
1.0000000000000000 0.0000000000000000 0.0000000000000000
1.0000000000000000 0.0000000000000000 0.0000000000000000
1.0000000000000000 0.0000000000000000 0.0000000000000000
1.0000000000000000 0.0000000000000000 0.0000000000000000

SCALARS f:thickness float 1
LOOKUP_TABLE default
0.4000000059604645
0.4000000059604645
0.4000000059604645
0.4000000059604645
0.4000000059604645
0.4000000059604645
0.4000000059604645
0.4000000059604645
0.4000000059604645
0.4000000059604645
0.4000000059604645
0.4000000059604645
0.4000000059604645
0.4000000059604645
0.4000000059604645
0.4000000059604645
0.4000000059604645
0.4000000059604645
0.4000000059604645
0.4000000059604645
0.4000000059604645
0.4000000059604645
0.4000000059604645
0.4000000059604645
0.4000000059604645
0.4000000059604645
0.4000000059604645
0.4000000059604645
0.4000000059604645
0.4000000059604645
0.4000000059604645
0.4000000059604645
0.4000000059604645
0.4000000059604645
0.4000000059604645
0.4000000059604645
0.4000000059604645
0.4000000059604645
0.4000000059604645
0.4000000059604645
0.4000000059604645
0.4000000059604645
0.4000000059604645
0.4000000059604645
0.4000000059604645
0.4000000059604645
0.4000000059604645
0.4000000059604645
0.4000000059604645
0.4000000059604645
0.4000000059604645
0.4000000059604645
0.4000000059604645
0.4000000059604645
0.4000000059604645
0.4000000059604645
0.4000000059604645
0.4000000059604645
0.4000000059604645
0.4000000059604645
0.4000000059604645
0.4000000059604645
0.4000000059604645
0.4000000059604645
0.4000000059604645
0.4000000059604645
0.4000000059604645
0.4000000059604645
0.4000000059604645
0.4000000059604645
0.4000000059604645
0.4000000059604645
0.4000000059604645
0.4000000059604645
0.4000000059604645
0.4000000059604645
0.4000000059604645
0.4000000059604645
0.4000000059604645
0.4000000059604645
0.4000000059604645
0.4000000059604645
0.4000000059604645
0.4000000059604645
0.4000000059604645
0.4000000059604645
0.4000000059604645
0.4000000059604645
0.4000000059604645
0.4000000059604645
0.4000000059604645
0.4000000059604645
0.4000000059604645
0.4000000059604645
0.4000000059604645
0.4000000059604645
0.4000000059604645
0.4000000059604645
0.4000000059604645
0.4000000059604645
0.4000000059604645
0.4000000059604645
0.4000000059604645
0.4000000059604645
0.4000000059604645
0.4000000059604645
0.4000000059604645
0.4000000059604645
0.4000000059604645
0.4000000059604645
0.4000000059604645
0.4000000059604645
0.4000000059604645
0.4000000059604645
0.4000000059604645
0.4000000059604645
0.4000000059604645
0.4000000059604645
0.4000000059604645
0.4000000059604645
0.4000000059604645
0.4000000059604645
0.4000000059604645
0.4000000059604645
0.4000000059604645
0.4000000059604645
0.4000000059604645
0.4000000059604645
0.4000000059604645
0.4000000059604645
0.4000000059604645
0.4000000059604645
0.4000000059604645
0.4000000059604645
0.4000000059604645
0.4000000059604645
0.4000000059604645
0.4000000059604645
0.4000000059604645
0.4000000059604645
0.4000000059604645
0.4000000059604645
0.4000000059604645
0.4000000059604645
0.4000000059604645
0.4000000059604645
0.4000000059604645
0.4000000059604645
0.4000000059604645
0.4000000059604645
0.4000000059604645
0.4000000059604645
0.4000000059604645
0.4000000059604645
0.4000000059604645
0.4000000059604645
0.4000000059604645
0.4000000059604645
0.4000000059604645
0.4000000059604645
0.4000000059604645
0.4000000059604645
0.4000000059604645
0.4000000059604645
0.4000000059604645
0.4000000059604645
0.4000000059604645
0.4000000059604645
0.4000000059604645
0.4000000059604645
0.4000000059604645
0.4000000059604645
0.4000000059604645
0.4000000059604645
0.4000000059604645
0.4000000059604645
0.4000000059604645
0.4000000059604645
0.4000000059604645
0.4000000059604645
0.4000000059604645
0.4000000059604645
0.4000000059604645
0.4000000059604645
0.4000000059604645
0.4000000059604645
0.4000000059604645
0.4000000059604645
0.4000000059604645
0.4000000059604645
0.4000000059604645
0.4000000059604645
0.4000000059604645
0.4000000059604645
0.4000000059604645
0.4000000059604645
0.4000000059604645
0.4000000059604645
0.4000000059604645
0.4000000059604645
0.4000000059604645
0.4000000059604645
0.4000000059604645
0.4000000059604645
0.4000000059604645
0.4000000059604645
0.4000000059604645
0.4000000059604645
0.4000000059604645
0.4000000059604645
0.4000000059604645
0.4000000059604645
0.4000000059604645
0.4000000059604645
0.4000000059604645
0.4000000059604645
0.4000000059604645
0.4000000059604645
0.4000000059604645
0.4000000059604645
0.4000000059604645
0.4000000059604645
0.4000000059604645
0.4000000059604645
0.4000000059604645
0.4000000059604645
0.4000000059604645
0.4000000059604645
0.4000000059604645
0.4000000059604645
0.4000000059604645
0.4000000059604645
0.4000000059604645
0.4000000059604645
0.4000000059604645
0.4000000059604645
0.4000000059604645
0.4000000059604645
0.4000000059604645
0.4000000059604645
0.4000000059604645
0.4000000059604645
0.4000000059604645
0.4000000059604645
0.4000000059604645
0.4000000059604645
0.4000000059604645
0.4000000059604645
0.4000000059604645
0.4000000059604645
0.4000000059604645
0.4000000059604645
0.4000000059604645
0.4000000059604645
0.4000000059604645
0.4000000059604645
0.4000000059604645
0.4000000059604645
0.4000000059604645
0.4000000059604645
0.4000000059604645
0.4000000059604645
0.4000000059604645
0.4000000059604645
0.4000000059604645
0.4000000059604645
0.4000000059604645
0.4000000059604645
0.4000000059604645
0.4000000059604645
0.4000000059604645
0.4000000059604645
0.4000000059604645
0.4000000059604645
0.4000000059604645
0.4000000059604645
0.4000000059604645
0.4000000059604645
0.4000000059604645
0.4000000059604645
0.4000000059604645
0.4000000059604645
0.4000000059604645
0.4000000059604645
0.4000000059604645
0.4000000059604645
0.4000000059604645
0.4000000059604645
0.4000000059604645
0.4000000059604645
0.4000000059604645
0.4000000059604645
0.4000000059604645
0.4000000059604645
0.4000000059604645
0.4000000059604645
0.4000000059604645
0.4000000059604645
0.4000000059604645
0.4000000059604645
0.4000000059604645
0.4000000059604645
0.4000000059604645
0.4000000059604645
0.4000000059604645
0.4000000059604645
0.4000000059604645
0.4000000059604645
0.4000000059604645
0.4000000059604645
0.4000000059604645
0.4000000059604645
0.4000000059604645
0.4000000059604645
0.4000000059604645
0.4000000059604645
0.4000000059604645
0.4000000059604645
0.4000000059604645
0.4000000059604645
0.4000000059604645
0.4000000059604645
0.4000000059604645
0.4000000059604645
0.4000000059604645
0.4000000059604645
0.4000000059604645
0.4000000059604645
0.4000000059604645
0.4000000059604645
0.4000000059604645
0.4000000059604645
0.4000000059604645
0.4000000059604645
0.4000000059604645
0.4000000059604645
0.4000000059604645
0.4000000059604645
0.4000000059604645
0.4000000059604645
0.4000000059604645
0.4000000059604645
0.4000000059604645
0.4000000059604645
0.4000000059604645
0.4000000059604645
0.4000000059604645
0.4000000059604645
0.4000000059604645
0.4000000059604645
0.4000000059604645
0.4000000059604645
0.4000000059604645
0.4000000059604645
0.4000000059604645
0.4000000059604645
0.4000000059604645
0.4000000059604645
0.4000000059604645
0.4000000059604645
0.4000000059604645
0.4000000059604645
0.4000000059604645
0.4000000059604645
0.4000000059604645
0.4000000059604645
0.4000000059604645
0.4000000059604645
0.4000000059604645
0.4000000059604645
0.4000000059604645
0.4000000059604645
0.4000000059604645
0.4000000059604645
0.4000000059604645
0.4000000059604645
0.4000000059604645
0.4000000059604645
0.4000000059604645
0.4000000059604645
0.4000000059604645
0.4000000059604645
0.4000000059604645
0.4000000059604645
0.4000000059604645
0.4000000059604645
0.4000000059604645
0.4000000059604645
0.4000000059604645
0.4000000059604645
0.4000000059604645
0.4000000059604645
0.4000000059604645
0.4000000059604645
0.4000000059604645
0.4000000059604645
0.4000000059604645
0.4000000059604645
0.4000000059604645
0.4000000059604645
0.4000000059604645
0.4000000059604645
0.4000000059604645
0.4000000059604645
0.4000000059604645
0.4000000059604645
0.4000000059604645
0.4000000059604645
0.4000000059604645
0.4000000059604645
0.4000000059604645
0.4000000059604645
0.4000000059604645
0.4000000059604645
0.4000000059604645
0.4000000059604645
0.4000000059604645
0.4000000059604645
0.4000000059604645
0.4000000059604645
0.4000000059604645
0.4000000059604645
0.4000000059604645
0.4000000059604645
0.4000000059604645
0.4000000059604645
0.4000000059604645
0.4000000059604645
0.4000000059604645
0.4000000059604645
0.4000000059604645
0.4000000059604645
0.4000000059604645
0.4000000059604645
0.4000000059604645
0.4000000059604645
0.4000000059604645
0.4000000059604645
0.4000000059604645
0.4000000059604645
0.4000000059604645
0.4000000059604645
0.4000000059604645
0.4000000059604645
0.4000000059604645
0.4000000059604645
0.4000000059604645
0.4000000059604645
0.4000000059604645
0.4000000059604645
0.4000000059604645
0.4000000059604645
0.4000000059604645
0.4000000059604645
0.4000000059604645
0.4000000059604645
0.4000000059604645
0.4000000059604645
0.4000000059604645
0.4000000059604645
0.4000000059604645
0.4000000059604645
0.4000000059604645
0.4000000059604645
0.4000000059604645
0.4000000059604645
0.4000000059604645
0.4000000059604645
0.4000000059604645
0.4000000059604645
0.4000000059604645
0.4000000059604645
0.4000000059604645
0.4000000059604645
0.4000000059604645
0.4000000059604645
0.4000000059604645
0.4000000059604645
0.4000000059604645
0.4000000059604645
0.4000000059604645
0.4000000059604645
0.4000000059604645
0.4000000059604645
0.4000000059604645
0.4000000059604645
0.4000000059604645
0.4000000059604645
0.4000000059604645
0.4000000059604645
0.4000000059604645
0.4000000059604645
0.4000000059604645
0.4000000059604645
0.4000000059604645
0.4000000059604645
0.4000000059604645
0.4000000059604645
0.4000000059604645
0.4000000059604645
0.4000000059604645
0.4000000059604645
0.4000000059604645
0.4000000059604645
0.4000000059604645
0.4000000059604645
0.4000000059604645
0.4000000059604645
0.4000000059604645
0.4000000059604645
0.4000000059604645
0.4000000059604645
0.4000000059604645
0.4000000059604645
0.4000000059604645
0.4000000059604645
0.4000000059604645
0.4000000059604645
0.4000000059604645
0.4000000059604645
0.4000000059604645
0.4000000059604645
0.4000000059604645
0.4000000059604645
0.4000000059604645
0.4000000059604645
0.4000000059604645
0.4000000059604645
0.4000000059604645
0.4000000059604645
0.4000000059604645
0.4000000059604645
0.4000000059604645
0.4000000059604645
0.4000000059604645
0.4000000059604645
0.4000000059604645
0.4000000059604645
0.4000000059604645
0.4000000059604645
0.4000000059604645
0.4000000059604645
0.4000000059604645
0.4000000059604645
0.4000000059604645
0.4000000059604645
0.4000000059604645
0.4000000059604645
0.4000000059604645
0.4000000059604645
0.4000000059604645
0.4000000059604645
0.4000000059604645
0.4000000059604645
0.4000000059604645
0.4000000059604645
0.4000000059604645
0.4000000059604645
0.4000000059604645
0.4000000059604645
0.4000000059604645
0.4000000059604645
0.4000000059604645
0.4000000059604645
0.4000000059604645
0.4000000059604645
0.4000000059604645
0.4000000059604645
0.4000000059604645
0.4000000059604645
0.4000000059604645
0.4000000059604645
0.4000000059604645
0.4000000059604645
0.4000000059604645
0.4000000059604645
0.4000000059604645
0.4000000059604645
0.4000000059604645
0.4000000059604645
0.4000000059604645
0.4000000059604645
0.4000000059604645
0.4000000059604645
0.4000000059604645
0.4000000059604645
0.4000000059604645
0.4000000059604645
0.4000000059604645
0.4000000059604645
0.4000000059604645
0.4000000059604645
0.4000000059604645
0.4000000059604645
0.4000000059604645
0.4000000059604645
0.4000000059604645
0.4000000059604645
0.4000000059604645
0.4000000059604645
0.4000000059604645
0.4000000059604645
0.4000000059604645
0.4000000059604645
0.4000000059604645
0.4000000059604645
0.4000000059604645
0.4000000059604645
0.4000000059604645
0.4000000059604645
0.4000000059604645
0.4000000059604645
0.4000000059604645
0.4000000059604645
0.4000000059604645
0.4000000059604645
0.4000000059604645
0.4000000059604645
0.4000000059604645
0.4000000059604645
0.4000000059604645
0.4000000059604645
0.4000000059604645
0.4000000059604645
0.4000000059604645
0.4000000059604645
0.4000000059604645
0.4000000059604645
0.4000000059604645
0.4000000059604645
0.4000000059604645
0.4000000059604645
0.4000000059604645
0.4000000059604645
0.4000000059604645
0.4000000059604645
0.4000000059604645
0.4000000059604645
0.4000000059604645
0.4000000059604645
0.4000000059604645
0.4000000059604645
0.4000000059604645
0.4000000059604645
0.4000000059604645
0.4000000059604645
0.4000000059604645
0.4000000059604645
0.4000000059604645
0.4000000059604645
0.4000000059604645
0.4000000059604645
0.4000000059604645
0.4000000059604645
0.4000000059604645
0.4000000059604645
0.4000000059604645
0.4000000059604645
0.4000000059604645
0.4000000059604645
0.4000000059604645
0.4000000059604645
0.4000000059604645
0.4000000059604645
0.4000000059604645
0.4000000059604645
0.4000000059604645
0.4000000059604645
0.4000000059604645
0.4000000059604645
0.4000000059604645
0.4000000059604645
0.4000000059604645
0.4000000059604645
0.4000000059604645
0.4000000059604645
0.4000000059604645
0.4000000059604645
0.4000000059604645
0.4000000059604645
0.4000000059604645
0.4000000059604645
0.4000000059604645
0.4000000059604645
0.4000000059604645
0.4000000059604645
0.4000000059604645
0.4000000059604645
0.4000000059604645
0.4000000059604645
0.4000000059604645
0.4000000059604645
0.4000000059604645
0.4000000059604645
0.4000000059604645
0.4000000059604645
0.4000000059604645
0.4000000059604645
0.4000000059604645
0.4000000059604645
0.4000000059604645
0.4000000059604645
0.4000000059604645
0.4000000059604645
0.4000000059604645
0.4000000059604645
0.4000000059604645
0.4000000059604645
0.4000000059604645
0.4000000059604645
0.4000000059604645
0.4000000059604645
0.4000000059604645
0.4000000059604645
0.4000000059604645
0.4000000059604645
0.4000000059604645
0.4000000059604645
0.4000000059604645
0.4000000059604645
0.4000000059604645
0.4000000059604645
0.4000000059604645
0.4000000059604645
0.4000000059604645
0.4000000059604645
0.4000000059604645
0.4000000059604645
0.4000000059604645
0.4000000059604645
0.4000000059604645
0.4000000059604645
0.4000000059604645
0.4000000059604645
0.4000000059604645
0.4000000059604645
0.4000000059604645
0.4000000059604645
0.4000000059604645
0.4000000059604645
0.4000000059604645
0.4000000059604645
0.4000000059604645
0.4000000059604645
0.4000000059604645
0.4000000059604645
0.4000000059604645
0.4000000059604645
0.4000000059604645
0.4000000059604645
0.4000000059604645
0.4000000059604645
0.4000000059604645
0.4000000059604645
0.4000000059604645
0.4000000059604645
0.4000000059604645
0.4000000059604645
0.4000000059604645
0.4000000059604645
0.4000000059604645
0.4000000059604645
0.4000000059604645
0.4000000059604645
0.4000000059604645
0.4000000059604645
0.4000000059604645
0.4000000059604645
0.4000000059604645
0.4000000059604645
0.4000000059604645
0.4000000059604645
0.4000000059604645
0.4000000059604645
0.4000000059604645
0.4000000059604645
0.4000000059604645
0.4000000059604645
0.4000000059604645
0.4000000059604645
0.4000000059604645
0.4000000059604645
0.4000000059604645
0.4000000059604645
0.4000000059604645
0.4000000059604645
0.4000000059604645
0.4000000059604645
0.4000000059604645
0.4000000059604645
0.4000000059604645
0.4000000059604645
0.4000000059604645
0.4000000059604645
0.4000000059604645
0.4000000059604645
0.4000000059604645
0.4000000059604645
0.4000000059604645
0.4000000059604645
0.4000000059604645
0.4000000059604645
0.4000000059604645
0.4000000059604645
0.4000000059604645
0.4000000059604645
0.4000000059604645
0.4000000059604645
0.4000000059604645
0.4000000059604645
0.4000000059604645
0.4000000059604645
0.4000000059604645
0.4000000059604645
0.4000000059604645
0.4000000059604645
0.4000000059604645
0.4000000059604645
0.4000000059604645
0.4000000059604645
0.4000000059604645
0.4000000059604645
0.4000000059604645
0.4000000059604645
0.4000000059604645
0.4000000059604645
0.4000000059604645
0.4000000059604645
0.4000000059604645
0.4000000059604645
0.4000000059604645
0.4000000059604645
0.4000000059604645
0.4000000059604645
0.4000000059604645
0.4000000059604645
0.4000000059604645
0.4000000059604645
0.4000000059604645
0.4000000059604645
0.4000000059604645
0.4000000059604645
0.4000000059604645
0.4000000059604645
0.4000000059604645
0.4000000059604645
0.4000000059604645
0.4000000059604645
0.4000000059604645
0.4000000059604645
0.4000000059604645
0.4000000059604645
0.4000000059604645
0.4000000059604645
0.4000000059604645
0.4000000059604645
0.4000000059604645
0.4000000059604645
0.4000000059604645
0.4000000059604645
0.4000000059604645
0.4000000059604645
0.4000000059604645
0.4000000059604645
0.4000000059604645
0.4000000059604645
0.4000000059604645
0.4000000059604645
0.4000000059604645
0.4000000059604645
0.4000000059604645
0.4000000059604645
0.4000000059604645
0.4000000059604645
0.4000000059604645
0.4000000059604645
0.4000000059604645
0.4000000059604645
0.4000000059604645
0.4000000059604645
0.4000000059604645
0.4000000059604645
0.4000000059604645
0.4000000059604645
0.4000000059604645
0.4000000059604645
0.4000000059604645
0.4000000059604645
0.4000000059604645
0.4000000059604645
0.4000000059604645
0.4000000059604645
0.4000000059604645
0.4000000059604645
0.4000000059604645
0.4000000059604645
0.4000000059604645
0.4000000059604645
0.4000000059604645
0.4000000059604645
0.4000000059604645
0.4000000059604645
0.4000000059604645
0.4000000059604645
0.4000000059604645
0.4000000059604645
0.4000000059604645
0.4000000059604645
0.4000000059604645
0.4000000059604645
0.4000000059604645
0.4000000059604645
0.4000000059604645
0.4000000059604645
0.4000000059604645
0.4000000059604645
0.4000000059604645
0.4000000059604645
0.4000000059604645
0.4000000059604645
0.4000000059604645
0.4000000059604645
0.4000000059604645
0.4000000059604645
0.4000000059604645
0.4000000059604645
0.4000000059604645
0.4000000059604645
0.4000000059604645
0.4000000059604645
0.4000000059604645
0.4000000059604645
0.4000000059604645
0.4000000059604645
0.4000000059604645
0.4000000059604645
0.4000000059604645
0.4000000059604645
0.4000000059604645
0.4000000059604645
0.4000000059604645
0.4000000059604645
0.4000000059604645
0.4000000059604645
0.4000000059604645
0.4000000059604645
0.4000000059604645
0.4000000059604645
0.4000000059604645
0.4000000059604645
0.4000000059604645
0.4000000059604645
0.4000000059604645
0.4000000059604645
0.4000000059604645
0.4000000059604645
0.4000000059604645
0.4000000059604645
0.4000000059604645
0.4000000059604645
0.4000000059604645
0.4000000059604645
0.4000000059604645
0.4000000059604645
0.4000000059604645
0.4000000059604645
0.4000000059604645
0.4000000059604645
0.4000000059604645
0.4000000059604645
0.4000000059604645
0.4000000059604645
0.4000000059604645
0.4000000059604645
0.4000000059604645
0.4000000059604645
0.4000000059604645
0.4000000059604645
0.4000000059604645
0.4000000059604645
0.4000000059604645
0.4000000059604645
0.4000000059604645
0.4000000059604645
0.4000000059604645
0.4000000059604645
0.4000000059604645
0.4000000059604645
0.4000000059604645
0.4000000059604645
0.4000000059604645
0.4000000059604645
0.4000000059604645
0.4000000059604645
0.4000000059604645
0.4000000059604645
0.4000000059604645
0.4000000059604645
0.4000000059604645
0.4000000059604645
0.4000000059604645
0.4000000059604645
0.4000000059604645
0.4000000059604645
0.4000000059604645
0.4000000059604645
0.4000000059604645
0.4000000059604645
0.4000000059604645
0.4000000059604645
0.4000000059604645
0.4000000059604645
0.4000000059604645
0.4000000059604645
0.4000000059604645
0.4000000059604645
0.4000000059604645
0.4000000059604645
0.4000000059604645
0.4000000059604645
0.4000000059604645
0.4000000059604645
0.4000000059604645
0.4000000059604645
0.4000000059604645
0.4000000059604645
0.4000000059604645
0.4000000059604645
0.4000000059604645
0.4000000059604645
0.4000000059604645
0.4000000059604645
0.4000000059604645
0.4000000059604645
0.4000000059604645
0.4000000059604645
0.4000000059604645
0.4000000059604645
0.4000000059604645
0.4000000059604645
0.4000000059604645
0.4000000059604645
0.4000000059604645
0.4000000059604645
0.4000000059604645
0.4000000059604645
0.4000000059604645
0.4000000059604645
0.4000000059604645
0.4000000059604645
0.4000000059604645
0.4000000059604645
0.4000000059604645
0.4000000059604645
0.4000000059604645
0.4000000059604645
0.4000000059604645
0.4000000059604645
0.4000000059604645
0.4000000059604645
0.4000000059604645
0.4000000059604645
0.4000000059604645
0.4000000059604645
0.4000000059604645
0.4000000059604645
0.4000000059604645
0.4000000059604645
0.4000000059604645
0.4000000059604645
0.4000000059604645
0.4000000059604645
0.4000000059604645
0.4000000059604645
0.4000000059604645
0.4000000059604645
0.4000000059604645
0.4000000059604645
0.4000000059604645
0.4000000059604645
0.4000000059604645
0.4000000059604645
0.4000000059604645
0.4000000059604645
0.4000000059604645
0.4000000059604645
0.4000000059604645
0.4000000059604645
0.4000000059604645
0.4000000059604645
0.4000000059604645
0.4000000059604645
0.4000000059604645
0.4000000059604645
0.4000000059604645
0.4000000059604645
0.4000000059604645
0.4000000059604645
0.4000000059604645
0.4000000059604645
0.4000000059604645
0.4000000059604645
0.4000000059604645
0.4000000059604645
0.4000000059604645
0.4000000059604645
0.4000000059604645
0.4000000059604645
0.4000000059604645
0.4000000059604645
0.4000000059604645
0.4000000059604645
0.4000000059604645
0.4000000059604645
0.4000000059604645
0.4000000059604645
0.4000000059604645
0.4000000059604645
0.4000000059604645
0.4000000059604645
0.4000000059604645
0.4000000059604645
0.4000000059604645
0.4000000059604645
0.4000000059604645
0.4000000059604645
0.4000000059604645
0.4000000059604645
0.4000000059604645
0.4000000059604645
0.4000000059604645
0.4000000059604645
0.4000000059604645
0.4000000059604645
0.4000000059604645
0.4000000059604645
0.4000000059604645
0.4000000059604645
0.4000000059604645
0.4000000059604645
0.4000000059604645
0.4000000059604645
0.4000000059604645
0.4000000059604645
0.4000000059604645
0.4000000059604645
0.4000000059604645
0.4000000059604645
0.4000000059604645
0.4000000059604645
0.4000000059604645
0.4000000059604645
0.4000000059604645
0.4000000059604645
0.4000000059604645
0.4000000059604645
0.4000000059604645
0.4000000059604645
0.4000000059604645
0.4000000059604645
0.4000000059604645
0.4000000059604645
0.4000000059604645
0.4000000059604645
0.4000000059604645
0.4000000059604645
0.4000000059604645
0.4000000059604645
0.4000000059604645
0.4000000059604645
0.4000000059604645
0.4000000059604645
0.4000000059604645
0.4000000059604645
0.4000000059604645
0.4000000059604645
0.4000000059604645
0.4000000059604645
0.4000000059604645
0.4000000059604645
0.4000000059604645
0.4000000059604645
0.4000000059604645
0.4000000059604645
0.4000000059604645
0.4000000059604645
0.4000000059604645
0.4000000059604645
0.4000000059604645
0.4000000059604645
0.4000000059604645
0.4000000059604645
0.4000000059604645
0.4000000059604645
0.4000000059604645
0.4000000059604645
0.4000000059604645
0.4000000059604645
0.4000000059604645
0.4000000059604645
0.4000000059604645
0.4000000059604645
0.4000000059604645
0.4000000059604645
0.4000000059604645
0.4000000059604645
0.4000000059604645
0.4000000059604645
0.4000000059604645
0.4000000059604645
0.4000000059604645
0.4000000059604645
0.4000000059604645
0.4000000059604645
0.4000000059604645
0.4000000059604645
0.4000000059604645
0.4000000059604645
0.4000000059604645
0.4000000059604645
0.4000000059604645
0.4000000059604645
0.4000000059604645
0.4000000059604645
0.4000000059604645
0.4000000059604645
0.4000000059604645
0.4000000059604645
0.4000000059604645
0.4000000059604645
0.4000000059604645
0.4000000059604645
0.4000000059604645
0.4000000059604645
0.4000000059604645
0.4000000059604645
0.4000000059604645
0.4000000059604645
0.4000000059604645
0.4000000059604645
0.4000000059604645
0.4000000059604645
0.4000000059604645
0.4000000059604645
0.4000000059604645
0.4000000059604645
0.4000000059604645
0.4000000059604645
0.4000000059604645
0.4000000059604645
0.4000000059604645
0.4000000059604645
0.4000000059604645
0.4000000059604645
0.4000000059604645
0.4000000059604645
0.4000000059604645
0.4000000059604645
0.4000000059604645
0.4000000059604645
0.4000000059604645
0.4000000059604645
0.4000000059604645
0.4000000059604645
0.4000000059604645
0.4000000059604645
0.4000000059604645
0.4000000059604645
0.4000000059604645
0.4000000059604645
0.4000000059604645
0.4000000059604645
0.4000000059604645
0.4000000059604645
0.4000000059604645
0.4000000059604645
0.4000000059604645
0.4000000059604645
0.4000000059604645
0.4000000059604645
0.4000000059604645
0.4000000059604645
0.4000000059604645
0.4000000059604645
0.4000000059604645
0.4000000059604645
0.4000000059604645
0.4000000059604645
0.4000000059604645
0.4000000059604645
0.4000000059604645
0.4000000059604645
0.4000000059604645
0.4000000059604645
0.4000000059604645
0.4000000059604645
0.4000000059604645
0.4000000059604645
0.4000000059604645
0.4000000059604645
0.4000000059604645
0.4000000059604645
0.4000000059604645
0.4000000059604645
0.4000000059604645
0.4000000059604645
0.4000000059604645
0.4000000059604645
0.4000000059604645
0.4000000059604645
0.4000000059604645
0.4000000059604645
0.4000000059604645
0.4000000059604645
0.4000000059604645
0.4000000059604645
0.4000000059604645
0.4000000059604645
0.4000000059604645
0.4000000059604645
0.4000000059604645
0.4000000059604645
0.4000000059604645
0.4000000059604645
0.4000000059604645
0.4000000059604645
0.4000000059604645
0.4000000059604645
0.4000000059604645
0.4000000059604645
0.4000000059604645
0.4000000059604645
0.4000000059604645
0.4000000059604645
0.4000000059604645
0.4000000059604645
0.4000000059604645
0.4000000059604645
0.4000000059604645
0.4000000059604645
0.4000000059604645
0.4000000059604645
0.4000000059604645
0.4000000059604645
0.4000000059604645
0.4000000059604645
0.4000000059604645
0.4000000059604645
0.4000000059604645
0.4000000059604645
0.4000000059604645
0.4000000059604645
0.4000000059604645
0.4000000059604645
0.4000000059604645
0.4000000059604645
0.4000000059604645
0.4000000059604645
0.4000000059604645
0.4000000059604645
0.4000000059604645
0.4000000059604645
0.4000000059604645
0.4000000059604645
0.4000000059604645
0.4000000059604645
0.4000000059604645
0.4000000059604645
0.4000000059604645
0.4000000059604645
0.4000000059604645
0.4000000059604645
0.4000000059604645
0.4000000059604645
0.4000000059604645
0.4000000059604645
0.4000000059604645
0.4000000059604645
0.4000000059604645
0.4000000059604645
0.4000000059604645
0.4000000059604645
0.4000000059604645
0.4000000059604645
0.4000000059604645
0.4000000059604645
0.4000000059604645
0.4000000059604645
0.4000000059604645
0.4000000059604645
0.4000000059604645
0.4000000059604645
0.4000000059604645
0.4000000059604645
0.4000000059604645
0.4000000059604645
0.4000000059604645
0.4000000059604645
0.4000000059604645
0.4000000059604645
0.4000000059604645
0.4000000059604645
0.4000000059604645
0.4000000059604645
0.4000000059604645
0.4000000059604645
0.4000000059604645
0.4000000059604645
0.4000000059604645
0.4000000059604645
0.4000000059604645
0.4000000059604645
0.4000000059604645
0.4000000059604645
0.4000000059604645
0.4000000059604645
0.4000000059604645
0.4000000059604645
0.4000000059604645
0.4000000059604645
0.4000000059604645
0.4000000059604645
0.4000000059604645
0.4000000059604645
0.4000000059604645
0.4000000059604645
0.4000000059604645
0.4000000059604645
0.4000000059604645
0.4000000059604645
0.4000000059604645
0.4000000059604645
0.4000000059604645
0.4000000059604645
0.4000000059604645
0.4000000059604645
0.4000000059604645
0.4000000059604645
0.4000000059604645
0.4000000059604645
0.4000000059604645
0.4000000059604645
0.4000000059604645
0.4000000059604645
0.4000000059604645
0.4000000059604645
0.4000000059604645
0.4000000059604645
0.4000000059604645
0.4000000059604645
0.4000000059604645
0.4000000059604645
0.4000000059604645
0.4000000059604645
0.4000000059604645
0.4000000059604645
0.4000000059604645
0.4000000059604645
0.4000000059604645
0.4000000059604645
0.4000000059604645
0.4000000059604645
0.4000000059604645
0.4000000059604645
0.4000000059604645
0.4000000059604645
0.4000000059604645
0.4000000059604645
0.4000000059604645
0.4000000059604645
0.4000000059604645
0.4000000059604645
0.4000000059604645
0.4000000059604645
0.4000000059604645
0.4000000059604645
0.4000000059604645
0.4000000059604645
0.4000000059604645
0.4000000059604645
0.4000000059604645
0.4000000059604645
0.4000000059604645
0.4000000059604645
0.4000000059604645
0.4000000059604645
0.4000000059604645
0.4000000059604645
0.4000000059604645
0.4000000059604645
0.4000000059604645
0.4000000059604645
0.4000000059604645
0.4000000059604645
0.4000000059604645
0.4000000059604645
0.4000000059604645
0.4000000059604645
0.4000000059604645
0.4000000059604645
0.4000000059604645
0.4000000059604645
0.4000000059604645
0.4000000059604645
0.4000000059604645
0.4000000059604645
0.4000000059604645
0.4000000059604645
0.4000000059604645
0.4000000059604645
0.4000000059604645
0.4000000059604645
0.4000000059604645
0.4000000059604645
0.4000000059604645
0.4000000059604645
0.4000000059604645
0.4000000059604645
0.4000000059604645
0.4000000059604645
0.4000000059604645
0.4000000059604645
0.4000000059604645
0.4000000059604645
0.4000000059604645
0.4000000059604645
0.4000000059604645
0.4000000059604645
0.4000000059604645
0.4000000059604645
0.4000000059604645
0.4000000059604645
0.4000000059604645
0.4000000059604645
0.4000000059604645
0.4000000059604645
0.4000000059604645
0.4000000059604645
0.4000000059604645
0.4000000059604645
0.4000000059604645
0.4000000059604645
0.4000000059604645
0.4000000059604645
0.4000000059604645
0.4000000059604645
0.4000000059604645
0.4000000059604645
0.4000000059604645
0.4000000059604645
0.4000000059604645
0.4000000059604645
0.4000000059604645
0.4000000059604645
0.4000000059604645
0.4000000059604645
0.4000000059604645
0.4000000059604645
0.4000000059604645
0.4000000059604645
0.4000000059604645
0.4000000059604645
0.4000000059604645
0.4000000059604645
0.4000000059604645
0.4000000059604645
0.4000000059604645
0.4000000059604645
0.4000000059604645
0.4000000059604645
0.4000000059604645
0.4000000059604645
0.4000000059604645
0.4000000059604645
0.4000000059604645
0.4000000059604645
0.4000000059604645
0.4000000059604645
0.4000000059604645
0.4000000059604645
0.4000000059604645
0.4000000059604645
0.4000000059604645
0.4000000059604645
0.4000000059604645
0.4000000059604645
0.4000000059604645
0.4000000059604645
0.4000000059604645
0.4000000059604645
0.4000000059604645
0.4000000059604645
0.4000000059604645
0.4000000059604645
0.4000000059604645
0.4000000059604645
0.4000000059604645
0.4000000059604645
0.4000000059604645
0.4000000059604645
0.4000000059604645
0.4000000059604645
0.4000000059604645
0.4000000059604645
0.4000000059604645
0.4000000059604645
0.4000000059604645
0.4000000059604645
0.4000000059604645
0.4000000059604645
0.4000000059604645
0.4000000059604645
0.4000000059604645
0.4000000059604645
0.4000000059604645
0.4000000059604645
0.4000000059604645
0.4000000059604645
0.4000000059604645
0.4000000059604645
0.4000000059604645
0.4000000059604645
0.4000000059604645
0.4000000059604645
0.4000000059604645
0.4000000059604645
0.4000000059604645
0.4000000059604645
0.4000000059604645
0.4000000059604645
0.4000000059604645
0.4000000059604645
0.4000000059604645
0.4000000059604645
0.4000000059604645
0.4000000059604645
0.4000000059604645
0.4000000059604645
0.4000000059604645
0.4000000059604645
0.4000000059604645
0.4000000059604645
0.4000000059604645
0.4000000059604645
0.4000000059604645
0.4000000059604645
0.4000000059604645
0.4000000059604645
0.4000000059604645
0.4000000059604645
0.4000000059604645
0.4000000059604645
0.4000000059604645
0.4000000059604645
0.4000000059604645
0.4000000059604645
0.4000000059604645
0.4000000059604645
0.4000000059604645
0.4000000059604645
0.4000000059604645
0.4000000059604645
0.4000000059604645
0.4000000059604645
0.4000000059604645
0.4000000059604645
0.4000000059604645
0.4000000059604645
0.4000000059604645
0.4000000059604645
0.4000000059604645
0.4000000059604645
0.4000000059604645
0.4000000059604645
0.4000000059604645
0.4000000059604645
0.4000000059604645
0.4000000059604645
0.4000000059604645
0.4000000059604645
0.4000000059604645
0.4000000059604645
0.4000000059604645
0.4000000059604645
0.4000000059604645
0.4000000059604645
0.4000000059604645
0.4000000059604645
0.4000000059604645
0.4000000059604645
0.4000000059604645
0.4000000059604645
0.4000000059604645
0.4000000059604645
0.4000000059604645
0.4000000059604645
0.4000000059604645
0.4000000059604645
0.4000000059604645
0.4000000059604645
0.4000000059604645
0.4000000059604645
0.4000000059604645
0.4000000059604645
0.4000000059604645
0.4000000059604645
0.4000000059604645
0.4000000059604645
0.4000000059604645
0.4000000059604645
0.4000000059604645
0.4000000059604645
0.4000000059604645
0.4000000059604645
0.4000000059604645
0.4000000059604645
0.4000000059604645
0.4000000059604645
0.4000000059604645
0.4000000059604645
0.4000000059604645
0.4000000059604645
0.4000000059604645
0.4000000059604645
0.4000000059604645
0.4000000059604645
0.4000000059604645
0.4000000059604645
0.4000000059604645
0.4000000059604645
0.4000000059604645
0.4000000059604645
0.4000000059604645
0.4000000059604645
0.4000000059604645
0.4000000059604645
0.4000000059604645
0.4000000059604645
0.4000000059604645
0.4000000059604645
0.4000000059604645
0.4000000059604645
0.4000000059604645
0.4000000059604645
0.4000000059604645
0.4000000059604645
0.4000000059604645
0.4000000059604645
0.4000000059604645
0.4000000059604645
0.4000000059604645
0.4000000059604645
0.4000000059604645
0.4000000059604645
0.4000000059604645
0.4000000059604645
0.4000000059604645
0.4000000059604645
0.4000000059604645
0.4000000059604645
0.4000000059604645
0.4000000059604645
0.4000000059604645
0.4000000059604645
0.4000000059604645
0.4000000059604645
0.4000000059604645
0.4000000059604645
0.4000000059604645
0.4000000059604645
0.4000000059604645
0.4000000059604645
0.4000000059604645
0.4000000059604645
0.4000000059604645
0.4000000059604645
0.4000000059604645
0.4000000059604645
0.4000000059604645
0.4000000059604645
0.4000000059604645
0.4000000059604645
0.4000000059604645
0.4000000059604645
0.4000000059604645
0.4000000059604645
0.4000000059604645
0.4000000059604645
0.4000000059604645
0.4000000059604645
0.4000000059604645
0.4000000059604645
0.4000000059604645
0.4000000059604645
0.4000000059604645
0.4000000059604645
0.4000000059604645
0.4000000059604645
0.4000000059604645
0.4000000059604645
0.4000000059604645
0.4000000059604645
0.4000000059604645
0.4000000059604645
0.4000000059604645
0.4000000059604645
0.4000000059604645
0.4000000059604645
0.4000000059604645
0.4000000059604645
0.4000000059604645
0.4000000059604645
0.4000000059604645
0.4000000059604645
0.4000000059604645
0.4000000059604645
0.4000000059604645
0.4000000059604645
0.4000000059604645
0.4000000059604645
0.4000000059604645
0.4000000059604645
0.4000000059604645
0.4000000059604645
0.4000000059604645
0.4000000059604645
0.4000000059604645
0.4000000059604645
0.4000000059604645
0.4000000059604645
0.4000000059604645
0.4000000059604645
0.4000000059604645
0.4000000059604645
0.4000000059604645
0.4000000059604645
0.4000000059604645
0.4000000059604645
0.4000000059604645
0.4000000059604645
0.4000000059604645
0.4000000059604645
0.4000000059604645
0.4000000059604645
0.4000000059604645
0.4000000059604645
0.4000000059604645
0.4000000059604645
0.4000000059604645
0.4000000059604645
0.4000000059604645
0.4000000059604645
0.4000000059604645
0.4000000059604645
0.4000000059604645
0.4000000059604645
0.4000000059604645
0.4000000059604645
0.4000000059604645
0.4000000059604645
0.4000000059604645
0.4000000059604645
0.4000000059604645
0.4000000059604645
0.4000000059604645
0.4000000059604645
0.4000000059604645
0.4000000059604645
0.4000000059604645
0.4000000059604645
0.4000000059604645
0.4000000059604645
0.4000000059604645
0.4000000059604645
0.4000000059604645
0.4000000059604645
0.4000000059604645
0.4000000059604645
0.4000000059604645
0.4000000059604645
0.4000000059604645
0.4000000059604645
0.4000000059604645
0.4000000059604645
0.4000000059604645
0.4000000059604645
0.4000000059604645
0.4000000059604645
0.4000000059604645
0.4000000059604645
0.4000000059604645
0.4000000059604645
0.4000000059604645
0.4000000059604645
0.4000000059604645
0.4000000059604645
0.4000000059604645
0.4000000059604645
0.4000000059604645
0.4000000059604645
0.4000000059604645
0.4000000059604645
0.4000000059604645
0.4000000059604645
0.4000000059604645
0.4000000059604645
0.4000000059604645
0.4000000059604645
0.4000000059604645
0.4000000059604645
0.4000000059604645
0.4000000059604645
0.4000000059604645
0.4000000059604645
0.4000000059604645
0.4000000059604645
0.4000000059604645
0.4000000059604645
0.4000000059604645
0.4000000059604645
0.4000000059604645
0.4000000059604645
0.4000000059604645
0.4000000059604645
0.4000000059604645
0.4000000059604645
0.4000000059604645
0.4000000059604645
0.4000000059604645
0.4000000059604645
0.4000000059604645
0.4000000059604645
0.4000000059604645
0.4000000059604645
0.4000000059604645
0.4000000059604645
0.4000000059604645
0.4000000059604645
0.4000000059604645
0.4000000059604645
0.4000000059604645
0.4000000059604645
0.4000000059604645
0.4000000059604645
0.4000000059604645
0.4000000059604645
0.4000000059604645
0.4000000059604645
0.4000000059604645
0.4000000059604645
0.4000000059604645
0.4000000059604645
0.4000000059604645
0.4000000059604645
0.4000000059604645
0.4000000059604645
0.4000000059604645
0.4000000059604645
0.4000000059604645
0.4000000059604645
0.4000000059604645
0.4000000059604645
0.4000000059604645
0.4000000059604645
0.4000000059604645
0.4000000059604645
0.4000000059604645
0.4000000059604645
0.4000000059604645
0.4000000059604645
0.4000000059604645
0.4000000059604645
0.4000000059604645
0.4000000059604645
0.4000000059604645
0.4000000059604645
0.4000000059604645
0.4000000059604645
0.4000000059604645
0.4000000059604645
0.4000000059604645
0.4000000059604645
0.4000000059604645
0.4000000059604645
0.4000000059604645
0.4000000059604645
0.4000000059604645
0.4000000059604645
0.4000000059604645
0.4000000059604645
0.4000000059604645
0.4000000059604645
0.4000000059604645
0.4000000059604645
0.4000000059604645
0.4000000059604645
0.4000000059604645
0.4000000059604645
0.4000000059604645
0.4000000059604645
0.4000000059604645
0.4000000059604645
0.4000000059604645
0.4000000059604645
0.4000000059604645
0.4000000059604645
0.4000000059604645
0.4000000059604645
0.4000000059604645
0.4000000059604645
0.4000000059604645
0.4000000059604645
0.4000000059604645
0.4000000059604645
0.4000000059604645
0.4000000059604645
0.4000000059604645
0.4000000059604645
0.4000000059604645
0.4000000059604645
0.4000000059604645
0.4000000059604645
0.4000000059604645
0.4000000059604645
0.4000000059604645
0.4000000059604645
0.4000000059604645
0.4000000059604645
0.4000000059604645
0.4000000059604645
0.4000000059604645
0.4000000059604645
0.4000000059604645
0.4000000059604645
0.4000000059604645
0.4000000059604645
0.4000000059604645
0.4000000059604645
0.4000000059604645
0.4000000059604645
0.4000000059604645
0.4000000059604645
0.4000000059604645
0.4000000059604645
0.4000000059604645
0.4000000059604645
0.4000000059604645
0.4000000059604645
0.4000000059604645
0.4000000059604645
0.4000000059604645
0.4000000059604645
0.4000000059604645
0.4000000059604645
0.4000000059604645
0.4000000059604645
0.4000000059604645
0.4000000059604645
0.4000000059604645
0.4000000059604645
0.4000000059604645
0.4000000059604645
0.4000000059604645
0.4000000059604645
0.4000000059604645
0.4000000059604645
0.4000000059604645
0.4000000059604645
0.4000000059604645
0.4000000059604645
0.4000000059604645
0.4000000059604645
0.4000000059604645
0.4000000059604645
0.4000000059604645
0.4000000059604645
0.4000000059604645
0.4000000059604645
0.4000000059604645
0.4000000059604645
0.4000000059604645
0.4000000059604645
0.4000000059604645
0.4000000059604645
0.4000000059604645
0.4000000059604645
0.4000000059604645
0.4000000059604645
0.4000000059604645
0.4000000059604645
0.4000000059604645
0.4000000059604645
0.4000000059604645
0.4000000059604645
0.4000000059604645
0.4000000059604645
0.4000000059604645
0.4000000059604645
0.4000000059604645
0.4000000059604645
0.4000000059604645
0.4000000059604645
0.4000000059604645
0.4000000059604645
0.4000000059604645
0.4000000059604645
0.4000000059604645
0.4000000059604645
0.4000000059604645
0.4000000059604645
0.4000000059604645
0.4000000059604645
0.4000000059604645
0.4000000059604645
0.4000000059604645
0.4000000059604645
0.4000000059604645
0.4000000059604645
0.4000000059604645
0.4000000059604645
0.4000000059604645
0.4000000059604645
0.4000000059604645
0.4000000059604645
0.4000000059604645
0.4000000059604645
0.4000000059604645
0.4000000059604645
0.4000000059604645
0.4000000059604645
0.4000000059604645
0.4000000059604645
0.4000000059604645
0.4000000059604645
0.4000000059604645
0.4000000059604645
0.4000000059604645
0.4000000059604645
0.4000000059604645
0.4000000059604645
0.4000000059604645
0.4000000059604645
0.4000000059604645
0.4000000059604645
0.4000000059604645
0.4000000059604645
0.4000000059604645
0.4000000059604645
0.4000000059604645
0.4000000059604645
0.4000000059604645
0.4000000059604645
0.4000000059604645
0.4000000059604645
0.4000000059604645
0.4000000059604645
0.4000000059604645
0.4000000059604645
0.4000000059604645
0.4000000059604645
0.4000000059604645
0.4000000059604645
0.4000000059604645
0.4000000059604645
0.4000000059604645
0.4000000059604645
0.4000000059604645
0.4000000059604645
0.4000000059604645
0.4000000059604645
0.4000000059604645
0.4000000059604645
0.4000000059604645
0.4000000059604645
0.4000000059604645
0.4000000059604645
0.4000000059604645
0.4000000059604645
0.4000000059604645
0.4000000059604645
0.4000000059604645
0.4000000059604645
0.4000000059604645
0.4000000059604645
0.4000000059604645
0.4000000059604645
0.4000000059604645
0.4000000059604645
0.4000000059604645
0.4000000059604645
0.4000000059604645
0.4000000059604645
0.4000000059604645
0.4000000059604645
0.4000000059604645
0.4000000059604645
0.4000000059604645
0.4000000059604645
0.4000000059604645
0.4000000059604645
0.4000000059604645
0.4000000059604645
0.4000000059604645
0.4000000059604645
0.4000000059604645
0.4000000059604645
0.4000000059604645
0.4000000059604645
0.4000000059604645
0.4000000059604645
0.4000000059604645
0.4000000059604645
0.4000000059604645
0.4000000059604645
0.4000000059604645
0.4000000059604645
0.4000000059604645
0.4000000059604645
0.4000000059604645
0.4000000059604645
0.4000000059604645
0.4000000059604645
0.4000000059604645
0.4000000059604645
0.4000000059604645
0.4000000059604645
0.4000000059604645
0.4000000059604645
0.4000000059604645
0.4000000059604645
0.4000000059604645
0.4000000059604645
0.4000000059604645
0.4000000059604645
0.4000000059604645
0.4000000059604645
0.4000000059604645
0.4000000059604645
0.4000000059604645
0.4000000059604645
0.4000000059604645
0.4000000059604645
0.4000000059604645
0.4000000059604645
0.4000000059604645
0.4000000059604645
0.4000000059604645
0.4000000059604645
0.4000000059604645
0.4000000059604645
0.4000000059604645
0.4000000059604645
0.4000000059604645
0.4000000059604645
0.4000000059604645
0.4000000059604645
0.4000000059604645
0.4000000059604645
0.4000000059604645
0.4000000059604645
0.4000000059604645
0.4000000059604645
0.4000000059604645
0.4000000059604645
0.4000000059604645
0.4000000059604645
0.4000000059604645
0.4000000059604645
0.4000000059604645
0.4000000059604645
0.4000000059604645
0.4000000059604645
0.4000000059604645
0.4000000059604645
0.4000000059604645
0.4000000059604645
0.4000000059604645
0.4000000059604645
0.4000000059604645
0.4000000059604645
0.4000000059604645
0.4000000059604645
0.4000000059604645
0.4000000059604645
0.4000000059604645
0.4000000059604645
0.4000000059604645
0.4000000059604645
0.4000000059604645
0.4000000059604645
0.4000000059604645
0.4000000059604645
0.4000000059604645
0.4000000059604645
0.4000000059604645
0.4000000059604645
0.4000000059604645
0.4000000059604645
0.4000000059604645
0.4000000059604645
0.4000000059604645
0.4000000059604645
0.4000000059604645
0.4000000059604645
0.4000000059604645
0.4000000059604645
0.4000000059604645
0.4000000059604645
0.4000000059604645
0.4000000059604645
0.4000000059604645
0.4000000059604645
0.4000000059604645
0.4000000059604645
0.4000000059604645
0.4000000059604645
0.4000000059604645
0.4000000059604645
0.4000000059604645
0.4000000059604645
0.4000000059604645
0.4000000059604645
0.4000000059604645
0.4000000059604645
0.4000000059604645
0.4000000059604645
0.4000000059604645
0.4000000059604645
0.4000000059604645
0.4000000059604645
0.4000000059604645
0.4000000059604645
0.4000000059604645
0.4000000059604645
0.4000000059604645
0.4000000059604645
0.4000000059604645
0.4000000059604645
0.4000000059604645
0.4000000059604645
0.4000000059604645
0.4000000059604645
0.4000000059604645
0.4000000059604645
0.4000000059604645
0.4000000059604645
0.4000000059604645
0.4000000059604645
0.4000000059604645
0.4000000059604645
0.4000000059604645
0.4000000059604645
0.4000000059604645
0.4000000059604645
0.4000000059604645
0.4000000059604645
0.4000000059604645
0.4000000059604645
0.4000000059604645
0.4000000059604645
0.4000000059604645
0.4000000059604645
0.4000000059604645
0.4000000059604645
0.4000000059604645
0.4000000059604645
0.4000000059604645
0.4000000059604645
0.4000000059604645
0.4000000059604645
0.4000000059604645
0.4000000059604645
0.4000000059604645
0.4000000059604645
0.4000000059604645
0.4000000059604645
0.4000000059604645
0.4000000059604645
0.4000000059604645
0.4000000059604645
0.4000000059604645
0.4000000059604645
0.4000000059604645
0.4000000059604645
0.4000000059604645
0.4000000059604645
0.4000000059604645
0.4000000059604645
0.4000000059604645
0.4000000059604645
0.4000000059604645
0.4000000059604645
0.4000000059604645
0.4000000059604645
0.4000000059604645
0.4000000059604645
0.4000000059604645
0.4000000059604645
0.4000000059604645
0.4000000059604645
0.4000000059604645
0.4000000059604645
0.4000000059604645
0.4000000059604645
0.4000000059604645
0.4000000059604645
0.4000000059604645
0.4000000059604645
0.4000000059604645
0.4000000059604645
0.4000000059604645
0.4000000059604645
0.4000000059604645
0.4000000059604645
0.4000000059604645
0.4000000059604645
0.4000000059604645
0.4000000059604645
0.4000000059604645
0.4000000059604645
0.4000000059604645
0.4000000059604645
0.4000000059604645
0.4000000059604645
0.4000000059604645
0.4000000059604645
0.4000000059604645
0.4000000059604645
0.4000000059604645
0.4000000059604645
0.4000000059604645
0.4000000059604645
0.4000000059604645
0.4000000059604645
0.4000000059604645
0.4000000059604645
0.4000000059604645
0.4000000059604645
0.4000000059604645
0.4000000059604645
0.4000000059604645
0.4000000059604645
0.4000000059604645
0.4000000059604645
0.4000000059604645
0.4000000059604645
0.4000000059604645
0.4000000059604645
0.4000000059604645
0.4000000059604645
0.4000000059604645
0.4000000059604645
0.4000000059604645
0.4000000059604645
0.4000000059604645
0.4000000059604645
0.4000000059604645
0.4000000059604645
0.4000000059604645
0.4000000059604645
0.4000000059604645
0.4000000059604645
0.4000000059604645
0.4000000059604645
0.4000000059604645
0.4000000059604645
0.4000000059604645
0.4000000059604645
0.4000000059604645
0.4000000059604645
0.4000000059604645
0.4000000059604645
0.4000000059604645
0.4000000059604645
0.4000000059604645
0.4000000059604645
0.4000000059604645
0.4000000059604645
0.4000000059604645
0.4000000059604645
0.4000000059604645
0.4000000059604645
0.4000000059604645
0.4000000059604645
0.4000000059604645
0.4000000059604645
0.4000000059604645
0.4000000059604645
0.4000000059604645
0.4000000059604645
0.4000000059604645
0.4000000059604645
0.4000000059604645
0.4000000059604645
0.4000000059604645
0.4000000059604645
0.4000000059604645
0.4000000059604645
0.4000000059604645
0.4000000059604645
0.4000000059604645
0.4000000059604645
0.4000000059604645
0.4000000059604645
0.4000000059604645
0.4000000059604645
0.4000000059604645
0.4000000059604645
0.4000000059604645
0.4000000059604645
0.4000000059604645
0.4000000059604645
0.4000000059604645
0.4000000059604645
0.4000000059604645
0.4000000059604645
0.4000000059604645
0.4000000059604645
0.4000000059604645
0.4000000059604645
0.4000000059604645
0.4000000059604645
0.4000000059604645
0.4000000059604645
0.4000000059604645
0.4000000059604645
0.4000000059604645
0.4000000059604645
0.4000000059604645
0.4000000059604645
0.4000000059604645
0.4000000059604645
0.4000000059604645
0.4000000059604645
0.4000000059604645
0.4000000059604645
0.4000000059604645
0.4000000059604645
0.4000000059604645
0.4000000059604645
0.4000000059604645
0.4000000059604645
0.4000000059604645
0.4000000059604645
0.4000000059604645
0.4000000059604645
0.4000000059604645
0.4000000059604645
0.4000000059604645
0.4000000059604645
0.4000000059604645
0.4000000059604645
0.4000000059604645
0.4000000059604645
0.4000000059604645
0.4000000059604645
0.4000000059604645
0.4000000059604645
0.4000000059604645
0.4000000059604645
0.4000000059604645
0.4000000059604645
0.4000000059604645
0.4000000059604645
0.4000000059604645
0.4000000059604645
0.4000000059604645
0.4000000059604645
0.4000000059604645
0.4000000059604645
0.4000000059604645
0.4000000059604645
0.4000000059604645
0.4000000059604645
0.4000000059604645
0.4000000059604645
0.4000000059604645
0.4000000059604645
0.4000000059604645
0.4000000059604645
0.4000000059604645
0.4000000059604645
0.4000000059604645
0.4000000059604645
0.4000000059604645
0.4000000059604645
0.4000000059604645
0.4000000059604645
0.4000000059604645
0.4000000059604645
0.4000000059604645
0.4000000059604645
0.4000000059604645
0.4000000059604645
0.4000000059604645
0.4000000059604645
0.4000000059604645
0.4000000059604645
0.4000000059604645
0.4000000059604645
0.4000000059604645
0.4000000059604645
0.4000000059604645
0.4000000059604645
0.4000000059604645
0.4000000059604645
0.4000000059604645
0.4000000059604645
0.4000000059604645
0.4000000059604645
0.4000000059604645
0.4000000059604645
0.4000000059604645
0.4000000059604645
0.4000000059604645
0.4000000059604645
0.4000000059604645
0.4000000059604645
0.4000000059604645
0.4000000059604645
0.4000000059604645
0.4000000059604645
0.4000000059604645
0.4000000059604645
0.4000000059604645
0.4000000059604645
0.4000000059604645
0.4000000059604645
0.4000000059604645
0.4000000059604645
0.4000000059604645
0.4000000059604645
0.4000000059604645
0.4000000059604645
0.4000000059604645
0.4000000059604645
0.4000000059604645
0.4000000059604645
0.4000000059604645
0.4000000059604645
0.4000000059604645
0.4000000059604645
0.4000000059604645
0.4000000059604645
0.4000000059604645
0.4000000059604645
0.4000000059604645
0.4000000059604645
0.4000000059604645
0.4000000059604645
0.4000000059604645
0.4000000059604645
0.4000000059604645
0.4000000059604645
0.4000000059604645
0.4000000059604645
0.4000000059604645
0.4000000059604645
0.4000000059604645
0.4000000059604645
0.4000000059604645
0.4000000059604645
0.4000000059604645
0.4000000059604645
0.4000000059604645
0.4000000059604645
0.4000000059604645
0.4000000059604645
0.4000000059604645
0.4000000059604645
0.4000000059604645
0.4000000059604645
0.4000000059604645
0.4000000059604645
0.4000000059604645
0.4000000059604645
0.4000000059604645
0.4000000059604645
0.4000000059604645
0.4000000059604645
0.4000000059604645
0.4000000059604645
0.4000000059604645
0.4000000059604645
0.4000000059604645
0.4000000059604645
0.4000000059604645
0.4000000059604645
0.4000000059604645
0.4000000059604645
0.4000000059604645
0.4000000059604645
0.4000000059604645
0.4000000059604645
0.4000000059604645
0.4000000059604645
0.4000000059604645
0.4000000059604645
0.4000000059604645
0.4000000059604645
0.4000000059604645
0.4000000059604645
0.4000000059604645
0.4000000059604645
0.4000000059604645
0.4000000059604645
0.4000000059604645
0.4000000059604645
0.4000000059604645
0.4000000059604645
0.4000000059604645
0.4000000059604645
0.4000000059604645
0.4000000059604645
0.4000000059604645
0.4000000059604645
0.4000000059604645
0.4000000059604645
0.4000000059604645
0.4000000059604645
0.4000000059604645
0.4000000059604645
0.4000000059604645
0.4000000059604645
0.4000000059604645
0.4000000059604645
0.4000000059604645
0.4000000059604645
0.4000000059604645
0.4000000059604645
0.4000000059604645
0.4000000059604645
0.4000000059604645
0.4000000059604645
0.4000000059604645
0.4000000059604645
0.4000000059604645
0.4000000059604645
0.4000000059604645
0.4000000059604645
0.4000000059604645
0.4000000059604645
0.4000000059604645
0.4000000059604645
0.4000000059604645
0.4000000059604645
0.4000000059604645
0.4000000059604645
0.4000000059604645
0.4000000059604645
0.4000000059604645
0.4000000059604645
0.4000000059604645
0.4000000059604645
0.4000000059604645
0.4000000059604645
0.4000000059604645
0.4000000059604645
0.4000000059604645
0.4000000059604645
0.4000000059604645
0.4000000059604645
0.4000000059604645
0.4000000059604645
0.4000000059604645
0.4000000059604645
0.4000000059604645
0.4000000059604645
0.4000000059604645
0.4000000059604645
0.4000000059604645
0.4000000059604645
0.4000000059604645
0.4000000059604645
0.4000000059604645
0.4000000059604645
0.4000000059604645
0.4000000059604645
0.4000000059604645
0.4000000059604645
0.4000000059604645
0.4000000059604645
0.4000000059604645
0.4000000059604645
0.4000000059604645
0.4000000059604645
0.4000000059604645
0.4000000059604645
0.4000000059604645
0.4000000059604645
0.4000000059604645
0.4000000059604645
0.4000000059604645
0.4000000059604645
0.4000000059604645
0.4000000059604645
0.4000000059604645
0.4000000059604645
0.4000000059604645
0.4000000059604645
0.4000000059604645
0.4000000059604645
0.4000000059604645
0.4000000059604645
0.4000000059604645
0.4000000059604645
0.4000000059604645
0.4000000059604645
0.4000000059604645
0.4000000059604645
0.4000000059604645
0.4000000059604645
0.4000000059604645
0.4000000059604645
0.4000000059604645
0.4000000059604645
0.4000000059604645
0.4000000059604645
0.4000000059604645
0.4000000059604645
0.4000000059604645
0.4000000059604645
0.4000000059604645
0.4000000059604645
0.4000000059604645
0.4000000059604645
0.4000000059604645
0.4000000059604645
0.4000000059604645
0.4000000059604645
0.4000000059604645
0.4000000059604645
0.4000000059604645
0.4000000059604645
0.4000000059604645
0.4000000059604645
0.4000000059604645
0.4000000059604645
0.4000000059604645
0.4000000059604645
0.4000000059604645
0.4000000059604645
0.4000000059604645
0.4000000059604645
0.4000000059604645
0.4000000059604645
0.4000000059604645
0.4000000059604645
0.4000000059604645
0.4000000059604645
0.4000000059604645
0.4000000059604645
0.4000000059604645
0.4000000059604645
0.4000000059604645
0.4000000059604645
0.4000000059604645
0.4000000059604645
0.4000000059604645
0.4000000059604645
0.4000000059604645
0.4000000059604645
0.4000000059604645
0.4000000059604645
0.4000000059604645
0.4000000059604645
0.4000000059604645
0.4000000059604645
0.4000000059604645
0.4000000059604645
0.4000000059604645
0.4000000059604645
0.4000000059604645
0.4000000059604645
0.4000000059604645
0.4000000059604645
0.4000000059604645
0.4000000059604645
0.4000000059604645
0.4000000059604645
0.4000000059604645
0.4000000059604645
0.4000000059604645
0.4000000059604645
0.4000000059604645
0.4000000059604645
0.4000000059604645
0.4000000059604645
0.4000000059604645
0.4000000059604645
0.4000000059604645
0.4000000059604645
0.4000000059604645
0.4000000059604645
0.4000000059604645
0.4000000059604645
0.4000000059604645
0.4000000059604645
0.4000000059604645
0.4000000059604645
0.4000000059604645
0.4000000059604645
0.4000000059604645
0.4000000059604645
0.4000000059604645
0.4000000059604645
0.4000000059604645
0.4000000059604645
0.4000000059604645
0.4000000059604645
0.4000000059604645
0.4000000059604645
0.4000000059604645
0.4000000059604645
0.4000000059604645
0.4000000059604645
0.4000000059604645
0.4000000059604645
0.4000000059604645
0.4000000059604645
0.4000000059604645
0.4000000059604645
0.4000000059604645
0.4000000059604645
0.4000000059604645
0.4000000059604645
0.4000000059604645
0.4000000059604645
0.4000000059604645
0.4000000059604645
0.4000000059604645
0.4000000059604645
0.4000000059604645
0.4000000059604645
0.4000000059604645
0.4000000059604645
0.4000000059604645
0.4000000059604645
0.4000000059604645
0.4000000059604645
0.4000000059604645
0.4000000059604645
0.4000000059604645
0.4000000059604645
0.4000000059604645
0.4000000059604645
0.4000000059604645
0.4000000059604645
0.4000000059604645
0.4000000059604645
0.4000000059604645
0.4000000059604645
0.4000000059604645
0.4000000059604645
0.4000000059604645
0.4000000059604645
0.4000000059604645
0.4000000059604645
0.4000000059604645
0.4000000059604645
0.4000000059604645
0.4000000059604645
0.4000000059604645
0.4000000059604645
0.4000000059604645
0.4000000059604645
0.4000000059604645
0.4000000059604645
0.4000000059604645
0.4000000059604645
0.4000000059604645
0.4000000059604645
0.4000000059604645
0.4000000059604645
0.4000000059604645
0.4000000059604645
0.4000000059604645
0.4000000059604645
0.4000000059604645
0.4000000059604645
0.4000000059604645
0.4000000059604645
0.4000000059604645
0.4000000059604645
0.4000000059604645
0.4000000059604645
0.4000000059604645
0.4000000059604645
0.4000000059604645
0.4000000059604645
0.4000000059604645
0.4000000059604645
0.4000000059604645
0.4000000059604645
0.4000000059604645
0.4000000059604645
0.4000000059604645
0.4000000059604645
0.4000000059604645
0.4000000059604645
0.4000000059604645
0.4000000059604645
0.4000000059604645
0.4000000059604645
0.4000000059604645
0.4000000059604645
0.4000000059604645
0.4000000059604645
0.4000000059604645
0.4000000059604645
0.4000000059604645
0.4000000059604645
0.4000000059604645
0.4000000059604645
0.4000000059604645
0.4000000059604645
0.4000000059604645
0.4000000059604645
0.4000000059604645
0.4000000059604645
0.4000000059604645
0.4000000059604645
0.4000000059604645
0.4000000059604645
0.4000000059604645
0.4000000059604645
0.4000000059604645
0.4000000059604645
0.4000000059604645
0.4000000059604645
0.4000000059604645
0.4000000059604645
0.4000000059604645
0.4000000059604645
0.4000000059604645
0.4000000059604645
0.4000000059604645
0.4000000059604645
0.4000000059604645
0.4000000059604645
0.4000000059604645
0.4000000059604645
0.4000000059604645
0.4000000059604645
0.4000000059604645
0.4000000059604645
0.4000000059604645
0.4000000059604645
0.4000000059604645
0.4000000059604645
0.4000000059604645
0.4000000059604645
0.4000000059604645
0.4000000059604645
0.4000000059604645
0.4000000059604645
0.4000000059604645
0.4000000059604645
0.4000000059604645
0.4000000059604645
0.4000000059604645
0.4000000059604645
0.4000000059604645
0.4000000059604645
0.4000000059604645
0.4000000059604645
0.4000000059604645
0.4000000059604645
0.4000000059604645
0.4000000059604645
0.4000000059604645
0.4000000059604645
0.4000000059604645
0.4000000059604645
0.4000000059604645
0.4000000059604645
0.4000000059604645
0.4000000059604645
0.4000000059604645
0.4000000059604645
0.4000000059604645
0.4000000059604645
0.4000000059604645
0.4000000059604645
0.4000000059604645
0.4000000059604645
0.4000000059604645
0.4000000059604645
0.4000000059604645
0.4000000059604645
0.4000000059604645
0.4000000059604645
0.4000000059604645
0.4000000059604645
0.4000000059604645
0.4000000059604645
0.4000000059604645
0.4000000059604645
0.4000000059604645
0.4000000059604645
0.4000000059604645
0.4000000059604645
0.4000000059604645
0.4000000059604645
0.4000000059604645
0.4000000059604645
0.4000000059604645
0.4000000059604645
0.4000000059604645
0.4000000059604645
0.4000000059604645
0.4000000059604645
0.4000000059604645
0.4000000059604645
0.4000000059604645
0.4000000059604645
0.4000000059604645
0.4000000059604645
0.4000000059604645
0.4000000059604645
0.4000000059604645
0.4000000059604645
0.4000000059604645
0.4000000059604645
0.4000000059604645
0.4000000059604645
0.4000000059604645
0.4000000059604645
0.4000000059604645
0.4000000059604645
0.4000000059604645
0.4000000059604645
0.4000000059604645
0.4000000059604645
0.4000000059604645
0.4000000059604645
0.4000000059604645
0.4000000059604645
0.4000000059604645
0.4000000059604645
0.4000000059604645
0.4000000059604645
0.4000000059604645
0.4000000059604645
0.4000000059604645
0.4000000059604645
0.4000000059604645
0.4000000059604645
0.4000000059604645
0.4000000059604645
0.4000000059604645
0.4000000059604645
0.4000000059604645
0.4000000059604645
0.4000000059604645
0.4000000059604645
0.4000000059604645
0.4000000059604645
0.4000000059604645
0.4000000059604645
0.4000000059604645
0.4000000059604645
0.4000000059604645
0.4000000059604645
0.4000000059604645
0.4000000059604645
0.4000000059604645
0.4000000059604645
0.4000000059604645
0.4000000059604645
0.4000000059604645
0.4000000059604645
0.4000000059604645
0.4000000059604645
0.4000000059604645
0.4000000059604645
0.4000000059604645
0.4000000059604645
0.4000000059604645
0.4000000059604645
0.4000000059604645
0.4000000059604645
0.4000000059604645
0.4000000059604645
0.4000000059604645
0.4000000059604645
0.4000000059604645
0.4000000059604645
0.4000000059604645
0.4000000059604645
0.4000000059604645
0.4000000059604645
0.4000000059604645
0.4000000059604645
0.4000000059604645
0.4000000059604645
0.4000000059604645
0.4000000059604645
0.4000000059604645
0.4000000059604645
0.4000000059604645
0.4000000059604645
0.4000000059604645
0.4000000059604645
0.4000000059604645
0.4000000059604645
0.4000000059604645
0.4000000059604645
0.4000000059604645
0.4000000059604645
0.4000000059604645
0.4000000059604645
0.4000000059604645
0.4000000059604645
0.4000000059604645
0.4000000059604645
0.4000000059604645
0.4000000059604645
0.4000000059604645
0.4000000059604645
0.4000000059604645
0.4000000059604645
0.4000000059604645
0.4000000059604645
0.4000000059604645
0.4000000059604645
0.4000000059604645
0.4000000059604645
0.4000000059604645
0.4000000059604645
0.4000000059604645
0.4000000059604645
0.4000000059604645
0.4000000059604645
0.4000000059604645
0.4000000059604645
0.4000000059604645
0.4000000059604645
0.4000000059604645
0.4000000059604645
0.4000000059604645
0.4000000059604645
0.4000000059604645
0.4000000059604645
0.4000000059604645
0.4000000059604645
0.4000000059604645
0.4000000059604645
0.4000000059604645
0.4000000059604645
0.4000000059604645
0.4000000059604645
0.4000000059604645
0.4000000059604645
0.4000000059604645
0.4000000059604645
0.4000000059604645
0.4000000059604645
0.4000000059604645
0.4000000059604645
0.4000000059604645
0.4000000059604645
0.4000000059604645
0.4000000059604645
0.4000000059604645
0.4000000059604645
0.4000000059604645
0.4000000059604645
0.4000000059604645
0.4000000059604645
0.4000000059604645
0.4000000059604645
0.4000000059604645
0.4000000059604645
0.4000000059604645
0.4000000059604645
0.4000000059604645
0.4000000059604645
0.4000000059604645
0.4000000059604645
0.4000000059604645
0.4000000059604645
0.4000000059604645
0.4000000059604645
0.4000000059604645
0.4000000059604645
0.4000000059604645
0.4000000059604645
0.4000000059604645
0.4000000059604645
0.4000000059604645
0.4000000059604645
0.4000000059604645
0.4000000059604645
0.4000000059604645
0.4000000059604645
0.4000000059604645
0.4000000059604645
0.4000000059604645
0.4000000059604645
0.4000000059604645
0.4000000059604645
0.4000000059604645
0.4000000059604645
0.4000000059604645
0.4000000059604645
0.4000000059604645
0.4000000059604645
0.4000000059604645
0.4000000059604645
0.4000000059604645
0.4000000059604645
0.4000000059604645
0.4000000059604645
0.4000000059604645
0.4000000059604645
0.4000000059604645
0.4000000059604645
0.4000000059604645
0.4000000059604645
0.4000000059604645
0.4000000059604645
0.4000000059604645
0.4000000059604645
0.4000000059604645
0.4000000059604645
0.4000000059604645
0.4000000059604645
0.4000000059604645
0.4000000059604645
0.4000000059604645
0.4000000059604645
0.4000000059604645
0.4000000059604645
0.4000000059604645
0.4000000059604645
0.4000000059604645
0.4000000059604645
0.4000000059604645
0.4000000059604645
0.4000000059604645
0.4000000059604645
0.4000000059604645
0.4000000059604645
0.4000000059604645
0.4000000059604645
0.4000000059604645
0.4000000059604645
0.4000000059604645
0.4000000059604645
0.4000000059604645
0.4000000059604645
0.4000000059604645
0.4000000059604645
0.4000000059604645
0.4000000059604645
0.4000000059604645
0.4000000059604645
0.4000000059604645
0.4000000059604645
0.4000000059604645
0.4000000059604645
0.4000000059604645
0.4000000059604645
0.4000000059604645
0.4000000059604645
0.4000000059604645
0.4000000059604645
0.4000000059604645
0.4000000059604645
0.4000000059604645
0.4000000059604645
0.4000000059604645
0.4000000059604645
0.4000000059604645
0.4000000059604645
0.4000000059604645
0.4000000059604645
0.4000000059604645
0.4000000059604645
0.4000000059604645
0.4000000059604645
0.4000000059604645
0.4000000059604645
0.4000000059604645
0.4000000059604645
0.4000000059604645
0.4000000059604645
0.4000000059604645
0.4000000059604645
0.4000000059604645
0.4000000059604645
0.4000000059604645
0.4000000059604645
0.4000000059604645
0.4000000059604645
0.4000000059604645
0.4000000059604645
0.4000000059604645
0.4000000059604645
0.4000000059604645
0.4000000059604645
0.4000000059604645
0.4000000059604645
0.4000000059604645
0.4000000059604645
0.4000000059604645
0.4000000059604645
0.4000000059604645
0.4000000059604645
0.4000000059604645
0.4000000059604645
0.4000000059604645
0.4000000059604645
0.4000000059604645
0.4000000059604645
0.4000000059604645
0.4000000059604645
0.4000000059604645
0.4000000059604645
0.4000000059604645
0.4000000059604645
0.4000000059604645
0.4000000059604645
0.4000000059604645
0.4000000059604645
0.4000000059604645
0.4000000059604645
0.4000000059604645
0.4000000059604645
0.4000000059604645
0.4000000059604645
0.4000000059604645
0.4000000059604645
0.4000000059604645
0.4000000059604645
0.4000000059604645
0.4000000059604645
0.4000000059604645
0.4000000059604645
0.4000000059604645
0.4000000059604645
0.4000000059604645
0.4000000059604645
0.4000000059604645
0.4000000059604645
0.4000000059604645
0.4000000059604645
0.4000000059604645
0.4000000059604645
0.4000000059604645
0.4000000059604645
0.4000000059604645
0.4000000059604645
0.4000000059604645
0.4000000059604645
0.4000000059604645
0.4000000059604645
0.4000000059604645
0.4000000059604645
0.4000000059604645
0.4000000059604645
0.4000000059604645
0.4000000059604645
0.4000000059604645
0.4000000059604645
0.4000000059604645
0.4000000059604645
0.4000000059604645
0.4000000059604645
0.4000000059604645
0.4000000059604645
0.4000000059604645
0.4000000059604645
0.4000000059604645
0.4000000059604645
0.4000000059604645
0.4000000059604645
0.4000000059604645
0.4000000059604645
0.4000000059604645
0.4000000059604645
0.4000000059604645
0.4000000059604645
0.4000000059604645
0.4000000059604645
0.4000000059604645
0.4000000059604645
0.4000000059604645
0.4000000059604645
0.4000000059604645
0.4000000059604645
0.4000000059604645
0.4000000059604645
0.4000000059604645
0.4000000059604645
0.4000000059604645
0.4000000059604645
0.4000000059604645
0.4000000059604645
0.4000000059604645
0.4000000059604645
0.4000000059604645
0.4000000059604645
0.4000000059604645
0.4000000059604645
0.4000000059604645
0.4000000059604645
0.4000000059604645
0.4000000059604645
0.4000000059604645
0.4000000059604645
0.4000000059604645
0.4000000059604645
0.4000000059604645
0.4000000059604645
0.4000000059604645
0.4000000059604645
0.4000000059604645
0.4000000059604645
0.4000000059604645
0.4000000059604645
0.4000000059604645
0.4000000059604645
0.4000000059604645
0.4000000059604645
0.4000000059604645
0.4000000059604645
0.4000000059604645
0.4000000059604645
0.4000000059604645
0.4000000059604645
0.4000000059604645
0.4000000059604645
0.4000000059604645
0.4000000059604645
0.4000000059604645
0.4000000059604645
0.4000000059604645
0.4000000059604645
0.4000000059604645
0.4000000059604645
0.4000000059604645
0.4000000059604645
0.4000000059604645
0.4000000059604645
0.4000000059604645
0.4000000059604645
0.4000000059604645
0.4000000059604645
0.4000000059604645
0.4000000059604645
0.4000000059604645
0.4000000059604645
0.4000000059604645
0.4000000059604645
0.4000000059604645
0.4000000059604645
0.4000000059604645
0.4000000059604645
0.4000000059604645
0.4000000059604645
0.4000000059604645
0.4000000059604645
0.4000000059604645
0.4000000059604645
0.4000000059604645
0.4000000059604645
0.4000000059604645
0.4000000059604645
0.4000000059604645
0.4000000059604645
0.4000000059604645
0.4000000059604645
0.4000000059604645
0.4000000059604645
0.4000000059604645
0.4000000059604645
0.4000000059604645
0.4000000059604645
0.4000000059604645
0.4000000059604645
0.4000000059604645
0.4000000059604645
0.4000000059604645
0.4000000059604645
0.4000000059604645
0.4000000059604645
0.4000000059604645
0.4000000059604645
0.4000000059604645
0.4000000059604645
0.4000000059604645
0.4000000059604645
0.4000000059604645
0.4000000059604645
0.4000000059604645
0.4000000059604645
0.4000000059604645
0.4000000059604645
0.4000000059604645
0.4000000059604645
0.4000000059604645
0.4000000059604645
0.4000000059604645
0.4000000059604645
0.4000000059604645
0.4000000059604645
0.4000000059604645
0.4000000059604645
0.4000000059604645
0.4000000059604645
0.4000000059604645
0.4000000059604645
0.4000000059604645
0.4000000059604645
0.4000000059604645
0.4000000059604645
0.4000000059604645
0.4000000059604645
0.4000000059604645
0.4000000059604645
0.4000000059604645
0.4000000059604645
0.4000000059604645
0.4000000059604645
0.4000000059604645
0.4000000059604645
0.4000000059604645
0.4000000059604645
0.4000000059604645
0.4000000059604645
0.4000000059604645
0.4000000059604645
0.4000000059604645
0.4000000059604645
0.4000000059604645
0.4000000059604645
0.4000000059604645
0.4000000059604645
0.4000000059604645
0.4000000059604645
0.4000000059604645
0.4000000059604645
0.4000000059604645
0.4000000059604645
0.4000000059604645
0.4000000059604645
0.4000000059604645
0.4000000059604645
0.4000000059604645
0.4000000059604645
0.4000000059604645
0.4000000059604645
0.4000000059604645
0.4000000059604645
0.4000000059604645
0.4000000059604645
0.4000000059604645
0.4000000059604645
0.4000000059604645
0.4000000059604645
0.4000000059604645
0.4000000059604645
0.4000000059604645
0.4000000059604645
0.4000000059604645
0.4000000059604645
0.4000000059604645
0.4000000059604645
0.4000000059604645
0.4000000059604645
0.4000000059604645
0.4000000059604645
0.4000000059604645
0.4000000059604645
0.4000000059604645
0.4000000059604645
0.4000000059604645
0.4000000059604645
0.4000000059604645
0.4000000059604645
0.4000000059604645
0.4000000059604645
0.4000000059604645
0.4000000059604645
0.4000000059604645
0.4000000059604645
0.4000000059604645
0.4000000059604645
0.4000000059604645
0.4000000059604645
0.4000000059604645
0.4000000059604645
0.4000000059604645
0.4000000059604645
0.4000000059604645
0.4000000059604645
0.4000000059604645
0.4000000059604645
0.4000000059604645
0.4000000059604645
0.4000000059604645
0.4000000059604645
0.4000000059604645
0.4000000059604645
0.4000000059604645
0.4000000059604645
0.4000000059604645
0.4000000059604645
0.4000000059604645
0.4000000059604645
0.4000000059604645
0.4000000059604645
0.4000000059604645
0.4000000059604645
0.4000000059604645
0.4000000059604645
0.4000000059604645
0.4000000059604645
0.4000000059604645
0.4000000059604645
0.4000000059604645
0.4000000059604645
0.4000000059604645
0.4000000059604645
0.4000000059604645
0.4000000059604645
0.4000000059604645
0.4000000059604645
0.4000000059604645
0.4000000059604645
0.4000000059604645
0.4000000059604645
0.4000000059604645
0.4000000059604645
0.4000000059604645
0.4000000059604645
0.4000000059604645
0.4000000059604645
0.4000000059604645
0.4000000059604645
0.4000000059604645
0.4000000059604645
0.4000000059604645
0.4000000059604645
0.4000000059604645
0.4000000059604645
0.4000000059604645
0.4000000059604645
0.4000000059604645
0.4000000059604645
0.4000000059604645
0.4000000059604645
0.4000000059604645
0.4000000059604645
0.4000000059604645
0.4000000059604645
0.4000000059604645
0.4000000059604645
0.4000000059604645
0.4000000059604645
0.4000000059604645
0.4000000059604645
0.4000000059604645
0.4000000059604645
0.4000000059604645
0.4000000059604645
0.4000000059604645
0.4000000059604645
0.4000000059604645
0.4000000059604645
0.4000000059604645
0.4000000059604645
0.4000000059604645
0.4000000059604645
0.4000000059604645
0.4000000059604645
0.4000000059604645
0.4000000059604645
0.4000000059604645
0.4000000059604645
0.4000000059604645
0.4000000059604645
0.4000000059604645
0.4000000059604645
0.4000000059604645
0.4000000059604645
0.4000000059604645
0.4000000059604645
0.4000000059604645
0.4000000059604645
0.4000000059604645
0.4000000059604645
0.4000000059604645
0.4000000059604645
0.4000000059604645
0.4000000059604645
0.4000000059604645
0.4000000059604645
0.4000000059604645
0.4000000059604645
0.4000000059604645
0.4000000059604645
0.4000000059604645
0.4000000059604645
0.4000000059604645
0.4000000059604645
0.4000000059604645
0.4000000059604645
0.4000000059604645
0.4000000059604645
0.4000000059604645
0.4000000059604645
0.4000000059604645
0.4000000059604645
0.4000000059604645
0.4000000059604645
0.4000000059604645
0.4000000059604645
0.4000000059604645
0.4000000059604645
0.4000000059604645
0.4000000059604645
0.4000000059604645
0.4000000059604645
0.4000000059604645
0.4000000059604645
0.4000000059604645
0.4000000059604645
0.4000000059604645
0.4000000059604645
0.4000000059604645
0.4000000059604645
0.4000000059604645
0.4000000059604645
0.4000000059604645
0.4000000059604645
0.4000000059604645
0.4000000059604645
0.4000000059604645
0.4000000059604645
0.4000000059604645
0.4000000059604645
0.4000000059604645
0.4000000059604645
0.4000000059604645
0.4000000059604645
0.4000000059604645
0.4000000059604645
0.4000000059604645
0.4000000059604645
0.4000000059604645
0.4000000059604645
0.4000000059604645
0.4000000059604645
0.4000000059604645
0.4000000059604645
0.4000000059604645
0.4000000059604645
0.4000000059604645
0.4000000059604645
0.4000000059604645
0.4000000059604645
0.4000000059604645
0.4000000059604645
0.4000000059604645
0.4000000059604645
0.4000000059604645
0.4000000059604645
0.4000000059604645
0.4000000059604645
0.4000000059604645
0.4000000059604645
0.4000000059604645
0.4000000059604645
0.4000000059604645
0.4000000059604645
0.4000000059604645
0.4000000059604645
0.4000000059604645
0.4000000059604645
0.4000000059604645
0.4000000059604645
0.4000000059604645
0.4000000059604645
0.4000000059604645
0.4000000059604645
0.4000000059604645
0.4000000059604645
0.4000000059604645
0.4000000059604645
0.4000000059604645
0.4000000059604645
0.4000000059604645
0.4000000059604645
0.4000000059604645
0.4000000059604645
0.4000000059604645
0.4000000059604645
0.4000000059604645
0.4000000059604645
0.4000000059604645
0.4000000059604645
0.4000000059604645
0.4000000059604645
0.4000000059604645
0.4000000059604645
0.4000000059604645
0.4000000059604645
0.4000000059604645
0.4000000059604645
0.4000000059604645
0.4000000059604645
0.4000000059604645
0.4000000059604645
0.4000000059604645
0.4000000059604645
0.4000000059604645
0.4000000059604645
0.4000000059604645
0.4000000059604645
0.4000000059604645
0.4000000059604645
0.4000000059604645
0.4000000059604645
0.4000000059604645
0.4000000059604645
0.4000000059604645
0.4000000059604645
0.4000000059604645
0.4000000059604645
0.4000000059604645
0.4000000059604645
0.4000000059604645
0.4000000059604645
0.4000000059604645
0.4000000059604645
0.4000000059604645
0.4000000059604645
0.4000000059604645
0.4000000059604645
0.4000000059604645
0.4000000059604645
0.4000000059604645
0.4000000059604645
0.4000000059604645
0.4000000059604645
0.4000000059604645
0.4000000059604645
0.4000000059604645
0.4000000059604645
0.4000000059604645
0.4000000059604645
0.4000000059604645
0.4000000059604645
0.4000000059604645
0.4000000059604645
0.4000000059604645
0.4000000059604645
0.4000000059604645
0.4000000059604645
0.4000000059604645
0.4000000059604645
0.4000000059604645
0.4000000059604645
0.4000000059604645
0.4000000059604645
0.4000000059604645
0.4000000059604645
0.4000000059604645
0.4000000059604645
0.4000000059604645
0.4000000059604645
0.4000000059604645
0.4000000059604645
0.4000000059604645
0.4000000059604645
0.4000000059604645
0.4000000059604645
0.4000000059604645
0.4000000059604645
0.4000000059604645
0.4000000059604645
0.4000000059604645
0.4000000059604645
0.4000000059604645
0.4000000059604645
0.4000000059604645
0.4000000059604645
0.4000000059604645
0.4000000059604645
0.4000000059604645
0.4000000059604645
0.4000000059604645
0.4000000059604645
0.4000000059604645
0.4000000059604645
0.4000000059604645
0.4000000059604645
0.4000000059604645
0.4000000059604645
0.4000000059604645
0.4000000059604645
0.4000000059604645
0.4000000059604645
0.4000000059604645
0.4000000059604645
0.4000000059604645
0.4000000059604645
0.4000000059604645
0.4000000059604645
0.4000000059604645
0.4000000059604645
0.4000000059604645
0.4000000059604645
0.4000000059604645
0.4000000059604645
0.4000000059604645
0.4000000059604645
0.4000000059604645
0.4000000059604645
0.4000000059604645
0.4000000059604645
0.4000000059604645
0.4000000059604645
0.4000000059604645
0.4000000059604645
0.4000000059604645
0.4000000059604645
0.4000000059604645
0.4000000059604645
0.4000000059604645
0.4000000059604645
0.4000000059604645
0.4000000059604645
0.4000000059604645
0.4000000059604645
0.4000000059604645
0.4000000059604645
0.4000000059604645
0.4000000059604645
0.4000000059604645
0.4000000059604645
0.4000000059604645
0.4000000059604645
0.4000000059604645
0.4000000059604645
0.4000000059604645
0.4000000059604645
0.4000000059604645
0.4000000059604645
0.4000000059604645
0.4000000059604645
0.4000000059604645
0.4000000059604645
0.4000000059604645
0.4000000059604645
0.4000000059604645
0.4000000059604645
0.4000000059604645
0.4000000059604645
0.4000000059604645
0.4000000059604645
0.4000000059604645
0.4000000059604645
0.4000000059604645
0.4000000059604645
0.4000000059604645
0.4000000059604645
0.4000000059604645
0.4000000059604645
0.4000000059604645
0.4000000059604645
0.4000000059604645
0.4000000059604645
0.4000000059604645
0.4000000059604645
0.4000000059604645
0.4000000059604645
0.4000000059604645
0.4000000059604645
0.4000000059604645
0.4000000059604645
0.4000000059604645
0.4000000059604645
0.4000000059604645
0.4000000059604645
0.4000000059604645
0.4000000059604645
0.4000000059604645
0.4000000059604645
0.4000000059604645
0.4000000059604645
0.4000000059604645
0.4000000059604645
0.4000000059604645
0.4000000059604645
0.4000000059604645
0.4000000059604645
0.4000000059604645
0.4000000059604645
0.4000000059604645
0.4000000059604645
0.4000000059604645
0.4000000059604645
0.4000000059604645
0.4000000059604645
0.4000000059604645
0.4000000059604645
0.4000000059604645
0.4000000059604645
0.4000000059604645
0.4000000059604645
0.4000000059604645
0.4000000059604645
0.4000000059604645
0.4000000059604645
0.4000000059604645
0.4000000059604645
0.4000000059604645
0.4000000059604645
0.4000000059604645
0.4000000059604645
0.4000000059604645
0.4000000059604645
0.4000000059604645
0.4000000059604645
0.4000000059604645
0.4000000059604645
0.4000000059604645
0.4000000059604645
0.4000000059604645
0.4000000059604645
0.4000000059604645
0.4000000059604645
0.4000000059604645
0.4000000059604645
0.4000000059604645
0.4000000059604645
0.4000000059604645
0.4000000059604645
0.4000000059604645
0.4000000059604645
0.4000000059604645
0.4000000059604645
0.4000000059604645
0.4000000059604645
0.4000000059604645
0.4000000059604645
0.4000000059604645
0.4000000059604645
0.4000000059604645
0.4000000059604645
0.4000000059604645
0.4000000059604645
0.4000000059604645
0.4000000059604645
0.4000000059604645
0.4000000059604645
0.4000000059604645
0.4000000059604645
0.4000000059604645
0.4000000059604645
0.4000000059604645
0.4000000059604645
0.4000000059604645
0.4000000059604645
0.4000000059604645
0.4000000059604645
0.4000000059604645
0.4000000059604645
0.4000000059604645
0.4000000059604645
0.4000000059604645
0.4000000059604645
0.4000000059604645
0.4000000059604645
0.4000000059604645
0.4000000059604645
0.4000000059604645
0.4000000059604645
0.4000000059604645
0.4000000059604645
0.4000000059604645
0.4000000059604645
0.4000000059604645
0.4000000059604645
0.4000000059604645
0.4000000059604645
0.4000000059604645
0.4000000059604645
0.4000000059604645
0.4000000059604645
0.4000000059604645
0.4000000059604645
0.4000000059604645
0.4000000059604645
0.4000000059604645
0.4000000059604645
0.4000000059604645
0.4000000059604645
0.4000000059604645
0.4000000059604645
0.4000000059604645
0.4000000059604645
0.4000000059604645
0.4000000059604645
0.4000000059604645
0.4000000059604645
0.4000000059604645
0.4000000059604645
0.4000000059604645
0.4000000059604645
0.4000000059604645
0.4000000059604645
0.4000000059604645
0.4000000059604645
0.4000000059604645
0.4000000059604645
0.4000000059604645
0.4000000059604645
0.4000000059604645
0.4000000059604645
0.4000000059604645
0.4000000059604645
0.4000000059604645
0.4000000059604645
0.4000000059604645
0.4000000059604645
0.4000000059604645
0.4000000059604645
0.4000000059604645
0.4000000059604645
0.4000000059604645
0.4000000059604645
0.4000000059604645
0.4000000059604645
0.4000000059604645
0.4000000059604645
0.4000000059604645
0.4000000059604645
0.4000000059604645
0.4000000059604645
0.4000000059604645
0.4000000059604645
0.4000000059604645
0.4000000059604645
0.4000000059604645
0.4000000059604645
0.4000000059604645
0.4000000059604645
0.4000000059604645
0.4000000059604645
0.4000000059604645
0.4000000059604645
0.4000000059604645
0.4000000059604645
0.4000000059604645
0.4000000059604645
0.4000000059604645
0.4000000059604645
0.4000000059604645
0.4000000059604645
0.4000000059604645
0.4000000059604645
0.4000000059604645
0.4000000059604645
0.4000000059604645
0.4000000059604645
0.4000000059604645
0.4000000059604645
0.4000000059604645
0.4000000059604645
0.4000000059604645
0.4000000059604645
0.4000000059604645
0.4000000059604645
0.4000000059604645
0.4000000059604645
0.4000000059604645
0.4000000059604645
0.4000000059604645
0.4000000059604645
0.4000000059604645
0.4000000059604645
0.4000000059604645
0.4000000059604645
0.4000000059604645
0.4000000059604645
0.4000000059604645
0.4000000059604645
0.4000000059604645
0.4000000059604645
0.4000000059604645
0.4000000059604645
0.4000000059604645
0.4000000059604645
0.4000000059604645
0.4000000059604645
0.4000000059604645
0.4000000059604645
0.4000000059604645
0.4000000059604645
0.4000000059604645
0.4000000059604645
0.4000000059604645
0.4000000059604645
0.4000000059604645
0.4000000059604645
0.4000000059604645
0.4000000059604645
0.4000000059604645
0.4000000059604645
0.4000000059604645
0.4000000059604645
0.4000000059604645
0.4000000059604645
0.4000000059604645
0.4000000059604645
0.4000000059604645
0.4000000059604645
0.4000000059604645
0.4000000059604645
0.4000000059604645
0.4000000059604645
0.4000000059604645
0.4000000059604645
0.4000000059604645
0.4000000059604645
0.4000000059604645
0.4000000059604645
0.4000000059604645
0.4000000059604645
0.4000000059604645
0.4000000059604645
0.4000000059604645
0.4000000059604645
0.4000000059604645
0.4000000059604645
0.4000000059604645
0.4000000059604645
0.4000000059604645
0.4000000059604645
0.4000000059604645
0.4000000059604645
0.4000000059604645
0.4000000059604645
0.4000000059604645
0.4000000059604645
0.4000000059604645
0.4000000059604645
0.4000000059604645
0.4000000059604645
0.4000000059604645
0.4000000059604645
0.4000000059604645
0.4000000059604645
0.4000000059604645
0.4000000059604645
0.4000000059604645
0.4000000059604645
0.4000000059604645
0.4000000059604645
0.4000000059604645
0.4000000059604645
0.4000000059604645
0.4000000059604645
0.4000000059604645
0.4000000059604645
0.4000000059604645
0.4000000059604645
0.4000000059604645
0.4000000059604645
0.4000000059604645
0.4000000059604645
0.4000000059604645
0.4000000059604645
0.4000000059604645
0.4000000059604645
0.4000000059604645
0.4000000059604645
0.4000000059604645
0.4000000059604645
0.4000000059604645
0.4000000059604645
0.4000000059604645
0.4000000059604645
0.4000000059604645
0.4000000059604645
0.4000000059604645
0.4000000059604645
0.4000000059604645
0.4000000059604645
0.4000000059604645
0.4000000059604645
0.4000000059604645
0.4000000059604645
0.4000000059604645
0.4000000059604645
0.4000000059604645
0.4000000059604645
0.4000000059604645
0.4000000059604645
0.4000000059604645
0.4000000059604645
0.4000000059604645
0.4000000059604645
0.4000000059604645
0.4000000059604645
0.4000000059604645
0.4000000059604645
0.4000000059604645
0.4000000059604645
0.4000000059604645
0.4000000059604645
0.4000000059604645
0.4000000059604645
0.4000000059604645
0.4000000059604645
0.4000000059604645
0.4000000059604645
0.4000000059604645
0.4000000059604645
0.4000000059604645
0.4000000059604645
0.4000000059604645
0.4000000059604645
0.4000000059604645
0.4000000059604645
0.4000000059604645
0.4000000059604645
0.4000000059604645
0.4000000059604645
0.4000000059604645
0.4000000059604645
0.4000000059604645
0.4000000059604645
0.4000000059604645
0.4000000059604645
0.4000000059604645
0.4000000059604645
0.4000000059604645
0.4000000059604645
0.4000000059604645
0.4000000059604645
0.4000000059604645
0.4000000059604645
0.4000000059604645
0.4000000059604645
0.4000000059604645
0.4000000059604645
0.4000000059604645
0.4000000059604645
0.4000000059604645
0.4000000059604645
0.4000000059604645
0.4000000059604645
0.4000000059604645
0.4000000059604645
0.4000000059604645
0.4000000059604645
0.4000000059604645
0.4000000059604645
0.4000000059604645
0.4000000059604645
0.4000000059604645
0.4000000059604645
0.4000000059604645
0.4000000059604645
0.4000000059604645
0.4000000059604645
0.4000000059604645
0.4000000059604645
0.4000000059604645
0.4000000059604645
0.4000000059604645
0.4000000059604645
0.4000000059604645
0.4000000059604645
0.4000000059604645
0.4000000059604645
0.4000000059604645
0.4000000059604645
0.4000000059604645
0.4000000059604645
0.4000000059604645
0.4000000059604645
0.4000000059604645
0.4000000059604645
0.4000000059604645
0.4000000059604645
0.4000000059604645
0.4000000059604645
0.4000000059604645
0.4000000059604645
0.4000000059604645
0.4000000059604645
0.4000000059604645
0.4000000059604645
0.4000000059604645
0.4000000059604645
0.4000000059604645
0.4000000059604645
0.4000000059604645
0.4000000059604645
0.4000000059604645
0.4000000059604645
0.4000000059604645
0.4000000059604645
0.4000000059604645
0.4000000059604645
0.4000000059604645
0.4000000059604645
0.4000000059604645
0.4000000059604645
0.4000000059604645
0.4000000059604645
0.4000000059604645
0.4000000059604645
0.4000000059604645
0.4000000059604645
0.4000000059604645
0.4000000059604645
0.4000000059604645
0.4000000059604645
0.4000000059604645
0.4000000059604645
0.4000000059604645
0.4000000059604645
0.4000000059604645
0.4000000059604645
0.4000000059604645
0.4000000059604645
0.4000000059604645
0.4000000059604645
0.4000000059604645
0.4000000059604645
0.4000000059604645
0.4000000059604645
0.4000000059604645
0.4000000059604645
0.4000000059604645
0.4000000059604645
0.4000000059604645
0.4000000059604645
0.4000000059604645
0.4000000059604645
0.4000000059604645
0.4000000059604645
0.4000000059604645
0.4000000059604645
0.4000000059604645
0.4000000059604645
0.4000000059604645
0.4000000059604645
0.4000000059604645
0.4000000059604645
0.4000000059604645
0.4000000059604645
0.4000000059604645
0.4000000059604645
0.4000000059604645
0.4000000059604645
0.4000000059604645
0.4000000059604645
0.4000000059604645
0.4000000059604645
0.4000000059604645
0.4000000059604645
0.4000000059604645
0.4000000059604645
0.4000000059604645
0.4000000059604645
0.4000000059604645
0.4000000059604645
0.4000000059604645
0.4000000059604645
0.4000000059604645
0.4000000059604645
0.4000000059604645
0.4000000059604645
0.4000000059604645
0.4000000059604645
0.4000000059604645
0.4000000059604645
0.4000000059604645
0.4000000059604645
0.4000000059604645
0.4000000059604645
0.4000000059604645
0.4000000059604645
0.4000000059604645
0.4000000059604645
0.4000000059604645
0.4000000059604645
0.4000000059604645
0.4000000059604645
0.4000000059604645
0.4000000059604645
0.4000000059604645
0.4000000059604645
0.4000000059604645
0.4000000059604645
0.4000000059604645
0.4000000059604645
0.4000000059604645
0.4000000059604645
0.4000000059604645
0.4000000059604645
0.4000000059604645
0.4000000059604645
0.4000000059604645
0.4000000059604645
0.4000000059604645
0.4000000059604645
0.4000000059604645
0.4000000059604645
0.4000000059604645
0.4000000059604645
0.4000000059604645
0.4000000059604645
0.4000000059604645
0.4000000059604645
0.4000000059604645
0.4000000059604645
0.4000000059604645
0.4000000059604645
0.4000000059604645
0.4000000059604645
0.4000000059604645
0.4000000059604645
0.4000000059604645
0.4000000059604645
0.4000000059604645
0.4000000059604645
0.4000000059604645
0.4000000059604645
0.4000000059604645
0.4000000059604645
0.4000000059604645
0.4000000059604645
0.4000000059604645
0.4000000059604645
0.4000000059604645
0.4000000059604645
0.4000000059604645
0.4000000059604645
0.4000000059604645
0.4000000059604645
0.4000000059604645
0.4000000059604645
0.4000000059604645
0.4000000059604645
0.4000000059604645
0.4000000059604645
0.4000000059604645
0.4000000059604645
0.4000000059604645
0.4000000059604645
0.4000000059604645
0.4000000059604645
0.4000000059604645
0.4000000059604645
0.4000000059604645
0.4000000059604645

