# vtk DataFile Version 3.0
File written by membrane-model
ASCII
DATASET UNSTRUCTURED_GRID
POINTS 2434 float
0.0000000000000000 0.0000000000000000 0.0000000000000000
10.0000000000000000 0.0000000000000000 0.0000000000000000
10.0000000000000000 10.0000000000000000 0.0000000000000000
0.0000000000000000 10.0000000000000000 0.0000000000000000
2.2500000000000000 1.1499999761581421 0.0000000000000000
2.1914212703704834 1.2914214134216309 0.0000000000000000
2.0499999523162842 1.3500000238418579 0.0000000000000000
1.9085786342620850 1.2914214134216309 0.0000000000000000
1.8500000238418579 1.1499999761581421 0.0000000000000000
1.9085786342620850 1.0085786581039429 0.0000000000000000
2.0499999523162842 0.9499999880790710 0.0000000000000000
2.1914212703704834 1.0085786581039429 0.0000000000000000
2.4500000476837158 1.1499999761581421 0.0000000000000000
2.0499999523162842 1.5499999523162842 0.0000000000000000
1.6499999761581421 1.1499999761581421 0.0000000000000000
2.0499999523162842 0.7500000000000000 0.0000000000000000
2.2500000000000000 8.8500003814697266 0.0000000000000000
2.1914212703704834 8.9914216995239258 0.0000000000000000
2.0499999523162842 9.0500001907348633 0.0000000000000000
1.9085786342620850 8.9914216995239258 0.0000000000000000
1.8500000238418579 8.8500003814697266 0.0000000000000000
1.9085786342620850 8.7085790634155273 0.0000000000000000
2.0499999523162842 8.6499996185302734 0.0000000000000000
2.1914212703704834 8.7085790634155273 0.0000000000000000
2.4500000476837158 8.8500003814697266 0.0000000000000000
2.0499999523162842 9.2500000000000000 0.0000000000000000
1.6499999761581421 8.8500003814697266 0.0000000000000000
2.0499999523162842 8.4499998092651367 0.0000000000000000
1.3500000238418579 2.0499999523162842 0.0000000000000000
1.2914214134216309 2.1914212703704834 0.0000000000000000
1.1499999761581421 2.2500000000000000 0.0000000000000000
1.0085786581039429 2.1914212703704834 0.0000000000000000
0.9499999880790710 2.0499999523162842 0.0000000000000000
1.0085786581039429 1.9085786342620850 0.0000000000000000
1.1499999761581421 1.8500000238418579 0.0000000000000000
1.2914214134216309 1.9085786342620850 0.0000000000000000
1.5499999523162842 2.0499999523162842 0.0000000000000000
1.1499999761581421 2.4500000476837158 0.0000000000000000
0.7500000000000000 2.0499999523162842 0.0000000000000000
1.1499999761581421 1.6499999761581421 0.0000000000000000
9.0500001907348633 2.0499999523162842 0.0000000000000000
8.9914216995239258 2.1914212703704834 0.0000000000000000
8.8500003814697266 2.2500000000000000 0.0000000000000000
8.7085790634155273 2.1914212703704834 0.0000000000000000
8.6499996185302734 2.0499999523162842 0.0000000000000000
8.7085790634155273 1.9085786342620850 0.0000000000000000
8.8500003814697266 1.8500000238418579 0.0000000000000000
8.9914216995239258 1.9085786342620850 0.0000000000000000
9.2500000000000000 2.0499999523162842 0.0000000000000000
8.8500003814697266 2.4500000476837158 0.0000000000000000
8.4499998092651367 2.0499999523162842 0.0000000000000000
8.8500003814697266 1.6499999761581421 0.0000000000000000
3.7249999046325684 1.1499999761581421 0.0000000000000000
3.6664214134216309 1.2914214134216309 0.0000000000000000
3.5250000953674316 1.3500000238418579 0.0000000000000000
3.3835785388946533 1.2914214134216309 0.0000000000000000
3.3250000476837158 1.1499999761581421 0.0000000000000000
3.3835785388946533 1.0085786581039429 0.0000000000000000
3.5250000953674316 0.9499999880790710 0.0000000000000000
3.6664214134216309 1.0085786581039429 0.0000000000000000
3.9249999523162842 1.1499999761581421 0.0000000000000000
3.5250000953674316 1.5499999523162842 0.0000000000000000
3.1250000000000000 1.1499999761581421 0.0000000000000000
3.5250000953674316 0.7500000000000000 0.0000000000000000
3.7249999046325684 8.8500003814697266 0.0000000000000000
3.6664214134216309 8.9914216995239258 0.0000000000000000
3.5250000953674316 9.0500001907348633 0.0000000000000000
3.3835785388946533 8.9914216995239258 0.0000000000000000
3.3250000476837158 8.8500003814697266 0.0000000000000000
3.3835785388946533 8.7085790634155273 0.0000000000000000
3.5250000953674316 8.6499996185302734 0.0000000000000000
3.6664214134216309 8.7085790634155273 0.0000000000000000
3.9249999523162842 8.8500003814697266 0.0000000000000000
3.5250000953674316 9.2500000000000000 0.0000000000000000
3.1250000000000000 8.8500003814697266 0.0000000000000000
3.5250000953674316 8.4499998092651367 0.0000000000000000
1.3500000238418579 3.5250000953674316 0.0000000000000000
1.2914214134216309 3.6664214134216309 0.0000000000000000
1.1499999761581421 3.7249999046325684 0.0000000000000000
1.0085786581039429 3.6664214134216309 0.0000000000000000
0.9499999880790710 3.5250000953674316 0.0000000000000000
1.0085786581039429 3.3835785388946533 0.0000000000000000
1.1499999761581421 3.3250000476837158 0.0000000000000000
1.2914214134216309 3.3835785388946533 0.0000000000000000
1.5499999523162842 3.5250000953674316 0.0000000000000000
1.1499999761581421 3.9249999523162842 0.0000000000000000
0.7500000000000000 3.5250000953674316 0.0000000000000000
1.1499999761581421 3.1250000000000000 0.0000000000000000
9.0500001907348633 3.5250000953674316 0.0000000000000000
8.9914216995239258 3.6664214134216309 0.0000000000000000
8.8500003814697266 3.7249999046325684 0.0000000000000000
8.7085790634155273 3.6664214134216309 0.0000000000000000
8.6499996185302734 3.5250000953674316 0.0000000000000000
8.7085790634155273 3.3835785388946533 0.0000000000000000
8.8500003814697266 3.3250000476837158 0.0000000000000000
8.9914216995239258 3.3835785388946533 0.0000000000000000
9.2500000000000000 3.5250000953674316 0.0000000000000000
8.8500003814697266 3.9249999523162842 0.0000000000000000
8.4499998092651367 3.5250000953674316 0.0000000000000000
8.8500003814697266 3.1250000000000000 0.0000000000000000
5.1999998092651367 1.1499999761581421 0.0000000000000000
5.1414213180541992 1.2914214134216309 0.0000000000000000
5.0000000000000000 1.3500000238418579 0.0000000000000000
4.8585786819458008 1.2914214134216309 0.0000000000000000
4.8000001907348633 1.1499999761581421 0.0000000000000000
4.8585786819458008 1.0085786581039429 0.0000000000000000
5.0000000000000000 0.9499999880790710 0.0000000000000000
5.1414213180541992 1.0085786581039429 0.0000000000000000
5.4000000953674316 1.1499999761581421 0.0000000000000000
5.0000000000000000 1.5499999523162842 0.0000000000000000
4.5999999046325684 1.1499999761581421 0.0000000000000000
5.0000000000000000 0.7500000000000000 0.0000000000000000
5.1999998092651367 8.8500003814697266 0.0000000000000000
5.1414213180541992 8.9914216995239258 0.0000000000000000
5.0000000000000000 9.0500001907348633 0.0000000000000000
4.8585786819458008 8.9914216995239258 0.0000000000000000
4.8000001907348633 8.8500003814697266 0.0000000000000000
4.8585786819458008 8.7085790634155273 0.0000000000000000
5.0000000000000000 8.6499996185302734 0.0000000000000000
5.1414213180541992 8.7085790634155273 0.0000000000000000
5.4000000953674316 8.8500003814697266 0.0000000000000000
5.0000000000000000 9.2500000000000000 0.0000000000000000
4.5999999046325684 8.8500003814697266 0.0000000000000000
5.0000000000000000 8.4499998092651367 0.0000000000000000
1.3500000238418579 5.0000000000000000 0.0000000000000000
1.2914214134216309 5.1414213180541992 0.0000000000000000
1.1499999761581421 5.1999998092651367 0.0000000000000000
1.0085786581039429 5.1414213180541992 0.0000000000000000
0.9499999880790710 5.0000000000000000 0.0000000000000000
1.0085786581039429 4.8585786819458008 0.0000000000000000
1.1499999761581421 4.8000001907348633 0.0000000000000000
1.2914214134216309 4.8585786819458008 0.0000000000000000
1.5499999523162842 5.0000000000000000 0.0000000000000000
1.1499999761581421 5.4000000953674316 0.0000000000000000
0.7500000000000000 5.0000000000000000 0.0000000000000000
1.1499999761581421 4.5999999046325684 0.0000000000000000
9.0500001907348633 5.0000000000000000 0.0000000000000000
8.9914216995239258 5.1414213180541992 0.0000000000000000
8.8500003814697266 5.1999998092651367 0.0000000000000000
8.7085790634155273 5.1414213180541992 0.0000000000000000
8.6499996185302734 5.0000000000000000 0.0000000000000000
8.7085790634155273 4.8585786819458008 0.0000000000000000
8.8500003814697266 4.8000001907348633 0.0000000000000000
8.9914216995239258 4.8585786819458008 0.0000000000000000
9.2500000000000000 5.0000000000000000 0.0000000000000000
8.8500003814697266 5.4000000953674316 0.0000000000000000
8.4499998092651367 5.0000000000000000 0.0000000000000000
8.8500003814697266 4.5999999046325684 0.0000000000000000
6.6750001907348633 1.1499999761581421 0.0000000000000000
6.6164212226867676 1.2914214134216309 0.0000000000000000
6.4749999046325684 1.3500000238418579 0.0000000000000000
6.3335785865783691 1.2914214134216309 0.0000000000000000
6.2750000953674316 1.1499999761581421 0.0000000000000000
6.3335785865783691 1.0085786581039429 0.0000000000000000
6.4749999046325684 0.9499999880790710 0.0000000000000000
6.6164212226867676 1.0085786581039429 0.0000000000000000
6.8750000000000000 1.1499999761581421 0.0000000000000000
6.4749999046325684 1.5499999523162842 0.0000000000000000
6.0749998092651367 1.1499999761581421 0.0000000000000000
6.4749999046325684 0.7500000000000000 0.0000000000000000
6.6750001907348633 8.8500003814697266 0.0000000000000000
6.6164212226867676 8.9914216995239258 0.0000000000000000
6.4749999046325684 9.0500001907348633 0.0000000000000000
6.3335785865783691 8.9914216995239258 0.0000000000000000
6.2750000953674316 8.8500003814697266 0.0000000000000000
6.3335785865783691 8.7085790634155273 0.0000000000000000
6.4749999046325684 8.6499996185302734 0.0000000000000000
6.6164212226867676 8.7085790634155273 0.0000000000000000
6.8750000000000000 8.8500003814697266 0.0000000000000000
6.4749999046325684 9.2500000000000000 0.0000000000000000
6.0749998092651367 8.8500003814697266 0.0000000000000000
6.4749999046325684 8.4499998092651367 0.0000000000000000
1.3500000238418579 6.4749999046325684 0.0000000000000000
1.2914214134216309 6.6164212226867676 0.0000000000000000
1.1499999761581421 6.6750001907348633 0.0000000000000000
1.0085786581039429 6.6164212226867676 0.0000000000000000
0.9499999880790710 6.4749999046325684 0.0000000000000000
1.0085786581039429 6.3335785865783691 0.0000000000000000
1.1499999761581421 6.2750000953674316 0.0000000000000000
1.2914214134216309 6.3335785865783691 0.0000000000000000
1.5499999523162842 6.4749999046325684 0.0000000000000000
1.1499999761581421 6.8750000000000000 0.0000000000000000
0.7500000000000000 6.4749999046325684 0.0000000000000000
1.1499999761581421 6.0749998092651367 0.0000000000000000
9.0500001907348633 6.4749999046325684 0.0000000000000000
8.9914216995239258 6.6164212226867676 0.0000000000000000
8.8500003814697266 6.6750001907348633 0.0000000000000000
8.7085790634155273 6.6164212226867676 0.0000000000000000
8.6499996185302734 6.4749999046325684 0.0000000000000000
8.7085790634155273 6.3335785865783691 0.0000000000000000
8.8500003814697266 6.2750000953674316 0.0000000000000000
8.9914216995239258 6.3335785865783691 0.0000000000000000
9.2500000000000000 6.4749999046325684 0.0000000000000000
8.8500003814697266 6.8750000000000000 0.0000000000000000
8.4499998092651367 6.4749999046325684 0.0000000000000000
8.8500003814697266 6.0749998092651367 0.0000000000000000
8.1499996185302734 1.1499999761581421 0.0000000000000000
8.0914211273193359 1.2914214134216309 0.0000000000000000
7.9499998092651367 1.3500000238418579 0.0000000000000000
7.8085784912109375 1.2914214134216309 0.0000000000000000
7.7500000000000000 1.1499999761581421 0.0000000000000000
7.8085784912109375 1.0085786581039429 0.0000000000000000
7.9499998092651367 0.9499999880790710 0.0000000000000000
8.0914211273193359 1.0085786581039429 0.0000000000000000
8.3500003814697266 1.1499999761581421 0.0000000000000000
7.9499998092651367 1.5499999523162842 0.0000000000000000
7.5500001907348633 1.1499999761581421 0.0000000000000000
7.9499998092651367 0.7500000000000000 0.0000000000000000
8.1499996185302734 8.8500003814697266 0.0000000000000000
8.0914211273193359 8.9914216995239258 0.0000000000000000
7.9499998092651367 9.0500001907348633 0.0000000000000000
7.8085784912109375 8.9914216995239258 0.0000000000000000
7.7500000000000000 8.8500003814697266 0.0000000000000000
7.8085784912109375 8.7085790634155273 0.0000000000000000
7.9499998092651367 8.6499996185302734 0.0000000000000000
8.0914211273193359 8.7085790634155273 0.0000000000000000
8.3500003814697266 8.8500003814697266 0.0000000000000000
7.9499998092651367 9.2500000000000000 0.0000000000000000
7.5500001907348633 8.8500003814697266 0.0000000000000000
7.9499998092651367 8.4499998092651367 0.0000000000000000
1.3500000238418579 7.9499998092651367 0.0000000000000000
1.2914214134216309 8.0914211273193359 0.0000000000000000
1.1499999761581421 8.1499996185302734 0.0000000000000000
1.0085786581039429 8.0914211273193359 0.0000000000000000
0.9499999880790710 7.9499998092651367 0.0000000000000000
1.0085786581039429 7.8085784912109375 0.0000000000000000
1.1499999761581421 7.7500000000000000 0.0000000000000000
1.2914214134216309 7.8085784912109375 0.0000000000000000
1.5499999523162842 7.9499998092651367 0.0000000000000000
1.1499999761581421 8.3500003814697266 0.0000000000000000
0.7500000000000000 7.9499998092651367 0.0000000000000000
1.1499999761581421 7.5500001907348633 0.0000000000000000
9.0500001907348633 7.9499998092651367 0.0000000000000000
8.9914216995239258 8.0914211273193359 0.0000000000000000
8.8500003814697266 8.1499996185302734 0.0000000000000000
8.7085790634155273 8.0914211273193359 0.0000000000000000
8.6499996185302734 7.9499998092651367 0.0000000000000000
8.7085790634155273 7.8085784912109375 0.0000000000000000
8.8500003814697266 7.7500000000000000 0.0000000000000000
8.9914216995239258 7.8085784912109375 0.0000000000000000
9.2500000000000000 7.9499998092651367 0.0000000000000000
8.8500003814697266 8.3500003814697266 0.0000000000000000
8.4499998092651367 7.9499998092651367 0.0000000000000000
8.8500003814697266 7.5500001907348633 0.0000000000000000
0.5000000000000000 0.0000000000000000 0.0000000000000000
1.0000000000000000 0.0000000000000000 0.0000000000000000
1.5000000000000000 0.0000000000000000 0.0000000000000000
2.0000000000000000 0.0000000000000000 0.0000000000000000
2.5000000000000000 0.0000000000000000 0.0000000000000000
3.0000000000000000 0.0000000000000000 0.0000000000000000
3.5000000000000000 0.0000000000000000 0.0000000000000000
4.0000000000000000 0.0000000000000000 0.0000000000000000
4.5000000000000000 0.0000000000000000 0.0000000000000000
5.0000000000000000 0.0000000000000000 0.0000000000000000
5.5000000000000000 0.0000000000000000 0.0000000000000000
6.0000000000000000 0.0000000000000000 0.0000000000000000
6.5000000000000000 0.0000000000000000 0.0000000000000000
7.0000000000000000 0.0000000000000000 0.0000000000000000
7.5000000000000000 0.0000000000000000 0.0000000000000000
8.0000000000000000 0.0000000000000000 0.0000000000000000
8.5000000000000000 0.0000000000000000 0.0000000000000000
9.0000000000000000 0.0000000000000000 0.0000000000000000
9.5000000000000000 0.0000000000000000 0.0000000000000000
10.0000000000000000 0.5000000000000000 0.0000000000000000
10.0000000000000000 1.0000000000000000 0.0000000000000000
10.0000000000000000 1.5000000000000000 0.0000000000000000
10.0000000000000000 2.0000000000000000 0.0000000000000000
10.0000000000000000 2.5000000000000000 0.0000000000000000
10.0000000000000000 3.0000000000000000 0.0000000000000000
10.0000000000000000 3.5000000000000000 0.0000000000000000
10.0000000000000000 4.0000000000000000 0.0000000000000000
10.0000000000000000 4.5000000000000000 0.0000000000000000
10.0000000000000000 5.0000000000000000 0.0000000000000000
10.0000000000000000 5.5000000000000000 0.0000000000000000
10.0000000000000000 6.0000000000000000 0.0000000000000000
10.0000000000000000 6.5000000000000000 0.0000000000000000
10.0000000000000000 7.0000000000000000 0.0000000000000000
10.0000000000000000 7.5000000000000000 0.0000000000000000
10.0000000000000000 8.0000000000000000 0.0000000000000000
10.0000000000000000 8.5000000000000000 0.0000000000000000
10.0000000000000000 9.0000000000000000 0.0000000000000000
10.0000000000000000 9.5000000000000000 0.0000000000000000
9.5000000000000000 10.0000000000000000 0.0000000000000000
9.0000000000000000 10.0000000000000000 0.0000000000000000
8.5000000000000000 10.0000000000000000 0.0000000000000000
8.0000000000000000 10.0000000000000000 0.0000000000000000
7.5000000000000000 10.0000000000000000 0.0000000000000000
7.0000000000000000 10.0000000000000000 0.0000000000000000
6.5000000000000000 10.0000000000000000 0.0000000000000000
6.0000000000000000 10.0000000000000000 0.0000000000000000
5.5000000000000000 10.0000000000000000 0.0000000000000000
5.0000000000000000 10.0000000000000000 0.0000000000000000
4.5000000000000000 10.0000000000000000 0.0000000000000000
4.0000000000000000 10.0000000000000000 0.0000000000000000
3.5000000000000000 10.0000000000000000 0.0000000000000000
3.0000000000000000 10.0000000000000000 0.0000000000000000
2.5000000000000000 10.0000000000000000 0.0000000000000000
2.0000000000000000 10.0000000000000000 0.0000000000000000
1.5000000000000000 10.0000000000000000 0.0000000000000000
1.0000000000000000 10.0000000000000000 0.0000000000000000
0.5000000000000000 10.0000000000000000 0.0000000000000000
0.0000000000000000 9.5000000000000000 0.0000000000000000
0.0000000000000000 9.0000000000000000 0.0000000000000000
0.0000000000000000 8.5000000000000000 0.0000000000000000
0.0000000000000000 8.0000000000000000 0.0000000000000000
0.0000000000000000 7.5000000000000000 0.0000000000000000
0.0000000000000000 7.0000000000000000 0.0000000000000000
0.0000000000000000 6.5000000000000000 0.0000000000000000
0.0000000000000000 6.0000000000000000 0.0000000000000000
0.0000000000000000 5.5000000000000000 0.0000000000000000
0.0000000000000000 5.0000000000000000 0.0000000000000000
0.0000000000000000 4.5000000000000000 0.0000000000000000
0.0000000000000000 4.0000000000000000 0.0000000000000000
0.0000000000000000 3.5000000000000000 0.0000000000000000
0.0000000000000000 3.0000000000000000 0.0000000000000000
0.0000000000000000 2.5000000000000000 0.0000000000000000
0.0000000000000000 2.0000000000000000 0.0000000000000000
0.0000000000000000 1.5000000000000000 0.0000000000000000
0.0000000000000000 1.0000000000000000 0.0000000000000000
0.0000000000000000 0.5000000000000000 0.0000000000000000
1.2893627882003784 0.4039453268051147 0.0000000000000000
9.5960550308227539 1.2893627882003784 0.0000000000000000
0.4039453268051147 1.2893627882003784 0.0000000000000000
1.2893627882003784 9.5960550308227539 0.0000000000000000
8.7106370925903320 9.5960550308227539 0.0000000000000000
0.4039453268051147 8.7106370925903320 0.0000000000000000
9.5960550308227539 8.7106370925903320 0.0000000000000000
8.7106370925903320 0.4039453268051147 0.0000000000000000
5.7075233459472656 0.4042393565177917 0.0000000000000000
9.5957603454589844 5.7075233459472656 0.0000000000000000
5.7075233459472656 9.5957603454589844 0.0000000000000000
0.4042393565177917 5.7075233459472656 0.0000000000000000
0.4042393565177917 4.2924766540527344 0.0000000000000000
4.2924766540527344 9.5957603454589844 0.0000000000000000
4.2924766540527344 0.4042393565177917 0.0000000000000000
9.5957603454589844 4.2924766540527344 0.0000000000000000
7.2069015502929688 0.4049680233001709 0.0000000000000000
9.5950317382812500 7.2069015502929688 0.0000000000000000
9.5950317382812500 2.7930984497070312 0.0000000000000000
2.7930984497070312 0.4049680233001709 0.0000000000000000
7.2069015502929688 9.5950317382812500 0.0000000000000000
0.4049680233001709 7.2069015502929688 0.0000000000000000
2.7930984497070312 9.5950317382812500 0.0000000000000000
0.4049680233001709 2.7930984497070312 0.0000000000000000
1.6708501577377319 0.3863520026206970 0.0000000000000000
1.4885952472686768 0.7425995469093323 0.0000000000000000
1.1412864923477173 0.7721447348594666 0.0000000000000000
9.6136484146118164 1.6708501577377319 0.0000000000000000
9.2574005126953125 1.4885952472686768 0.0000000000000000
9.2278556823730469 1.1412864923477173 0.0000000000000000
1.6708501577377319 9.6136484146118164 0.0000000000000000
1.4885952472686768 9.2574005126953125 0.0000000000000000
1.1412864923477173 9.2278556823730469 0.0000000000000000
0.3863520026206970 1.6708501577377319 0.0000000000000000
0.7425995469093323 1.4885952472686768 0.0000000000000000
8.3291501998901367 9.6136484146118164 0.0000000000000000
8.5114049911499023 9.2574005126953125 0.0000000000000000
8.8587131500244141 9.2278556823730469 0.0000000000000000
0.3863520026206970 8.3291501998901367 0.0000000000000000
0.7425995469093323 8.5114049911499023 0.0000000000000000
8.3291501998901367 0.3863520026206970 0.0000000000000000
8.5114049911499023 0.7425995469093323 0.0000000000000000
9.6136484146118164 8.3291501998901367 0.0000000000000000
9.2574005126953125 8.5114049911499023 0.0000000000000000
3.1674385070800781 0.3860908150672913 0.0000000000000000
2.9863879680633545 0.7354510426521301 0.0000000000000000
2.6418218612670898 0.7717396616935730 0.0000000000000000
2.4421403408050537 0.4849557280540466 0.0000000000000000
9.6139087677001953 3.1674385070800781 0.0000000000000000
9.2645492553710938 2.9863879680633545 0.0000000000000000
9.2170867919921875 2.6572742462158203 0.0000000000000000
9.5137138366699219 2.4439799785614014 0.0000000000000000
0.3860908150672913 3.1674385070800781 0.0000000000000000
0.7354510426521301 2.9863879680633545 0.0000000000000000
0.7717396616935730 2.6418218612670898 0.0000000000000000
0.5043563246726990 2.4236159324645996 0.0000000000000000
3.1674385070800781 9.6139087677001953 0.0000000000000000
2.9863879680633545 9.2645492553710938 0.0000000000000000
2.6413943767547607 9.2341270446777344 0.0000000000000000
2.4235973358154297 9.4958982467651367 0.0000000000000000
6.8325614929199219 9.6139087677001953 0.0000000000000000
7.0136752128601074 9.2644205093383789 0.0000000000000000
7.3586144447326660 9.2341079711914062 0.0000000000000000
7.5764031410217285 9.4958972930908203 0.0000000000000000
0.3860908150672913 6.8325614929199219 0.0000000000000000
0.7354510426521301 7.0136122703552246 0.0000000000000000
0.7780258059501648 7.3493022918701172 0.0000000000000000
0.4857040941715240 7.5568027496337891 0.0000000000000000
6.8325614929199219 0.3860908150672913 0.0000000000000000
7.0136122703552246 0.7354510426521301 0.0000000000000000
7.3586058616638184 0.7658732533454895 0.0000000000000000
7.5764026641845703 0.5041018128395081 0.0000000000000000
9.6139087677001953 6.8325614929199219 0.0000000000000000
9.2645492553710938 7.0136122703552246 0.0000000000000000
9.2613162994384766 7.3446307182312012 0.0000000000000000
9.5189790725708008 7.5562467575073242 0.0000000000000000
9.5602283477783203 4.6398491859436035 0.0000000000000000
9.2639818191528320 4.4954771995544434 0.0000000000000000
9.2329425811767578 4.1383943557739258 0.0000000000000000
9.4949207305908203 3.9220747947692871 0.0000000000000000
4.7056941986083984 0.3866054713726044 0.0000000000000000
4.4958896636962891 0.7315016984939575 0.0000000000000000
4.1379055976867676 0.7670695185661316 0.0000000000000000
3.9220535755157471 0.5050796866416931 0.0000000000000000
0.3883194625377655 4.6981430053710938 0.0000000000000000
0.7372522950172424 4.4941306114196777 0.0000000000000000
0.7678909897804260 4.1376543045043945 0.0000000000000000
0.5017562508583069 3.9251666069030762 0.0000000000000000
4.6398491859436035 9.5602283477783203 0.0000000000000000
4.4954771995544434 9.2639818191528320 0.0000000000000000
4.1383943557739258 9.2329425811767578 0.0000000000000000
3.9252116680145264 9.4982948303222656 0.0000000000000000
5.2947101593017578 9.6040296554565430 0.0000000000000000
5.5021286010742188 9.2775554656982422 0.0000000000000000
5.8618111610412598 9.2342243194580078 0.0000000000000000
6.0748009681701660 9.4983720779418945 0.0000000000000000
0.3866054713726044 5.2943058013916016 0.0000000000000000
0.7315016984939575 5.5041103363037109 0.0000000000000000
0.7670695185661316 5.8620944023132324 0.0000000000000000
0.5017063617706299 6.0748181343078613 0.0000000000000000
5.3018569946289062 0.3883194625377655 0.0000000000000000
5.5067701339721680 0.7387433648109436 0.0000000000000000
5.8619265556335449 0.7674469351768494 0.0000000000000000
6.0776524543762207 0.5047702193260193 0.0000000000000000
9.6040296554565430 5.2947101593017578 0.0000000000000000
9.2775554656982422 5.5021286010742188 0.0000000000000000
9.2348814010620117 5.8612632751464844 0.0000000000000000
9.5039548873901367 6.0690875053405762 0.0000000000000000
9.2278556823730469 8.8587131500244141 0.0000000000000000
8.8587131500244141 0.7721447348594666 0.0000000000000000
0.7721447348594666 8.8587131500244141 0.0000000000000000
0.7721447348594666 1.1412864923477173 0.0000000000000000
9.1259412765502930 0.4357333481311798 0.0000000000000000
9.5642662048339844 0.8740591406822205 0.0000000000000000
9.5642662048339844 9.1259412765502930 0.0000000000000000
9.1259412765502930 9.5642662048339844 0.0000000000000000
0.4357333481311798 0.8740591406822205 0.0000000000000000
0.8740591406822205 0.4357333481311798 0.0000000000000000
0.8740591406822205 9.5642662048339844 0.0000000000000000
0.4357333481311798 9.1259412765502930 0.0000000000000000
9.0474987030029297 2.8408806324005127 0.0000000000000000
2.8346080780029297 0.9770757555961609 0.0000000000000000
0.9882811307907104 2.8184454441070557 0.0000000000000000
2.8287351131439209 9.0185937881469727 0.0000000000000000
0.9971865415573120 7.1542215347290039 0.0000000000000000
7.1808385848999023 9.0322065353393555 0.0000000000000000
7.1909260749816895 0.9858887195587158 0.0000000000000000
9.0245409011840820 7.2109599113464355 0.0000000000000000
1.3045775890350342 1.0162460803985596 0.0000000000000000
8.9956588745117188 1.3229625225067139 0.0000000000000000
1.0056232213973999 1.3124796152114868 0.0000000000000000
1.0368568897247314 8.6807088851928711 0.0000000000000000
1.3106337785720825 9.0326709747314453 0.0000000000000000
8.6796989440917969 8.9542274475097656 0.0000000000000000
8.6843414306640625 1.0067512989044189 0.0000000000000000
9.0027189254760742 8.6868848800659180 0.0000000000000000
9.0301742553710938 4.3247256278991699 0.0000000000000000
4.3193941116333008 0.9670503139495850 0.0000000000000000
4.3191514015197754 9.0214939117431641 0.0000000000000000
0.9833836555480957 4.3215827941894531 0.0000000000000000
5.6799230575561523 9.0262594223022461 0.0000000000000000
0.9640143513679504 5.6787719726562500 0.0000000000000000
5.6780242919921875 0.9722792506217957 0.0000000000000000
9.0240030288696289 5.6794714927673340 0.0000000000000000
6.1340713500976562 0.7915266156196594 0.0000000000000000
9.2066793441772461 6.1437873840332031 0.0000000000000000
0.7908151149749756 6.1366381645202637 0.0000000000000000
6.1365880966186523 9.2094135284423828 0.0000000000000000
3.8652231693267822 9.2104244232177734 0.0000000000000000
0.7909603714942932 3.8633174896240234 0.0000000000000000
9.2066793441772461 3.8562128543853760 0.0000000000000000
3.8562128543853760 0.7933205962181091 0.0000000000000000
7.6375012397766113 0.7872330546379089 0.0000000000000000
9.2162694931030273 7.6037178039550781 0.0000000000000000
7.6375012397766113 9.2127666473388672 0.0000000000000000
0.7818732261657715 7.6092481613159180 0.0000000000000000
2.3624987602233887 9.2127666473388672 0.0000000000000000
0.7880126237869263 2.3673548698425293 0.0000000000000000
2.3878874778747559 0.7787532210350037 0.0000000000000000
9.2094707489013672 2.3849992752075195 0.0000000000000000
0.4460632801055908 9.5539369583129883 0.0000000000000000
9.5607309341430664 9.5607309341430664 0.0000000000000000
0.4392694532871246 0.4392694532871246 0.0000000000000000
9.5607309341430664 0.4392694532871246 0.0000000000000000
1.7960807085037231 0.6890732645988464 0.0000000000000000
9.3109264373779297 1.7960807085037231 0.0000000000000000
0.6890732645988464 1.7960807085037231 0.0000000000000000
0.6879374384880066 8.2043895721435547 0.0000000000000000
1.7960807085037231 9.3109264373779297 0.0000000000000000
8.2039194107055664 9.3109264373779297 0.0000000000000000
9.3109264373779297 8.2039194107055664 0.0000000000000000
8.2039194107055664 0.6890732645988464 0.0000000000000000
1.9902254343032837 0.4509926140308380 0.0000000000000000
9.5490074157714844 1.9902254343032837 0.0000000000000000
1.9718934297561646 9.5164966583251953 0.0000000000000000
0.4835032820701599 1.9718934297561646 0.0000000000000000
8.0281066894531250 9.5164966583251953 0.0000000000000000
0.4508033096790314 8.0098533630371094 0.0000000000000000
9.5490074157714844 8.0097742080688477 0.0000000000000000
8.0281066894531250 0.4835032820701599 0.0000000000000000
1.0592995882034302 8.9498863220214844 0.0000000000000000
8.9604339599609375 8.9487295150756836 0.0000000000000000
1.0520961284637451 1.0520961284637451 0.0000000000000000
8.9512367248535156 1.0536793470382690 0.0000000000000000
9.3127193450927734 3.2847990989685059 0.0000000000000000
9.1081695556640625 3.1967349052429199 0.0000000000000000
3.2843286991119385 0.6861448884010315 0.0000000000000000
3.1964550018310547 0.8911544680595398 0.0000000000000000
0.6872806549072266 3.2847990989685059 0.0000000000000000
0.8918305635452271 3.1967349052429199 0.0000000000000000
3.2847990989685059 9.3127193450927734 0.0000000000000000
3.1967349052429199 9.1081695556640625 0.0000000000000000
0.6872806549072266 6.7152009010314941 0.0000000000000000
0.8918305635452271 6.8032650947570801 0.0000000000000000
6.7152113914489746 9.3126983642578125 0.0000000000000000
6.8033089637756348 9.1080799102783203 0.0000000000000000
9.3127193450927734 6.7152009010314941 0.0000000000000000
9.1081695556640625 6.8032650947570801 0.0000000000000000
6.7156710624694824 0.6861448884010315 0.0000000000000000
6.8035449981689453 0.8911544680595398 0.0000000000000000
3.4707634449005127 0.4717317521572113 0.0000000000000000
9.5281333923339844 3.4708194732666016 0.0000000000000000
0.4708020389080048 3.4703865051269531 0.0000000000000000
3.4703865051269531 9.5291976928710938 0.0000000000000000
0.4708020389080048 6.5296134948730469 0.0000000000000000
6.5296144485473633 9.5291957855224609 0.0000000000000000
6.5213565826416016 0.4599912762641907 0.0000000000000000
9.5426378250122070 6.5209097862243652 0.0000000000000000
1.6921235322952271 0.8781539201736450 0.0000000000000000
9.1218461990356445 1.6921235322952271 0.0000000000000000
1.6921235322952271 9.1218461990356445 0.0000000000000000
8.3078765869140625 9.1218461990356445 0.0000000000000000
0.8781539201736450 1.6921235322952271 0.0000000000000000
0.8770180940628052 8.3083467483520508 0.0000000000000000
9.1218461990356445 8.3078765869140625 0.0000000000000000
8.3078765869140625 0.8781539201736450 0.0000000000000000
8.9584465026855469 5.8920817375183105 0.0000000000000000
8.7986555099487305 5.7649121284484863 0.0000000000000000
5.8921418190002441 1.0423760414123535 0.0000000000000000
5.7667007446289062 1.2058150768280029 0.0000000000000000
1.0321167707443237 5.8911981582641602 0.0000000000000000
1.2058150768280029 5.7667007446289062 0.0000000000000000
5.8916563987731934 8.9965705871582031 0.0000000000000000
5.7693486213684082 8.8059120178222656 0.0000000000000000
1.0190582275390625 4.1087174415588379 0.0000000000000000
1.1776785850524902 4.2272543907165527 0.0000000000000000
4.1074786186218262 8.9568605422973633 0.0000000000000000
4.2329635620117188 8.8067502975463867 0.0000000000000000
4.1082320213317871 1.0530530214309692 0.0000000000000000
4.2431340217590332 1.1776220798492432 0.0000000000000000
8.9623994827270508 4.1091485023498535 0.0000000000000000
8.8017444610595703 4.2412886619567871 0.0000000000000000
8.6948251724243164 7.6702303886413574 0.0000000000000000
8.6730985641479492 7.4798364639282227 0.0000000000000000
8.5228862762451172 7.6196103096008301 0.0000000000000000
8.4833478927612305 7.4222488403320312 0.0000000000000000
8.3400268554687500 7.5648608207702637 0.0000000000000000
8.2886705398559570 7.3713455200195312 0.0000000000000000
8.1482019424438477 7.5134577751159668 0.0000000000000000
8.0951585769653320 7.3208336830139160 0.0000000000000000
7.9548592567443848 7.4628982543945312 0.0000000000000000
7.9016933441162109 7.2702775001525879 0.0000000000000000
7.7612838745117188 7.4127402305603027 0.0000000000000000
7.7081375122070312 7.2199134826660156 0.0000000000000000
7.5677261352539062 7.3624081611633301 0.0000000000000000
7.5145826339721680 7.1695523262023926 0.0000000000000000
7.3741850852966309 7.3119950294494629 0.0000000000000000
7.3210315704345703 7.1191763877868652 0.0000000000000000
7.1806349754333496 7.2616143226623535 0.0000000000000000
7.1274781227111816 7.0688066482543945 0.0000000000000000
6.9870815277099609 7.2112450599670410 0.0000000000000000
6.9339246749877930 7.0184383392333984 0.0000000000000000
7.0743212699890137 6.8759999275207520 0.0000000000000000
6.8807673454284668 6.8256320953369141 0.0000000000000000
6.7403707504272461 6.9680705070495605 0.0000000000000000
6.6872134208679199 6.7752642631530762 0.0000000000000000
6.8276100158691406 6.6328253746032715 0.0000000000000000
6.6340565681457520 6.5824575424194336 0.0000000000000000
6.4936594963073730 6.7248964309692383 0.0000000000000000
6.4405026435852051 6.5320897102355957 0.0000000000000000
6.5808992385864258 6.3896512985229492 0.0000000000000000
6.3873453140258789 6.3392834663391113 0.0000000000000000
6.2469487190246582 6.4817223548889160 0.0000000000000000
6.1937913894653320 6.2889156341552734 0.0000000000000000
6.3341884613037109 6.1464772224426270 0.0000000000000000
6.1406345367431641 6.0961093902587891 0.0000000000000000
6.2810311317443848 5.9536705017089844 0.0000000000000000
6.0874772071838379 5.9033026695251465 0.0000000000000000
5.9470806121826172 6.0457415580749512 0.0000000000000000
5.8939237594604492 5.8529348373413086 0.0000000000000000
5.7535266876220703 5.9953737258911133 0.0000000000000000
5.7003698348999023 5.8025670051574707 0.0000000000000000
5.8407664299011230 5.6601285934448242 0.0000000000000000
5.6472125053405762 5.6097607612609863 0.0000000000000000
5.5068159103393555 5.7521996498107910 0.0000000000000000
5.4536585807800293 5.5593929290771484 0.0000000000000000
5.7876091003417969 5.4673223495483398 0.0000000000000000
5.3132619857788086 5.7018318176269531 0.0000000000000000
5.2601051330566406 5.5090250968933105 0.0000000000000000
5.1197080612182617 5.6514639854431152 0.0000000000000000
5.0665512084960938 5.4586572647094727 0.0000000000000000
4.9261546134948730 5.6010961532592773 0.0000000000000000
4.8729972839355469 5.4082894325256348 0.0000000000000000
5.0133938789367676 5.2658510208129883 0.0000000000000000
4.8198399543762207 5.2154831886291504 0.0000000000000000
4.9602370262145996 5.0730443000793457 0.0000000000000000
4.7666831016540527 5.0226769447326660 0.0000000000000000
4.9070796966552734 4.8802380561828613 0.0000000000000000
4.7135257720947266 4.8298702239990234 0.0000000000000000
4.6794433593750000 5.3579216003417969 0.0000000000000000
4.8539228439331055 4.6874318122863770 0.0000000000000000
4.6603689193725586 4.6370639801025391 0.0000000000000000
4.8007655143737793 4.4946250915527344 0.0000000000000000
4.6072115898132324 4.4442572593688965 0.0000000000000000
4.4668149948120117 4.5866961479187012 0.0000000000000000
4.4136576652526855 4.3938894271850586 0.0000000000000000
4.7476081848144531 4.3018188476562500 0.0000000000000000
4.9411621093750000 4.3521866798400879 0.0000000000000000
4.2732610702514648 4.5363283157348633 0.0000000000000000
4.2201042175292969 4.3435215950012207 0.0000000000000000
4.9793114662170410 5.7939023971557617 0.0000000000000000
4.8880052566528320 4.1593799591064453 0.0000000000000000
5.0815591812133789 4.2097477912902832 0.0000000000000000
4.0797071456909180 4.4859604835510254 0.0000000000000000
4.0265502929687500 4.2931542396545410 0.0000000000000000
5.0284018516540527 4.0169415473937988 0.0000000000000000
5.2219557762145996 4.0673093795776367 0.0000000000000000
5.1687984466552734 3.8745028972625732 0.0000000000000000
5.3623523712158203 3.9248707294464111 0.0000000000000000
3.8861534595489502 4.4355926513671875 0.0000000000000000
3.8329963684082031 4.2427864074707031 0.0000000000000000
5.3091950416564941 3.7320642471313477 0.0000000000000000
5.5027489662170410 3.7824320793151855 0.0000000000000000
5.1156415939331055 3.6816964149475098 0.0000000000000000
5.4495921134948730 3.5896255970001221 0.0000000000000000
5.6431455612182617 3.6399934291839600 0.0000000000000000
3.6925997734069824 4.3852248191833496 0.0000000000000000
3.6394424438476562 4.1924185752868652 0.0000000000000000
3.7798392772674561 4.0499796867370605 0.0000000000000000
3.5862853527069092 3.9996120929718018 0.0000000000000000
3.7266821861267090 3.8571734428405762 0.0000000000000000
3.5331282615661621 3.8068056106567383 0.0000000000000000
3.7457568645477295 4.5780310630798340 0.0000000000000000
3.6735250949859619 3.6643669605255127 0.0000000000000000
3.4799711704254150 3.6139991283416748 0.0000000000000000
5.5899887084960938 3.4471869468688965 0.0000000000000000
5.7835426330566406 3.4975547790527344 0.0000000000000000
5.8366994857788086 3.6903612613677979 0.0000000000000000
5.9770965576171875 3.5479226112365723 0.0000000000000000
6.0302534103393555 3.7407290935516357 0.0000000000000000
6.1706500053405762 3.5982904434204102 0.0000000000000000
6.2238073348999023 3.7910969257354736 0.0000000000000000
6.3642039299011230 3.6486582756042480 0.0000000000000000
6.4173612594604492 3.8414647579193115 0.0000000000000000
3.4458887577056885 4.1420507431030273 0.0000000000000000
3.6203680038452148 3.4715604782104492 0.0000000000000000
3.4268140792846680 3.4211926460266113 0.0000000000000000
6.3110470771789551 3.4558517932891846 0.0000000000000000
6.5046005249023438 3.5062196254730225 0.0000000000000000
5.7303853034973145 3.3047482967376709 0.0000000000000000
5.5368313789367676 3.2543804645538330 0.0000000000000000
6.4514436721801758 3.3134131431579590 0.0000000000000000
6.6449975967407227 3.3637809753417969 0.0000000000000000
3.2864174842834473 3.5636312961578369 0.0000000000000000
3.2332601547241211 3.3708248138427734 0.0000000000000000
5.6772284507751465 3.1119420528411865 0.0000000000000000
3.5672106742858887 3.2787539958953857 0.0000000000000000
5.4836745262145996 3.0615742206573486 0.0000000000000000
6.5918402671813965 3.1709744930267334 0.0000000000000000
6.7853941917419434 3.2213423252105713 0.0000000000000000
6.8385510444641113 3.4141488075256348 0.0000000000000000
5.6240711212158203 2.9191355705261230 0.0000000000000000
6.7322368621826172 3.0285358428955078 0.0000000000000000
6.9257907867431641 3.0789036750793457 0.0000000000000000
3.0928635597229004 3.5132634639739990 0.0000000000000000
3.0397064685821533 3.3204569816589355 0.0000000000000000
6.8726339340209961 2.8860971927642822 0.0000000000000000
7.0661873817443848 2.9364650249481201 0.0000000000000000
7.0130305290222168 2.7436585426330566 0.0000000000000000
6.0834107398986816 3.9335355758666992 0.0000000000000000
3.7607645988464355 3.3291218280792236 0.0000000000000000
3.7076075077056885 3.1363153457641602 0.0000000000000000
3.9011614322662354 3.1866831779479980 0.0000000000000000
3.8480041027069092 2.9938766956329346 0.0000000000000000
3.6544504165649414 2.9435091018676758 0.0000000000000000
5.4305171966552734 2.8687677383422852 0.0000000000000000
5.5709137916564941 2.7263290882110596 0.0000000000000000
7.2065382003784180 2.7942025661468506 0.0000000000000000
4.0415582656860352 3.0442445278167725 0.0000000000000000
3.9884009361267090 2.8514380455017090 0.0000000000000000
7.1534271240234375 2.6012198925018311 0.0000000000000000
5.2751126289367676 4.2601156234741211 0.0000000000000000
2.8993096351623535 3.4628956317901611 0.0000000000000000
2.8461525440216064 3.2700893878936768 0.0000000000000000
7.2597336769104004 2.9868621826171875 0.0000000000000000
7.4000835418701172 2.8446047306060791 0.0000000000000000
7.4273319244384766 7.5049042701721191 0.0000000000000000
6.6790800094604492 2.8357293605804443 0.0000000000000000
5.3773603439331055 2.6759612560272217 0.0000000000000000
5.5177569389343262 2.5335226058959961 0.0000000000000000
4.1819548606872559 2.9018058776855469 0.0000000000000000
4.1287975311279297 2.7089996337890625 0.0000000000000000
2.7057559490203857 3.4125277996063232 0.0000000000000000
2.6525988578796387 3.2197215557098389 0.0000000000000000
2.7589130401611328 3.6053342819213867 0.0000000000000000
2.7929954528808594 3.0772829055786133 0.0000000000000000
2.5994329452514648 3.0269489288330078 0.0000000000000000
2.7398369312286377 2.8844821453094482 0.0000000000000000
2.5462739467620850 2.8341488838195801 0.0000000000000000
2.6866793632507324 2.6916775703430176 0.0000000000000000
4.0947151184082031 3.2370510101318359 0.0000000000000000
7.6523356437683105 7.0316176414489746 0.0000000000000000
7.4532847404479980 3.0372407436370850 0.0000000000000000
7.5936808586120605 2.8948037624359131 0.0000000000000000
2.4933304786682129 2.6412534713745117 0.0000000000000000
2.6335575580596924 2.4988567829132080 0.0000000000000000
2.3526430130004883 2.7844133377075195 0.0000000000000000
2.8270831108093262 2.5492315292358398 0.0000000000000000
2.7739272117614746 2.3564238548278809 0.0000000000000000
2.9674761295318604 2.4067926406860352 0.0000000000000000
5.7113108634948730 2.5838904380798340 0.0000000000000000
5.6581535339355469 2.3910839557647705 0.0000000000000000
5.8517074584960938 2.4414517879486084 0.0000000000000000
4.3223514556884766 2.7593672275543213 0.0000000000000000
4.2691941261291504 2.5665609836578369 0.0000000000000000
4.0756406784057617 2.5161931514739990 0.0000000000000000
4.2160692214965820 2.3736135959625244 0.0000000000000000
4.4095964431762695 2.4240987300872803 0.0000000000000000
5.7986950874328613 2.2480883598327637 0.0000000000000000
5.9922733306884766 2.2983634471893311 0.0000000000000000
5.3242030143737793 2.4831547737121582 0.0000000000000000
2.5653591156005859 3.5549664497375488 0.0000000000000000
2.6185162067413330 3.7477729320526123 0.0000000000000000
5.1006336212158203 4.9306058883666992 0.0000000000000000
5.2901206016540527 3.0112063884735107 0.0000000000000000
4.3564720153808594 2.2311477661132812 0.0000000000000000
2.4396109580993652 2.4497838020324707 0.0000000000000000
2.9142985343933105 2.2139916419982910 0.0000000000000000
3.1078348159790039 2.2644116878509521 0.0000000000000000
2.4249625205993652 3.6974050998687744 0.0000000000000000
2.4781196117401123 3.8902115821838379 0.0000000000000000
7.6468825340270996 3.0876185894012451 0.0000000000000000
7.7872862815856934 2.9451816082000732 0.0000000000000000
7.7342238426208496 2.7524673938751221 0.0000000000000000
7.5064535140991211 3.2300109863281250 0.0000000000000000
7.9276719093322754 2.8027238845825195 0.0000000000000000
4.0223989486694336 2.3231024742126465 0.0000000000000000
2.2845656871795654 3.8398437500000000 0.0000000000000000
2.3377227783203125 4.0326504707336426 0.0000000000000000
2.5312767028808594 4.0830178260803223 0.0000000000000000
2.3908801078796387 4.2254567146301270 0.0000000000000000
2.5844337940216064 4.2758245468139648 0.0000000000000000
2.4440400600433350 4.4182624816894531 0.0000000000000000
2.6375913619995117 4.4686307907104492 0.0000000000000000
2.4971978664398193 4.6110687255859375 0.0000000000000000
2.6907486915588379 4.6614370346069336 0.0000000000000000
2.5503520965576172 4.8038759231567383 0.0000000000000000
2.7439053058624268 4.8542437553405762 0.0000000000000000
2.6035087108612061 4.9966821670532227 0.0000000000000000
2.7970623970031738 5.0470499992370605 0.0000000000000000
2.6566655635833740 5.1894888877868652 0.0000000000000000
2.8502194881439209 5.2398567199707031 0.0000000000000000
2.7098226547241211 5.3822951316833496 0.0000000000000000
2.9033765792846680 5.4326629638671875 0.0000000000000000
2.7629797458648682 5.5751018524169922 0.0000000000000000
2.9565336704254150 5.6254696846008301 0.0000000000000000
2.8161368370056152 5.7679080963134766 0.0000000000000000
3.0096907615661621 5.8182759284973145 0.0000000000000000
2.8692941665649414 5.9607143402099609 0.0000000000000000
3.0628478527069092 6.0110821723937988 0.0000000000000000
2.9224512577056885 6.1535210609436035 0.0000000000000000
3.1160049438476562 6.2038888931274414 0.0000000000000000
2.9756083488464355 6.3463273048400879 0.0000000000000000
3.1691620349884033 6.3966951370239258 0.0000000000000000
3.0287654399871826 6.5391340255737305 0.0000000000000000
3.2223191261291504 6.5895018577575684 0.0000000000000000
3.0819225311279297 6.7319402694702148 0.0000000000000000
3.2754764556884766 6.7823081016540527 0.0000000000000000
3.4158730506896973 6.6398696899414062 0.0000000000000000
3.4690301418304443 6.8326759338378906 0.0000000000000000
3.1350796222686768 6.9247465133666992 0.0000000000000000
3.6094269752502441 6.6902370452880859 0.0000000000000000
3.6625840663909912 6.8830437660217285 0.0000000000000000
2.9415256977081299 6.8743791580200195 0.0000000000000000
2.9946830272674561 7.0671854019165039 0.0000000000000000
2.8011291027069092 7.0168175697326660 0.0000000000000000
3.8029806613922119 6.7406048774719238 0.0000000000000000
3.8561377525329590 6.9334115982055664 0.0000000000000000
3.9965345859527588 6.7909727096557617 0.0000000000000000
4.0496916770935059 6.9837794303894043 0.0000000000000000
4.1900882720947266 6.8413405418395996 0.0000000000000000
4.2432456016540527 7.0341472625732422 0.0000000000000000
4.3836421966552734 6.8917083740234375 0.0000000000000000
4.4367995262145996 7.0845150947570801 0.0000000000000000
4.5771961212158203 6.9420762062072754 0.0000000000000000
3.7498235702514648 6.5477986335754395 0.0000000000000000
3.2032446861267090 5.8686437606811523 0.0000000000000000
2.8542861938476562 7.2096238136291504 0.0000000000000000
4.6303529739379883 7.1348829269409180 0.0000000000000000
4.7707500457763672 6.9924440383911133 0.0000000000000000
4.4899563789367676 7.2773213386535645 0.0000000000000000
4.8239068984985352 7.1852507591247559 0.0000000000000000
2.6607325077056885 7.1592559814453125 0.0000000000000000
4.9643034934997559 7.0428118705749512 0.0000000000000000
5.0174608230590820 7.2356181144714355 0.0000000000000000
3.7157411575317383 7.0758500099182129 0.0000000000000000
2.5694260597229004 5.5247340202331543 0.0000000000000000
2.7138895988464355 7.3520627021789551 0.0000000000000000
5.1578574180603027 7.0931797027587891 0.0000000000000000
5.2110147476196289 7.2859859466552734 0.0000000000000000
2.7820544242858887 6.2959594726562500 0.0000000000000000
2.9074432849884033 7.4024305343627930 0.0000000000000000
2.7670466899871826 7.5448689460754395 0.0000000000000000
2.5203356742858887 7.3016948699951172 0.0000000000000000
5.3514113426208496 7.1435475349426270 0.0000000000000000
5.4045686721801758 7.3363537788391113 0.0000000000000000
4.3304848670959473 6.6989021301269531 0.0000000000000000
5.1047005653381348 6.9003734588623047 0.0000000000000000
2.4671785831451416 7.1088886260986328 0.0000000000000000
2.3267817497253418 7.2513270378112793 0.0000000000000000
3.0437731742858887 5.2902245521545410 0.0000000000000000
5.5449652671813965 7.1939153671264648 0.0000000000000000
5.5981221199035645 7.3867216110229492 0.0000000000000000
5.4577255249023438 7.5291604995727539 0.0000000000000000
5.6512794494628906 7.5795283317565918 0.0000000000000000
5.7916760444641113 7.4370894432067871 0.0000000000000000
5.8456258773803711 7.6312284469604492 0.0000000000000000
5.7047662734985352 7.7740502357482910 0.0000000000000000
2.9606003761291504 7.5952367782592773 0.0000000000000000
2.8202037811279297 7.7376756668090820 0.0000000000000000
2.2504832744598389 4.3678951263427734 0.0000000000000000
5.9876379966735840 7.4899225234985352 0.0000000000000000
2.2737717628479004 7.0586652755737305 0.0000000000000000
2.1333994865417480 7.2011284828186035 0.0000000000000000
2.1864137649536133 7.3937940597534180 0.0000000000000000
6.0433993339538574 7.6859989166259766 0.0000000000000000
7.8746428489685059 2.6100425720214844 0.0000000000000000
7.8150110244750977 7.6054043769836426 0.0000000000000000
7.0402483940124512 7.4040684700012207 0.0000000000000000
6.8466863632202148 7.3536863327026367 0.0000000000000000
6.8998546600341797 7.5465073585510254 0.0000000000000000
5.0706181526184082 7.4284248352050781 0.0000000000000000
4.1028490066528320 7.1765856742858887 0.0000000000000000
2.1441690921783447 3.9822824001312256 0.0000000000000000
4.3755087852478027 2.9521737098693848 0.0000000000000000
6.3982863426208496 3.1206066608428955 0.0000000000000000
4.8348479270935059 3.9665737152099609 0.0000000000000000
6.9598731994628906 2.5508522987365723 0.0000000000000000
7.1001396179199219 2.4082851409912109 0.0000000000000000
6.9066944122314453 2.3580243587493896 0.0000000000000000
7.0465812683105469 2.2150783538818359 0.0000000000000000
7.2404260635375977 2.2657370567321777 0.0000000000000000
7.1868748664855957 2.0725369453430176 0.0000000000000000
7.3812084197998047 2.1236412525177002 0.0000000000000000
2.4631118774414062 5.1391210556030273 0.0000000000000000
5.8066840171813965 6.1881799697875977 0.0000000000000000
5.6131300926208496 6.1378121376037598 0.0000000000000000
5.6050205230712891 2.1981847286224365 0.0000000000000000
2.3718204498291016 3.5045945644378662 0.0000000000000000
4.7857575416564941 5.7435345649719238 0.0000000000000000
4.8389148712158203 5.9363412857055664 0.0000000000000000
4.6453609466552734 5.8859734535217285 0.0000000000000000
6.4745850563049316 6.0040383338928223 0.0000000000000000
6.4214277267456055 5.8112320899963379 0.0000000000000000
6.6149816513061523 5.8615999221801758 0.0000000000000000
6.5618247985839844 5.6687932014465332 0.0000000000000000
6.7553782463073730 5.7191610336303711 0.0000000000000000
6.7022213935852051 5.5263547897338867 0.0000000000000000
6.8957753181457520 5.5767226219177246 0.0000000000000000
6.8426179885864258 5.3839159011840820 0.0000000000000000
7.0361719131469727 5.4342837333679199 0.0000000000000000
6.9830145835876465 5.2414774894714355 0.0000000000000000
7.0893287658691406 5.6270904541015625 0.0000000000000000
6.7894611358642578 5.1911096572875977 0.0000000000000000
6.9298577308654785 5.0486712455749512 0.0000000000000000
7.1234116554260254 5.0990390777587891 0.0000000000000000
7.0702543258666992 4.9062323570251465 0.0000000000000000
6.7363038063049316 4.9983034133911133 0.0000000000000000
7.2638082504272461 4.9566001892089844 0.0000000000000000
7.2106509208679199 4.7637939453125000 0.0000000000000000
7.4042048454284668 4.8141617774963379 0.0000000000000000
7.3510479927062988 4.6213550567626953 0.0000000000000000
7.4573621749877930 5.0069680213928223 0.0000000000000000
7.5446014404296875 4.6717228889465332 0.0000000000000000
7.4914445877075195 4.4789166450500488 0.0000000000000000
7.6849985122680664 4.5292844772338867 0.0000000000000000
7.6318411827087402 4.3364777565002441 0.0000000000000000
7.2978906631469727 4.4285488128662109 0.0000000000000000
7.8253951072692871 4.3868455886840820 0.0000000000000000
7.7722377777099609 4.1940393447875977 0.0000000000000000
6.5959072113037109 5.1407418251037598 0.0000000000000000
6.5427498817443848 4.9479355812072754 0.0000000000000000
5.6662874221801758 6.3306188583374023 0.0000000000000000
2.7210116386413574 2.1635503768920898 0.0000000000000000
2.8611783981323242 2.0211749076843262 0.0000000000000000
4.3264183998107910 4.7291345596313477 0.0000000000000000
7.5786838531494141 4.1436715126037598 0.0000000000000000
7.7190809249877930 4.0012326240539551 0.0000000000000000
3.5522029399871826 4.5276637077331543 0.0000000000000000
3.9202358722686768 3.9075410366058350 0.0000000000000000
3.6053600311279297 4.7204699516296387 0.0000000000000000
4.5159053802490234 2.8097350597381592 0.0000000000000000
4.5690622329711914 3.0025415420532227 0.0000000000000000
4.5489735603332520 2.2819333076477051 0.0000000000000000
6.8085355758666992 5.9119677543640137 0.0000000000000000
4.7175927162170410 6.7996377944946289 0.0000000000000000
2.6757402420043945 5.9103469848632812 0.0000000000000000
5.4727334976196289 6.2802510261535645 0.0000000000000000
6.6831464767456055 4.8054966926574707 0.0000000000000000
6.4895930290222168 4.7551288604736328 0.0000000000000000
6.3491959571838379 4.8975677490234375 0.0000000000000000
6.6299896240234375 4.6126904487609863 0.0000000000000000
6.2960391044616699 4.7047610282897949 0.0000000000000000
6.1556425094604492 4.8471999168395996 0.0000000000000000
6.1024851799011230 4.6543931961059570 0.0000000000000000
5.9620885848999023 4.7968320846557617 0.0000000000000000
7.5255270004272461 3.9508650302886963 0.0000000000000000
5.9324741363525391 7.2950615882873535 0.0000000000000000
1.9926329851150513 7.3432073593139648 0.0000000000000000
5.7453932762145996 2.0558390617370605 0.0000000000000000
7.9657917022705078 4.2444071769714355 0.0000000000000000
7.7000489234924316 3.2804203033447266 0.0000000000000000
2.3568017482757568 4.7535152435302734 0.0000000000000000
3.0140135288238525 7.7879729270935059 0.0000000000000000
2.8736596107482910 7.9303994178771973 0.0000000000000000
2.6798567771911621 7.8801002502441406 0.0000000000000000
3.1541969776153564 7.6455926895141602 0.0000000000000000
2.7338168621063232 8.0737133026123047 0.0000000000000000
7.3292441368103027 1.9320414066314697 0.0000000000000000
8.0668516159057617 2.6590831279754639 0.0000000000000000
7.7381553649902344 4.7220907211303711 0.0000000000000000
1.9396084547042847 7.1515331268310547 0.0000000000000000
4.4957890510559082 2.0891330242156982 0.0000000000000000
4.3032770156860352 2.0385093688964844 0.0000000000000000
4.4414567947387695 1.8982464075088501 0.0000000000000000
4.6864843368530273 2.1412494182586670 0.0000000000000000
8.0444326400756836 7.1321964263916016 0.0000000000000000
4.2500123977661133 1.8483414649963379 0.0000000000000000
8.1195077896118164 2.8516917228698730 0.0000000000000000
7.1330881118774414 1.8838313817977905 0.0000000000000000
2.6679008007049561 1.9707309007644653 0.0000000000000000
2.8090317249298096 1.8280953168869019 0.0000000000000000
5.9089312553405762 4.6040258407592773 0.0000000000000000
4.6985182762145996 6.0787796974182129 0.0000000000000000
4.5049643516540527 6.0284118652343750 0.0000000000000000
4.4518070220947266 5.8356056213378906 0.0000000000000000
4.3114104270935059 5.9780440330505371 0.0000000000000000
4.2582530975341797 5.7852377891540527 0.0000000000000000
4.1178565025329590 5.9276762008666992 0.0000000000000000
4.0646996498107910 5.7348699569702148 0.0000000000000000
2.8120701313018799 3.7981407642364502 0.0000000000000000
3.9243028163909912 5.8773083686828613 0.0000000000000000
3.8711457252502441 5.6845021247863770 0.0000000000000000
4.0115423202514648 5.5420632362365723 0.0000000000000000
3.8179886341094971 5.4916958808898926 0.0000000000000000
3.0206329822540283 2.5995991230010986 0.0000000000000000
2.4140460491180420 6.9161062240600586 0.0000000000000000
2.2201299667358398 6.8664078712463379 0.0000000000000000
2.8311448097229004 4.5189986228942871 0.0000000000000000
6.1283707618713379 7.3477416038513184 0.0000000000000000
6.0452895164489746 2.4917113780975342 0.0000000000000000
6.1853332519531250 2.3506288528442383 0.0000000000000000
3.9583852291107178 5.3492569923400879 0.0000000000000000
6.8529605865478516 2.1646437644958496 0.0000000000000000
2.0457284450531006 7.5359539985656738 0.0000000000000000
5.5518436431884766 2.0054557323455811 0.0000000000000000
8.0189485549926758 4.4372134208679199 0.0000000000000000
6.1325006484985352 2.1565744876861572 0.0000000000000000
3.2076170444488525 7.8383269309997559 0.0000000000000000
3.3477661609649658 7.6959562301635742 0.0000000000000000
1.7998255491256714 7.2921729087829590 0.0000000000000000
1.7472281455993652 7.1031990051269531 0.0000000000000000
2.9265339374542236 8.1249580383300781 0.0000000000000000
5.7685346603393555 4.7464642524719238 0.0000000000000000
5.4918079376220703 7.0011086463928223 0.0000000000000000
2.9374589920043945 4.9046115875244141 0.0000000000000000
5.1838064193725586 2.6255934238433838 0.0000000000000000
2.5413405895233154 8.0282163619995117 0.0000000000000000
2.7861213684082031 8.2657270431518555 0.0000000000000000
5.6913375854492188 1.8632777929306030 0.0000000000000000
8.0148820877075195 2.4674460887908936 0.0000000000000000
8.2054805755615234 2.5164697170257568 0.0000000000000000
7.5210857391357422 1.9816384315490723 0.0000000000000000
7.4694700241088867 1.7906540632247925 0.0000000000000000
6.7081389427185059 7.4942660331726074 0.0000000000000000
6.7612137794494629 7.6882629394531250 0.0000000000000000
6.9533023834228516 7.7392177581787109 0.0000000000000000
6.8134503364562988 7.8821096420288086 0.0000000000000000
7.0062866210937500 7.9321408271789551 0.0000000000000000
6.6236410140991211 7.8337254524230957 0.0000000000000000
6.0729937553405762 7.1527347564697266 0.0000000000000000
6.2087993621826172 5.0400061607360840 0.0000000000000000
7.2297258377075195 5.4846515655517578 0.0000000000000000
7.2828826904296875 5.6774582862854004 0.0000000000000000
7.4232797622680664 5.5350193977355957 0.0000000000000000
7.4764366149902344 5.7278261184692383 0.0000000000000000
7.6168332099914551 5.5853872299194336 0.0000000000000000
7.6699724197387695 5.7781987190246582 0.0000000000000000
7.5295906066894531 5.9206333160400391 0.0000000000000000
7.8103985786437988 5.6358394622802734 0.0000000000000000
7.7231259346008301 5.9710063934326172 0.0000000000000000
7.5827469825744629 6.1134400367736816 0.0000000000000000
7.7780537605285645 6.1641035079956055 0.0000000000000000
7.9201507568359375 6.0215415954589844 0.0000000000000000
7.6359772682189941 6.3060765266418457 0.0000000000000000
7.4423651695251465 6.2558493614196777 0.0000000000000000
7.8281035423278809 6.3601284027099609 0.0000000000000000
4.1710138320922852 6.1204829216003418 0.0000000000000000
7.7572321891784668 5.4429626464843750 0.0000000000000000
7.9507837295532227 5.4933166503906250 0.0000000000000000
7.4953031539916992 6.4484329223632812 0.0000000000000000
3.3095588684082031 6.2542567253112793 0.0000000000000000
7.8976268768310547 5.3005123138427734 0.0000000000000000
3.1801030635833740 3.1780183315277100 0.0000000000000000
5.8176250457763672 2.9695034027099609 0.0000000000000000
5.4005017280578613 5.3665866851806641 0.0000000000000000
6.3682708740234375 5.6184253692626953 0.0000000000000000
5.5559062957763672 3.9752385616302490 0.0000000000000000
4.8920717239379883 6.1291475296020508 0.0000000000000000
4.3605008125305176 4.2010831832885742 0.0000000000000000
3.1882367134094238 7.1175532341003418 0.0000000000000000
6.2428817749023438 4.5119547843933105 0.0000000000000000
3.8820726871490479 2.4657778739929199 0.0000000000000000
3.8287911415100098 2.2728435993194580 0.0000000000000000
3.6885075569152832 2.4154202938079834 0.0000000000000000
2.3608121871948242 6.7233953475952148 0.0000000000000000
2.1667323112487793 6.6735639572143555 0.0000000000000000
3.7989139556884766 4.7708377838134766 0.0000000000000000
3.6585171222686768 4.9132761955261230 0.0000000000000000
3.6353709697723389 2.2226972579956055 0.0000000000000000
3.7755465507507324 2.0801918506622314 0.0000000000000000
2.3076021671295166 6.5305981636047363 0.0000000000000000
2.1103794574737549 6.4812412261962891 0.0000000000000000
2.2539036273956299 6.3378744125366211 0.0000000000000000
2.0565996170043945 6.2885293960571289 0.0000000000000000
2.2005524635314941 6.1450972557067871 0.0000000000000000
2.0052101612091064 6.0952143669128418 0.0000000000000000
2.1476576328277588 5.9522109031677246 0.0000000000000000
1.9523912668228149 5.9023098945617676 0.0000000000000000
2.0946006774902344 5.7593750953674316 0.0000000000000000
1.9010554552078247 5.7089943885803223 0.0000000000000000
2.0419216156005859 5.5664367675781250 0.0000000000000000
8.1595277786254883 4.2949275970458984 0.0000000000000000
8.1062183380126953 4.1019940376281738 0.0000000000000000
2.6138451099395752 1.7754658460617065 0.0000000000000000
2.4740526676177979 1.9204442501068115 0.0000000000000000
3.0043020248413086 1.8755059242248535 0.0000000000000000
3.3999392986297607 7.8915443420410156 0.0000000000000000
3.5411171913146973 7.7467985153198242 0.0000000000000000
3.5932540893554688 7.9424662590026855 0.0000000000000000
3.7345974445343018 7.7973375320434570 0.0000000000000000
3.7877511978149414 7.9905219078063965 0.0000000000000000
3.9283320903778076 7.8472151756286621 0.0000000000000000
3.9814922809600830 8.0404224395751953 0.0000000000000000
4.1219115257263184 7.8975567817687988 0.0000000000000000
4.1751136779785156 8.0904178619384766 0.0000000000000000
4.3154807090759277 7.9478583335876465 0.0000000000000000
4.3686814308166504 8.1407117843627930 0.0000000000000000
4.5090394020080566 7.9982028007507324 0.0000000000000000
4.0350685119628906 8.2336273193359375 0.0000000000000000
2.9776821136474609 8.3172340393066406 0.0000000000000000
2.0910120010375977 3.7894759178161621 0.0000000000000000
1.9488031864166260 3.9324326515197754 0.0000000000000000
8.4327077865600586 7.2259569168090820 0.0000000000000000
1.8482815027236938 5.5160813331604004 0.0000000000000000
1.9887501001358032 5.3736324310302734 0.0000000000000000
1.7589012384414673 5.8519129753112793 0.0000000000000000
6.8673205375671387 8.0747537612915039 0.0000000000000000
7.0572276115417480 8.1253690719604492 0.0000000000000000
7.1992449760437012 7.9826312065124512 0.0000000000000000
7.2498879432678223 8.1759195327758789 0.0000000000000000
7.3924655914306641 8.0331678390502930 0.0000000000000000
6.9159808158874512 8.2645063400268555 0.0000000000000000
2.7566332817077637 1.6341093778610229 0.0000000000000000
8.2127151489257812 4.4877591133117676 0.0000000000000000
4.3855109214782715 1.7073341608047485 0.0000000000000000
1.6100095510482788 7.2440490722656250 0.0000000000000000
5.4991521835327148 1.8103892803192139 0.0000000000000000
5.3579254150390625 1.9503943920135498 0.0000000000000000
7.4452266693115234 8.2282085418701172 0.0000000000000000
7.5859246253967285 8.0861520767211914 0.0000000000000000
7.3025760650634766 8.3686332702636719 0.0000000000000000
4.1903529167175293 1.6563181877136230 0.0000000000000000
3.5822148323059082 2.0301184654235840 0.0000000000000000
1.6609808206558228 7.4352722167968750 0.0000000000000000
5.8216919898986816 4.9392704963684082 0.0000000000000000
3.6775918006896973 5.6341342926025391 0.0000000000000000
3.6244347095489502 5.4413280487060547 0.0000000000000000
4.5581212043762207 6.2212185859680176 0.0000000000000000
6.2665681838989258 7.2031207084655762 0.0000000000000000
2.2395009994506836 7.5865359306335449 0.0000000000000000
2.0990958213806152 7.7289104461669922 0.0000000000000000
7.4339194297790527 2.3168931007385254 0.0000000000000000
5.5258903503417969 6.4730572700500488 0.0000000000000000
5.7194442749023438 6.5234251022338867 0.0000000000000000
5.3323369026184082 6.4226894378662109 0.0000000000000000
3.4649634361267090 4.8629083633422852 0.0000000000000000
4.7094593048095703 2.8601028919219971 0.0000000000000000
4.7626161575317383 3.0529093742370605 0.0000000000000000
4.6222195625305176 3.1953480243682861 0.0000000000000000
5.6281380653381348 4.8889026641845703 0.0000000000000000
5.7153773307800293 4.5536580085754395 0.0000000000000000
6.7130589485168457 2.3075752258300781 0.0000000000000000
6.6569561958312988 2.1154258251190186 0.0000000000000000
7.3019247055053711 6.3982696533203125 0.0000000000000000
7.2487964630126953 6.2054972648620605 0.0000000000000000
3.4880902767181396 7.5536074638366699 0.0000000000000000
6.2387657165527344 2.5423772335052490 0.0000000000000000
4.8157734870910645 3.2457158565521240 0.0000000000000000
4.6753764152526855 3.3881545066833496 0.0000000000000000
5.1314477920532227 2.4335741996765137 0.0000000000000000
7.6659235954284668 3.8084263801574707 0.0000000000000000
7.4723696708679199 3.7580585479736328 0.0000000000000000
7.3319730758666992 3.9004971981048584 0.0000000000000000
7.2788162231445312 3.7076907157897949 0.0000000000000000
7.1384191513061523 3.8501293659210205 0.0000000000000000
4.1519389152526855 5.3996248245239258 0.0000000000000000
4.0987820625305176 5.2068185806274414 0.0000000000000000
3.8751697540283203 7.6543974876403809 0.0000000000000000
5.8557744026184082 4.4112191200256348 0.0000000000000000
4.2623186111450195 7.7550315856933594 0.0000000000000000
8.0923547744750977 5.3520536422729492 0.0000000000000000
8.1440114974975586 5.5430226325988770 0.0000000000000000
8.2838172912597656 5.4037461280822754 0.0000000000000000
8.0389642715454102 5.1589174270629883 0.0000000000000000
8.2999591827392578 4.1525182723999023 0.0000000000000000
8.3345565795898438 5.5917730331420898 0.0000000000000000
2.5620512962341309 1.5807375907897949 0.0000000000000000
4.5615749359130859 8.1933488845825195 0.0000000000000000
4.7021784782409668 8.0503530502319336 0.0000000000000000
4.6493616104125977 7.8560457229614258 0.0000000000000000
4.8425107002258301 7.9086756706237793 0.0000000000000000
2.8394081592559814 8.4553499221801758 0.0000000000000000
2.6494278907775879 8.4112100601196289 0.0000000000000000
4.4222478866577148 8.3328466415405273 0.0000000000000000
1.9654803276062012 6.6288857460021973 0.0000000000000000
4.5758872032165527 1.7563878297805786 0.0000000000000000
8.2466268539428711 3.9595644474029541 0.0000000000000000
5.6387696266174316 1.6708028316497803 0.0000000000000000
5.8307571411132812 1.7202926874160767 0.0000000000000000
5.4500098228454590 1.6186031103134155 0.0000000000000000
7.4957776069641113 8.4210100173950195 0.0000000000000000
1.5673599243164062 7.0529923439025879 0.0000000000000000
4.6111855506896973 8.3852939605712891 0.0000000000000000
1.6940320730209351 6.9164953231811523 0.0000000000000000
7.6586546897888184 1.8395807743072510 0.0000000000000000
7.7144618034362793 2.0303285121917725 0.0000000000000000
7.6058149337768555 1.6535069942474365 0.0000000000000000
7.4191527366638184 1.6077117919921875 0.0000000000000000
3.7224380970001221 1.8879150152206421 0.0000000000000000
8.1540842056274414 2.3295972347259521 0.0000000000000000
4.5224394798278809 1.5695680379867554 0.0000000000000000
3.2574083805084229 8.0377750396728516 0.0000000000000000
1.9053463935852051 7.6781897544860840 0.0000000000000000
1.9586744308471680 7.8711042404174805 0.0000000000000000
8.2013435363769531 7.7079029083251953 0.0000000000000000
8.1978797912597656 5.7344117164611816 0.0000000000000000
8.3903064727783203 5.7817144393920898 0.0000000000000000
8.2545061111450195 5.9256472587585449 0.0000000000000000
8.4474020004272461 5.9725461006164551 0.0000000000000000
7.5332822799682617 7.8912420272827148 0.0000000000000000
7.7273521423339844 7.9417028427124023 0.0000000000000000
2.1521868705749512 7.9217343330383301 0.0000000000000000
6.3253731727600098 7.3957400321960449 0.0000000000000000
3.4840381145477295 5.5837664604187012 0.0000000000000000
6.2128663063049316 7.0097737312316895 0.0000000000000000
6.0193996429443359 6.9594926834106445 0.0000000000000000
3.4308807849884033 5.3909602165222168 0.0000000000000000
6.7993669509887695 1.9723010063171387 0.0000000000000000
5.6812949180603027 5.0817093849182129 0.0000000000000000
5.8748488426208496 5.1320772171020508 0.0000000000000000
7.8213281631469727 2.4170782566070557 0.0000000000000000
4.4818229675292969 3.3377866744995117 0.0000000000000000
4.5349798202514648 3.5305931568145752 0.0000000000000000
4.3414258956909180 3.4802253246307373 0.0000000000000000
4.3945832252502441 3.6730318069458008 0.0000000000000000
4.9911842346191406 2.5761442184448242 0.0000000000000000
7.3550744056701660 6.5910730361938477 0.0000000000000000
7.5429725646972656 6.6505613327026367 0.0000000000000000
2.0034704208374023 4.1248073577880859 0.0000000000000000
1.8080540895462036 4.0749721527099609 0.0000000000000000
1.8629645109176636 4.2672772407531738 0.0000000000000000
1.6702163219451904 4.2163667678833008 0.0000000000000000
1.7230955362319946 4.4090666770935059 0.0000000000000000
1.6159687042236328 4.0270447731018066 0.0000000000000000
1.9164880514144897 4.4599013328552246 0.0000000000000000
1.7745634317398071 4.6013021469116211 0.0000000000000000
1.5806772708892822 4.5494089126586914 0.0000000000000000
1.9694216251373291 4.6525940895080566 0.0000000000000000
3.1460206508636475 3.7060699462890625 0.0000000000000000
8.0721416473388672 4.6300497055053711 0.0000000000000000
2.4590458869934082 3.1694040298461914 0.0000000000000000
3.4949617385864258 2.3651382923126221 0.0000000000000000
7.1915764808654785 4.0429358482360840 0.0000000000000000
6.9980225563049316 3.9925680160522461 0.0000000000000000
4.2010293006896973 3.6226639747619629 0.0000000000000000
5.3854937553405762 6.6154961585998535 0.0000000000000000
5.1919398307800293 6.5651283264160156 0.0000000000000000
4.5731291770935059 4.9723091125488281 0.0000000000000000
7.8446264266967773 5.1078448295593262 0.0000000000000000
4.3986501693725586 5.6427989006042480 0.0000000000000000
5.9811630249023438 5.5176901817321777 0.0000000000000000
6.0984148979187012 2.6846396923065186 0.0000000000000000
6.2919635772705078 2.7350277900695801 0.0000000000000000
6.1515736579895020 2.8774404525756836 0.0000000000000000
2.9333920478820801 2.9348452091217041 0.0000000000000000
5.2791795730590820 6.2298831939697266 0.0000000000000000
2.7248306274414062 4.1333856582641602 0.0000000000000000
2.7479720115661621 6.8240113258361816 0.0000000000000000
2.1823158264160156 5.4239988327026367 0.0000000000000000
2.1291584968566895 5.2311921119689941 0.0000000000000000
1.9356045722961426 5.1808242797851562 0.0000000000000000
3.5481362342834473 2.5578961372375488 0.0000000000000000
2.5012347698211670 6.5808782577514648 0.0000000000000000
4.6019554138183594 2.4748094081878662 0.0000000000000000
2.0760037899017334 5.0383934974670410 0.0000000000000000
4.9030127525329590 2.9104707241058350 0.0000000000000000
3.5371952056884766 5.7765727043151855 0.0000000000000000
7.1083974838256836 6.3479385375976562 0.0000000000000000
7.0511798858642578 4.1853742599487305 0.0000000000000000
6.8576259613037109 4.1350069046020508 0.0000000000000000
6.8044686317443848 3.9422001838684082 0.0000000000000000
6.9107828140258789 4.3278131484985352 0.0000000000000000
6.7172293663024902 4.2774453163146973 0.0000000000000000
4.2541866302490234 3.8154702186584473 0.0000000000000000
2.3946988582611084 6.1952996253967285 0.0000000000000000
7.1424860954284668 5.8198966979980469 0.0000000000000000
2.2884564399719238 5.8096599578857422 0.0000000000000000
4.2923359870910645 5.2571864128112793 0.0000000000000000
6.8235435485839844 4.6630582809448242 0.0000000000000000
4.4477405548095703 3.8658380508422852 0.0000000000000000
4.7285337448120117 3.5809607505798340 0.0000000000000000
6.4323592185974121 2.5925924777984619 0.0000000000000000
5.4877414703369141 5.0313415527343750 0.0000000000000000
5.4345841407775879 4.8385353088378906 0.0000000000000000
5.6622204780578613 4.3608512878417969 0.0000000000000000
8.0530433654785156 3.9091720581054688 0.0000000000000000
6.4610905647277832 7.2515964508056641 0.0000000000000000
4.7897348403930664 7.7137808799743652 0.0000000000000000
5.8026170730590820 4.2184128761291504 0.0000000000000000
5.9961709976196289 4.2687807083129883 0.0000000000000000
5.5218238830566406 4.5032901763916016 0.0000000000000000
4.5962448120117188 7.6630649566650391 0.0000000000000000
4.9832849502563477 7.7641773223876953 0.0000000000000000
5.0361523628234863 7.9591755867004395 0.0000000000000000
5.1768527030944824 7.8145723342895508 0.0000000000000000
5.2301149368286133 8.0073547363281250 0.0000000000000000
8.4401817321777344 4.0099339485168457 0.0000000000000000
2.7040739059448242 1.4403690099716187 0.0000000000000000
2.9020867347717285 1.4912135601043701 0.0000000000000000
7.8580508232116699 1.8850865364074707 0.0000000000000000
8.3405609130859375 2.3782007694244385 0.0000000000000000
8.3904170989990234 2.5638501644134521 0.0000000000000000
1.8953440189361572 3.7397124767303467 0.0000000000000000
2.0375175476074219 3.5967662334442139 0.0000000000000000
8.3120059967041016 6.1156225204467773 0.0000000000000000
6.6042246818542480 1.9233758449554443 0.0000000000000000
6.7431106567382812 1.7828378677368164 0.0000000000000000
1.8608340024948120 6.2350263595581055 0.0000000000000000
7.3572263717651367 8.5574321746826172 0.0000000000000000
7.1602234840393066 8.5097036361694336 0.0000000000000000
2.0111751556396484 8.0635251998901367 0.0000000000000000
2.2090806961059570 8.1227865219116211 0.0000000000000000
1.4157093763351440 7.1697278022766113 0.0000000000000000
8.4710559844970703 5.4535527229309082 0.0000000000000000
4.4764914512634277 8.5203008651733398 0.0000000000000000
4.2837023735046387 8.4716548919677734 0.0000000000000000
1.5196394920349121 6.8677191734313965 0.0000000000000000
2.7044689655303955 8.5953454971313477 0.0000000000000000
8.2662372589111328 4.6783633232116699 0.0000000000000000
8.4049692153930664 4.5386643409729004 0.0000000000000000
3.0255961418151855 8.5023880004882812 0.0000000000000000
3.1639878749847412 8.3684196472167969 0.0000000000000000
1.8315749168395996 4.7928495407104492 0.0000000000000000
8.1922664642333984 3.7712273597717285 0.0000000000000000
7.9996824264526367 3.7171080112457275 0.0000000000000000
8.1385965347290039 3.5784976482391357 0.0000000000000000
6.7308292388916016 8.2154674530029297 0.0000000000000000
6.7807440757751465 8.4027757644653320 0.0000000000000000
8.5441179275512695 2.4197621345520020 0.0000000000000000
8.5809917449951172 2.6151063442230225 0.0000000000000000
8.4437036514282227 2.7564575672149658 0.0000000000000000
7.7798061370849609 8.1341791152954102 0.0000000000000000
7.9214153289794922 7.9922256469726562 0.0000000000000000
2.5165863037109375 8.5487823486328125 0.0000000000000000
2.4627702236175537 8.3690919876098633 0.0000000000000000
3.9158864021301270 1.9378310441970825 0.0000000000000000
3.8614280223846436 1.7461009025573730 0.0000000000000000
7.9093017578125000 2.0769572257995605 0.0000000000000000
8.0578193664550781 1.9346643686294556 0.0000000000000000
7.4070739746093750 6.7845821380615234 0.0000000000000000
3.2904841899871826 5.5333986282348633 0.0000000000000000
6.0533947944641113 6.4313545227050781 0.0000000000000000
5.3703312873840332 7.8644361495971680 0.0000000000000000
5.4231805801391602 8.0572404861450195 0.0000000000000000
5.2851161956787109 8.1989679336547852 0.0000000000000000
5.4758672714233398 8.2492647171020508 0.0000000000000000
5.3359122276306152 8.3863010406494141 0.0000000000000000
5.5235943794250488 8.4377183914184570 0.0000000000000000
5.6662716865539551 8.3003273010253906 0.0000000000000000
7.3701224327087402 5.3422131538391113 0.0000000000000000
7.0552463531494141 6.1551418304443359 0.0000000000000000
2.4865629673004150 7.8307147026062012 0.0000000000000000
3.8520710468292236 4.9636440277099609 0.0000000000000000
7.0852622985839844 3.6573228836059570 0.0000000000000000
7.2256588935852051 3.5148844718933105 0.0000000000000000
8.1262063980102539 4.8220911026000977 0.0000000000000000
3.9924676418304443 4.8212056159973145 0.0000000000000000
5.6853618621826172 7.0514764785766602 0.0000000000000000
6.9148488044738770 6.2975788116455078 0.0000000000000000
5.6322045326232910 6.8586702346801758 0.0000000000000000
5.2695636749267578 2.2887797355651855 0.0000000000000000
5.0739259719848633 2.2417573928833008 0.0000000000000000
7.9464063644409180 3.5244379043579102 0.0000000000000000
8.0871133804321289 3.3811104297637939 0.0000000000000000
6.5157933235168457 2.2594304084777832 0.0000000000000000
3.3545794486999512 2.5075364112854004 0.0000000000000000
3.4077389240264893 2.7003362178802490 0.0000000000000000
5.3664193153381348 5.8946380615234375 0.0000000000000000
4.2391786575317383 5.0643796920776367 0.0000000000000000
6.1065521240234375 6.6241607666015625 0.0000000000000000
7.6127667427062988 3.6156198978424072 0.0000000000000000
3.7116742134094238 5.1060829162597656 0.0000000000000000
4.7366480827331543 7.5205969810485840 0.0000000000000000
5.5856566429138184 1.4872931241989136 0.0000000000000000
5.3994531631469727 1.4341241121292114 0.0000000000000000
3.6499731540679932 8.1356954574584961 0.0000000000000000
8.6327743530273438 2.8052434921264648 0.0000000000000000
8.4965734481811523 2.9508361816406250 0.0000000000000000
7.5721578598022461 1.4523627758026123 0.0000000000000000
7.3691310882568359 1.4217343330383301 0.0000000000000000
7.2250900268554688 1.5600880384445190 0.0000000000000000
7.1678075790405273 1.3742710351943970 0.0000000000000000
7.0205130577087402 1.5124818086624146 0.0000000000000000
8.4563751220703125 4.7194871902465820 0.0000000000000000
5.7186150550842285 8.4831562042236328 0.0000000000000000
5.8589620590209961 8.3520812988281250 0.0000000000000000
5.8080849647521973 8.1608476638793945 0.0000000000000000
6.0001053810119629 8.2149543762207031 0.0000000000000000
6.0495843887329102 8.4040050506591797 0.0000000000000000
6.1878347396850586 8.2698659896850586 0.0000000000000000
6.1437754631042480 8.0772943496704102 0.0000000000000000
6.3316593170166016 8.1317701339721680 0.0000000000000000
6.2894558906555176 7.9340157508850098 0.0000000000000000
8.4853591918945312 4.2060275077819824 0.0000000000000000
1.8522726297378540 3.5441081523895264 0.0000000000000000
1.9860889911651611 3.4038903713226318 0.0000000000000000
1.8021955490112305 3.3504791259765625 0.0000000000000000
1.9339096546173096 3.2120821475982666 0.0000000000000000
1.7420188188552856 3.1611070632934570 0.0000000000000000
1.8796421289443970 3.0210382938385010 0.0000000000000000
1.6870241165161133 2.9714021682739258 0.0000000000000000
1.8262488842010498 2.8300576210021973 0.0000000000000000
1.6338430643081665 2.7799155712127686 0.0000000000000000
1.7735326290130615 2.6381182670593262 0.0000000000000000
1.5818579196929932 2.5875732898712158 0.0000000000000000
1.7208386659622192 2.4458286762237549 0.0000000000000000
1.9136734008789062 2.4961881637573242 0.0000000000000000
1.8607953786849976 2.3037486076354980 0.0000000000000000
1.5534776449203491 3.1137084960937500 0.0000000000000000
2.0726735591888428 3.0701539516448975 0.0000000000000000
2.0535347461700439 2.3537392616271973 0.0000000000000000
2.0009427070617676 2.1614682674407959 0.0000000000000000
2.1943268775939941 2.2120265960693359 0.0000000000000000
2.1417312622070312 2.0167448520660400 0.0000000000000000
1.9480050802230835 1.9684058427810669 0.0000000000000000
1.4409096240997314 2.7299191951751709 0.0000000000000000
1.5307799577713013 2.4018232822418213 0.0000000000000000
2.1059992313385010 2.5447263717651367 0.0000000000000000
3.5269942283630371 1.8459241390228271 0.0000000000000000
3.3883590698242188 1.9812692403793335 0.0000000000000000
3.3342130184173584 1.7910287380218506 0.0000000000000000
8.4884147644042969 6.1638379096984863 0.0000000000000000
2.3430523872375488 8.5146627426147461 0.0000000000000000
4.7082328796386719 1.6218448877334595 0.0000000000000000
4.7645163536071777 1.8044980764389038 0.0000000000000000
4.6351528167724609 1.4361673593521118 0.0000000000000000
4.4630842208862305 1.3858438730239868 0.0000000000000000
1.6393518447875977 6.7420897483825684 0.0000000000000000
1.4875802993774414 4.1681375503540039 0.0000000000000000
1.4448428153991699 3.9815936088562012 0.0000000000000000
1.5780366659164429 3.8494441509246826 0.0000000000000000
5.5823993682861328 8.6323833465576172 0.0000000000000000
7.9801449775695801 8.1802110671997070 0.0000000000000000
8.1138238906860352 8.0424985885620117 0.0000000000000000
8.1742057800292969 8.2279872894287109 0.0000000000000000
5.2770619392395020 1.5605621337890625 0.0000000000000000
4.6501827239990234 8.5639209747314453 0.0000000000000000
2.0864229202270508 1.8299695253372192 0.0000000000000000
1.8918865919113159 1.7868251800537109 0.0000000000000000
1.8273625373840332 8.0215263366699219 0.0000000000000000
1.8690071105957031 8.2039260864257812 0.0000000000000000
1.6961094141006470 8.1642494201660156 0.0000000000000000
1.7336845397949219 8.3354339599609375 0.0000000000000000
1.5612055063247681 8.2897405624389648 0.0000000000000000
1.6064924001693726 8.4587850570678711 0.0000000000000000
1.4375224113464355 8.4149112701416016 0.0000000000000000
1.4824595451354980 8.5836687088012695 0.0000000000000000
1.7749630212783813 8.4987831115722656 0.0000000000000000
1.2518855333328247 8.5152530670166016 0.0000000000000000
8.4206638336181641 5.2731528282165527 0.0000000000000000
3.2306480407714844 8.5663003921508789 0.0000000000000000
8.5839643478393555 4.5924348831176758 0.0000000000000000
7.2174234390258789 8.6916828155517578 0.0000000000000000
7.3220705986022949 1.2053970098495483 0.0000000000000000
2.8407099246978760 1.3005344867706299 0.0000000000000000
8.6367406845092773 4.0888681411743164 0.0000000000000000
8.5720624923706055 3.8973531723022461 0.0000000000000000
7.5482306480407715 8.6093063354492188 0.0000000000000000
7.6748127937316895 8.4672555923461914 0.0000000000000000
2.4840419292449951 1.3753750324249268 0.0000000000000000
2.3620009422302246 1.5302574634552002 0.0000000000000000
6.2377877235412598 8.4566640853881836 0.0000000000000000
6.1034846305847168 8.5887966156005859 0.0000000000000000
1.7437107563018799 1.9167866706848145 0.0000000000000000
1.7005125284194946 1.7259480953216553 0.0000000000000000
8.5912160873413086 5.2939562797546387 0.0000000000000000
8.6666784286499023 5.4714970588684082 0.0000000000000000
2.2436895370483398 8.3505287170410156 0.0000000000000000
7.0202217102050781 8.6336956024169922 0.0000000000000000
8.6426534652709961 6.0566506385803223 0.0000000000000000
7.7454113960266113 1.5262104272842407 0.0000000000000000
8.8307085037231445 7.3496603965759277 0.0000000000000000
6.9675507545471191 8.4550714492797852 0.0000000000000000
6.8484630584716797 8.5791873931884766 0.0000000000000000
2.4014329910278320 8.1817655563354492 0.0000000000000000
8.2908811569213867 2.1905260086059570 0.0000000000000000
6.6533851623535156 8.5525627136230469 0.0000000000000000
6.4803261756896973 7.9816269874572754 0.0000000000000000
4.7992787361145020 8.4460887908935547 0.0000000000000000
4.7492289543151855 8.2457551956176758 0.0000000000000000
2.4183406829833984 1.7151175737380981 0.0000000000000000
5.3099446296691895 1.7510901689529419 0.0000000000000000
5.1653742790222168 1.8942370414733887 0.0000000000000000
4.8912916183471680 8.1000528335571289 0.0000000000000000
5.9140582084655762 8.5284547805786133 0.0000000000000000
1.3950527906417847 8.2213592529296875 0.0000000000000000
2.1987910270690918 1.6607853174209595 0.0000000000000000
3.1161537170410156 8.1772499084472656 0.0000000000000000
3.3084745407104492 8.2277660369873047 0.0000000000000000
1.8607871532440186 1.5927822589874268 0.0000000000000000
1.6539529561996460 1.5420225858688354 0.0000000000000000
1.5088963508605957 1.6748681068420410 0.0000000000000000
1.4632807970046997 1.4848351478576660 0.0000000000000000
8.6267900466918945 7.2776546478271484 0.0000000000000000
8.5649700164794922 7.0754175186157227 0.0000000000000000
8.3742399215698242 7.0359845161437988 0.0000000000000000
8.4982833862304688 6.8897123336791992 0.0000000000000000
8.3140220642089844 6.8528413772583008 0.0000000000000000
8.4289970397949219 6.6824493408203125 0.0000000000000000
8.2395324707031250 6.6672468185424805 0.0000000000000000
8.1235952377319336 6.8179697990417480 0.0000000000000000
8.0574235916137695 6.6303071975708008 0.0000000000000000
7.9280734062194824 6.7774467468261719 0.0000000000000000
8.1941719055175781 6.4743337631225586 0.0000000000000000
7.8627400398254395 6.5911779403686523 0.0000000000000000
1.6986280679702759 3.6756689548492432 0.0000000000000000
1.7574725151062012 3.8832125663757324 0.0000000000000000
8.3020982742309570 8.0923852920532227 0.0000000000000000
8.3512001037597656 8.2755117416381836 0.0000000000000000
8.2330179214477539 8.4074440002441406 0.0000000000000000
8.4052248001098633 8.4512128829956055 0.0000000000000000
8.5516691207885742 8.3116626739501953 0.0000000000000000
8.5869340896606445 8.5005769729614258 0.0000000000000000
8.2562847137451172 8.5769062042236328 0.0000000000000000
7.1089076995849609 8.3165340423583984 0.0000000000000000
8.3834037780761719 3.8304705619812012 0.0000000000000000
7.6349968910217285 8.2793054580688477 0.0000000000000000
5.5329046249389648 1.3032685518264771 0.0000000000000000
1.4307627677917480 6.7094969749450684 0.0000000000000000
1.8261114358901978 6.7760229110717773 0.0000000000000000
1.7387425899505615 6.5759558677673340 0.0000000000000000
8.2308416366577148 5.2226400375366211 0.0000000000000000
1.6564849615097046 2.2565450668334961 0.0000000000000000
8.2166395187377930 5.0223417282104492 0.0000000000000000
1.4976806640625000 2.9245727062225342 0.0000000000000000
1.3409675359725952 2.8727722167968750 0.0000000000000000
1.2213183641433716 2.7015962600708008 0.0000000000000000
6.0977878570556641 7.8818941116333008 0.0000000000000000
6.2426166534423828 7.7373781204223633 0.0000000000000000
7.7320942878723145 6.7336988449096680 0.0000000000000000
5.8996186256408691 7.8271498680114746 0.0000000000000000
8.7603712081909180 2.6513898372650146 0.0000000000000000
6.9348702430725098 1.8336510658264160 0.0000000000000000
1.6020269393920898 3.3266868591308594 0.0000000000000000
1.4222828149795532 3.2508838176727295 0.0000000000000000
1.3413394689559937 3.0681719779968262 0.0000000000000000
6.5325603485107422 8.1690053939819336 0.0000000000000000
8.2543029785156250 7.9002346992492676 0.0000000000000000
8.1166810989379883 6.0699715614318848 0.0000000000000000
8.1748075485229492 6.2621884346008301 0.0000000000000000
3.4552271366119385 8.0835943222045898 0.0000000000000000
8.4675283432006836 2.2495355606079102 0.0000000000000000
8.2536754608154297 1.9927937984466553 0.0000000000000000
8.3930997848510742 1.8628933429718018 0.0000000000000000
8.2129878997802734 1.8033453226089478 0.0000000000000000
8.3482656478881836 1.6763203144073486 0.0000000000000000
8.5315361022949219 1.7304786443710327 0.0000000000000000
8.4797534942626953 1.5491980314254761 0.0000000000000000
8.3055152893066406 1.4997727870941162 0.0000000000000000
8.4267511367797852 1.3587119579315186 0.0000000000000000
8.6103563308715820 1.4064408540725708 0.0000000000000000
8.0142650604248047 1.7438760995864868 0.0000000000000000
7.9697294235229492 6.2205991744995117 0.0000000000000000
2.0241124629974365 6.8194150924682617 0.0000000000000000
6.5486178398132324 1.7337195873260498 0.0000000000000000
6.4014167785644531 1.8709071874618530 0.0000000000000000
6.6805195808410645 1.5722506046295166 0.0000000000000000
6.8745322227478027 1.6434987783432007 0.0000000000000000
6.8357114791870117 1.4521237611770630 0.0000000000000000
6.9606952667236328 1.3256086111068726 0.0000000000000000
5.7790231704711914 1.5375716686248779 0.0000000000000000
5.9716091156005859 1.5837765932083130 0.0000000000000000
6.0219006538391113 1.7667444944381714 0.0000000000000000
6.1561927795410156 1.6326516866683960 0.0000000000000000
6.1176280975341797 1.4412994384765625 0.0000000000000000
5.9182157516479492 1.3918342590332031 0.0000000000000000
6.2085485458374023 1.8178865909576416 0.0000000000000000
6.0738253593444824 1.9602463245391846 0.0000000000000000
6.2648429870605469 2.0148882865905762 0.0000000000000000
2.3346407413482666 2.0639390945434570 0.0000000000000000
6.9918985366821289 2.0225608348846436 0.0000000000000000
1.3793011903762817 2.5387001037597656 0.0000000000000000
1.3509411811828613 2.3612892627716064 0.0000000000000000
1.4549379348754883 2.2185132503509521 0.0000000000000000
3.0562481880187988 1.3278007507324219 0.0000000000000000
3.0966272354125977 1.5340455770492554 0.0000000000000000
3.2451968193054199 1.4060575962066650 0.0000000000000000
3.3170163631439209 1.5910348892211914 0.0000000000000000
8.0621719360351562 7.8500590324401855 0.0000000000000000
4.1092143058776855 1.9883557558059692 0.0000000000000000
5.9371805191040039 2.1056666374206543 0.0000000000000000
1.7933231592178345 2.1094923019409180 0.0000000000000000
1.9087414741516113 6.4285850524902344 0.0000000000000000
1.0217540264129639 2.6252286434173584 0.0000000000000000
6.4611907005310059 2.0665359497070312 0.0000000000000000
7.8053660392761230 1.6997101306915283 0.0000000000000000
8.2448234558105469 1.3162907361984253 0.0000000000000000
1.5349940061569214 4.3602437973022461 0.0000000000000000
1.3646056652069092 4.5215334892272949 0.0000000000000000
1.4509429931640625 4.7314972877502441 0.0000000000000000
1.6409724950790405 4.7421932220458984 0.0000000000000000
8.6783046722412109 3.0188074111938477 0.0000000000000000
8.5539741516113281 3.1409692764282227 0.0000000000000000
8.3668432235717773 3.0932214260101318 0.0000000000000000
8.4301757812500000 3.2926299571990967 0.0000000000000000
8.2309122085571289 3.2371542453765869 0.0000000000000000
8.1752052307128906 3.0453715324401855 0.0000000000000000
3.0658977031707764 7.9827804565429688 0.0000000000000000
5.7571249008178711 7.9678735733032227 0.0000000000000000
8.0591144561767578 5.8781037330627441 0.0000000000000000
1.8527486324310303 7.4855170249938965 0.0000000000000000
1.7126784324645996 7.6254639625549316 0.0000000000000000
1.5248371362686157 7.5678038597106934 0.0000000000000000
1.4726859331130981 7.3858308792114258 0.0000000000000000
1.2831913232803345 7.3518333435058594 0.0000000000000000
3.1506161689758301 1.7296780347824097 0.0000000000000000
5.0873599052429199 8.1486253738403320 0.0000000000000000
8.5321578979492188 4.4014415740966797 0.0000000000000000
6.1862673759460449 7.5398960113525391 0.0000000000000000
6.3800549507141113 7.5859923362731934 0.0000000000000000
5.2149229049682617 2.0956835746765137 0.0000000000000000
5.0208053588867188 2.0461821556091309 0.0000000000000000
4.9651222229003906 1.8550941944122314 0.0000000000000000
3.9691514968872070 2.1304047107696533 0.0000000000000000
4.8806900978088379 2.1903645992279053 0.0000000000000000
7.7693886756896973 2.2226796150207520 0.0000000000000000
6.2835435867309570 1.5159608125686646 0.0000000000000000
8.0042705535888672 5.6855473518371582 0.0000000000000000
1.7431828975677490 7.8455333709716797 0.0000000000000000
7.8680396080017090 7.7987527847290039 0.0000000000000000
8.3505077362060547 4.3466520309448242 0.0000000000000000
8.3951435089111328 7.7565875053405762 0.0000000000000000
7.6741628646850586 7.7484292984008789 0.0000000000000000
8.0994749069213867 8.5302858352661133 0.0000000000000000
4.1627635955810547 2.1808555126190186 0.0000000000000000
8.6009845733642578 5.8287234306335449 0.0000000000000000
7.4804282188415527 7.6979489326477051 0.0000000000000000
3.1967117786407471 1.9285475015640259 0.0000000000000000
2.9535140991210938 1.6827490329742432 0.0000000000000000
3.6507165431976318 1.6745266914367676 0.0000000000000000
3.8096294403076172 1.5538462400436401 0.0000000000000000
3.9984569549560547 1.6070172786712646 0.0000000000000000
3.9419548511505127 1.4292011260986328 0.0000000000000000
4.1410851478576660 1.4747422933578491 0.0000000000000000
4.0542249679565430 1.7973273992538452 0.0000000000000000
2.5958182811737061 8.2216205596923828 0.0000000000000000
7.5745472908020020 2.1740038394927979 0.0000000000000000
8.2374305725097656 7.1802911758422852 0.0000000000000000
7.1465454101562500 7.7897605895996094 0.0000000000000000
7.0934505462646484 7.5968971252441406 0.0000000000000000
7.8645052909851074 5.8283729553222656 0.0000000000000000
2.3461329936981201 7.9736652374267578 0.0000000000000000
7.6276922225952148 2.3667778968811035 0.0000000000000000
7.4866933822631836 2.5095129013061523 0.0000000000000000
7.2869262695312500 7.6473646163940430 0.0000000000000000
7.6209907531738281 7.5553059577941895 0.0000000000000000
8.7965164184570312 7.0966439247131348 0.0000000000000000
7.2337961196899414 7.4544739723205566 0.0000000000000000
7.8507261276245117 7.0849795341491699 0.0000000000000000
4.2289776802062988 8.2826557159423828 0.0000000000000000
4.0887522697448730 8.4253187179565430 0.0000000000000000
3.8959729671478271 8.3773193359375000 0.0000000000000000
3.9613821506500244 8.5727930068969727 0.0000000000000000
3.7549705505371094 8.5191688537597656 0.0000000000000000
3.6982352733612061 8.3221530914306641 0.0000000000000000
3.8411824703216553 8.1844158172607422 0.0000000000000000
7.4571428298950195 6.9786033630371094 0.0000000000000000
6.6540822982788086 7.3012809753417969 0.0000000000000000
6.7936863899230957 7.1605386734008789 0.0000000000000000
2.2926824092864990 7.7793831825256348 0.0000000000000000
7.2669610977172852 6.9267883300781250 0.0000000000000000
7.8935523033142090 3.3309347629547119 0.0000000000000000
8.0347013473510742 3.1880373954772949 0.0000000000000000
7.8405451774597168 3.1379485130310059 0.0000000000000000
7.9808197021484375 2.9951591491699219 0.0000000000000000
5.7344522476196289 5.2745156288146973 0.0000000000000000
5.9280061721801758 5.3248834609985352 0.0000000000000000
6.1215596199035645 5.3752512931823730 0.0000000000000000
6.0684027671813965 5.1824450492858887 0.0000000000000000
6.2619566917419434 5.2328128814697266 0.0000000000000000
7.0211639404296875 6.6831932067871094 0.0000000000000000
2.2695596218109131 5.0887570381164551 0.0000000000000000
7.0321049690246582 3.4645166397094727 0.0000000000000000
7.1725015640258789 3.3220779895782471 0.0000000000000000
6.3001060485839844 6.6745285987854004 0.0000000000000000
5.2450971603393555 6.7579345703125000 0.0000000000000000
5.0515432357788086 6.7075667381286621 0.0000000000000000
4.9983863830566406 6.5147604942321777 0.0000000000000000
4.8579893112182617 6.6571989059448242 0.0000000000000000
4.8048324584960938 6.4643926620483398 0.0000000000000000
4.6644353866577148 6.6068310737609863 0.0000000000000000
7.4192128181457520 3.5652520656585693 0.0000000000000000
7.9318723678588867 4.7723407745361328 0.0000000000000000
3.9774599075317383 6.0701150894165039 0.0000000000000000
3.7839059829711914 6.0197472572326660 0.0000000000000000
4.0306172370910645 6.2629213333129883 0.0000000000000000
4.2241706848144531 6.3132891654968262 0.0000000000000000
4.0837740898132324 6.4557280540466309 0.0000000000000000
4.2773280143737793 6.5060954093933105 0.0000000000000000
4.1369314193725586 6.6485342979431152 0.0000000000000000
3.8902204036712646 6.4053602218627930 0.0000000000000000
3.2373270988464355 5.3405923843383789 0.0000000000000000
3.3777236938476562 5.1981534957885742 0.0000000000000000
3.1841700077056885 5.1477856636047363 0.0000000000000000
6.5086674690246582 5.4759869575500488 0.0000000000000000
7.1574940681457520 4.5709872245788574 0.0000000000000000
1.7951934337615967 5.3232650756835938 0.0000000000000000
1.6549094915390015 5.4656229019165039 0.0000000000000000
1.6112012863159180 5.2848796844482422 0.0000000000000000
1.4666694402694702 5.4200325012207031 0.0000000000000000
1.5180885791778564 5.6079988479614258 0.0000000000000000
1.3147698640823364 5.5620741844177246 0.0000000000000000
1.7242668867111206 5.1204442977905273 0.0000000000000000
1.8824502229690552 4.9880175590515137 0.0000000000000000
2.0231831073760986 4.8451652526855469 0.0000000000000000
2.1632652282714844 4.7030487060546875 0.0000000000000000
2.1100409030914307 4.5102772712707520 0.0000000000000000
1.7081323862075806 5.6585936546325684 0.0000000000000000
1.5709550380706787 5.8001422882080078 0.0000000000000000
1.6181697845458984 5.9919338226318359 0.0000000000000000
1.4441130161285400 5.9263992309570312 0.0000000000000000
1.4658036231994629 6.1197137832641602 0.0000000000000000
1.6754037141799927 6.1763439178466797 0.0000000000000000
1.8118183612823486 6.0421233177185059 0.0000000000000000
6.8616924285888672 6.1047739982604980 0.0000000000000000
6.6681389808654785 6.0544061660766602 0.0000000000000000
7.1956424713134766 6.0127010345458984 0.0000000000000000
4.2882690429687500 3.2874188423156738 0.0000000000000000
3.5562698841094971 6.4974308013916016 0.0000000000000000
3.7307488918304443 5.8269405364990234 0.0000000000000000
3.5903522968292236 5.9693794250488281 0.0000000000000000
3.6435093879699707 6.1621856689453125 0.0000000000000000
3.4499554634094238 6.1118178367614746 0.0000000000000000
5.4686665534973145 4.3104834556579590 0.0000000000000000
3.5031125545501709 6.3046245574951172 0.0000000000000000
5.0324687957763672 5.9867091178894043 0.0000000000000000
7.5405302047729492 2.7020678520202637 0.0000000000000000
7.3360395431518555 5.8702645301818848 0.0000000000000000
4.2964024543762207 7.2269535064697266 0.0000000000000000
4.1560058593750000 7.3693923950195312 0.0000000000000000
3.9624521732330322 7.3190245628356934 0.0000000000000000
4.3495597839355469 7.4197597503662109 0.0000000000000000
2.3414826393127441 6.0025053024291992 0.0000000000000000
2.4821059703826904 5.8600015640258789 0.0000000000000000
7.7040996551513672 5.2501683235168457 0.0000000000000000
7.5636811256408691 5.3925876617431641 0.0000000000000000
4.8689303398132324 3.4385223388671875 0.0000000000000000
5.0093274116516113 3.2960836887359619 0.0000000000000000
3.3627159595489502 6.4470629692077637 0.0000000000000000
6.0152454376220703 4.9896383285522461 0.0000000000000000
4.8500113487243652 2.7178173065185547 0.0000000000000000
5.2641716003417969 7.4787926673889160 0.0000000000000000
3.4118063449859619 4.6701021194458008 0.0000000000000000
3.3586490154266357 4.4772958755493164 0.0000000000000000
3.2182524204254150 4.6197342872619629 0.0000000000000000
3.1650953292846680 4.4269280433654785 0.0000000000000000
3.0246984958648682 4.5693664550781250 0.0000000000000000
6.2578897476196289 3.2630453109741211 0.0000000000000000
6.1174931526184082 3.4054839611053467 0.0000000000000000
6.0643358230590820 3.2126774787902832 0.0000000000000000
3.1500873565673828 5.6758375167846680 0.0000000000000000
6.3532629013061523 6.8673348426818848 0.0000000000000000
2.8352115154266357 6.4887661933898926 0.0000000000000000
7.3169651031494141 5.1494064331054688 0.0000000000000000
3.3054919242858887 4.2844891548156738 0.0000000000000000
3.1119382381439209 4.2341213226318359 0.0000000000000000
3.2523348331451416 4.0916829109191895 0.0000000000000000
3.0587811470031738 4.0413150787353516 0.0000000000000000
3.3927316665649414 3.9492442607879639 0.0000000000000000
5.2369632720947266 2.8183999061584473 0.0000000000000000
3.2564017772674561 6.0614500045776367 0.0000000000000000
6.5721111297607422 2.4504590034484863 0.0000000000000000
4.5881371498107910 3.7233994007110596 0.0000000000000000
4.2351117134094238 3.0946123600006104 0.0000000000000000
4.1478724479675293 3.4298574924468994 0.0000000000000000
4.0074753761291504 3.5722961425781250 0.0000000000000000
3.9543185234069824 3.3794896602630615 0.0000000000000000
2.0568337440490723 4.3175373077392578 0.0000000000000000
6.7703862190246582 4.4702515602111816 0.0000000000000000
6.5768322944641113 4.4198837280273438 0.0000000000000000
6.5236754417419434 4.2270774841308594 0.0000000000000000
6.6640720367431641 4.0846390724182129 0.0000000000000000
6.6109147071838379 3.8918323516845703 0.0000000000000000
6.7513117790222168 3.7493939399719238 0.0000000000000000
3.2141852378845215 2.6499686241149902 0.0000000000000000
3.2673428058624268 2.8427734375000000 0.0000000000000000
4.9943194389343262 4.5449929237365723 0.0000000000000000
3.2714095115661621 4.8125405311584473 0.0000000000000000
4.7326006889343262 5.5507283210754395 0.0000000000000000
3.0478401184082031 7.2599916458129883 0.0000000000000000
3.2413938045501709 7.3103594779968262 0.0000000000000000
3.3817906379699707 7.1679210662841797 0.0000000000000000
2.4479329586029053 6.3881068229675293 0.0000000000000000
3.1991777420043945 3.8988764286041260 0.0000000000000000
5.9129981994628906 6.5737929344177246 0.0000000000000000
4.1669468879699707 4.1507153511047363 0.0000000000000000
2.1972599029541016 4.1751050949096680 0.0000000000000000
5.2069478034973145 5.3162188529968262 0.0000000000000000
5.3473443984985352 5.1737799644470215 0.0000000000000000
5.1537904739379883 5.1234121322631836 0.0000000000000000
6.9448657035827637 3.7997615337371826 0.0000000000000000
3.0969302654266357 5.4830307960510254 0.0000000000000000
4.9561700820922852 3.1032772064208984 0.0000000000000000
6.2769641876220703 3.9839031696319580 0.0000000000000000
6.6490640640258789 5.3335485458374023 0.0000000000000000
6.4555106163024902 5.2831807136535645 0.0000000000000000
3.9092948436737061 7.1262178421020508 0.0000000000000000
5.1387829780578613 6.3723216056823730 0.0000000000000000
5.2560381889343262 3.5392577648162842 0.0000000000000000
2.9183843135833740 4.1837534904479980 0.0000000000000000
7.8785853385925293 4.5796375274658203 0.0000000000000000
2.8802354335784912 2.7420394420623779 0.0000000000000000
7.2447333335876465 4.2357420921325684 0.0000000000000000
7.1043367385864258 4.3781809806823730 0.0000000000000000
3.4990458488464355 4.3348569869995117 0.0000000000000000
5.5599732398986816 5.9450058937072754 0.0000000000000000
2.4099578857421875 4.9463186264038086 0.0000000000000000
4.4177246093750000 6.3636569976806641 0.0000000000000000
6.5468168258666992 6.9177026748657227 0.0000000000000000
5.0474762916564941 4.7377996444702148 0.0000000000000000
5.1878733634948730 4.5953607559204102 0.0000000000000000
3.5140535831451416 3.0859475135803223 0.0000000000000000
3.3736569881439209 3.2283861637115479 0.0000000000000000
4.9752445220947266 3.8241350650787354 0.0000000000000000
6.8194766044616699 2.6932907104492188 0.0000000000000000
2.3799369335174561 7.4441323280334473 0.0000000000000000
2.4330961704254150 7.6369400024414062 0.0000000000000000
4.6262865066528320 5.1651153564453125 0.0000000000000000
4.0687584877014160 7.7046718597412109 0.0000000000000000
7.6509461402893066 5.0573639869689941 0.0000000000000000
3.9433774948120117 6.5981664657592773 0.0000000000000000
3.8139216899871826 3.5219283103942871 0.0000000000000000
2.8883686065673828 6.6815724372863770 0.0000000000000000
5.1347160339355469 4.4025545120239258 0.0000000000000000
2.9524667263031006 3.6557021141052246 0.0000000000000000
3.9733932018280029 4.1003475189208984 0.0000000000000000
2.5122046470642090 3.3621678352355957 0.0000000000000000
2.3188390731811523 3.3119671344757080 0.0000000000000000
2.2658228874206543 3.1195154190063477 0.0000000000000000
2.4059498310089111 2.9768114089965820 0.0000000000000000
2.2121014595031738 2.9280204772949219 0.0000000000000000
2.1786229610443115 3.4544391632080078 0.0000000000000000
2.5162689685821533 5.3319272994995117 0.0000000000000000
2.3758716583251953 5.4743661880493164 0.0000000000000000
4.6944513320922852 4.1090121269226074 0.0000000000000000
5.7644677162170410 2.7766969203948975 0.0000000000000000
2.3227143287658691 5.2815604209899902 0.0000000000000000
7.4382872581481934 4.2861099243164062 0.0000000000000000
7.3851304054260254 4.0933036804199219 0.0000000000000000
2.6267099380493164 7.6874666213989258 0.0000000000000000
6.5277419090270996 6.1968450546264648 0.0000000000000000
3.3395745754241943 3.7564377784729004 0.0000000000000000
5.8898568153381348 3.8831677436828613 0.0000000000000000
5.4643568992614746 2.3404393196105957 0.0000000000000000
3.7688982486724854 7.2686567306518555 0.0000000000000000
3.5753443241119385 7.2182888984680176 0.0000000000000000
3.6284990310668945 7.4111075401306152 0.0000000000000000
5.1728653907775879 5.8442702293395996 0.0000000000000000
3.9393105506896973 4.6283988952636719 0.0000000000000000
2.5802984237670898 2.3068761825561523 0.0000000000000000
3.3967983722686768 5.9190115928649902 0.0000000000000000
5.3432779312133789 3.2040128707885742 0.0000000000000000
6.5386829376220703 2.9781680107116699 0.0000000000000000
7.5105218887329102 5.1997771263122559 0.0000000000000000
3.3014001846313477 2.3148057460784912 0.0000000000000000
7.3891968727111816 6.0630640983581543 0.0000000000000000
2.9865493774414062 3.1276507377624512 0.0000000000000000
4.5540547370910645 4.2514510154724121 0.0000000000000000
4.5199723243713379 4.7795023918151855 0.0000000000000000
5.5940556526184082 5.4169545173645020 0.0000000000000000
6.4023532867431641 5.0903739929199219 0.0000000000000000
4.4558601379394531 7.8054614067077637 0.0000000000000000
5.8257732391357422 6.9090523719787598 0.0000000000000000
5.9661722183227539 6.7666163444519043 0.0000000000000000
6.3151135444641113 5.4256191253662109 0.0000000000000000
2.2314169406890869 3.6470875740051270 0.0000000000000000
4.4286656379699707 3.1449801921844482 0.0000000000000000
3.7416853904724121 2.6082539558410645 0.0000000000000000
6.3451275825500488 2.9278073310852051 0.0000000000000000
7.1765685081481934 5.2918453216552734 0.0000000000000000
3.7948462963104248 2.8010687828063965 0.0000000000000000
3.9352405071258545 2.6586217880249023 0.0000000000000000
4.1328644752502441 4.6787667274475098 0.0000000000000000
4.1137900352478027 3.9579088687896729 0.0000000000000000
2.5735025405883789 7.4945273399353027 0.0000000000000000
2.5884308815002441 6.2456169128417969 0.0000000000000000
2.6416132450103760 6.4384222030639648 0.0000000000000000
2.9906160831451416 5.0974178314208984 0.0000000000000000
3.8370630741119385 6.2125535011291504 0.0000000000000000
4.4625506401062012 2.6169779300689697 0.0000000000000000
3.8670787811279297 3.7147347927093506 0.0000000000000000
5.0435910224914551 2.7682106494903564 0.0000000000000000
2.6716732978820801 3.9405794143676758 0.0000000000000000
5.9048686027526855 2.6342425346374512 0.0000000000000000
6.0343203544616699 5.7104964256286621 0.0000000000000000
4.1860213279724121 4.8715734481811523 0.0000000000000000
4.2050962448120117 5.5924310684204102 0.0000000000000000
4.3454928398132324 5.4499926567077637 0.0000000000000000
2.6948029994964600 6.6312155723571777 0.0000000000000000
2.6075794696807861 6.9664535522460938 0.0000000000000000
6.3832788467407227 4.3695163726806641 0.0000000000000000
6.7212958335876465 6.2472124099731445 0.0000000000000000
6.2278742790222168 5.7608642578125000 0.0000000000000000
2.2353658676147461 5.6168346405029297 0.0000000000000000
4.5922040939331055 5.6931667327880859 0.0000000000000000
4.5240387916564941 6.7492699623107910 0.0000000000000000
3.5221872329711914 7.0254821777343750 0.0000000000000000
3.3286335468292236 6.9751143455505371 0.0000000000000000
4.0456247329711914 5.0140118598937988 0.0000000000000000
4.9111466407775879 6.8500056266784668 0.0000000000000000
5.3964347839355469 3.3968191146850586 0.0000000000000000
2.7288856506347656 6.1031575202941895 0.0000000000000000
4.3645677566528320 6.1708507537841797 0.0000000000000000
7.0020895004272461 5.9623351097106934 0.0000000000000000
3.2945654392242432 7.5031738281250000 0.0000000000000000
3.1010067462921143 7.4527974128723145 0.0000000000000000
6.0493278503417969 4.4615869522094727 0.0000000000000000
3.6966664791107178 6.3549923896789551 0.0000000000000000
5.2028808593750000 3.3464515209197998 0.0000000000000000
3.1269459724426270 2.9852120876312256 0.0000000000000000
5.5790476799011230 6.6658639907836914 0.0000000000000000
6.3780450820922852 2.4017791748046875 0.0000000000000000
3.0056240558624268 3.8485085964202881 0.0000000000000000
6.9489321708679199 5.7695288658142090 0.0000000000000000
6.9639401435852051 4.5206193923950195 0.0000000000000000
2.5544078350067139 6.7736768722534180 0.0000000000000000
6.8767004013061523 4.8558645248413086 0.0000000000000000
6.6258120536804199 2.6429862976074219 0.0000000000000000
4.4708819389343262 6.5564632415771484 0.0000000000000000
6.1747169494628906 5.5680580139160156 0.0000000000000000
3.6012923717498779 2.7507007122039795 0.0000000000000000
5.2982540130615234 6.9507412910461426 0.0000000000000000
5.6963028907775879 3.8327999114990234 0.0000000000000000
6.9680056571960449 6.4903850555419922 0.0000000000000000
6.7744526863098145 6.4400186538696289 0.0000000000000000
4.5390467643737793 5.5003604888916016 0.0000000000000000
6.4364356994628906 4.5623226165771484 0.0000000000000000
3.0737888813018799 2.7924056053161621 0.0000000000000000
5.7385859489440918 7.2443513870239258 0.0000000000000000
5.8790979385375977 7.1020283699035645 0.0000000000000000
5.5749807357788086 4.6960964202880859 0.0000000000000000
5.3814268112182617 4.6457285881042480 0.0000000000000000
5.2410302162170410 4.7881674766540527 0.0000000000000000
6.0002379417419434 6.2385478019714355 0.0000000000000000
4.5008974075317383 4.0586447715759277 0.0000000000000000
5.4106054306030273 2.1464896202087402 0.0000000000000000
4.7966113090515137 2.5253319740295410 0.0000000000000000
5.2941875457763672 4.9809737205505371 0.0000000000000000
5.0965971946716309 2.9608683586120605 0.0000000000000000
7.5977640151977539 4.8645339012145996 0.0000000000000000
3.9052281379699707 5.1564507484436035 0.0000000000000000
4.3073434829711914 4.0082769393920898 0.0000000000000000
7.1615471839904785 6.5407366752624512 0.0000000000000000
5.4195761680603027 6.0874443054199219 0.0000000000000000
3.4608962535858154 2.8931410312652588 0.0000000000000000
5.9239392280578613 3.3551161289215088 0.0000000000000000
2.9715414047241211 4.3765602111816406 0.0000000000000000
3.3204998970031738 3.0355799198150635 0.0000000000000000
5.8707818984985352 3.1623096466064453 0.0000000000000000
6.0111784934997559 3.0198724269866943 0.0000000000000000
2.5352239608764648 6.0528211593627930 0.0000000000000000
5.2260222434997559 6.0370764732360840 0.0000000000000000
2.8843021392822266 4.7118048667907715 0.0000000000000000
5.9580211639404297 2.8270659446716309 0.0000000000000000
5.1497287750244141 3.1536500453948975 0.0000000000000000
6.1897249221801758 4.3191485404968262 0.0000000000000000
7.9126415252685547 4.0516066551208496 0.0000000000000000
4.6560821533203125 2.6674623489379883 0.0000000000000000
6.9789481163024902 3.2717101573944092 0.0000000000000000
6.4855041503906250 2.7853851318359375 0.0000000000000000
3.0778558254241943 4.7621726989746094 0.0000000000000000
2.7779877185821533 4.3261923789978027 0.0000000000000000
7.0170969963073730 4.7134261131286621 0.0000000000000000
4.4858894348144531 5.3075537681579590 0.0000000000000000
4.7516751289367676 6.2715859413146973 0.0000000000000000
2.8652272224426270 3.9909472465515137 0.0000000000000000
3.1610209941864014 2.4571785926818848 0.0000000000000000
6.7661709785461426 2.5005311965942383 0.0000000000000000
4.0606327056884766 3.7651026248931885 0.0000000000000000
3.3436412811279297 5.7262048721313477 0.0000000000000000
2.6225697994232178 5.7175440788269043 0.0000000000000000
6.2047324180603027 3.0702400207519531 0.0000000000000000
5.0624842643737793 3.4888899326324463 0.0000000000000000
4.7816910743713379 3.7737672328948975 0.0000000000000000
7.2143568992614746 6.7337288856506348 0.0000000000000000
4.6412940025329590 3.9162058830261230 0.0000000000000000
5.5408983230590820 5.2241477966308594 0.0000000000000000
5.7494602203369141 4.0256061553955078 0.0000000000000000
4.9220876693725586 3.6313285827636719 0.0000000000000000
4.4327325820922852 5.1147475242614746 0.0000000000000000
5.4386510848999023 6.8083024024963379 0.0000000000000000
4.3795752525329590 4.9219412803649902 0.0000000000000000
6.4705181121826172 4.0342712402343750 0.0000000000000000
7.9916033744812012 4.9664053916931152 0.0000000000000000
4.9452290534973145 6.3219537734985352 0.0000000000000000
6.3301215171813965 4.1767096519470215 0.0000000000000000
6.8917083740234375 3.6069552898406982 0.0000000000000000
7.7924947738647461 4.9150967597961426 0.0000000000000000
6.6981544494628906 3.5565874576568604 0.0000000000000000
7.8594489097595215 3.8589222431182861 0.0000000000000000
5.4155097007751465 4.1176772117614746 0.0000000000000000
5.6090631484985352 4.1680450439453125 0.0000000000000000
5.0856256484985352 6.1795153617858887 0.0000000000000000
6.5577578544616699 3.6990261077880859 0.0000000000000000
5.5107665061950684 7.7221140861511230 0.0000000000000000
3.7648315429687500 5.2988891601562500 0.0000000000000000
4.6112785339355469 6.4140248298645020 0.0000000000000000
5.8598408699035645 6.3809866905212402 0.0000000000000000
2.4289660453796387 5.6671900749206543 0.0000000000000000
5.7726068496704102 6.7162370681762695 0.0000000000000000
7.8062319755554199 3.6662826538085938 0.0000000000000000
6.6004114151000977 7.1098885536193848 0.0000000000000000
3.4349472522735596 7.3607430458068848 0.0000000000000000
6.1365675926208496 4.1263418197631836 0.0000000000000000
5.3282699584960938 4.4529223442077637 0.0000000000000000
6.1597266197204590 6.8169846534729004 0.0000000000000000
3.1310129165649414 4.9549794197082520 0.0000000000000000
7.7531023025512695 3.4734182357788086 0.0000000000000000
3.5712776184082031 5.2485213279724121 0.0000000000000000
3.5181205272674561 5.0557150840759277 0.0000000000000000
5.9430136680603027 4.0759739875793457 0.0000000000000000
7.3128962516784668 3.1796479225158691 0.0000000000000000
7.3660554885864258 3.3724477291107178 0.0000000000000000
7.1193428039550781 3.1292779445648193 0.0000000000000000
7.5596065521240234 3.4228615760803223 0.0000000000000000
3.6815881729125977 7.6041188240051270 0.0000000000000000
4.9301877021789551 7.5710449218750000 0.0000000000000000
3.3245666027069092 5.0053472518920898 0.0000000000000000
4.0156006813049316 7.5118579864501953 0.0000000000000000
6.4064202308654785 7.0601415634155273 0.0000000000000000
4.2091598510742188 7.5622134208679199 0.0000000000000000
4.8770551681518555 7.3781042098999023 0.0000000000000000
3.8220348358154297 7.4615268707275391 0.0000000000000000
5.1237406730651855 7.6214351654052734 0.0000000000000000
4.6835069656372070 7.3277068138122559 0.0000000000000000
5.3172645568847656 7.6717519760131836 0.0000000000000000
4.5431137084960938 7.4701275825500488 0.0000000000000000
4.4027113914489746 7.6125974655151367 0.0000000000000000
7.3398156166076660 7.8403525352478027 0.0000000000000000
2.2164385318756104 4.8959121704101562 0.0000000000000000
2.3036382198333740 4.5606780052185059 0.0000000000000000
1.9658290147781372 2.6877200603485107 0.0000000000000000
3.0554189682006836 2.0709755420684814 0.0000000000000000
2.2780597209930420 1.8661029338836670 0.0000000000000000
1.8853409290313721 6.9626145362854004 0.0000000000000000
3.4417490959167480 2.1727085113525391 0.0000000000000000
3.2483308315277100 2.1221845149993896 0.0000000000000000
2.0793938636779785 7.0099606513977051 0.0000000000000000
2.0189378261566162 2.8790473937988281 0.0000000000000000
7.9644799232482910 2.2684907913208008 0.0000000000000000
2.1260130405426025 3.2621140480041504 0.0000000000000000
2.0461308956146240 8.2630977630615234 0.0000000000000000
8.1042089462280273 2.1296372413635254 0.0000000000000000
7.3467059135437012 2.6526448726654053 0.0000000000000000
7.2934064865112305 2.4587523937225342 0.0000000000000000
7.6810979843139648 2.5598378181457520 0.0000000000000000
5.5636749267578125 7.9157066345214844 0.0000000000000000
2.3001077175140381 2.5915689468383789 0.0000000000000000
1.3419682979583740 6.8503117561340332 0.0000000000000000
1.2894406318664551 7.0195360183715820 0.0000000000000000
4.6312932968139648 1.9469381570816040 0.0000000000000000
4.3362283706665039 1.5235129594802856 0.0000000000000000
8.0082712173461914 7.6564126014709473 0.0000000000000000
8.4754590988159180 8.1449527740478516 0.0000000000000000
1.5686233043670654 7.7566657066345215 0.0000000000000000
5.6157007217407227 8.1085433959960938 0.0000000000000000
2.5287096500396729 2.1128370761871338 0.0000000000000000
4.1635107994079590 8.6154899597167969 0.0000000000000000
8.3541994094848633 6.3373956680297852 0.0000000000000000
7.6852507591247559 6.5065531730651855 0.0000000000000000
1.3472105264663696 7.5357856750488281 0.0000000000000000
5.9512338638305664 8.0227594375610352 0.0000000000000000
8.2777614593505859 3.4392619132995605 0.0000000000000000
1.5478380918502808 8.1159067153930664 0.0000000000000000
8.1194581985473633 1.4374432563781738 0.0000000000000000
4.8242344856262207 1.9948048591613770 0.0000000000000000
1.9285587072372437 8.5568151473999023 0.0000000000000000
2.1592698097229004 2.7359161376953125 0.0000000000000000
1.5633167028427124 1.8587230443954468 0.0000000000000000
4.7068147659301758 8.7285585403442383 0.0000000000000000
6.6746878623962402 8.0261144638061523 0.0000000000000000
1.7195292711257935 6.3655714988708496 0.0000000000000000
2.2452852725982666 2.4020652770996094 0.0000000000000000
5.8825411796569824 1.9128329753875732 0.0000000000000000
2.3871452808380127 2.2579212188720703 0.0000000000000000
5.1054773330688477 1.6787827014923096 0.0000000000000000
1.7823120355606079 1.4161020517349243 0.0000000000000000
8.1584148406982422 1.6184595823287964 0.0000000000000000
5.1392183303833008 8.3325595855712891 0.0000000000000000
5.1995511054992676 8.5242204666137695 0.0000000000000000
5.3975348472595215 8.5675134658813477 0.0000000000000000
8.3093519210815430 2.9001650810241699 0.0000000000000000
1.0720674991607666 7.3561897277832031 0.0000000000000000
8.3442430496215820 4.8530030250549316 0.0000000000000000
3.3428814411163330 8.4185533523559570 0.0000000000000000
1.6117769479751587 1.3566058874130249 0.0000000000000000
1.4296499490737915 1.2413673400878906 0.0000000000000000
1.2410004138946533 1.4374727010726929 0.0000000000000000
4.7374124526977539 2.3337411880493164 0.0000000000000000
1.4431852102279663 3.4035587310791016 0.0000000000000000
6.3428854942321777 1.6844099760055542 0.0000000000000000
8.5235681533813477 5.6309266090393066 0.0000000000000000
4.9352121353149414 2.3834855556488037 0.0000000000000000
1.4113274812698364 3.7962901592254639 0.0000000000000000
2.3716013431549072 8.6875934600830078 0.0000000000000000
8.2550992965698242 2.7057292461395264 0.0000000000000000
8.5455236434936523 3.7022113800048828 0.0000000000000000
8.0144958496093750 6.4231224060058594 0.0000000000000000
8.6017007827758789 6.7400813102722168 0.0000000000000000
6.3229513168334961 2.2083063125610352 0.0000000000000000
6.4317889213562012 7.7848577499389648 0.0000000000000000
7.0785598754882812 1.6966450214385986 0.0000000000000000
1.2710087299346924 3.2305269241333008 0.0000000000000000
7.2757673263549805 1.7451618909835815 0.0000000000000000
6.5713152885437012 7.6370515823364258 0.0000000000000000
6.5166759490966797 7.4443211555480957 0.0000000000000000
2.6471631526947021 1.2438656091690063 0.0000000000000000
2.6378467082977295 1.0374782085418701 0.0000000000000000
8.7073898315429688 3.8117933273315430 0.0000000000000000
8.5386114120483398 6.3298683166503906 0.0000000000000000
8.7163534164428711 4.4657211303710938 0.0000000000000000
2.8892138004302979 8.6405124664306641 0.0000000000000000
2.7595424652099609 8.7998933792114258 0.0000000000000000
8.6750354766845703 6.9034099578857422 0.0000000000000000
7.6616196632385254 8.7282371520996094 0.0000000000000000
8.1838817596435547 6.9950575828552246 0.0000000000000000
4.8293361663818359 1.4587671756744385 0.0000000000000000
8.1239566802978516 0.8842443823814392 0.0000000000000000
9.1437644958496094 7.7897105216979980 0.0000000000000000
2.1808264255523682 8.5495767593383789 0.0000000000000000
8.5568151473999023 1.9285587072372437 0.0000000000000000
3.3830225467681885 9.1424617767333984 0.0000000000000000
8.5622444152832031 3.3998887538909912 0.0000000000000000
5.3222904205322266 1.2896678447723389 0.0000000000000000
6.1818146705627441 1.2714412212371826 0.0000000000000000
0.9799183607101440 6.2025208473205566 0.0000000000000000
7.6568150520324707 1.2714412212371826 0.0000000000000000
0.9783394336700439 7.6724047660827637 0.0000000000000000
5.2900543212890625 8.9683475494384766 0.0000000000000000
5.2988219261169434 9.1278514862060547 0.0000000000000000
6.2025127410888672 9.0201196670532227 0.0000000000000000
8.7285585403442383 6.1818146705627441 0.0000000000000000
7.6831068992614746 9.0235958099365234 0.0000000000000000
1.8760429620742798 9.1157560348510742 0.0000000000000000
2.2036895751953125 9.1350460052490234 0.0000000000000000
2.3426585197448730 8.9864568710327148 0.0000000000000000
9.0111560821533203 2.3286576271057129 0.0000000000000000
9.0192947387695312 3.7964558601379395 0.0000000000000000
8.7126617431640625 3.2168157100677490 0.0000000000000000
3.6834087371826172 9.1347780227661133 0.0000000000000000
3.6933786869049072 9.3923091888427734 0.0000000000000000
9.1424617767333984 3.3830225467681885 0.0000000000000000
8.7285585403442383 8.2431850433349609 0.0000000000000000
1.7487705945968628 8.7279634475708008 0.0000000000000000
5.1306538581848145 1.4733265638351440 0.0000000000000000
1.4434703588485718 4.8818931579589844 0.0000000000000000
6.5992641448974609 1.4500000476837158 0.0000000000000000
1.4310644865036011 6.3659648895263672 0.0000000000000000
4.8640623092651367 0.8687888383865356 0.0000000000000000
4.7143983840942383 0.9058966636657715 0.0000000000000000
4.7603912353515625 0.7097272872924805 0.0000000000000000
5.1383876800537109 0.8682713508605957 0.0000000000000000
5.2883086204528809 0.9082598686218262 0.0000000000000000
5.2522363662719727 0.7132362127304077 0.0000000000000000
0.8687888383865356 5.1359376907348633 0.0000000000000000
0.9058966636657715 5.2856016159057617 0.0000000000000000
0.7097272872924805 5.2396087646484375 0.0000000000000000
0.8682713508605957 4.8616123199462891 0.0000000000000000
0.9077423810958862 4.7120041847229004 0.0000000000000000
0.7131142020225525 4.7478375434875488 0.0000000000000000
6.3147668838500977 0.8657860159873962 0.0000000000000000
6.6120238304138184 0.8551254272460938 0.0000000000000000
0.8575379848480225 6.6169772148132324 0.0000000000000000
0.8577919602394104 6.3214883804321289 0.0000000000000000
0.6066588163375854 6.3077526092529297 0.0000000000000000
7.7963104248046875 0.8649537563323975 0.0000000000000000
0.8480262160301208 7.7943668365478516 0.0000000000000000
8.7285585403442383 1.7568148374557495 0.0000000000000000
8.6650114059448242 1.5948101282119751 0.0000000000000000
3.8503568172454834 8.7114334106445312 0.0000000000000000
1.4443621635437012 5.1150903701782227 0.0000000000000000
1.2813940048217773 4.7023220062255859 0.0000000000000000
1.1813181638717651 4.4211444854736328 0.0000000000000000
6.1824560165405273 1.0097612142562866 0.0000000000000000
1.2742640972137451 6.1750001907348633 0.0000000000000000
7.6573414802551270 1.0135431289672852 0.0000000000000000
2.3413665294647217 1.2722284793853760 0.0000000000000000
2.2088901996612549 0.8554056286811829 0.0000000000000000
0.9775215983390808 2.3198099136352539 0.0000000000000000
3.7958171367645264 0.9814717769622803 0.0000000000000000
3.8173902034759521 8.9903917312622070 0.0000000000000000
3.2253837585449219 8.7309274673461914 0.0000000000000000
3.8538606166839600 1.2884520292282104 0.0000000000000000
3.6776492595672607 0.8599593639373779 0.0000000000000000
0.8575379848480225 3.3830225467681885 0.0000000000000000
1.2714412212371826 1.7568148374557495 0.0000000000000000
3.6565535068511963 1.4637216329574585 0.0000000000000000
3.3879764080047607 0.8551254272460938 0.0000000000000000
0.8659229278564453 3.6819553375244141 0.0000000000000000
0.6080464720726013 3.6928114891052246 0.0000000000000000
1.8760429620742798 0.8842443823814392 0.0000000000000000
0.8842443823814392 1.8760429620742798 0.0000000000000000
4.7152252197265625 1.2953249216079712 0.0000000000000000
1.2741305828094482 5.2858743667602539 0.0000000000000000
6.7780461311340332 1.2917374372482300 0.0000000000000000
5.2970433235168457 8.6998386383056641 0.0000000000000000
4.7090554237365723 8.9674701690673828 0.0000000000000000
4.6996254920959473 9.1244344711303711 0.0000000000000000
8.9683475494384766 5.2900543212890625 0.0000000000000000
9.1278514862060547 5.2988219261169434 0.0000000000000000
8.7175312042236328 4.6770949363708496 0.0000000000000000
8.9674701690673828 4.7090554237365723 0.0000000000000000
9.1244344711303711 4.6996254920959473 0.0000000000000000
8.9742641448974609 6.1750001907348633 0.0000000000000000
9.0117826461791992 7.6614851951599121 0.0000000000000000
1.0118086338043213 3.8126220703125000 0.0000000000000000
2.3403136730194092 1.0004153251647949 0.0000000000000000
8.7285585403442383 2.3431851863861084 0.0000000000000000
2.1929574012756348 1.4646660089492798 0.0000000000000000
0.8570479750633240 2.1994671821594238 0.0000000000000000
3.4024133682250977 1.4417580366134644 0.0000000000000000
1.4408084154129028 3.6456706523895264 0.0000000000000000
0.8838657736778259 8.1241140365600586 0.0000000000000000
9.1157560348510742 1.8760429620742798 0.0000000000000000
9.1401681900024414 3.6777555942535400 0.0000000000000000
8.5434761047363281 5.1304988861083984 0.0000000000000000
8.5442590713500977 4.8710279464721680 0.0000000000000000
6.6169881820678711 9.1424398422241211 0.0000000000000000
6.3214783668518066 9.1422529220581055 0.0000000000000000
6.3077397346496582 9.3933992385864258 0.0000000000000000
9.1424617767333984 6.6169772148132324 0.0000000000000000
9.1499996185302734 6.3507361412048340 0.0000000000000000
9.3660278320312500 6.3001794815063477 0.0000000000000000
8.1239566802978516 9.1157560348510742 0.0000000000000000
7.8018283843994141 9.1432685852050781 0.0000000000000000
7.8207964897155762 8.5349769592285156 0.0000000000000000
9.1157560348510742 8.1239566802978516 0.0000000000000000
8.5702390670776367 7.7925009727478027 0.0000000000000000
9.1487808227539062 2.2048516273498535 0.0000000000000000
6.1818146705627441 8.7285585403442383 0.0000000000000000
0.8160036802291870 9.1843948364257812 0.0000000000000000
9.1741762161254883 9.1741762161254883 0.0000000000000000
0.7857648730278015 0.7857648730278015 0.0000000000000000
9.1741762161254883 0.8258241415023804 0.0000000000000000
7.8386654853820801 8.3357620239257812 0.0000000000000000
1.4054698944091797 7.6967711448669434 0.0000000000000000
8.5596885681152344 6.5967922210693359 0.0000000000000000
6.3053007125854492 0.6068185567855835 0.0000000000000000
3.6904535293579102 0.6081547737121582 0.0000000000000000
9.3918437957763672 3.6904842853546143 0.0000000000000000
4.5363826751708984 8.6898880004882812 0.0000000000000000
1.3444291353225708 8.7459430694580078 0.0000000000000000
8.8397111892700195 5.5743789672851562 0.0000000000000000
6.3533086776733398 8.5712213516235352 0.0000000000000000
1.9303355216979980 1.4400610923767090 0.0000000000000000
1.3902816772460938 5.7458562850952148 0.0000000000000000
4.4261574745178223 8.8383979797363281 0.0000000000000000
1.8938324451446533 8.3878221511840820 0.0000000000000000
7.3861813545227051 1.0006253719329834 0.0000000000000000
7.3826074600219727 9.0051937103271484 0.0000000000000000
2.6212549209594727 8.9519767761230469 0.0000000000000000
8.5490951538085938 1.2031599283218384 0.0000000000000000
8.7666759490966797 1.2531068325042725 0.0000000000000000
8.2388362884521484 8.7303600311279297 0.0000000000000000
3.0679957866668701 8.6824617385864258 0.0000000000000000
9.0471611022949219 2.4997298717498779 0.0000000000000000
3.5092103481292725 8.2697086334228516 0.0000000000000000
1.7605335712432861 1.2728258371353149 0.0000000000000000
9.0324363708496094 7.4534091949462891 0.0000000000000000
7.3941435813903809 8.7128181457519531 0.0000000000000000
8.4341173171997070 8.6452140808105469 0.0000000000000000
8.6433906555175781 8.6891336441040039 0.0000000000000000
8.7843532562255859 8.5436401367187500 0.0000000000000000
4.3491334915161133 8.6528110504150391 0.0000000000000000
7.9886798858642578 6.9522261619567871 0.0000000000000000
4.0754523277282715 1.2743345499038696 0.0000000000000000
6.7609128952026367 8.7094516754150391 0.0000000000000000
2.5746839046478271 8.7218599319458008 0.0000000000000000
2.9490883350372314 8.8318796157836914 0.0000000000000000
3.4039862155914307 8.5578470230102539 0.0000000000000000
6.6155323982238770 8.3464965820312500 0.0000000000000000
4.8799042701721191 8.5600633621215820 0.0000000000000000
7.5895872116088867 6.8439664840698242 0.0000000000000000
8.8119926452636719 1.4590137004852295 0.0000000000000000
4.9273705482482910 8.2872419357299805 0.0000000000000000
5.9650106430053711 8.7103929519653320 0.0000000000000000
1.4396158456802368 7.8300371170043945 0.0000000000000000
7.0820760726928711 1.1735581159591675 0.0000000000000000
8.3268041610717773 3.6512641906738281 0.0000000000000000
6.3745260238647461 8.3087577819824219 0.0000000000000000
1.6658347845077515 8.6027774810791016 0.0000000000000000
7.7902493476867676 6.9039893150329590 0.0000000000000000
0.9695304632186890 4.5335636138916016 0.0000000000000000
1.7049727439880371 4.9219112396240234 0.0000000000000000
1.4148062467575073 1.8151376247406006 0.0000000000000000
7.7933583259582520 0.6255447864532471 0.0000000000000000
7.7989082336425781 9.3928775787353516 0.0000000000000000
2.2066414356231689 9.3744554519653320 0.0000000000000000
0.6073474287986755 2.2021200656890869 0.0000000000000000
5.4593462944030762 9.0139884948730469 0.0000000000000000
9.0145778656005859 5.4574761390686035 0.0000000000000000
1.3446172475814819 4.3013787269592285 0.0000000000000000
4.8965744972229004 1.6904956102371216 0.0000000000000000
4.9117050170898438 0.5417398810386658 0.0000000000000000
5.1018309593200684 0.5442656874656677 0.0000000000000000
0.5417398810386658 5.0882949829101562 0.0000000000000000
0.5442482829093933 4.8981795310974121 0.0000000000000000
9.7311630249023438 6.3089570999145508 0.0000000000000000
6.3089570999145508 0.2688372433185577 0.0000000000000000
0.2688372433185577 6.3089570999145508 0.0000000000000000
0.2688372433185577 3.6910426616668701 0.0000000000000000
6.3089570999145508 9.7311630249023438 0.0000000000000000
3.6910426616668701 9.7311630249023438 0.0000000000000000
9.7311630249023438 3.6910426616668701 0.0000000000000000
3.6910426616668701 0.2688372433185577 0.0000000000000000
4.4243922233581543 1.1718560457229614 0.0000000000000000
5.5557947158813477 8.8378772735595703 0.0000000000000000
5.7165002822875977 1.3851565122604370 0.0000000000000000
9.7388353347778320 7.7996106147766113 0.0000000000000000
7.7996106147766113 0.2611643970012665 0.0000000000000000
0.2611643970012665 7.7996106147766113 0.0000000000000000
7.7996106147766113 9.7388353347778320 0.0000000000000000
0.2611643970012665 2.2003896236419678 0.0000000000000000
2.2003896236419678 9.7388353347778320 0.0000000000000000
9.7388353347778320 2.2003896236419678 0.0000000000000000
2.2003896236419678 0.2611643970012665 0.0000000000000000
1.3215265274047852 4.1099586486816406 0.0000000000000000
7.4971442222595215 1.3153933286666870 0.0000000000000000
1.3478282690048218 1.6245303153991699 0.0000000000000000
7.0559711456298828 8.8372793197631836 0.0000000000000000
9.0177230834960938 4.5398445129394531 0.0000000000000000
4.5415778160095215 9.0109634399414062 0.0000000000000000
9.4028091430664062 7.7848434448242188 0.0000000000000000
0.5962618589401245 7.7866468429565430 0.0000000000000000
2.2132554054260254 0.5968785881996155 0.0000000000000000
9.3956346511840820 2.2157289981842041 0.0000000000000000
1.2065894603729248 1.2119324207305908 0.0000000000000000
5.9402623176574707 1.2219512462615967 0.0000000000000000
3.2270047664642334 1.2650558948516846 0.0000000000000000
0.9227699637413025 7.4880433082580566 0.0000000000000000
2.4962449073791504 0.9226977825164795 0.0000000000000000
4.2973799705505371 1.3408327102661133 0.0000000000000000
8.8452653884887695 2.8775832653045654 0.0000000000000000
8.0459184646606445 8.3552818298339844 0.0000000000000000
8.7332944869995117 5.3013749122619629 0.0000000000000000
6.7891845703125000 1.0399833917617798 0.0000000000000000
8.9598817825317383 6.7891287803649902 0.0000000000000000
1.0401185750961304 6.7891287803649902 0.0000000000000000
1.0401185750961304 3.2108712196350098 0.0000000000000000
3.2108712196350098 8.9598817825317383 0.0000000000000000
6.7892260551452637 8.9596843719482422 0.0000000000000000
3.2108151912689209 1.0399833917617798 0.0000000000000000
8.9598817825317383 3.2108712196350098 0.0000000000000000
4.0617527961730957 8.7639369964599609 0.0000000000000000
6.9703097343444824 9.0014410018920898 0.0000000000000000
8.6928081512451172 2.4958887100219727 0.0000000000000000
8.7370624542236328 6.7619824409484863 0.0000000000000000
8.9703397750854492 1.7594747543334961 0.0000000000000000
1.7594747543334961 1.0296604633331299 0.0000000000000000
1.0296604633331299 1.7594747543334961 0.0000000000000000
1.0296604633331299 8.2405252456665039 0.0000000000000000
1.7594747543334961 8.9703397750854492 0.0000000000000000
8.2405252456665039 8.9703397750854492 0.0000000000000000
8.2405252456665039 1.0296604633331299 0.0000000000000000
8.9703397750854492 8.2405252456665039 0.0000000000000000
1.2688202857971191 7.6682271957397461 0.0000000000000000
8.7723512649536133 5.9280905723571777 0.0000000000000000
5.2118506431579590 9.3154449462890625 0.0000000000000000
5.0772709846496582 9.4832344055175781 0.0000000000000000
9.3154449462890625 5.2118506431579590 0.0000000000000000
9.4832344055175781 5.0772709846496582 0.0000000000000000
3.0337760448455811 0.9971908926963806 0.0000000000000000
9.0063190460205078 3.0319678783416748 0.0000000000000000
0.9976601600646973 3.0332014560699463 0.0000000000000000
0.9946494102478027 6.9569220542907715 0.0000000000000000
3.0333089828491211 9.0018920898437500 0.0000000000000000
6.9715580940246582 0.9990960955619812 0.0000000000000000
9.0000228881835938 6.9730448722839355 0.0000000000000000
7.8351569175720215 1.4209538698196411 0.0000000000000000
1.1226768493652344 5.5756807327270508 0.0000000000000000
9.3025226593017578 4.7265343666076660 0.0000000000000000
4.7265343666076660 9.3025226593017578 0.0000000000000000
3.6233384609222412 8.5812263488769531 0.0000000000000000
2.9512441158294678 1.1581650972366333 0.0000000000000000
1.1996037960052490 7.1853542327880859 0.0000000000000000
0.9304093718528748 2.4832804203033447 0.0000000000000000
1.2592211961746216 3.8090710639953613 0.0000000000000000
1.2565317153930664 8.2342166900634766 0.0000000000000000
1.2981984615325928 8.3471479415893555 0.0000000000000000
8.5762672424316406 2.1660404205322266 0.0000000000000000
1.3030349016189575 6.0138630867004395 0.0000000000000000
8.6836071014404297 5.6552910804748535 0.0000000000000000
5.7898864746093750 8.6320600509643555 0.0000000000000000
8.6344709396362305 4.2806692123413086 0.0000000000000000
5.2541761398315430 1.4098203182220459 0.0000000000000000
0.3721826076507568 4.9957847595214844 0.0000000000000000
5.0042176246643066 0.3721860945224762 0.0000000000000000
3.7868232727050781 1.4118232727050781 0.0000000000000000
8.7934684753417969 4.0666718482971191 0.0000000000000000
1.5503021478652954 6.2943291664123535 0.0000000000000000
5.5700740814208984 1.1222661733627319 0.0000000000000000
5.4727406501770020 0.9799681305885315 0.0000000000000000
8.7010459899902344 8.3969078063964844 0.0000000000000000
1.5568001270294189 8.7270164489746094 0.0000000000000000
1.1737153530120850 4.0757894515991211 0.0000000000000000
1.7010246515274048 3.4843885898590088 0.0000000000000000
1.1589213609695435 2.9521234035491943 0.0000000000000000
3.4630846977233887 1.6947154998779297 0.0000000000000000
1.1929543018341064 5.9220395088195801 0.0000000000000000
4.5343770980834961 0.9630728363990784 0.0000000000000000
0.9586327672004700 5.4654731750488281 0.0000000000000000
1.4500000476837158 1.9512209892272949 0.0000000000000000
6.0473465919494629 1.3022840023040771 0.0000000000000000
8.5160894393920898 8.8245658874511719 0.0000000000000000
5.4465546607971191 8.7175226211547852 0.0000000000000000
8.3635692596435547 5.1266365051269531 0.0000000000000000
7.2968306541442871 8.8548631668090820 0.0000000000000000
8.6104478836059570 8.1699514389038086 0.0000000000000000
8.5788974761962891 8.0612649917602539 0.0000000000000000
8.5962905883789062 4.7458338737487793 0.0000000000000000
1.2934389114379883 3.9496171474456787 0.0000000000000000
1.5338704586029053 1.0141648054122925 0.0000000000000000
8.9929027557373047 1.5447549819946289 0.0000000000000000
1.0136880874633789 1.5345526933670044 0.0000000000000000
1.5431509017944336 8.9578876495361328 0.0000000000000000
1.0149775743484497 8.4454774856567383 0.0000000000000000
8.4454002380371094 8.9929275512695312 0.0000000000000000
8.9891815185546875 8.4611454010009766 0.0000000000000000
8.4565553665161133 1.0085904598236084 0.0000000000000000
8.5960655212402344 3.2755064964294434 0.0000000000000000
1.4353783130645752 5.2605438232421875 0.0000000000000000
6.2419948577880859 8.6107635498046875 0.0000000000000000
0.9392120242118835 3.9627835750579834 0.0000000000000000
0.9371917247772217 6.0387225151062012 0.0000000000000000
6.0365591049194336 9.0642995834350586 0.0000000000000000
3.9621171951293945 0.9435925483703613 0.0000000000000000
2.3078291416168213 1.4006528854370117 0.0000000000000000
1.4386773109436035 6.5775904655456543 0.0000000000000000
8.6050100326538086 2.2739889621734619 0.0000000000000000
6.7019925117492676 1.4115066528320312 0.0000000000000000
7.7028074264526367 8.6096706390380859 0.0000000000000000
4.7005362510681152 1.0458831787109375 0.0000000000000000
1.0455595254898071 5.2994532585144043 0.0000000000000000
8.6313724517822266 1.8311077356338501 0.0000000000000000
1.0481463670730591 4.7002158164978027 0.0000000000000000
5.3000001907348633 1.0520089864730835 0.0000000000000000
6.0346150398254395 0.9391419887542725 0.0000000000000000
9.0509405136108398 6.0651268959045410 0.0000000000000000
3.9636821746826172 9.0648765563964844 0.0000000000000000
9.0600404739379883 3.9635045528411865 0.0000000000000000
1.4268624782562256 8.0657377243041992 0.0000000000000000
1.1261761188507080 7.0382065773010254 0.0000000000000000
8.9574766159057617 2.6670691967010498 0.0000000000000000
1.8152261972427368 8.6197004318237305 0.0000000000000000
9.4123001098632812 4.8819985389709473 0.0000000000000000
4.8819985389709473 9.4123001098632812 0.0000000000000000
6.3623414039611816 1.4176806211471558 0.0000000000000000
6.2525825500488281 1.3856922388076782 0.0000000000000000
1.3962501287460327 6.2537207603454590 0.0000000000000000
7.7236237525939941 1.3924779891967773 0.0000000000000000
7.5235824584960938 0.9238521456718445 0.0000000000000000
7.5236401557922363 9.0714912414550781 0.0000000000000000
2.4784736633300781 9.0668153762817383 0.0000000000000000
2.0192809104919434 1.6951913833618164 0.0000000000000000
6.9048123359680176 8.7192077636718750 0.0000000000000000
5.0979762077331543 8.5912322998046875 0.0000000000000000
8.8831987380981445 4.4343156814575195 0.0000000000000000
1.4315747022628784 6.9919085502624512 0.0000000000000000
5.0981736183166504 9.1499996185302734 0.0000000000000000
9.1499996185302734 5.0981736183166504 0.0000000000000000
9.1829538345336914 4.8949871063232422 0.0000000000000000
4.8949871063232422 9.1829538345336914 0.0000000000000000
4.5682821273803711 1.2855933904647827 0.0000000000000000
8.8194408416748047 8.7905197143554688 0.0000000000000000
1.6766630411148071 8.0132217407226562 0.0000000000000000
4.7743024826049805 8.6206884384155273 0.0000000000000000
4.9125037193298340 9.6912555694580078 0.0000000000000000
9.6912555694580078 4.9125037193298340 0.0000000000000000
1.5595068931579590 6.6160264015197754 0.0000000000000000
2.2717254161834717 8.6151027679443359 0.0000000000000000
8.3245048522949219 6.5373711585998535 0.0000000000000000
1.5611652135848999 5.1502451896667480 0.0000000000000000
1.5559492111206055 3.7024042606353760 0.0000000000000000
1.5683413743972778 4.8610157966613770 0.0000000000000000
2.7823143005371094 1.1434237957000732 0.0000000000000000
1.2407281398773193 2.3094253540039062 0.0000000000000000
5.9139275550842285 8.8442649841308594 0.0000000000000000
1.3080558776855469 5.8687934875488281 0.0000000000000000
1.2677222490310669 6.7404255867004395 0.0000000000000000
8.6213636398315430 6.2131500244140625 0.0000000000000000
1.3264640569686890 5.4023952484130859 0.0000000000000000
8.7149887084960938 3.9563879966735840 0.0000000000000000
9.0765781402587891 6.2222123146057129 0.0000000000000000

CELLS 4666 18664
3 2139 79 2156
3 2076 177 2114
3 2081 163 2169
3 2111 153 2124
3 2088 89 2165
3 60 548 2216
3 103 2067 2143
3 2116 201 2126
3 2085 17 2086
3 2083 211 2175
3 2130 59 2134
3 31 2129 2160
3 2069 239 2155
3 11 2128 2157
3 2047 91 2059
3 2078 225 2117
3 2087 41 2179
3 388 336 389
3 392 337 393
3 340 380 381
3 341 384 385
3 376 342 377
3 372 343 373
3 338 368 369
3 339 364 365
3 27 1418 2070
3 432 262 483
3 434 281 481
3 436 319 482
3 438 300 480
3 205 198 2015
3 362 326 363
3 360 327 361
3 325 358 359
3 324 355 356
3 350 323 351
3 353 322 354
3 320 344 345
3 321 347 348
3 548 549 2216
3 442 1477 2347
3 334 400 401
3 335 396 397
3 404 332 405
3 408 333 409
3 330 412 413
3 331 416 417
3 424 329 425
3 420 328 421
3 301 439 480
3 282 435 481
3 244 437 482
3 263 433 483
3 261 262 432
3 280 281 434
3 318 319 436
3 299 300 438
3 2120 1603 2294
3 2163 223 2301
3 36 1414 1532
3 1473 36 1532
3 2141 9 2299
3 2164 47 2298
3 33 2142 2300
3 19 2084 2302
3 2174 209 2303
3 203 2068 2304
3 233 2177 2305
3 301 302 439
3 282 283 435
3 244 245 437
3 263 264 433
3 167 166 1427
3 1522 37 1523
3 166 171 1427
3 135 1539 2122
3 1583 2133 2216
3 1581 1580 2137
3 366 365 441
3 370 369 440
3 373 374 442
3 386 385 444
3 377 378 443
3 382 381 445
3 389 390 446
3 393 394 447
3 500 451 2192
3 1418 27 1992
3 1477 37 1522
3 397 396 2321
3 408 409 2322
3 198 197 2015
3 2308 121 2409
3 144 2310 2410
3 69 1401 2220
3 2133 60 2216
3 119 2030 2146
3 451 1399 2192
3 216 2204 2211
3 1422 447 2209
3 413 412 2308
3 424 425 2310
3 1386 2026 2095
3 75 1604 2323
3 1417 1416 2285
3 2185 1383 2284
3 16 23 2045
3 337 277 395
3 336 258 391
3 305 341 387
3 286 340 383
3 342 296 379
3 343 315 375
3 267 338 371
3 248 339 367
3 197 196 1537
3 253 420 2337
3 310 404 2336
3 196 204 1537
3 275 392 527
3 256 388 526
3 384 307 524
3 294 376 523
3 380 288 525
3 313 372 522
3 368 269 521
3 364 250 520
3 251 334 403
3 270 335 399
3 329 274 427
3 328 255 423
3 332 312 407
3 308 331 419
3 289 330 415
3 333 293 411
3 1464 215 1574
3 1468 1325 2074
3 72 2120 2294
3 2067 1376 2143
3 215 1464 2204
3 219 2185 2284
3 1401 69 2132
3 29 28 1524
3 1418 1373 2070
3 71 1604 2120
3 1407 2047 2059
3 146 1474 2034
3 1502 1250 1536
3 167 1427 2217
3 2192 2344 2365
3 398 397 456
3 402 401 457
3 409 410 458
3 414 413 460
3 405 406 459
3 418 417 461
3 421 422 462
3 425 426 463
3 103 102 2067
3 259 360 499
3 278 362 498
3 358 304 497
3 316 353 495
3 355 285 496
3 297 350 494
3 344 247 492
3 347 266 493
3 1474 146 2356
3 1503 1490 2048
3 257 336 388
3 276 337 392
3 314 343 372
3 295 342 376
3 340 287 380
3 341 306 384
3 339 249 364
3 338 268 368
3 1516 539 2278
3 145 1417 2285
3 260 327 360
3 279 326 362
3 325 303 358
3 298 323 350
3 317 322 353
3 324 284 355
3 320 246 344
3 321 265 347
3 2201 24 2218
3 1471 180 2022
3 1604 75 1605
3 2063 2201 2218
3 539 1516 2258
3 554 552 2178
3 335 271 396
3 334 252 400
3 311 332 404
3 292 333 408
3 330 290 412
3 331 309 416
3 273 329 424
3 254 328 420
3 131 1540 2096
3 1543 1542 2089
3 92 91 2047
3 205 2015 2028
3 1454 1490 2009
3 1580 61 2137
3 28 36 1524
3 14 2037 2362
3 2026 109 2095
3 1540 131 2122
3 229 1399 2366
3 95 505 2092
3 509 81 2135
3 511 67 2072
3 175 513 2113
3 161 515 2168
3 517 185 2171
3 1454 2009 2421
3 61 1528 2161
3 505 95 2293
3 507 57 2292
3 67 511 2290
3 515 161 2291
3 81 509 2289
3 513 175 2288
3 185 517 2287
3 155 519 2286
3 57 507 2138
3 519 155 2112
3 205 1502 1536
3 98 1545 2073
3 2204 1464 2211
3 1539 1540 2122
3 401 400 2101
3 417 416 2107
3 1490 1454 2048
3 1402 2061 2151
3 2123 135 2233
3 1539 135 2123
3 1262 1418 1992
3 1 263 483
3 2 282 481
3 262 1 483
3 281 2 481
3 0 244 482
3 319 0 482
3 300 3 480
3 3 301 480
3 447 394 2209
3 12 1410 2127
3 471 2130 2134
3 386 444 2033
3 404 405 2110
3 420 421 2104
3 1410 12 2057
3 218 1408 2065
3 99 1542 2283
3 393 337 394
3 389 336 390
3 341 385 386
3 340 381 382
3 377 342 378
3 373 343 374
3 339 365 366
3 338 369 370
3 1545 98 2013
3 432 483 2184
3 436 482 2183
3 434 481 2182
3 438 480 2181
3 334 401 402
3 335 397 398
3 405 332 406
3 409 333 410
3 330 413 414
3 331 417 418
3 421 328 422
3 425 329 426
3 1569 228 2005
3 99 2283 2313
3 1597 193 2318
3 484 15 2141
3 485 48 2164
3 38 486 2142
3 25 488 2084
3 489 217 2174
3 207 491 2068
3 240 490 2177
3 2061 147 2151
3 466 2076 2114
3 469 2139 2156
3 467 2081 2169
3 214 219 1574
3 464 2111 2124
3 470 2088 2165
3 487 230 2163
3 1411 1437 2159
3 1487 2221 2230
3 483 433 2184
3 482 437 2183
3 481 435 2182
3 480 439 2181
3 139 1416 2166
3 362 363 490
3 360 361 491
3 359 358 487
3 353 354 486
3 356 355 489
3 350 351 488
3 348 347 485
3 345 344 484
3 468 2090 2131
3 392 393 516
3 388 389 518
3 385 384 512
3 376 377 510
3 381 380 514
3 372 373 508
3 369 368 504
3 365 364 506
3 1412 171 2194
3 1604 1603 2120
3 2221 171 2230
3 397 2153 2271
3 2148 409 2272
3 14 2036 2037
3 452 500 2192
3 1604 71 2323
3 2189 520 2255
3 2190 521 2254
3 1480 1178 2010
3 215 214 1574
3 1382 543 2257
3 204 1500 1537
3 36 1473 1524
3 475 2078 2117
3 479 2087 2179
3 24 16 2045
3 1584 2216 2282
3 1477 442 1534
3 2030 2031 2146
3 543 1382 2333
3 2153 2152 2271
3 2147 2148 2272
3 108 1468 2074
3 1468 539 2258
3 2129 477 2160
3 473 2069 2155
3 2128 478 2157
3 495 2239 2263
3 494 2238 2264
3 2237 496 2262
3 499 2236 2260
3 102 109 2067
3 1528 61 2348
3 231 1555 2011
3 110 2256 2350
3 2035 1439 2207
3 98 92 2047
3 1428 1343 2051
3 1455 1480 2010
3 413 2080 2240
3 2150 425 2241
3 472 2116 2126
3 476 2085 2086
3 474 2083 2175
3 1427 1424 2217
3 1486 87 2347
3 346 345 448
3 349 348 449
3 354 431 450
3 430 359 451
3 351 352 452
3 357 356 453
3 361 429 454
3 363 428 455
3 1418 1262 1425
3 1423 1419 1424
3 427 274 2248
3 423 255 2249
3 308 419 2250
3 407 312 2251
3 289 415 2252
3 411 293 2253
3 270 399 2254
3 251 403 2255
3 2176 1409 2185
3 416 310 2336
3 400 253 2337
3 395 277 2259
3 391 258 2260
3 305 387 2261
3 286 383 2262
3 379 296 2264
3 375 315 2263
3 267 371 2265
3 248 367 2266
3 228 1569 2415
3 526 2188 2249
3 292 408 2417
3 396 271 2418
3 327 261 432
3 326 280 434
3 322 318 436
3 323 299 438
3 2033 444 2325
3 528 2141 2299
3 529 2164 2298
3 2142 532 2300
3 2084 530 2302
3 531 2174 2303
3 2068 535 2304
3 2177 534 2305
3 1557 2029 2225
3 193 1597 2064
3 977 1425 1592
3 1414 36 2019
3 206 1404 2199
3 403 2189 2255
3 399 2190 2254
3 447 1422 1597
3 533 2163 2301
3 302 325 439
3 283 324 435
3 245 320 437
3 264 321 433
3 2115 524 2250
3 522 2140 2251
3 523 2091 2253
3 2170 525 2252
3 366 441 2058
3 1425 1262 1592
3 2030 119 2406
3 2108 134 2110
3 2102 111 2104
3 256 257 388
3 275 276 392
3 313 314 372
3 306 307 384
3 287 288 380
3 294 295 376
3 249 250 364
3 268 269 368
3 278 279 362
3 259 260 360
3 316 317 353
3 303 304 358
3 297 298 350
3 284 285 355
3 246 247 344
3 265 266 347
3 173 1469 2429
3 459 2123 2233
3 1260 1419 1423
3 252 253 400
3 290 291 412
3 310 311 404
3 309 310 416
3 272 273 424
3 253 254 420
3 1510 1509 2145
3 1555 231 2033
3 1502 205 2028
3 426 427 465
3 422 423 464
3 410 411 468
3 419 418 466
3 406 407 469
3 415 414 467
3 399 398 470
3 403 402 471
3 2034 1334 2167
3 1416 1400 2166
3 2239 375 2263
3 2238 379 2264
3 383 2237 2262
3 2236 391 2260
3 1542 99 2089
3 270 271 335
3 251 252 334
3 257 258 336
3 276 277 337
3 279 280 326
3 260 261 327
3 254 255 328
3 273 274 329
3 283 284 324
3 302 303 325
3 292 293 333
3 311 312 332
3 295 296 342
3 314 315 343
3 317 318 322
3 286 287 340
3 289 290 330
3 298 299 323
3 305 306 341
3 308 309 331
3 245 246 320
3 264 265 321
3 248 249 339
3 267 268 338
3 989 1428 2051
3 1484 84 2040
3 1505 157 1507
3 504 96 2092
3 73 510 2072
3 86 508 2135
3 514 169 2168
3 512 182 2113
3 192 516 2171
3 1278 1423 1424
3 1449 194 2187
3 539 1468 2341
3 1555 2033 2325
3 275 527 2248
3 256 526 2249
3 294 523 2253
3 524 307 2250
3 525 288 2252
3 313 522 2251
3 521 269 2254
3 520 250 2255
3 1662 2125 2331
3 1289 1250 1502
3 1404 446 2199
3 1333 1508 1509
3 506 63 2138
3 159 518 2112
3 394 395 473
3 390 391 472
3 378 379 476
3 383 382 474
3 387 386 475
3 374 375 477
3 367 366 478
3 371 370 479
3 445 381 2295
3 441 365 2312
3 440 369 2313
3 373 442 2314
3 444 385 2315
3 377 443 2316
3 389 446 2317
3 393 447 2318
3 442 374 1534
3 1006 1455 2010
3 1525 62 2279
3 1494 1497 2071
3 370 440 2393
3 1399 451 2366
3 180 1471 2419
3 1034 1032 1533
3 412 291 2417
3 272 424 2418
3 2140 407 2251
3 419 2115 2250
3 2091 411 2253
3 415 2170 2252
3 2188 423 2249
3 2009 194 2421
3 1493 1289 1495
3 1476 1486 2347
3 361 327 429
3 363 326 428
3 354 322 431
3 351 323 352
3 325 359 430
3 324 356 357
3 320 345 346
3 321 348 349
3 2153 2321 2411
3 2322 2148 2412
3 1455 1006 2048
3 171 1412 2230
3 2080 2079 2240
3 2149 2150 2241
3 541 1652 2196
3 446 1404 2228
3 2144 125 2371
3 1276 2013 2229
3 1523 29 1524
3 1433 1562 1563
3 1523 37 2426
3 1046 1556 1578
3 1527 1525 2279
3 1509 1507 2380
3 1278 1424 1427
3 1533 1471 2022
3 1437 13 2159
3 1408 218 2210
3 528 484 2141
3 529 485 2164
3 486 532 2142
3 488 530 2084
3 531 489 2174
3 491 535 2068
3 490 534 2177
3 1507 2097 2380
3 1404 206 2268
3 1416 139 2285
3 1006 1503 2048
3 87 1486 2053
3 2216 549 2282
3 1421 205 1536
3 1333 1509 1510
3 2071 1497 2384
3 2080 2308 2409
3 2310 2150 2410
3 48 485 493
3 15 484 492
3 488 25 494
3 486 38 495
3 230 487 497
3 217 489 496
3 491 207 499
3 490 240 498
3 1507 157 2097
3 527 2173 2248
3 831 959 1559
3 1662 2340 2399
3 1372 1420 2430
3 555 1063 1444
3 1047 1049 1491
3 37 1477 1534
3 219 2176 2185
3 2344 26 2365
3 1420 2082 2430
3 1505 1506 2041
3 495 38 2239
3 494 25 2238
3 217 496 2237
3 499 207 2236
3 1256 1103 1535
3 259 499 2260
3 278 498 2259
3 497 304 2261
3 496 285 2262
3 316 495 2263
3 297 494 2264
3 492 247 2266
3 493 266 2265
3 189 188 2060
3 443 378 2201
3 382 445 2200
3 446 390 2199
3 1407 1247 1466
3 2096 1540 2424
3 50 1493 1494
3 2158 1279 2379
3 1495 1289 1502
3 1444 1063 1445
3 1277 1487 2021
3 1151 1075 2002
3 1422 1444 1597
3 1152 1438 1548
3 1425 977 1586
3 711 2223 2232
3 84 1484 2346
3 1080 1282 1467
3 188 194 2060
3 1329 2077 2400
3 1527 55 2161
3 1392 1391 1393
3 121 2308 2309
3 2310 144 2311
3 459 545 2123
3 462 538 539
3 463 536 537
3 458 546 547
3 459 544 545
3 540 461 541
3 542 460 543
3 548 457 549
3 550 456 551
3 111 2099 2101
3 134 2105 2107
3 533 487 2163
3 1478 835 1479
3 1520 1364 1984
3 1433 1561 1562
3 75 2035 2207
3 1070 1081 1465
3 526 159 2188
3 1388 1437 1984
3 123 2029 2030
3 216 2211 2354
3 1131 1244 1434
3 448 345 2362
3 449 348 2363
3 354 450 2364
3 451 359 2366
3 351 452 2365
3 453 356 2367
3 361 454 2369
3 363 455 2368
3 1399 229 2329
3 1328 1542 1543
3 1500 204 2202
3 1406 551 2334
3 967 1519 2050
3 1084 1552 1553
3 1438 1152 1439
3 1186 1273 1541
3 2256 1377 2282
3 63 520 2189
3 96 521 2190
3 1311 1561 1886
3 1473 1367 1524
3 1411 2159 2377
3 1359 1484 1485
3 338 370 371
3 339 366 367
3 340 382 383
3 341 386 387
3 378 342 379
3 374 343 375
3 394 337 395
3 390 336 391
3 1487 1428 2021
3 1653 132 2234
3 1476 1475 1486
3 1540 1541 2424
3 2061 551 2407
3 2125 1662 2399
3 194 1449 2421
3 146 2034 2167
3 1032 1135 1533
3 1430 1129 1434
3 1258 1034 1533
3 1135 1470 1471
3 1494 1493 1495
3 1528 1371 1556
3 334 402 403
3 335 398 399
3 406 332 407
3 331 418 419
3 410 333 411
3 330 414 415
3 426 329 427
3 422 328 423
3 1279 2158 2296
3 2026 1563 2243
3 1257 1505 1507
3 1392 1393 1394
3 1253 1062 1457
3 1539 1187 1540
3 50 1426 1493
3 1508 1333 2052
3 1038 1036 1664
3 157 1505 2041
3 1556 1046 1579
3 1517 1506 1519
3 1298 1382 2031
3 1661 1660 1662
3 1044 1045 1431
3 386 2033 2280
3 2210 218 2357
3 2103 421 2342
3 1343 1479 2051
3 1374 2067 2243
3 1390 1391 1392
3 1470 1135 1504
3 1356 1367 1473
3 1432 1078 1433
3 1324 1140 1325
3 1049 1326 1491
3 1079 1080 1467
3 551 2061 2334
3 1445 1446 1447
3 447 1597 2318
3 1152 1047 1491
3 1406 1247 1407
3 2029 123 2225
3 1483 1508 2052
3 1582 1082 1585
3 1479 1559 1560
3 242 1458 1488
3 1519 1535 2050
3 553 555 1444
3 1565 935 2016
3 1438 972 1548
3 1260 1423 1465
3 1474 1306 2034
3 1371 1528 2348
3 1289 1493 1993
3 1479 835 1559
3 1082 1582 1584
3 1436 221 2391
3 452 2192 2365
3 1602 1603 1604
3 125 2121 2371
3 1103 1315 1535
3 1506 1517 2041
3 123 2030 2406
3 1426 50 1492
3 1428 989 2021
3 1258 1663 1664
3 1605 1326 1606
3 1081 1260 1465
3 835 831 1559
3 959 1163 1559
3 1265 1143 1387
3 457 401 2350
3 461 417 2351
3 1269 1270 1334
3 1597 1445 2064
3 1255 1159 1372
3 1077 1078 1432
3 1391 1992 2198
3 1516 1511 2258
3 1128 1129 1430
3 121 2396 2412
3 2395 144 2411
3 1518 967 1531
3 1383 1384 1385
3 473 2155 2209
3 1277 1072 1278
3 539 538 2278
3 1045 1520 1984
3 1351 1359 1475
3 1562 1565 2016
3 1068 1070 1465
3 1433 1563 2026
3 1540 1187 1541
3 1306 1474 1934
3 1271 1272 1401
3 1006 1002 1503
3 1553 2005 2186
3 2029 1297 2030
3 1462 1459 2004
3 1488 1155 1572
3 1546 1314 1613
3 1439 1491 2207
3 1385 1459 1460
3 421 462 2342
3 1456 1253 1457
3 1145 983 1147
3 1129 1131 1434
3 1133 1268 1284
3 1356 1355 1367
3 1514 1512 1515
3 1506 1256 1535
3 2013 98 2229
3 405 459 2233
3 456 397 2271
3 409 458 2272
3 1439 1152 1491
3 1603 2008 2294
3 132 1653 2422
3 39 2038 2269
3 527 192 2173
3 1434 1244 1557
3 827 826 1481
3 551 1406 2339
3 2077 1329 2268
3 1002 1003 1503
3 1541 1273 2234
3 1295 1296 1297
3 505 504 2092
3 508 509 2135
3 510 511 2072
3 515 514 2168
3 513 512 2113
3 516 517 2171
3 1133 1285 1586
3 835 1478 1481
3 1351 1349 1359
3 1652 541 2320
3 1662 1660 1663
3 2340 2098 2399
3 1472 1124 1474
3 1381 1456 1457
3 1663 1258 2022
3 1602 1604 1605
3 1285 1284 1373
3 2173 427 2248
3 1127 1044 1431
3 1445 1063 1446
3 1556 1371 1578
3 1075 1082 2002
3 1249 1525 1526
3 460 413 2240
3 425 463 2241
3 538 158 2278
3 1652 133 2431
3 1494 1495 1496
3 1374 1151 1376
3 1431 1045 1984
3 1134 1128 1143
3 1385 1384 1458
3 2087 479 2206
3 1311 1312 1561
3 1139 1511 1512
3 1287 1580 1581
3 967 1518 1519
3 2109 405 2233
3 63 506 520
3 96 504 521
3 508 86 522
3 510 73 523
3 169 514 525
3 182 512 524
3 516 192 527
3 518 159 526
3 402 457 548
3 398 456 550
3 458 410 546
3 459 406 544
3 414 460 542
3 418 461 540
3 462 422 538
3 463 426 536
3 1497 2118 2384
3 242 1488 1572
3 1336 1338 1339
3 1377 1151 2002
3 547 546 2294
3 1528 1527 2161
3 1133 1284 1285
3 1168 1256 1257
3 1141 1079 1467
3 1138 1077 1140
3 1036 1258 1664
3 1066 1038 1664
3 1377 2256 2413
3 2037 448 2362
3 1135 1471 1533
3 2052 1331 2054
3 1062 1180 1457
3 1264 1400 1416
3 981 1150 1251
3 1150 1990 1993
3 1561 1078 1886
3 2030 1297 2031
3 1122 1121 1123
3 1180 1182 1184
3 1139 1512 1513
3 1364 1388 1984
3 133 2320 2351
3 1271 1401 2205
3 1067 1068 1072
3 1081 1079 1141
3 1482 49 2393
3 1278 1072 1423
3 1887 2039 2043
3 1427 171 2221
3 1287 1581 1582
3 1605 75 2207
3 1084 1553 1554
3 182 524 2115
3 522 86 2140
3 169 525 2170
3 523 73 2091
3 1003 1489 1503
3 826 835 1481
3 1441 1415 1442
3 1547 1613 1615
3 1121 1124 1472
3 980 1171 1990
3 1139 1513 2024
3 118 123 2406
3 1359 1349 1484
3 1553 1552 2005
3 2118 1497 2119
3 1144 1142 1267
3 1474 1124 1934
3 37 30 2426
3 1407 1466 2047
3 978 972 1060
3 982 928 983
3 27 22 2017
3 929 980 981
3 1475 1359 1486
3 1512 1511 1516
3 1572 554 2178
3 1526 1525 1527
3 1060 972 1438
3 1328 1543 1544
3 1297 1298 2031
3 1257 1507 1508
3 938 1547 1615
3 1138 1140 1324
3 1332 1333 1510
3 1385 1458 1459
3 1168 1257 1483
3 1389 1415 1440
3 1339 1413 1435
3 1247 1137 1466
3 1137 1274 1466
3 1401 2132 2205
3 546 72 2294
3 1285 1425 1586
3 1483 1257 1508
3 931 970 971
3 2057 12 2058
3 977 927 1586
3 1547 1546 1613
3 1661 1662 2331
3 2045 23 2420
3 932 933 934
3 1513 1518 2024
3 937 1530 1585
3 1376 1151 1377
3 1387 1143 1429
3 2127 1410 2377
3 1489 1003 1550
3 1367 1355 1522
3 2063 443 2201
3 1420 195 2082
3 827 1481 1549
3 1249 1405 1525
3 1456 84 2346
3 1155 1488 1529
3 1410 1127 1411
3 2223 1480 2232
3 1510 156 2228
3 172 180 2378
3 1458 242 2004
3 1395 1393 1398
3 1496 1495 2028
3 971 970 1076
3 1249 1526 1579
3 1390 1261 1391
3 1408 1141 1409
3 1339 1340 1412
3 939 2052 2054
3 1483 939 1521
3 1469 1999 2429
3 1271 1060 1272
3 1135 1026 1504
3 537 536 2307
3 1259 1141 1408
3 1336 1339 1435
3 1026 957 1504
3 1334 1270 1402
3 1143 1128 1430
3 1073 1044 1127
3 1281 1328 2032
3 171 166 2194
3 157 150 2097
3 852 850 1521
3 1281 1327 1328
3 212 218 2065
3 1546 1545 2013
3 401 2100 2350
3 417 2106 2351
3 83 1485 2040
3 1375 1563 2016
3 168 160 2217
3 1358 1473 1532
3 1184 1182 1379
3 1123 1121 1472
3 1479 1560 2051
3 1171 1566 1990
3 1140 1077 1432
3 1297 1296 1298
3 220 228 2391
3 229 222 2328
3 1409 1467 2185
3 2256 457 2350
3 1998 716 2018
3 1515 1512 1516
3 1508 1507 1509
3 507 506 2138
3 518 519 2112
3 1566 1171 1593
3 1495 1502 2028
3 2007 1800 2025
3 1328 1327 1542
3 1494 1496 1497
3 498 240 2273
3 230 497 2274
3 48 493 2276
3 15 492 2275
3 1325 1140 1386
3 1426 1150 1993
3 1286 1530 1564
3 1442 1415 2019
3 44 50 2071
3 197 1537 2015
3 1187 1186 1541
3 1252 1251 1279
3 1437 1431 1984
3 1519 1506 1535
3 1570 1161 1573
3 729 728 1531
3 1155 1529 2003
3 1314 1546 2013
3 1180 1184 1457
3 1513 1512 1514
3 186 193 2297
3 1659 1066 1660
3 1082 937 1585
3 1332 1331 1333
3 1248 1127 1410
3 1498 1496 1499
3 1485 83 2053
3 1576 537 2307
3 1072 1068 1465
3 2093 1462 2358
3 1084 1551 1552
3 1530 1286 1585
3 116 122 2020
3 90 97 2059
3 123 118 2222
3 1184 1379 1380
3 1339 1412 1413
3 1514 1515 1567
3 1779 1360 1781
3 1563 1562 2016
3 934 933 937
3 1587 1566 1593
3 1481 1478 2012
3 194 188 2187
3 1046 941 1579
3 109 2026 2243
3 1538 1187 1539
3 1493 1426 1993
3 971 1076 1142
3 1372 1159 1420
3 70 75 2323
3 181 174 2429
3 934 937 1075
3 1257 1256 1505
3 972 924 1548
3 1122 1123 1126
3 1183 1187 1538
3 138 145 2285
3 934 1136 2001
3 228 220 2227
3 1478 1341 2012
3 978 1133 1586
3 1358 1356 1473
3 216 208 2204
3 1076 1084 1554
3 964 1153 1551
3 837 1570 1573
3 226 231 2306
3 1459 1458 2004
3 1462 2093 2343
3 989 987 2021
3 123 1429 2225
3 150 157 2397
3 75 70 2220
3 1529 1570 2003
3 1551 1153 1552
3 853 982 1587
3 536 195 2307
3 218 2200 2357
3 850 963 1521
3 1067 1072 1277
3 1337 1549 2012
3 1134 1143 1265
3 939 852 1521
3 1279 1251 1492
3 1552 1569 2005
3 1359 1485 1486
3 1460 1461 1464
3 1156 1158 1550
3 968 1047 1152
3 1485 1484 2040
3 971 1144 1985
3 1549 1481 2012
3 1051 1053 1606
3 1345 1253 1456
3 1255 1372 2009
3 1278 1427 2221
3 1378 1267 1469
3 1158 1489 1550
3 1339 1338 1340
3 1564 1530 1575
3 1366 1477 1522
3 2226 543 2333
3 85 78 2327
3 1333 1331 2052
3 924 923 1548
3 978 1132 1133
3 1781 1360 1989
3 1073 1249 1579
3 1346 1347 1348
3 1446 1063 1588
3 1346 1345 1347
3 746 1564 1575
3 728 919 1531
3 967 729 1531
3 982 983 1145
3 1417 145 2193
3 1283 1161 1570
3 1520 1045 2007
3 1373 1284 2045
3 1582 1581 1583
3 1504 957 1988
3 1985 1504 1988
3 1344 1558 1571
3 1677 1594 1996
3 1138 1324 1511
3 981 980 1150
3 1447 1446 1448
3 1526 1527 1528
3 1499 1496 2028
3 1346 1348 1991
3 1470 1504 1985
3 1659 1660 1661
3 1147 983 1148
3 82 87 2053
3 968 1152 1548
3 1328 1544 2032
3 62 56 2279
3 1326 1051 1606
3 164 170 2180
3 50 44 2330
3 1285 1373 1418
3 1440 1415 1441
3 941 1073 1579
3 1550 1003 1591
3 84 76 2040
3 1367 1522 1523
3 2002 1584 2282
3 1394 1396 1436
3 931 971 1985
3 1042 1125 1571
3 1386 1432 2026
3 1362 1358 1532
3 1394 1393 1395
3 1433 1078 1561
3 1092 853 1587
3 1414 1365 1532
3 934 1075 1136
3 1246 1295 1557
3 981 1251 1252
3 1368 1998 2018
3 1059 1601 1602
3 1365 1362 1532
3 1434 1557 2225
3 1353 1351 1475
3 918 964 1551
3 1126 1123 1264
3 1132 1060 1271
3 1561 1312 1562
3 1156 1550 1568
3 1594 1593 1996
3 1544 1547 2032
3 1526 1556 1579
3 984 2055 2056
3 1994 690 1995
3 1287 1582 1585
3 1568 1550 1591
3 1647 1649 1653
3 1554 1553 2011
3 1348 1360 1991
3 1184 1380 1381
3 242 236 2359
3 1059 1600 1601
3 1263 1076 1554
3 2039 1565 2043
3 1602 1605 1606
3 140 146 2167
3 1647 1648 1649
3 746 1023 1564
3 2032 938 2046
3 1326 1605 2207
3 726 746 1575
3 1246 1294 1295
3 1348 1347 1349
3 1074 1042 1571
3 1360 1779 1991
3 1559 1163 1560
3 1244 1246 1557
3 2228 156 2317
3 999 1009 1568
3 1552 1153 1569
3 1520 2007 2025
3 1030 1149 1286
3 1391 1261 1992
3 1009 1122 1568
3 156 1510 2145
3 1125 1344 1571
3 100 108 2074
3 1053 1059 1606
3 1082 1584 2002
3 1264 1416 1417
3 982 1146 1587
3 1272 1060 1438
3 1139 1138 1511
3 1294 1997 2006
3 1445 1447 2064
3 1154 1390 1569
3 999 1568 1591
3 932 934 2001
3 735 726 1575
3 837 1573 1596
3 1059 1055 1600
3 1367 1523 1524
3 22 27 2070
3 1150 980 1990
3 1314 1612 1613
3 1260 1403 1419
3 1613 1614 1615
3 1023 1029 1030
3 1286 1149 1287
3 987 988 1067
3 964 1091 1153
3 1295 1294 1296
3 1649 1648 1650
3 564 562 1596
3 696 1577 1595
3 1602 1601 1603
3 741 742 1614
3 1614 742 1615
3 1063 557 1588
3 716 1780 1781
3 1191 1778 1779
3 1055 1057 1600
3 923 968 1548
3 198 205 2319
3 1023 1030 1564
3 1562 1312 1565
3 559 936 1588
3 1342 1428 1487
3 1577 696 1596
3 1286 1287 1585
3 1030 1286 1564
3 716 708 1780
3 1067 988 1068
3 1211 1653 1654
3 1030 1083 1149
3 1349 1347 1484
3 1153 1154 1569
3 1302 1592 1610
3 696 564 1596
3 562 837 1596
3 696 1595 1598
3 921 741 1614
3 1780 1779 1781
3 1211 1647 1653
3 1092 1587 1593
3 1573 1577 1596
3 1302 977 1592
3 745 938 1615
3 742 745 1615
3 1046 1578 1983
3 1191 1777 1778
3 1777 858 1778
3 54 61 2161
3 1032 1026 1135
3 840 838 1590
3 827 1549 1997
3 1529 1283 1570
3 1651 1658 1659
3 708 706 1780
3 1613 1612 1614
3 1030 1029 1083
3 158 152 2075
3 1595 1590 1598
3 1254 1346 1782
3 1153 1091 1154
3 556 554 1572
3 1660 1066 1664
3 1590 838 1598
3 1040 1066 1658
3 236 242 2178
3 1592 1162 1610
3 1003 1000 1591
3 997 999 1591
3 1589 1595 1979
3 109 102 2095
3 986 840 1590
3 1658 1066 1659
3 1215 1211 1654
3 1254 1782 1816
3 1595 1577 1979
3 1657 1185 1718
3 1064 1040 1658
3 1778 858 1782
3 1654 1273 1655
3 1549 1337 2006
3 1069 1589 1979
3 922 1656 1981
3 1594 1994 1995
3 1655 1188 1656
3 1273 1188 1655
3 1656 1657 1981
3 830 1657 1718
3 1188 1185 1657
3 1589 986 1590
3 568 566 1598
3 1302 1610 1767
3 1071 1069 1979
3 1215 1654 1655
3 1092 1593 1594
3 1589 1590 1595
3 1610 1090 1767
3 838 568 1598
3 566 696 1598
3 1000 997 1591
3 1160 1071 1979
3 1276 1314 2013
3 1083 1029 1986
3 563 711 1599
3 561 563 1599
3 1655 1656 1980
3 1656 1188 1657
3 711 565 1607
3 1290 1607 1611
3 1607 567 1611
3 1608 1237 1952
3 1609 1608 1952
3 839 1608 1609
3 567 569 1611
3 570 839 1609
3 1120 1971 1978
3 571 570 1609
3 1810 1015 1927
3 1290 1611 1925
3 1089 1165 1970
3 1118 1966 1973
3 1801 796 1920
3 596 1616 1617
3 670 669 1909
3 1631 905 1846
3 1644 820 1828
3 1934 1199 1938
3 1761 1774 1955
3 1629 905 1631
3 1616 1170 1617
3 1058 1056 1812
3 820 1642 1742
3 1616 596 1810
3 1642 820 1644
3 991 1619 1690
3 1166 1814 1956
3 1616 1810 1927
3 795 1669 1858
3 1623 670 1909
3 1969 1118 1973
3 1633 930 1751
3 1619 1170 1690
3 806 1921 1949
3 1190 1633 1751
3 1617 1170 1619
3 1796 1732 1847
3 1642 1291 1742
3 1797 1106 1953
3 1865 1646 1913
3 795 1641 1771
3 1641 795 1858
3 1619 991 1620
3 1291 1701 1742
3 905 1629 1850
3 1094 892 1948
3 1720 911 1877
3 1907 897 1940
3 1761 1882 1883
3 1883 1234 1888
3 1626 817 1627
3 670 1937 1939
3 1130 1058 1812
3 1015 1739 1927
3 1957 1728 1968
3 1784 1209 1787
3 1679 800 1682
3 1841 1720 1877
3 1813 1166 1880
3 1234 1233 1888
3 1708 1750 1916
3 1683 1684 1901
3 1011 1675 1689
3 1217 1801 1920
3 1627 817 1850
3 1915 1630 1947
3 1321 1112 1632
3 1882 1234 1883
3 841 809 1692
3 1641 1638 1771
3 1772 1716 1831
3 1893 1177 1925
3 1874 1218 1893
3 579 578 1625
3 1195 1224 1919
3 1819 845 1922
3 1629 1627 1850
3 1897 958 1912
3 1229 911 1719
3 1842 1309 1875
3 1814 1320 1956
3 1684 906 1901
3 1775 1189 1863
3 1717 1716 1772
3 842 791 1679
3 1165 1702 1970
3 1221 1220 1722
3 809 815 1692
3 1963 744 1965
3 805 1796 1847
3 1316 1725 1917
3 1669 1675 1858
3 1217 1671 1801
3 1936 1906 1954
3 1937 1724 1939
3 1734 1189 1792
3 1213 1827 1839
3 1088 1758 1853
3 796 1701 1920
3 1229 1865 1913
3 1621 1874 1893
3 1011 1673 1675
3 1704 1300 1820
3 1849 1117 1891
3 1700 1896 1899
3 1703 774 1773
3 1056 1120 1812
3 1902 1206 1943
3 1223 1720 1721
3 1217 1670 1671
3 1756 856 1894
3 1827 1703 1839
3 1675 1669 1689
3 823 1945 1976
3 1697 958 1897
3 817 1626 1872
3 1928 1793 1961
3 1709 1734 1792
3 998 1001 1806
3 921 1612 1958
3 1638 1640 1771
3 1639 816 1640
3 1213 1839 1866
3 1001 1005 1806
3 1836 1319 1849
3 1621 576 1874
3 1686 1300 1804
3 580 1842 1875
3 791 793 1679
3 1724 1723 1944
3 974 1872 1931
3 1783 1784 1787
3 854 1622 1757
3 1622 854 1787
3 1233 1739 1888
3 1639 1758 1869
3 573 576 1621
3 590 856 1756
3 1900 1014 1904
3 1882 1761 1955
3 1300 1704 1804
3 1095 1197 1748
3 1872 1626 1931
3 1699 648 1896
3 1620 991 1811
3 1308 1813 1880
3 1094 1735 1950
3 1020 780 1848
3 661 657 1698
3 1620 1746 1815
3 1638 1639 1640
3 882 1770 1804
3 1206 1095 1748
3 910 891 1811
3 1113 916 1789
3 1243 1967 1974
3 678 676 1765
3 1117 962 1891
3 1869 1758 1947
3 1236 1907 1940
3 1921 1684 1949
3 944 1088 1853
3 755 958 1903
3 966 1190 1751
3 1715 1716 1717
3 1735 1814 1950
3 669 673 1909
3 767 765 1701
3 1750 1207 1916
3 1221 1722 1723
3 1876 1838 1914
3 1625 578 1702
3 772 774 1703
3 994 1300 1686
3 1701 765 1742
3 842 1679 1680
3 1106 1855 1953
3 1214 1887 1908
3 1189 1734 1863
3 875 1704 1820
3 1112 1114 1632
3 582 579 1625
3 1855 1731 1953
3 1086 952 1670
3 1217 1086 1670
3 1939 1724 1944
3 641 639 1709
3 676 697 1765
3 1229 1719 1865
3 653 1723 1933
3 1711 796 1801
3 1770 1685 1804
3 1012 1008 1685
3 1319 1117 1849
3 1682 800 1977
3 1702 578 1759
3 1209 1784 1844
3 1830 1214 1908
3 1223 1719 1720
3 830 1718 1737
3 654 1705 1707
3 1668 710 1714
3 710 1668 1715
3 1037 1227 1683
3 1647 1064 1648
3 1790 1767 1825
3 1194 1221 1741
3 671 686 1786
3 812 1790 1825
3 1868 1712 1918
3 892 855 1948
3 1736 1824 1892
3 845 1698 1922
3 881 879 1646
3 578 575 1759
3 811 797 1730
3 871 875 1820
3 1220 1223 1722
3 1124 1199 1934
3 1946 1087 1959
3 686 720 1786
3 1166 990 1880
3 1770 1890 1938
3 699 730 1794
3 1232 1107 1862
3 1691 1176 1832
3 890 1745 1746
3 1746 1620 1811
3 1177 1290 1925
3 1016 863 1843
3 1752 955 1878
3 1065 1064 1647
3 958 1697 1903
3 1824 1224 1892
3 803 799 1850
3 1725 955 1917
3 1210 1622 1787
3 1673 1711 1801
3 713 695 1677
3 1890 930 1938
3 1174 1195 1715
3 1633 1934 1938
3 1754 1646 1865
3 952 951 1670
3 904 1665 1666
3 1017 632 1873
3 797 784 1730
3 1718 1179 1737
3 1170 1085 1690
3 1668 1174 1715
3 1701 1291 1920
3 605 733 1740
3 1226 1667 1854
3 1700 1899 1900
3 1868 697 1910
3 1685 1686 1804
3 710 688 1714
3 1940 1111 1951
3 991 910 1811
3 799 905 1850
3 1111 1321 1951
3 1676 1902 1943
3 786 795 1771
3 1107 961 1862
3 1705 654 1755
3 1732 1020 1848
3 1646 879 1913
3 1054 1052 1769
3 1667 1226 1678
3 926 828 1856
3 865 1016 1645
3 1292 582 1320
3 863 586 1843
3 790 788 1640
3 1224 1824 1919
3 1213 1031 1733
3 1693 1096 1728
3 1774 691 1955
3 955 1725 1878
3 1173 1231 1713
3 1719 911 1720
3 995 998 1678
3 996 994 1686
3 591 590 1756
3 856 907 1894
3 1221 1724 1741
3 1683 1227 1684
3 1676 620 1798
3 1634 1007 1636
3 769 796 1711
3 1209 1210 1787
3 1052 1118 1769
3 870 871 1820
3 1941 1017 1942
3 688 700 1714
3 1221 1723 1724
3 1035 1037 1683
3 1181 1179 1718
3 911 909 1877
3 1320 582 1625
3 619 624 1736
3 1736 624 1776
3 1700 1699 1896
3 631 633 1749
3 965 857 1886
3 1101 973 1881
3 1115 1194 1741
3 1204 1819 1922
3 639 654 1709
3 773 1011 1689
3 1618 1620 1815
3 654 1707 1709
3 1098 1216 1743
3 1796 1797 1953
3 1750 1897 1912
3 694 1962 1964
3 1226 1854 1864
3 976 698 1710
3 1786 720 1834
3 816 1639 1869
3 1678 998 1806
3 825 822 1879
3 868 872 1864
3 664 1013 1763
3 913 991 1690
3 1672 1635 1829
3 750 830 1737
3 1687 1108 1688
3 1715 1195 1716
3 1680 1679 1682
3 1204 1900 1904
3 758 854 1757
3 805 787 1747
3 1085 915 1690
3 948 1007 1634
3 906 1684 1921
3 950 1775 1863
3 1673 1011 1711
3 916 896 1789
3 774 776 1773
3 1238 1130 1242
3 1175 1173 1713
3 1709 1707 1734
3 1836 895 1932
3 756 758 1757
3 762 806 1783
3 1109 1108 1687
3 600 603 1738
3 828 811 1856
3 859 861 1845
3 1952 1237 1970
3 887 1753 1788
3 1758 1637 1853
3 930 1633 1938
3 1618 1815 1870
3 856 855 892
3 721 699 1794
3 862 1666 1791
3 959 917 990
3 1716 1195 1919
3 1131 1130 1238
3 1190 1269 1306
3 1222 1754 1865
3 604 609 1768
3 1665 1309 1842
3 1723 1722 1933
3 720 722 1834
3 801 803 804
3 1164 1086 1217
3 1218 1104 1893
3 775 773 1689
3 884 887 1788
3 1025 1213 1866
3 829 925 1790
3 854 1783 1787
3 1189 663 1792
3 698 685 1710
3 1025 1031 1213
3 615 1019 1808
3 1027 642 1799
3 703 702 1777
3 760 762 1783
3 842 1680 1681
3 1031 1033 1733
3 710 1715 1717
3 1002 1000 1003
3 643 1772 1831
3 771 769 1711
3 891 890 1811
3 1274 1236 1275
3 1305 1623 1624
3 829 923 924
3 1698 657 1699
3 1055 1054 1056
3 1632 1963 1965
3 603 605 1740
3 812 829 1790
3 844 902 1817
3 945 944 946
3 1114 1115 1304
3 1194 1193 1219
3 577 575 578
3 671 685 686
3 742 713 743
3 850 849 963
3 862 864 1666
3 902 1099 1817
3 1108 1098 1743
3 1621 1893 1925
3 1785 1885 1926
3 589 592 1835
3 763 820 1742
3 909 910 912
3 1042 1043 1125
3 1219 1193 1753
3 1687 1923 1929
3 1721 1720 1841
3 1244 1245 1246
3 781 778 1669
3 1640 788 1771
3 948 946 1007
3 1014 1786 1904
3 1100 1233 1234
3 1223 1721 1722
3 598 600 1738
3 1896 659 1899
3 750 752 830
3 1114 1305 1632
3 1636 1637 1638
3 642 629 1799
3 727 726 735
3 759 757 975
3 1725 1726 1878
3 593 594 595
3 1770 882 1890
3 907 1095 1206
3 1201 596 1617
3 590 588 855
3 595 594 597
3 641 1709 1792
3 1205 707 1752
3 793 798 800
3 1100 1085 1169
3 1137 1236 1274
3 581 583 584
3 584 585 586
3 675 693 1807
3 824 826 827
3 874 873 877
3 975 1903 1911
3 1712 1102 1918
3 787 786 788
3 867 1645 1745
3 927 924 972
3 1176 976 1832
3 1165 990 1166
3 1303 1027 1307
3 1216 1691 1832
3 672 668 1803
3 680 682 1717
3 929 836 980
3 890 873 1745
3 908 909 911
3 1115 1193 1194
3 1183 1186 1187
3 626 625 627
3 630 638 1776
3 643 641 644
3 730 1311 1794
3 748 750 1737
3 949 948 951
3 1005 1105 1806
3 1232 1868 1910
3 1760 1727 1761
3 1731 1855 1856
3 1735 1320 1814
3 860 620 1676
3 674 1189 1775
3 819 813 1766
3 842 1681 1747
3 851 850 852
3 875 876 878
3 919 965 979
3 999 996 1008
3 1005 1004 1010
3 731 739 858
3 782 781 786
3 795 781 1669
3 816 790 1640
3 902 1097 1098
3 1235 1101 1241
3 1246 1245 1293
3 1639 1637 1758
3 949 952 953
3 951 1634 1635
3 1099 1172 1817
3 1635 1634 1829
3 639 637 654
3 658 657 661
3 662 661 668
3 743 713 1677
3 834 819 1766
3 826 831 835
3 942 915 973
3 959 1089 1163
3 1186 1188 1273
3 668 845 1803
3 693 705 1807
3 779 778 781
3 907 1093 1095
3 1630 1629 1631
3 715 736 1800
3 784 1020 1730
3 824 822 825
3 1105 1218 1301
3 1712 1232 1862
3 600 601 602
3 741 713 742
3 959 990 1089
3 1197 1626 1627
3 607 610 1760
3 681 666 1762
3 1191 703 1777
3 1207 749 1833
3 768 767 769
3 787 789 1747
3 872 1226 1864
3 877 873 890
3 968 926 969
3 947 948 949
3 595 597 598
3 610 612 1727
3 643 644 655
3 655 656 666
3 793 800 1679
3 862 863 864
3 898 1694 1755
3 925 927 977
3 1047 1048 1049
3 1185 1181 1718
3 1694 1693 1695
3 1694 1705 1755
3 596 593 1810
3 692 674 1775
3 690 678 847
3 702 731 1777
3 776 780 783
3 812 828 829
3 887 881 1646
3 883 884 885
3 908 891 909
3 1195 1175 1224
3 1014 671 1786
3 779 781 782
3 861 944 945
3 1057 1056 1058
3 1100 1169 1233
3 1636 1638 1641
3 855 588 1884
3 613 614 615
3 845 661 1698
3 793 794 798
3 815 814 821
3 919 857 965
3 902 901 1097
3 1307 1027 1799
3 1315 1102 1712
3 1168 1103 1256
3 1190 1306 1633
3 601 620 859
3 623 618 1823
3 622 621 625
3 772 773 774
3 789 790 791
3 798 799 801
3 867 865 1645
3 968 969 1047
3 1041 1064 1065
3 1049 1050 1051
3 1128 1058 1129
3 1211 1065 1647
3 1194 1220 1221
3 1308 1310 1813
3 610 1727 1760
3 632 635 1873
3 1765 697 1868
3 818 813 819
3 917 825 1879
3 1061 843 1062
3 1062 843 1179
3 1018 860 1676
3 997 996 999
3 1005 1104 1105
3 1230 1175 1713
3 1761 1727 1774
3 607 608 610
3 622 691 1774
3 628 627 631
3 628 632 1017
3 950 704 1775
3 764 763 765
3 791 790 792
3 793 792 794
3 956 832 957
3 878 880 882
3 1224 1175 1230
3 1201 1617 1618
3 733 607 1760
3 693 692 702
3 694 695 712
3 826 825 831
3 900 1096 1693
3 951 948 1634
3 953 952 954
3 995 996 997
3 1242 1130 1812
3 1743 1216 1889
3 1344 1247 1406
3 589 588 590
3 656 644 663
3 1802 660 1851
3 664 663 674
3 690 847 848
3 776 777 780
3 785 784 797
3 945 947 1200
3 1169 1085 1170
3 1183 1181 1185
3 1204 1203 1819
3 1205 1752 1878
3 1319 1836 1932
3 609 602 1729
3 637 636 1755
3 651 652 653
3 785 797 802
3 985 840 986
3 1179 843 1737
3 871 874 875
3 1696 1697 1897
3 581 579 582
3 583 582 1292
3 650 648 1699
3 673 672 676
3 686 685 698
3 717 718 719
3 824 825 826
3 844 901 902
3 848 850 851
3 864 865 866
3 942 1101 1119
3 944 943 1088
3 973 1100 1881
3 1731 1020 1732
3 1241 1101 1881
3 1631 1846 1869
3 1019 619 1736
3 638 637 639
3 1744 653 1933
3 687 678 690
3 903 735 932
3 754 755 756
3 770 769 771
3 905 794 1846
3 861 945 1845
3 872 870 992
3 993 992 994
3 1037 1038 1039
3 1125 1043 1137
3 1209 1065 1210
3 1090 1766 1767
3 1119 1235 1239
3 1180 1179 1181
3 1182 1181 1183
3 702 692 704
3 724 701 725
3 715 714 736
3 717 955 1752
3 747 740 748
3 764 765 766
3 1783 806 1784
3 833 834 918
3 878 879 880
3 966 1042 1074
3 1636 1007 1637
3 1199 1012 1685
3 1031 1032 1033
3 1039 1038 1040
3 587 589 1835
3 649 648 650
3 668 661 845
3 722 728 729
3 792 790 816
3 799 794 905
3 973 915 1085
3 979 1077 1138
3 1173 1109 1231
3 1197 1628 1748
3 1707 1708 1734
3 1611 572 1925
3 584 862 1791
3 915 913 1690
3 976 1710 1832
3 999 1008 1009
3 1120 1054 1769
3 1210 1065 1211
3 1859 1688 1905
3 598 597 599
3 601 859 1729
3 610 608 611
3 640 641 643
3 655 644 656
3 674 663 1189
3 664 675 1013
3 675 692 693
3 677 678 687
3 682 681 683
3 682 688 710
3 694 687 695
3 700 689 701
3 758 760 854
3 770 771 772
3 808 803 817
3 821 974 1308
3 866 865 867
3 888 966 1751
3 914 915 942
3 942 973 1101
3 954 952 1086
3 1029 1024 1192
3 1231 1109 1687
3 1114 1304 1305
3 1174 1173 1175
3 1197 1196 1626
3 624 630 1776
3 665 667 671
3 671 667 685
3 712 741 744
3 718 715 1800
3 722 729 960
3 762 761 763
3 763 761 820
3 770 772 810
3 914 913 915
3 1025 957 1026
3 1025 1026 1031
3 1099 1109 1172
3 1119 1240 1857
3 1169 1170 1616
3 1197 1627 1628
3 1220 1219 1222
3 577 579 580
3 603 602 604
3 720 699 721
3 815 822 823
3 815 823 1692
3 918 834 964
3 875 874 876
3 877 891 908
3 885 884 886
3 898 1693 1694
3 1111 916 1112
3 949 953 1837
3 1167 1642 1643
3 1223 1222 1719
3 1235 1241 1674
3 1667 1301 1854
3 1708 1706 1750
3 1743 1889 1905
3 1767 1766 1825
3 611 608 1809
3 682 683 688
3 719 737 738
3 748 740 749
3 812 811 828
3 831 917 959
3 872 993 1226
3 883 881 884
3 897 916 1111
3 993 995 1678
3 1111 1112 1321
3 1618 1619 1620
3 598 599 600
3 1015 598 1738
3 608 606 1198
3 815 821 822
3 889 896 897
3 897 896 916
3 953 954 962
3 998 1000 1001
3 1061 1062 1253
3 1193 1113 1789
3 1739 1233 1927
3 581 584 1791
3 584 586 862
3 631 627 633
3 634 631 1749
3 646 645 659
3 697 672 1803
3 847 678 1765
3 823 822 824
3 943 860 1018
3 964 1090 1091
3 1001 1002 1004
3 1023 1022 1024
3 1745 1645 1746
3 1703 1773 1839
3 604 602 609
3 730 698 976
3 884 881 887
3 1009 1008 1012
3 1033 1035 1225
3 1040 1038 1066
3 1062 1179 1180
3 1765 1868 1918
3 649 679 1793
3 783 780 784
3 1121 1012 1124
3 1037 1039 1227
3 1053 1054 1055
3 1053 1055 1059
3 1180 1181 1182
3 1628 1629 1630
3 602 601 1729
3 647 648 649
3 651 650 652
3 652 657 658
3 658 661 662
3 675 674 692
3 782 786 787
3 787 788 789
3 809 814 815
3 829 924 925
3 861 943 944
3 923 926 968
3 1051 1052 1053
3 1239 1235 1942
3 1676 1798 1902
3 630 629 636
3 649 650 651
3 652 650 657
3 656 663 664
3 960 729 961
3 756 755 757
3 772 771 773
3 1057 1058 1128
3 1210 1215 1622
3 1671 1673 1801
3 1726 1860 1878
3 624 623 629
3 677 676 678
3 712 713 741
3 719 718 737
3 731 858 1777
3 788 786 1771
3 871 869 873
3 1005 1010 1104
3 1024 1022 1818
3 1061 1253 1254
3 1174 1175 1195
3 1183 1185 1186
3 1210 1211 1215
3 593 591 594
3 592 596 1201
3 619 618 623
3 651 653 1744
3 717 715 718
3 739 732 740
3 843 748 1737
3 762 763 764
3 818 819 832
3 951 1635 1670
3 1192 1212 1316
3 1314 1313 1612
3 1725 1317 1726
3 613 611 614
3 699 698 730
3 731 704 732
3 705 706 707
3 707 708 709
3 932 735 933
3 748 749 750
3 758 757 759
3 766 765 767
3 777 775 778
3 776 783 1773
3 777 778 779
3 782 787 805
3 902 1098 1099
3 1033 1034 1035
3 1033 1225 1733
3 1035 1036 1037
3 1167 1291 1642
3 1694 1695 1696
3 1694 1696 1705
3 747 843 1061
3 776 775 777
3 903 932 935
3 931 918 970
3 949 951 952
3 993 994 995
3 1254 1253 1345
3 1705 1706 1707
3 589 590 591
3 626 627 628
3 654 637 1755
3 638 639 640
3 638 899 1776
3 656 664 1763
3 680 666 681
3 676 672 697
3 682 710 1717
3 688 683 689
3 685 734 1710
3 704 692 1775
3 693 702 703
3 705 703 706
3 732 704 950
3 707 706 708
3 727 735 903
3 783 784 785
3 1090 834 1766
3 839 984 1608
3 889 886 896
3 900 1027 1028
3 1665 904 1854
3 941 940 1044
3 963 1103 1168
3 1023 1024 1029
3 1028 1027 1303
3 1099 1108 1109
3 1688 1108 1743
3 1172 1109 1173
3 1311 1110 1312
3 630 637 638
3 636 898 1755
3 640 639 641
3 898 642 900
3 665 660 667
3 702 704 731
3 706 703 1191
3 737 718 893
3 724 726 727
3 728 857 919
3 961 729 967
3 731 732 739
3 754 756 922
3 796 767 1701
3 810 772 1703
3 784 780 1020
3 1685 1008 1686
3 1225 1683 1901
3 612 611 613
3 612 617 1727
3 895 614 1809
3 625 621 846
3 700 701 723
3 725 701 1822
3 722 721 728
3 730 976 1110
3 780 777 1848
3 818 832 956
3 872 992 993
3 894 940 941
3 894 941 1046
3 956 957 1025
3 979 1138 1139
3 1226 993 1678
3 612 613 616
3 615 619 1019
3 662 669 670
3 686 699 720
3 717 719 955
3 728 721 857
3 769 767 796
3 804 803 808
3 809 808 814
3 865 863 1016
3 1041 1040 1064
3 610 611 612
3 614 611 1809
3 638 640 899
3 662 668 669
3 789 788 790
3 888 920 966
3 1044 940 1045
3 1137 1043 1236
3 1105 1104 1218
3 1112 1113 1114
3 1176 1691 1887
3 1254 1345 1346
3 1671 1672 1673
3 1673 1672 1675
3 577 578 579
3 580 579 581
3 664 674 675
3 685 667 734
3 709 715 717
3 720 721 722
3 742 743 745
3 802 818 1840
3 804 808 809
3 1095 1196 1197
3 1228 1117 1319
3 632 631 634
3 635 634 645
3 747 748 843
3 754 753 755
3 774 773 775
3 774 775 776
3 807 797 811
3 833 918 931
3 848 849 850
3 898 900 1693
3 1112 916 1113
3 925 977 1302
3 1735 1094 1948
3 1172 1173 1174
3 1805 1316 1917
3 1643 1642 1644
3 684 681 1762
3 705 707 1205
3 707 709 1752
3 760 759 761
3 964 834 1090
3 984 840 985
3 853 928 982
3 1203 1107 1232
3 1807 1205 1860
3 615 614 618
3 680 681 682
3 709 708 714
3 739 747 1816
3 750 749 751
3 848 847 849
3 928 852 939
3 885 886 888
3 1004 1002 1006
3 1087 1086 1164
3 1103 1102 1315
3 1276 1275 1313
3 601 599 620
3 612 616 617
3 617 621 622
3 859 620 860
3 622 625 626
3 649 651 679
3 712 695 713
3 737 893 894
3 798 794 799
3 802 797 807
3 851 853 1092
3 861 860 943
3 1093 892 1094
3 925 924 927
3 954 1086 1087
3 1172 1174 1668
3 624 629 630
3 628 631 632
3 635 645 646
3 677 687 694
3 739 740 747
3 786 781 795
3 783 785 1208
3 802 813 818
3 947 946 948
3 1015 1738 1739
3 1192 1024 1212
3 1033 1032 1034
3 1056 1054 1120
3 1167 1164 1291
3 587 588 589
3 592 591 593
3 597 594 1318
3 595 598 1015
3 647 646 648
3 714 708 716
3 709 714 715
3 724 725 726
3 726 725 746
3 747 1061 1816
3 750 751 752
3 877 890 891
3 1077 965 1078
3 1110 976 1176
3 1124 1012 1199
3 1049 1051 1326
3 1052 1050 1118
3 1119 1101 1235
3 1860 1205 1878
3 1316 1212 1317
3 592 593 596
3 615 618 619
3 693 703 705
3 723 701 724
3 727 1214 1830
3 730 1110 1311
3 758 759 760
3 880 881 883
3 1225 1035 1683
3 1322 1946 1959
3 1698 1699 1700
3 581 582 583
3 584 583 585
3 586 585 587
3 655 666 680
3 688 689 700
3 700 844 1714
3 893 718 1800
3 857 721 1794
3 768 769 770
3 807 811 812
3 883 885 930
3 945 946 947
3 1308 974 1310
3 1216 1097 1691
3 1695 1693 1728
3 580 581 1791
3 700 723 844
3 789 791 842
3 831 825 917
3 856 892 907
3 859 860 861
3 864 866 904
3 907 892 1093
3 913 910 991
3 912 913 914
3 912 914 1021
3 942 1119 1857
3 1055 1056 1057
3 1095 1093 1196
3 1618 1617 1619
3 1696 1695 1697
3 862 586 863
3 608 1198 1809
3 636 629 642
3 659 645 660
3 665 671 1014
3 727 903 1214
3 745 743 836
3 746 1022 1023
3 751 749 1207
3 864 863 865
3 864 904 1666
3 871 873 874
3 880 879 881
3 1089 990 1165
3 1001 1004 1005
3 1212 1024 1818
3 1041 1209 1844
3 1863 1708 1916
3 605 604 606
3 752 751 753
3 833 819 834
3 877 908 1867
3 909 891 910
3 900 1028 1096
3 908 911 1229
3 1037 1036 1038
3 1116 1117 1228
3 1220 1222 1223
3 576 575 577
3 659 660 665
3 804 809 841
3 878 876 879
3 1021 1841 1877
3 1705 1696 1706
3 851 852 853
3 888 889 920
3 998 997 1000
3 1671 1635 1672
3 587 585 588
3 1013 675 1807
3 1871 684 1895
3 868 870 872
3 963 1102 1103
3 994 992 1300
3 1202 1203 1204
3 1216 1832 1889
3 630 636 637
3 632 634 635
3 801 799 803
3 866 867 868
3 1047 969 1048
3 635 646 647
3 683 681 684
3 765 763 1742
3 857 1794 1886
3 1847 1732 1848
3 619 623 624
3 701 689 1822
3 844 723 901
3 979 965 1077
3 1009 1121 1122
3 1051 1050 1052
3 575 574 1759
3 600 599 601
3 1799 623 1823
3 669 668 672
3 673 676 677
3 705 1205 1807
3 745 836 929
3 802 807 813
3 832 819 833
3 1039 1040 1041
3 1039 1041 1844
3 1638 1637 1639
3 1831 1716 1919
3 679 651 1744
3 669 672 673
3 1022 725 1822
3 756 757 758
3 922 756 1757
3 1669 778 1689
3 622 626 691
3 752 753 754
3 760 761 762
3 854 760 1783
3 791 792 793
3 1001 1000 1002
3 1009 1012 1121
3 1053 1052 1054
3 1702 1165 1956
3 607 606 608
3 709 717 1752
3 762 764 806
3 766 767 768
3 894 893 940
3 912 910 913
3 966 920 1042
3 953 962 1116
3 1114 1113 1115
3 1707 1706 1708
3 618 895 1823
3 829 828 923
3 963 849 1102
3 1194 1219 1220
3 1316 1317 1725
3 1736 1776 1824
3 1036 1034 1258
3 1962 1624 1964
3 636 642 898
3 733 1883 1888
3 773 771 1011
3 1035 1034 1036
3 1186 1185 1188
3 1303 1307 1849
3 605 607 733
3 617 616 621
3 900 642 1027
3 686 698 699
3 746 725 1022
3 1115 1113 1193
3 1125 1247 1344
3 1192 1316 1805
3 618 614 895
3 625 846 1764
3 745 929 938
3 817 803 1850
3 1714 844 1817
3 987 986 988
3 1307 1799 1823
3 1821 684 1871
3 945 1200 1845
3 973 1085 1100
3 1031 1026 1032
3 1099 1098 1108
3 1201 1618 1870
3 643 655 1772
3 853 852 928
3 1116 962 1117
3 1098 1097 1216
3 1244 1243 1245
3 605 606 607
3 818 956 1840
3 980 836 1171
3 960 961 1107
3 1129 1130 1131
3 590 855 856
3 603 604 605
3 789 842 1747
3 927 972 978
3 985 987 989
3 1674 1941 1942
3 755 753 958
3 947 949 1837
3 1838 1228 1914
3 600 602 603
3 1762 666 1763
3 1855 926 1856
3 1200 1838 1876
3 1305 1304 1623
3 946 944 1853
3 985 986 987
3 1819 1203 1910
3 585 583 1884
3 593 595 1810
3 974 814 1872
3 1057 1128 1134
3 1061 1254 1816
3 1119 1239 1240
3 573 574 575
3 589 591 592
3 733 1760 1883
3 766 768 906
3 794 792 1846
3 868 869 870
3 1042 920 1043
3 1088 1915 1947
3 1625 1702 1956
3 588 585 1884
3 1923 633 1929
3 663 644 1792
3 1048 969 1106
3 995 994 996
3 1087 1164 1167
3 1166 1813 1814
3 1172 1668 1817
3 1821 1818 1822
3 1818 1821 1871
3 1021 914 1857
3 1818 1022 1822
3 1129 1058 1130
3 1301 1218 1309
3 629 623 1799
3 866 868 1864
3 868 867 869
3 874 877 1867
3 1746 1645 1815
3 1688 1859 1923
3 822 821 1879
3 888 886 889
3 1202 1107 1203
3 597 1318 1798
3 684 1762 1895
3 858 739 1816
3 870 869 871
3 897 1111 1940
3 1028 1303 1322
3 1105 1301 1667
3 1304 1115 1741
3 1303 1849 1891
3 1636 1641 1829
3 1668 1714 1817
3 744 741 921
3 757 755 1903
3 890 1746 1811
3 995 997 998
3 1238 1242 1323
3 1246 1293 1294
3 1666 1665 1842
3 960 1107 1202
3 1078 965 1886
3 1104 1010 1177
3 1177 1010 1178
3 574 571 1609
3 573 575 576
3 785 802 1840
3 908 1229 1867
3 1730 1020 1731
3 1177 1178 1290
3 1301 1309 1665
3 1854 904 1864
3 930 885 1751
3 1041 1065 1209
3 1131 1238 1243
3 662 670 1939
3 1852 1826 1901
3 820 761 1828
3 1861 1310 1931
3 620 599 1798
3 670 1623 1937
3 1131 1243 1244
3 901 723 1830
3 1895 1762 1898
3 689 1821 1822
3 1670 1635 1671
3 666 656 1763
3 680 1717 1772
3 1163 1089 1237
3 1839 1208 1866
3 1634 1636 1829
3 613 615 1808
3 821 1308 1879
3 749 740 1833
3 1199 1685 1770
3 783 1208 1773
3 923 828 926
3 577 580 1875
3 770 810 1852
3 778 775 1689
3 1729 859 1845
3 901 1830 1908
3 1733 1225 1826
3 1125 1137 1247
3 592 1201 1835
3 886 884 1788
3 1292 1320 1735
3 1740 733 1888
3 846 1785 1926
3 1049 1048 1050
3 1841 1906 1936
3 839 840 984
3 907 1206 1894
3 1763 1013 1898
3 1116 1228 1838
3 1826 1225 1901
3 1237 1089 1970
3 606 604 1768
3 1749 633 1923
3 683 684 1821
3 1791 1666 1842
3 1011 771 1711
3 722 960 1834
3 814 808 1872
3 821 814 974
3 595 1015 1810
3 966 1074 1190
3 1309 1218 1874
3 810 1826 1852
3 992 870 1820
3 1645 1016 1815
3 1016 1843 1870
3 807 812 1825
3 1776 899 1824
3 960 1202 1834
3 633 627 1764
3 953 1116 1837
3 1203 1232 1910
3 1887 1691 1908
3 647 649 1793
3 1723 653 1944
3 740 732 1833
3 1208 785 1840
3 689 683 1821
3 1227 1039 1844
3 572 573 1621
3 1206 1748 1943
3 732 950 1833
3 1190 1074 1269
3 1200 947 1837
3 1207 1750 1912
3 846 621 1785
3 869 867 1745
3 1019 1736 1892
3 644 641 1792
3 1924 846 1926
3 1823 895 1836
3 1734 1708 1863
3 1815 1016 1870
3 1269 1074 1270
3 1738 603 1740
3 1889 734 1905
3 1100 1234 1881
3 1796 1795 1797
3 724 727 1830
3 1784 806 1949
3 1753 887 1754
3 1222 1219 1754
3 599 597 1798
3 805 1795 1796
3 1212 1818 1871
3 627 625 1764
3 660 645 1851
3 667 660 1802
3 1165 1166 1956
3 1196 1861 1931
3 1239 1928 1961
3 1966 1797 1973
3 1727 617 1774
3 1310 974 1931
3 1224 1230 1892
3 1760 1761 1883
3 1301 1665 1854
3 1307 1836 1849
3 1612 1313 1958
3 887 1646 1754
3 1628 1627 1629
3 1835 1201 1870
3 1793 679 1961
3 1231 1687 1929
3 876 874 1867
3 1307 1823 1836
3 1644 1957 1968
3 617 622 1774
3 719 738 1917
3 1766 813 1825
3 1276 1313 1314
3 723 724 1830
3 580 1791 1842
3 759 975 1828
3 792 816 1846
3 1013 1807 1860
3 1829 1641 1858
3 1232 1712 1868
3 1688 1743 1905
3 1808 1019 1885
3 1667 1678 1806
3 1762 1763 1898
3 1704 882 1804
3 1644 1828 1957
3 1317 1212 1871
3 896 886 1788
3 1903 1697 1911
3 609 1876 1914
3 1300 992 1820
3 1200 1837 1838
3 1845 1200 1876
3 1739 1740 1888
3 958 753 1912
3 1317 1871 1895
3 586 587 1843
3 697 1803 1910
3 1744 1933 1936
3 899 640 1831
3 734 667 1802
3 655 680 1772
3 738 1805 1917
3 1219 1753 1754
3 1885 1230 1926
3 808 817 1872
3 1087 1167 1959
3 1803 1819 1910
3 628 1017 1941
3 1769 1118 1969
3 648 646 1896
3 1322 1303 1891
3 811 1730 1856
3 896 1788 1789
3 1741 1724 1937
3 1730 1731 1856
3 640 643 1831
3 899 1831 1919
3 1794 1311 1886
3 1713 1231 1924
3 925 1302 1790
3 573 571 574
3 616 613 1808
3 621 616 1785
3 1302 1767 1790
3 1812 1120 1978
3 1859 1749 1923
3 1785 1808 1885
3 1198 606 1768
3 1802 1859 1905
3 634 1749 1851
3 645 634 1851
3 1309 1874 1875
3 583 1292 1884
3 646 659 1896
3 1236 1043 1907
3 975 757 1903
3 1008 996 1686
3 1637 1007 1853
3 806 764 1921
3 914 942 1857
3 768 770 1852
3 1208 1840 1866
3 694 712 1962
3 1118 1050 1966
3 1726 1895 1898
3 920 889 1907
3 1105 1667 1806
3 1630 1631 1947
3 1017 1873 1928
3 1768 609 1914
3 635 647 1873
3 1674 691 1941
3 1719 1222 1865
3 761 759 1828
3 1837 1116 1838
3 1230 1885 1892
3 1007 946 1853
3 1832 1710 1889
3 766 906 1921
3 824 827 1945
3 1013 1860 1898
3 1228 1319 1930
3 1623 1304 1937
3 1315 1712 1862
3 813 807 1825
3 1021 1857 1906
3 1207 1833 1916
3 885 888 1751
3 1274 1275 1276
3 875 878 1704
3 1739 1738 1740
3 609 1729 1876
3 1764 846 1924
3 1798 1318 1902
3 1785 616 1808
3 1857 1240 1906
3 1945 1293 1976
3 878 882 1704
3 1788 1753 1789
3 1241 1881 1882
3 657 650 1699
3 1726 1317 1895
3 751 1207 1912
3 906 1852 1901
3 1928 1239 1942
3 691 1674 1955
3 1802 1851 1859
3 810 1703 1827
3 1198 1930 1932
3 1630 1915 1935
3 904 866 1864
3 1310 1861 1950
3 1860 1726 1898
3 1043 920 1907
3 805 1747 1795
3 906 768 1852
3 962 954 1946
3 873 869 1745
3 1753 1193 1789
3 744 921 1965
3 1672 1829 1858
3 990 917 1880
3 1867 1229 1913
3 1104 1177 1893
3 1626 1196 1931
3 1213 1733 1827
3 855 1884 1948
3 1881 1234 1882
3 1624 1623 1909
3 1731 1732 1953
3 1732 1796 1953
3 1786 1834 1904
3 1879 1308 1880
3 1318 1756 1894
3 1675 1672 1858
3 1803 845 1819
3 1841 1021 1906
3 1713 1924 1926
3 1833 950 1916
3 782 805 1847
3 1196 1093 1861
3 1199 1770 1938
3 1710 734 1889
3 1106 969 1855
3 1747 1681 1795
3 753 751 1912
3 1958 1321 1965
3 1826 810 1827
3 895 1809 1932
3 950 1863 1916
3 1164 1217 1920
3 1631 1869 1947
3 1894 1206 1902
3 734 1802 1905
3 653 652 1944
3 955 719 1917
3 889 897 1907
3 1930 1319 1932
3 594 591 1756
3 691 626 1941
3 1698 1700 1922
3 1885 1019 1892
3 1906 1240 1954
3 1687 1688 1923
3 883 930 1890
3 969 926 1855
3 1291 1164 1920
3 1674 1241 1955
3 1322 1891 1946
3 1235 1674 1942
3 673 677 1964
3 777 779 1848
3 1275 1236 1940
3 1304 1741 1937
3 587 1835 1843
3 647 1793 1873
3 1093 1094 1861
3 804 841 1972
3 1843 1835 1870
3 1722 1721 1933
3 1318 594 1756
3 1321 1632 1965
3 1202 1204 1904
3 1824 899 1919
3 1951 1321 1958
3 879 876 1913
3 1809 1198 1932
3 1911 1728 1957
3 1729 1845 1876
3 1914 1228 1930
3 882 880 1890
3 1891 962 1946
3 779 782 1847
3 1706 1696 1897
3 1813 1310 1950
3 1744 1936 1954
3 1695 1728 1911
3 1840 956 1866
3 847 1765 1918
3 1198 1768 1930
3 1697 1695 1911
3 956 1025 1866
3 1018 1676 1943
3 1773 1208 1839
3 1230 1713 1926
3 1721 1841 1936
3 1728 1096 1968
3 1097 901 1908
3 917 1879 1880
3 849 847 1918
3 876 1867 1913
3 1899 1014 1900
3 1884 1292 1948
3 1750 1706 1897
3 764 766 1921
3 1900 1204 1922
3 1851 1749 1859
3 1102 849 1918
3 1768 1914 1930
3 633 1764 1929
3 1814 1813 1950
3 1915 1018 1935
3 1733 1826 1827
3 1924 1231 1929
3 909 912 1877
3 1106 1797 1966
3 1846 816 1869
3 1844 1784 1949
3 659 665 1899
3 779 1847 1848
3 1691 1097 1908
3 626 628 1941
3 1834 1202 1904
3 658 662 1939
3 1227 1844 1949
3 1628 1630 1935
3 1971 1682 1978
3 572 1621 1925
3 954 1087 1946
3 1313 1275 1951
3 1828 975 1957
3 1967 841 1974
3 572 571 573
3 1873 1793 1928
3 1935 1018 1943
3 975 1911 1957
3 1933 1721 1936
3 1700 1900 1922
3 569 572 1611
3 839 838 840
3 712 744 1962
3 880 883 1890
3 1318 1894 1902
3 1632 1305 1963
3 576 577 1875
3 1305 1624 1963
3 1275 1940 1951
3 1758 1088 1947
3 1764 1924 1929
3 665 1014 1899
3 1684 1227 1949
3 679 1744 1954
3 1909 673 1964
3 1233 1169 1927
3 1874 576 1875
3 1028 1322 1960
3 1748 1628 1935
3 677 694 1964
3 1241 1882 1955
3 652 658 1944
3 1861 1094 1950
3 1624 1909 1964
3 1320 1625 1956
3 912 1021 1877
3 1167 1643 1959
3 1096 1028 1960
3 658 1939 1944
3 1748 1935 1943
3 1292 1735 1948
3 1243 1238 1967
3 1169 1616 1927
3 1088 943 1915
3 1017 1928 1942
3 943 1018 1915
3 1240 1239 1961
3 1633 1306 1934
3 1313 1951 1958
3 1238 1323 1967
3 823 824 1945
3 1759 1952 1970
3 1954 1240 1961
3 1692 823 1976
3 1681 1969 1973
3 679 1954 1961
3 800 798 1975
3 1322 1959 1960
3 1048 1106 1966
3 1096 1960 1968
3 921 1958 1965
3 1245 1243 1974
3 1624 1962 1963
3 1050 1048 1966
3 841 1967 1972
3 1643 1644 1968
3 1960 1643 1968
3 1962 744 1963
3 1682 1977 1978
3 1120 1769 1971
3 1959 1643 1960
3 1702 1759 1970
3 801 804 1972
3 1759 574 1952
3 574 1609 1952
3 841 1692 1974
3 1681 1680 1969
3 800 1975 1977
3 1972 1323 1975
3 801 1972 1975
3 1680 1682 1971
3 798 801 1975
3 1293 1245 1976
3 1323 1242 1977
3 1769 1969 1971
3 1967 1323 1972
3 1797 1795 1973
3 1795 1681 1973
3 1975 1323 1977
3 1245 1974 1976
3 1969 1680 1971
3 1974 1692 1976
3 569 571 572
3 570 838 839
3 1242 1812 1978
3 1977 1242 1978
3 570 568 838
3 569 570 571
3 569 568 570
3 567 568 569
3 565 567 1607
3 567 566 568
3 565 566 567
3 566 564 696
3 563 565 711
3 565 564 566
3 563 564 565
3 563 562 564
3 936 561 1599
3 562 560 837
3 561 562 563
3 559 561 936
3 561 560 562
3 559 560 561
3 1068 1069 1070
3 1264 1123 1400
3 1155 556 1572
3 559 558 560
3 1262 1162 1592
3 557 558 559
3 558 556 1155
3 1191 1779 1780
3 1091 1090 1610
3 1215 1655 1980
3 1657 830 1981
3 1656 922 1980
3 1622 1215 1980
3 922 1757 1980
3 830 752 1981
3 754 922 1981
3 1383 1283 1384
3 1154 1261 1390
3 1261 1162 1262
3 1573 1160 1577
3 1371 1370 1578
3 752 754 1981
3 1757 1622 1980
3 1282 1283 1383
3 1161 1160 1573
3 1282 1161 1283
3 1080 1161 1282
3 988 986 1589
3 1080 1071 1160
3 1389 1414 1415
3 1577 1160 1979
3 1080 1160 1161
3 555 557 1063
3 557 556 558
3 1648 1064 1658
3 1146 1566 1587
3 1389 1365 1414
3 1070 1071 1079
3 1079 1071 1080
3 1370 1083 1986
3 1070 1069 1071
3 1342 1343 1428
3 1782 858 1816
3 1388 1365 1389
3 1364 1362 1365
3 1162 1091 1610
3 1154 1162 1261
3 1364 1365 1388
3 1369 1370 1371
3 894 1046 1983
3 738 737 1983
3 1363 1364 1520
3 1343 1478 1479
3 1069 988 1589
3 1363 1362 1364
3 1146 1288 1566
3 1489 1490 1503
3 1370 1986 1987
3 738 1983 1987
3 1288 1250 1289
3 1779 1778 1991
3 1601 1266 2008
3 1461 1459 1462
3 706 1191 1780
3 1578 1370 1987
3 1068 988 1069
3 1489 1255 1490
3 178 183 2125
3 555 556 557
3 1361 1362 1363
3 1357 1361 1368
3 737 894 1983
3 1144 1267 1378
3 1057 1134 1600
3 1455 1453 1480
3 1029 1192 1986
3 557 559 1588
3 1612 921 1614
3 1983 1578 1987
3 1158 1255 1489
3 1354 1356 1357
3 1650 1651 1652
3 1361 1358 1362
3 1357 1368 1982
3 1343 1341 1478
3 4 12 2127
3 1149 1083 1369
3 1651 1648 1658
3 1154 1091 1162
3 1357 1358 1361
3 1570 837 2003
3 1452 1453 1455
3 1369 1083 1370
3 1122 1156 1568
3 1357 1356 1358
3 1352 1354 1982
3 1354 1355 1356
3 1518 1531 2024
3 1158 1159 1255
3 1287 1149 1580
3 957 832 1988
3 833 931 1988
3 1149 1369 1580
3 1342 1341 1343
3 1146 1250 1288
3 1600 1266 1601
3 1336 1337 1338
3 120 112 2146
3 1192 1805 1986
3 1354 1357 1982
3 1986 1805 1987
3 1447 1448 1449
3 92 98 2073
3 1805 738 1987
3 1354 1353 1355
3 1335 1336 1435
3 1182 1183 1538
3 1352 1353 1354
3 1997 1549 2006
3 1782 1346 1991
3 1059 1602 1606
3 1352 1351 1353
3 933 735 1575
3 99 94 2089
3 1158 1157 1159
3 1450 1452 1454
3 61 54 2137
3 2067 109 2243
3 1081 1141 1259
3 1992 27 2198
3 555 554 556
3 1452 1451 1453
3 1650 1648 1651
3 234 241 2093
3 1336 1299 1337
3 1594 1677 1994
3 1593 1171 1996
3 1677 695 1994
3 687 690 1994
3 1092 1594 1995
3 690 848 1995
3 851 1092 1995
3 1171 836 1996
3 743 1677 1996
3 1145 1147 1536
3 1350 1351 1352
3 1350 1352 1989
3 1945 827 1997
3 1294 1293 1997
3 716 1781 2018
3 714 716 1998
3 1295 1297 2029
3 2212 453 2354
3 1270 1074 1571
3 1156 1157 1158
3 558 1155 2003
3 1437 1388 2404
3 837 560 2003
3 1337 1299 2006
3 1350 1349 1351
3 1348 1349 1350
3 1133 1132 1268
3 931 1985 1988
3 970 918 1551
3 893 1800 2007
3 1045 940 2007
3 1383 1385 2284
3 1156 1126 1157
3 1394 1436 2014
3 2321 2395 2411
3 2396 2322 2412
3 1136 1375 2001
3 1144 1470 1985
3 42 49 2158
3 1348 1350 1360
3 1159 1157 1576
3 1146 1145 1250
3 1401 1272 2035
3 1990 1288 1993
3 1566 1288 1990
3 1178 1010 2010
3 1004 1006 2010
3 832 833 1988
3 1360 1350 1989
3 1352 1982 1989
3 148 156 2145
3 195 190 2082
3 971 1142 1144
3 1076 970 1084
3 1460 1464 1574
3 1415 1414 2019
3 2259 498 2273
3 497 2261 2274
3 493 2265 2276
3 492 2266 2275
3 110 104 2143
3 1340 1341 1342
3 1288 1289 1993
3 1778 1782 1991
3 1469 1267 1999
3 695 687 1994
3 848 851 1995
3 836 743 1996
3 1134 1266 1600
3 34 39 2136
3 124 132 2121
3 1411 1127 1431
3 927 978 1586
3 1293 1945 1997
3 1298 1335 1382
3 146 140 2166
3 52 60 2133
3 736 714 1998
3 180 172 2098
3 14 8 2208
3 84 1456 2423
3 20 26 2094
3 1263 2000 2408
3 1450 1451 1452
3 560 558 2003
3 979 1139 2024
3 6 13 2195
3 219 214 2176
3 68 74 2132
3 987 1067 2021
3 1432 1433 2026
3 1070 1079 1081
3 1800 736 2025
3 736 2023 2025
3 206 200 2077
3 394 473 2209
3 940 893 2007
3 1251 1426 1492
3 1413 2180 2226
3 1530 933 1575
3 1384 1283 1529
3 1324 1325 1468
3 1296 1294 2006
3 1603 1601 2008
3 51 46 2118
3 1781 1989 2018
3 1269 1334 2034
3 1335 1299 1336
3 130 135 2122
3 1341 1338 2012
3 1281 2032 2046
3 1010 1004 2010
3 553 554 555
3 1458 1384 1488
3 1298 1299 1335
3 463 537 2193
3 1136 1075 1151
3 935 2001 2016
3 1409 1141 1467
3 147 142 2151
3 1368 1361 2023
3 12 2157 2281
3 736 1998 2023
3 1261 1262 1992
3 72 64 2120
3 963 1168 1521
3 1084 970 1551
3 978 1060 1132
3 1338 1337 2012
3 1558 1270 1571
3 2100 401 2101
3 2106 417 2107
3 1073 1127 1248
3 551 456 2407
3 2038 39 2364
3 1251 1150 1426
3 1250 1145 1536
3 1989 1982 2018
3 1075 937 1082
3 935 932 2001
3 133 126 2144
3 1147 1148 1329
3 937 933 1530
3 1147 1329 1421
3 1444 1445 1597
3 187 2049 2187
3 1263 1554 1555
3 132 124 2096
3 1136 1151 1374
3 2080 413 2308
3 425 2150 2310
3 1073 1248 1249
3 1379 1182 1538
3 935 1565 2039
3 50 1494 2071
3 1998 1368 2023
3 13 6 2159
3 1557 1295 2029
3 1544 1543 1545
3 291 292 2417
3 271 272 2418
3 1535 1315 2050
3 1379 2242 2267
3 1460 1459 1461
3 1330 1332 1404
3 1374 1376 2067
3 1404 1332 2228
3 1513 1517 1518
3 1136 1374 1375
3 1982 1368 2018
3 1531 919 2024
3 2044 2162 2423
3 903 935 2039
3 1887 1214 2039
3 1576 1157 2042
3 1299 1296 2006
3 205 1421 2319
3 1312 1110 2043
3 1176 1887 2043
3 1513 1514 1517
3 1565 1312 2043
3 76 84 2162
3 1400 1123 1472
3 1168 1483 1521
3 1122 1126 1156
3 1272 1438 1439
3 1440 13 2404
3 982 1145 1146
3 1330 1331 1332
3 2055 1560 2056
3 1467 1282 2185
3 1470 1378 1471
3 1081 1259 1260
3 1505 1256 1506
3 1452 1455 2048
3 1488 1384 1529
3 939 1483 2052
3 2145 1509 2380
3 1442 2235 2269
3 1178 1480 2223
3 1544 1546 1547
3 1361 1363 2023
3 133 2351 2383
3 110 2350 2382
3 479 370 2206
3 2023 1363 2025
3 961 967 2050
3 1315 1862 2050
3 1547 938 2032
3 1363 1520 2025
3 1662 1663 2340
3 1184 1381 1457
3 2008 1266 2214
3 1411 1431 1437
3 1490 1255 2009
3 1450 1448 1451
3 1560 1163 2056
3 919 979 2024
3 1555 1554 2011
3 981 1252 2046
3 2086 24 2403
3 218 2083 2402
3 2126 206 2401
3 1608 984 2056
3 1163 1237 2056
3 985 989 2055
3 150 149 2097
3 941 1044 1073
3 1298 1296 1299
3 929 981 2046
3 1134 1265 1266
3 1340 1338 1341
3 1366 1353 1475
3 13 1437 2404
3 2153 397 2321
3 409 2148 2322
3 1518 1517 1519
3 1402 1270 1558
3 1497 1496 1498
3 1249 1248 1405
3 1258 1533 2022
3 2001 1375 2016
3 458 547 2197
3 2235 2136 2269
3 1366 1476 1477
3 2044 77 2162
3 1498 1499 1500
3 1582 1583 1584
3 550 551 2339
3 111 2101 2244
3 134 2107 2246
3 938 929 2046
3 13 1440 2195
3 2325 444 2392
3 547 2008 2214
3 1306 1269 2034
3 1447 1449 2049
3 1327 1280 1482
3 133 1652 2320
3 2193 145 2241
3 1663 1660 1664
3 55 1527 2279
3 1148 983 2054
3 983 928 2054
3 1420 1159 1576
3 1423 1072 1465
3 1067 1277 2021
3 1588 936 2066
3 1355 1353 1366
3 240 2069 2273
3 2128 15 2275
3 2179 48 2276
3 2117 230 2274
3 928 939 2054
3 2180 170 2226
3 1214 903 2039
3 1331 1148 2054
3 1392 1394 2014
3 2033 231 2280
3 1285 1418 1425
3 1147 1421 1536
3 1110 1176 2043
3 1449 1448 1450
3 1282 1383 2185
3 1252 1281 2046
3 1144 1378 1470
3 1355 1366 1522
3 2270 1403 2357
3 1544 1545 1546
3 1500 1499 1537
3 1514 1567 2041
3 1652 1651 2196
3 1260 1259 1403
3 2186 2005 2227
3 29 1523 2426
3 1429 1143 1430
3 553 552 554
3 231 2078 2280
3 1386 1140 1432
3 405 2109 2110
3 421 2103 2104
3 549 457 2256
3 543 460 2257
3 2058 12 2281
3 1517 1514 2041
3 1422 553 1444
3 1429 1430 2225
3 1567 157 2041
3 349 449 503
3 346 448 502
3 357 453 501
3 430 451 500
3 452 352 500
3 450 431 502
3 455 428 501
3 454 429 503
3 1659 1661 2196
3 181 1999 2000
3 1157 1126 2042
3 1486 1485 2053
3 1454 1452 2048
3 1142 1076 1263
3 1440 1441 2027
3 141 140 2167
3 1862 961 2050
3 1394 1395 1396
3 1126 1264 2042
3 1526 1528 1556
3 1330 1148 1331
3 97 550 2339
3 1393 1391 2198
3 2129 37 2326
3 989 2051 2055
3 23 22 2070
3 1420 1576 2307
3 537 1576 2332
3 984 985 2055
3 1484 1347 2346
3 1469 173 2378
3 1248 1410 2057
3 192 184 2172
3 162 169 2169
3 73 66 2090
3 176 182 2114
3 86 80 2139
3 237 236 2178
3 159 154 2111
3 88 96 2165
3 58 63 2134
3 102 101 2095
3 1366 1475 1476
3 1237 1608 2056
3 1252 1279 1280
3 2047 1466 2229
3 179 178 2125
3 207 202 2116
3 210 217 2175
3 25 18 2085
3 38 32 2160
3 240 232 2069
3 224 230 2117
3 40 48 2179
3 10 15 2128
3 1381 2044 2423
3 2045 1284 2218
3 1342 1487 2230
3 142 147 2152
3 122 116 2147
3 112 120 2079
3 145 138 2149
3 711 1607 2223
3 1290 1178 2223
3 190 195 2154
3 152 158 2124
3 64 72 2131
3 97 90 2088
3 170 164 2081
3 78 85 2156
3 183 178 2076
3 60 52 2130
3 466 418 2374
3 406 469 2373
3 467 414 2375
3 471 402 2376
3 112 119 2146
3 93 92 2073
3 48 40 2164
3 15 10 2141
3 18 25 2084
3 217 210 2174
3 32 38 2142
3 232 240 2177
3 202 207 2068
3 230 224 2163
3 96 88 2092
3 169 162 2168
3 182 176 2113
3 66 73 2072
3 80 86 2135
3 184 192 2171
3 63 58 2138
3 154 159 2112
3 1401 2035 2220
3 1281 1280 1327
3 1441 1442 1443
3 2036 14 2208
3 231 226 2078
3 30 37 2129
3 49 42 2087
3 238 243 2155
3 200 206 2126
3 16 24 2086
3 218 212 2083
3 12 4 2157
3 111 106 2099
3 134 128 2105
3 128 134 2108
3 106 111 2102
3 1446 1588 2066
3 1451 1448 2066
3 22 21 2017
3 1429 123 2222
3 1654 1653 2234
3 1537 1499 2015
3 231 2011 2306
3 94 99 2293
3 56 62 2292
3 160 168 2291
3 174 181 2288
3 74 68 2290
3 87 82 2289
3 193 186 2287
3 156 148 2286
3 1389 1440 2404
3 542 543 2427
3 214 213 2176
3 2066 936 2215
3 1274 1276 2229
3 2110 134 2247
3 2104 111 2245
3 1252 1280 1281
3 422 464 2387
3 426 465 2388
3 410 468 2389
3 470 398 2390
3 1132 1271 2062
3 545 544 2345
3 36 28 2352
3 1398 1393 2198
3 540 541 2349
3 2166 1400 2356
3 62 1525 2324
3 1402 1558 2061
3 1264 1417 2042
3 345 484 528
3 348 485 529
3 356 489 531
3 486 354 532
3 488 351 530
3 359 487 533
3 490 363 534
3 491 361 535
3 454 503 2203
3 1272 1439 2035
3 2078 475 2280
3 51 2118 2119
3 91 90 2059
3 1381 1380 2044
3 1410 1411 2377
3 936 1599 2215
3 61 1580 2348
3 2000 1263 2325
3 1379 1538 2242
3 462 539 2341
3 1329 1148 1330
3 2283 440 2313
3 2014 1436 2391
3 166 165 2194
3 213 212 2065
3 1501 1500 2202
3 37 1534 2326
3 195 536 2388
3 158 538 2387
3 72 546 2389
3 550 97 2390
3 2191 2197 2214
3 24 2201 2403
3 2200 218 2402
3 206 2199 2401
3 227 2186 2227
3 1448 1446 2066
3 195 1420 2307
3 1472 1474 2356
3 1344 1406 2334
3 45 44 2071
3 1345 1456 2346
3 1332 1510 2228
3 1382 1335 2333
3 2011 1553 2186
3 2051 1560 2055
3 46 51 2298
3 8 14 2299
3 208 216 2303
3 26 20 2302
3 222 229 2301
3 39 34 2300
3 241 234 2305
3 204 196 2304
3 117 116 2020
3 1375 1374 2243
3 419 466 2115
3 415 467 2170
3 469 407 2140
3 468 411 2091
3 1569 1390 2415
3 1412 1340 2230
3 188 187 2187
3 2069 473 2273
3 475 2117 2274
3 478 2128 2275
3 479 2179 2276
3 399 470 2190
3 403 471 2189
3 541 461 2320
3 542 170 2375
3 85 544 2373
3 540 183 2374
3 548 60 2376
3 2215 1599 2232
3 1419 1403 2270
3 2009 1372 2060
3 49 2206 2393
3 2144 2371 2431
3 1461 1462 1463
3 243 238 552
3 1460 1574 2284
3 1491 1326 2207
3 98 2047 2229
3 2242 545 2267
3 165 164 2180
3 76 83 2040
3 2017 1398 2198
3 183 540 2349
3 2015 1499 2028
3 1580 1369 2348
3 1497 1498 2119
3 104 110 2382
3 126 133 2383
3 135 130 2385
3 108 100 2386
3 1451 2066 2215
3 70 69 2220
3 243 553 1422
3 1651 1659 2196
3 365 506 507
3 369 504 505
3 508 373 509
3 510 377 511
3 381 514 515
3 385 512 513
3 516 393 517
3 518 389 519
3 1999 1267 2408
3 544 85 2345
3 2206 370 2393
3 2261 387 2274
3 2265 371 2276
3 2266 367 2275
3 395 2259 2273
3 1456 1381 2423
3 1447 2049 2064
3 83 82 2053
3 1396 1395 1397
3 101 100 2074
3 1268 1132 2062
3 2074 1325 2335
3 1574 219 2284
3 2240 120 2257
3 429 327 432
3 431 322 436
3 352 323 438
3 428 326 434
3 55 54 2161
3 152 151 2075
3 2027 7 2195
3 2136 39 2269
3 5 4 2127
3 1449 1450 2421
3 1599 711 2232
3 1405 1248 2057
3 118 117 2222
3 221 1436 2328
3 94 93 2089
3 1543 2089 2370
3 54 53 2137
3 2037 1443 2038
3 1435 1413 2226
3 235 234 2093
3 1430 1434 2225
3 1268 2062 2063
3 43 42 2158
3 149 148 2145
3 190 189 2082
3 7 2027 2208
3 1277 1278 2221
3 104 103 2143
3 453 2212 2414
3 1501 2202 2203
3 2027 1441 2036
3 1265 1387 2191
3 35 34 2136
3 125 124 2121
3 1487 1277 2221
3 477 2129 2326
3 543 2226 2427
3 140 139 2166
3 53 52 2133
3 1453 1451 2215
3 172 179 2098
3 2299 14 2362
3 2298 51 2363
3 39 2300 2364
3 26 2302 2365
3 2301 229 2366
3 2303 216 2367
3 241 2305 2368
3 204 2304 2369
3 21 20 2094
3 220 227 2227
3 69 68 2132
3 200 199 2077
3 325 430 439
3 324 357 435
3 320 346 437
3 321 349 433
3 184 191 2172
3 163 162 2169
3 66 65 2090
3 177 176 2114
3 80 79 2139
3 46 45 2118
3 131 130 2122
3 24 2045 2218
3 503 449 2203
3 2061 1558 2334
3 211 210 2175
3 202 201 2116
3 18 17 2085
3 32 31 2160
3 1541 2234 2424
3 142 141 2151
3 1266 1265 2214
3 1330 1404 2268
3 143 142 2152
3 116 115 2147
3 191 190 2154
3 153 152 2124
3 65 64 2131
3 90 89 2088
3 64 71 2120
3 97 2088 2390
3 2131 72 2389
3 2154 195 2388
3 2124 158 2387
3 464 423 2188
3 160 167 2217
3 224 223 2163
3 1265 2191 2214
3 126 125 2144
3 208 215 2204
3 1387 1429 2416
3 58 57 2138
3 155 154 2112
3 124 131 2096
3 1284 1268 2218
3 1581 2137 2338
3 1525 1405 2324
3 1466 1274 2229
3 6 5 2159
3 1464 1461 2211
3 239 238 2155
3 201 200 2126
3 212 211 2083
3 17 16 2086
3 4 11 2157
3 129 128 2108
3 107 106 2102
3 1392 2014 2415
3 381 515 2295
3 2133 1583 2338
3 1382 2257 2355
3 549 2256 2282
3 1563 1375 2243
3 445 2270 2357
3 2197 122 2272
3 1584 1583 2216
3 77 76 2162
3 2000 1999 2408
3 28 35 2352
3 374 477 2326
3 1453 2215 2232
3 365 507 2312
3 369 505 2313
3 509 373 2314
3 511 377 2316
3 385 513 2315
3 517 393 2318
3 519 389 2317
3 390 472 2401
3 474 382 2402
3 378 476 2403
3 193 2064 2297
3 1324 1468 2258
3 1607 1290 2223
3 463 2193 2241
3 1538 1539 2242
3 478 366 2281
3 424 2311 2418
3 2309 412 2417
3 2157 478 2281
3 114 2409 2412
3 2410 136 2411
3 345 528 2362
3 348 529 2363
3 532 354 2364
3 359 533 2366
3 530 351 2365
3 356 531 2367
3 535 361 2369
3 534 363 2368
3 1576 2042 2332
3 2283 1482 2393
3 1259 1408 2210
3 170 542 2427
3 2038 1443 2269
3 1396 1397 1399
3 2062 1271 2205
3 2107 416 2246
3 2101 400 2244
3 2130 471 2376
3 2076 466 2374
3 469 2156 2373
3 2081 467 2375
3 2197 547 2214
3 7 6 2195
3 465 427 2173
3 2022 180 2340
3 2231 2094 2344
3 2064 2049 2297
3 1340 1342 2230
3 1492 50 2330
3 1498 1500 1501
3 60 2130 2376
3 170 2081 2375
3 2156 85 2373
3 183 2076 2374
3 1327 1482 2283
3 242 1572 2178
3 1480 1453 2232
3 1273 1654 2234
3 2291 168 2295
3 475 386 2280
3 1442 2019 2235
3 1511 1324 2258
3 2292 62 2312
3 2293 99 2313
3 87 2289 2314
3 74 2290 2316
3 2288 181 2315
3 193 2287 2318
3 156 2286 2317
3 8 7 2208
3 2027 2036 2208
3 366 2058 2281
3 1515 2075 2398
3 51 2119 2224
3 1395 1398 2231
3 2049 1449 2187
3 274 275 2248
3 255 256 2249
3 288 289 2252
3 307 308 2250
3 293 294 2253
3 312 313 2251
3 269 270 2254
3 250 251 2255
3 1408 1409 2381
3 194 2009 2060
3 1142 1263 2408
3 1403 1259 2210
3 243 1422 2209
3 2075 1515 2353
3 157 1567 2397
3 105 104 2382
3 127 126 2383
3 130 129 2385
3 100 107 2386
3 476 2086 2403
3 2083 474 2402
3 472 2126 2401
3 2031 1382 2355
3 49 1482 2296
3 2095 101 2335
3 448 2037 2277
3 1268 2063 2218
3 1435 2226 2333
3 154 153 2111
3 59 58 2134
3 89 88 2165
3 277 278 2259
3 258 259 2260
3 304 305 2261
3 315 316 2263
3 285 286 2262
3 296 297 2264
3 247 248 2266
3 266 267 2265
3 1471 1378 2419
3 232 239 2069
3 225 224 2117
3 11 10 2128
3 41 40 2179
3 113 112 2079
3 138 137 2149
3 178 177 2076
3 79 78 2156
3 164 163 2081
3 52 59 2130
3 1280 1279 2296
3 10 9 2141
3 40 47 2164
3 210 209 2174
3 33 32 2142
3 19 18 2084
3 203 202 2068
3 233 232 2177
3 1421 1329 2400
3 88 95 2092
3 81 80 2135
3 176 175 2113
3 162 161 2168
3 67 66 2072
3 185 184 2171
3 226 225 2078
3 31 30 2129
3 42 41 2087
3 2137 53 2338
3 106 105 2099
3 128 127 2105
3 1385 1460 2284
3 1441 1443 2036
3 1387 2020 2191
3 2205 74 2219
3 53 2133 2338
3 2320 461 2351
3 101 2074 2335
3 114 113 2409
3 137 136 2410
3 1545 1543 2370
3 136 143 2411
3 115 114 2412
3 1498 1501 2119
3 1440 2027 2195
3 2062 2205 2219
3 2257 120 2355
3 2132 74 2205
3 1399 1397 2192
3 1424 1419 2405
3 2014 228 2415
3 1380 1379 2267
3 404 2110 2247
3 420 2104 2245
3 1397 1395 2231
3 1539 2123 2242
3 1999 181 2429
3 2049 187 2297
3 2088 470 2390
3 468 2131 2389
3 464 2124 2387
3 77 2044 2327
3 472 391 2236
3 383 474 2237
3 477 375 2239
3 476 379 2238
3 1406 1407 2432
3 2036 1443 2037
3 243 552 553
3 2011 2186 2306
3 2094 26 2344
3 2063 2062 2219
3 1501 2203 2224
3 1413 1412 2372
3 2005 228 2227
3 2172 465 2173
3 502 448 2277
3 2267 2345 2361
3 2192 1397 2344
3 1376 1377 2413
3 2004 242 2359
3 1377 2002 2282
3 238 237 552
3 1334 1402 2360
3 27 2017 2198
3 2212 2213 2414
3 1462 2004 2358
3 2123 545 2242
3 1325 1386 2335
3 1386 2095 2335
3 2111 464 2188
3 148 155 2286
3 186 185 2287
3 161 160 2291
3 68 67 2290
3 175 174 2288
3 82 81 2289
3 95 94 2293
3 57 56 2292
3 2191 122 2197
3 1583 1581 2338
3 1429 2222 2416
3 47 46 2298
3 9 8 2299
3 223 222 2301
3 34 33 2300
3 20 19 2302
3 209 208 2303
3 196 203 2304
3 234 233 2305
3 446 2228 2317
3 129 2108 2109
3 107 2102 2103
3 2350 2100 2382
3 2351 2106 2383
3 443 2063 2219
3 1482 1280 2296
3 1396 1399 2329
3 450 2038 2364
3 2202 454 2203
3 141 2167 2360
3 146 2166 2356
3 352 438 2181
3 428 434 2182
3 431 436 2183
3 429 432 2184
3 192 2172 2173
3 1558 1344 2334
3 2213 241 2368
3 471 2134 2189
3 470 2165 2190
3 2008 547 2294
3 35 2136 2235
3 2256 110 2413
3 1335 1435 2333
3 2139 469 2140
3 466 2114 2115
3 467 2169 2170
3 2090 468 2091
3 2073 1545 2370
3 139 138 2285
3 1542 1327 2283
3 460 2240 2257
3 56 55 2279
3 1463 1462 2343
3 93 2073 2370
3 199 198 2319
3 2371 1650 2431
3 433 349 2184
3 435 357 2182
3 437 346 2183
3 439 430 2181
3 357 501 2182
3 430 500 2181
3 500 352 2181
3 349 503 2184
3 501 428 2182
3 346 502 2183
3 502 431 2183
3 503 429 2184
3 458 2197 2272
3 1461 1463 2211
3 1468 108 2341
3 2231 1398 2394
3 1567 1515 2398
3 450 502 2277
3 228 2014 2391
3 485 347 493
3 484 344 492
3 353 486 495
3 350 488 494
3 487 358 497
3 489 355 496
3 360 491 499
3 362 490 498
3 473 395 2273
3 387 475 2274
3 371 479 2276
3 367 478 2275
3 1663 2022 2340
3 2186 227 2306
3 1329 1330 2268
3 1267 1142 2408
3 2219 74 2316
3 501 453 2414
3 2035 75 2220
3 44 43 2330
3 71 70 2323
3 2203 449 2224
3 2099 105 2100
3 2105 127 2106
3 2211 1463 2212
3 1347 1345 2346
3 1373 2045 2420
3 2213 455 2414
3 5 2127 2377
3 528 2299 2362
3 529 2298 2363
3 2300 532 2364
3 2302 530 2365
3 531 2303 2367
3 533 2301 2366
3 2305 534 2368
3 2304 535 2369
3 1534 374 2326
3 35 2235 2352
3 2212 1463 2213
3 143 2152 2153
3 2147 115 2148
3 1390 1392 2415
3 1649 1650 2371
3 187 186 2297
3 2089 93 2370
3 465 2172 2433
3 2094 2231 2394
3 1369 1371 2348
3 2151 141 2360
3 515 2291 2295
3 2159 5 2377
3 227 226 2306
3 2020 122 2191
3 1515 1516 2353
3 222 221 2328
3 1443 1442 2269
3 507 2292 2312
3 505 2293 2313
3 2289 509 2314
3 2290 511 2316
3 513 2288 2315
3 2287 517 2318
3 2286 519 2317
3 455 501 2414
3 1650 1652 2431
3 1419 2270 2405
3 78 77 2327
3 1436 1396 2329
3 2270 168 2405
3 181 2000 2392
3 159 2111 2188
3 2103 2342 2386
3 1653 1649 2422
3 440 2283 2393
3 2378 180 2419
3 2202 204 2369
3 1279 1492 2379
3 1263 1555 2325
3 2065 1408 2381
3 2196 1661 2428
3 113 2079 2080
3 2149 137 2150
3 418 540 2374
3 544 406 2373
3 414 542 2375
3 402 548 2376
3 2037 2038 2277
3 206 2077 2268
3 2143 1376 2413
3 2042 1417 2332
3 111 2244 2245
3 134 2246 2247
3 2079 120 2240
3 145 2149 2241
3 1388 1389 2404
3 2354 453 2367
3 129 2109 2385
3 107 2103 2386
3 189 2060 2430
3 180 2098 2340
3 2019 36 2352
3 1402 2151 2360
3 1450 1454 2421
3 2100 105 2382
3 2106 127 2383
3 2119 1501 2224
3 2409 121 2412
3 144 2410 2411
3 1400 1472 2356
3 2233 135 2385
3 2345 85 2361
3 506 364 520
3 504 368 521
3 372 508 522
3 376 510 523
3 514 380 525
3 512 384 524
3 392 516 527
3 388 518 526
3 173 172 2378
3 236 235 2359
3 2200 445 2357
3 221 220 2391
3 119 118 2406
3 538 422 2387
3 536 426 2388
3 546 410 2389
3 398 550 2390
3 2244 400 2337
3 2246 416 2336
3 1380 2267 2361
3 151 150 2397
3 2044 1380 2361
3 443 2219 2316
3 2371 2121 2422
3 1417 2193 2332
3 2162 84 2423
3 158 2075 2353
3 43 2158 2379
3 49 2087 2206
3 2057 2058 2425
3 30 29 2426
3 2109 2233 2385
3 2193 537 2332
3 2038 450 2277
3 2342 108 2386
3 2109 2108 2110
3 2103 2102 2104
3 241 2213 2343
3 2099 2100 2101
3 2105 2106 2107
3 2311 2395 2418
3 2396 2309 2417
3 2152 147 2271
3 122 2147 2272
3 2146 2031 2355
3 174 173 2429
3 51 2224 2363
3 2165 96 2190
3 2134 63 2189
3 2155 243 2209
3 2154 2388 2433
3 2167 1334 2360
3 229 2328 2329
3 168 2270 2295
3 143 2153 2411
3 2148 115 2412
3 2395 396 2418
3 408 2396 2417
3 2097 149 2380
3 1378 1469 2419
3 2341 108 2342
3 133 2144 2431
3 113 2080 2409
3 2150 137 2410
3 2169 169 2170
3 2114 182 2115
3 73 2090 2091
3 86 2139 2140
3 455 2213 2368
3 2158 49 2296
3 1412 2194 2372
3 23 2070 2420
3 2278 158 2353
3 1407 2059 2432
3 2017 21 2394
3 216 2354 2367
3 2116 472 2236
3 474 2175 2237
3 2160 477 2239
3 2085 476 2238
3 2060 1372 2430
3 207 2116 2236
3 2175 217 2237
3 25 2085 2238
3 38 2160 2239
3 2058 441 2425
3 117 2020 2416
3 1398 2017 2394
3 2213 1463 2343
3 85 2327 2361
3 2020 1387 2416
3 1403 2210 2357
3 179 2125 2399
3 2330 43 2379
3 1397 2231 2344
3 2311 144 2395
3 121 2309 2396
3 21 2094 2394
3 235 2093 2358
3 2315 181 2392
3 2176 213 2381
3 1649 2371 2422
3 2194 165 2372
3 2224 449 2363
3 213 2065 2381
3 2312 62 2324
3 45 2071 2384
3 1469 2378 2419
3 147 2061 2407
3 2093 241 2343
3 165 2180 2372
3 2222 117 2416
3 2211 2212 2354
3 541 2196 2428
3 2125 183 2331
3 1405 2057 2425
3 149 2145 2380
3 120 2146 2355
3 2199 390 2401
3 382 2200 2402
3 2201 378 2403
3 2118 45 2384
3 2267 545 2345
3 2075 151 2398
3 2098 179 2399
3 2226 170 2427
3 1409 2176 2381
3 2327 2044 2361
3 2247 2246 2336
3 2245 2244 2337
3 2388 465 2433
3 2070 1373 2420
3 2180 1413 2372
3 1516 2278 2353
3 87 2314 2347
3 2328 1436 2329
3 2270 445 2295
3 2234 132 2424
3 404 2247 2336
3 420 2245 2337
3 2077 199 2400
3 2082 189 2430
3 462 2341 2342
3 441 2312 2324
3 454 2202 2369
3 2235 2019 2352
3 168 2217 2405
3 2308 412 2309
3 424 2310 2311
3 2331 183 2349
3 2314 442 2347
3 110 2143 2413
3 2324 1405 2425
3 2000 2325 2392
3 2217 1424 2405
3 2172 191 2433
3 191 2154 2433
3 2059 97 2432
3 2271 147 2407
3 2321 396 2395
3 408 2322 2396
3 441 2324 2425
3 2121 132 2422
3 132 2096 2424
3 2331 2349 2428
3 1661 2331 2428
3 199 2319 2400
3 235 2358 2359
3 151 2397 2398
3 444 2315 2392
3 1492 2330 2379
3 2339 1406 2432
3 97 2339 2432
3 2349 541 2428
3 456 2271 2407
3 2319 1421 2400
3 2358 2004 2359
3 2397 1567 2398
3 2090 65 2131
3 552 237 2178
3 1477 1476 2347

CELL_TYPES 4666
5
5
5
5
5
5
5
5
5
5
5
5
5
5
5
5
5
5
5
5
5
5
5
5
5
5
5
5
5
5
5
5
5
5
5
5
5
5
5
5
5
5
5
5
5
5
5
5
5
5
5
5
5
5
5
5
5
5
5
5
5
5
5
5
5
5
5
5
5
5
5
5
5
5
5
5
5
5
5
5
5
5
5
5
5
5
5
5
5
5
5
5
5
5
5
5
5
5
5
5
5
5
5
5
5
5
5
5
5
5
5
5
5
5
5
5
5
5
5
5
5
5
5
5
5
5
5
5
5
5
5
5
5
5
5
5
5
5
5
5
5
5
5
5
5
5
5
5
5
5
5
5
5
5
5
5
5
5
5
5
5
5
5
5
5
5
5
5
5
5
5
5
5
5
5
5
5
5
5
5
5
5
5
5
5
5
5
5
5
5
5
5
5
5
5
5
5
5
5
5
5
5
5
5
5
5
5
5
5
5
5
5
5
5
5
5
5
5
5
5
5
5
5
5
5
5
5
5
5
5
5
5
5
5
5
5
5
5
5
5
5
5
5
5
5
5
5
5
5
5
5
5
5
5
5
5
5
5
5
5
5
5
5
5
5
5
5
5
5
5
5
5
5
5
5
5
5
5
5
5
5
5
5
5
5
5
5
5
5
5
5
5
5
5
5
5
5
5
5
5
5
5
5
5
5
5
5
5
5
5
5
5
5
5
5
5
5
5
5
5
5
5
5
5
5
5
5
5
5
5
5
5
5
5
5
5
5
5
5
5
5
5
5
5
5
5
5
5
5
5
5
5
5
5
5
5
5
5
5
5
5
5
5
5
5
5
5
5
5
5
5
5
5
5
5
5
5
5
5
5
5
5
5
5
5
5
5
5
5
5
5
5
5
5
5
5
5
5
5
5
5
5
5
5
5
5
5
5
5
5
5
5
5
5
5
5
5
5
5
5
5
5
5
5
5
5
5
5
5
5
5
5
5
5
5
5
5
5
5
5
5
5
5
5
5
5
5
5
5
5
5
5
5
5
5
5
5
5
5
5
5
5
5
5
5
5
5
5
5
5
5
5
5
5
5
5
5
5
5
5
5
5
5
5
5
5
5
5
5
5
5
5
5
5
5
5
5
5
5
5
5
5
5
5
5
5
5
5
5
5
5
5
5
5
5
5
5
5
5
5
5
5
5
5
5
5
5
5
5
5
5
5
5
5
5
5
5
5
5
5
5
5
5
5
5
5
5
5
5
5
5
5
5
5
5
5
5
5
5
5
5
5
5
5
5
5
5
5
5
5
5
5
5
5
5
5
5
5
5
5
5
5
5
5
5
5
5
5
5
5
5
5
5
5
5
5
5
5
5
5
5
5
5
5
5
5
5
5
5
5
5
5
5
5
5
5
5
5
5
5
5
5
5
5
5
5
5
5
5
5
5
5
5
5
5
5
5
5
5
5
5
5
5
5
5
5
5
5
5
5
5
5
5
5
5
5
5
5
5
5
5
5
5
5
5
5
5
5
5
5
5
5
5
5
5
5
5
5
5
5
5
5
5
5
5
5
5
5
5
5
5
5
5
5
5
5
5
5
5
5
5
5
5
5
5
5
5
5
5
5
5
5
5
5
5
5
5
5
5
5
5
5
5
5
5
5
5
5
5
5
5
5
5
5
5
5
5
5
5
5
5
5
5
5
5
5
5
5
5
5
5
5
5
5
5
5
5
5
5
5
5
5
5
5
5
5
5
5
5
5
5
5
5
5
5
5
5
5
5
5
5
5
5
5
5
5
5
5
5
5
5
5
5
5
5
5
5
5
5
5
5
5
5
5
5
5
5
5
5
5
5
5
5
5
5
5
5
5
5
5
5
5
5
5
5
5
5
5
5
5
5
5
5
5
5
5
5
5
5
5
5
5
5
5
5
5
5
5
5
5
5
5
5
5
5
5
5
5
5
5
5
5
5
5
5
5
5
5
5
5
5
5
5
5
5
5
5
5
5
5
5
5
5
5
5
5
5
5
5
5
5
5
5
5
5
5
5
5
5
5
5
5
5
5
5
5
5
5
5
5
5
5
5
5
5
5
5
5
5
5
5
5
5
5
5
5
5
5
5
5
5
5
5
5
5
5
5
5
5
5
5
5
5
5
5
5
5
5
5
5
5
5
5
5
5
5
5
5
5
5
5
5
5
5
5
5
5
5
5
5
5
5
5
5
5
5
5
5
5
5
5
5
5
5
5
5
5
5
5
5
5
5
5
5
5
5
5
5
5
5
5
5
5
5
5
5
5
5
5
5
5
5
5
5
5
5
5
5
5
5
5
5
5
5
5
5
5
5
5
5
5
5
5
5
5
5
5
5
5
5
5
5
5
5
5
5
5
5
5
5
5
5
5
5
5
5
5
5
5
5
5
5
5
5
5
5
5
5
5
5
5
5
5
5
5
5
5
5
5
5
5
5
5
5
5
5
5
5
5
5
5
5
5
5
5
5
5
5
5
5
5
5
5
5
5
5
5
5
5
5
5
5
5
5
5
5
5
5
5
5
5
5
5
5
5
5
5
5
5
5
5
5
5
5
5
5
5
5
5
5
5
5
5
5
5
5
5
5
5
5
5
5
5
5
5
5
5
5
5
5
5
5
5
5
5
5
5
5
5
5
5
5
5
5
5
5
5
5
5
5
5
5
5
5
5
5
5
5
5
5
5
5
5
5
5
5
5
5
5
5
5
5
5
5
5
5
5
5
5
5
5
5
5
5
5
5
5
5
5
5
5
5
5
5
5
5
5
5
5
5
5
5
5
5
5
5
5
5
5
5
5
5
5
5
5
5
5
5
5
5
5
5
5
5
5
5
5
5
5
5
5
5
5
5
5
5
5
5
5
5
5
5
5
5
5
5
5
5
5
5
5
5
5
5
5
5
5
5
5
5
5
5
5
5
5
5
5
5
5
5
5
5
5
5
5
5
5
5
5
5
5
5
5
5
5
5
5
5
5
5
5
5
5
5
5
5
5
5
5
5
5
5
5
5
5
5
5
5
5
5
5
5
5
5
5
5
5
5
5
5
5
5
5
5
5
5
5
5
5
5
5
5
5
5
5
5
5
5
5
5
5
5
5
5
5
5
5
5
5
5
5
5
5
5
5
5
5
5
5
5
5
5
5
5
5
5
5
5
5
5
5
5
5
5
5
5
5
5
5
5
5
5
5
5
5
5
5
5
5
5
5
5
5
5
5
5
5
5
5
5
5
5
5
5
5
5
5
5
5
5
5
5
5
5
5
5
5
5
5
5
5
5
5
5
5
5
5
5
5
5
5
5
5
5
5
5
5
5
5
5
5
5
5
5
5
5
5
5
5
5
5
5
5
5
5
5
5
5
5
5
5
5
5
5
5
5
5
5
5
5
5
5
5
5
5
5
5
5
5
5
5
5
5
5
5
5
5
5
5
5
5
5
5
5
5
5
5
5
5
5
5
5
5
5
5
5
5
5
5
5
5
5
5
5
5
5
5
5
5
5
5
5
5
5
5
5
5
5
5
5
5
5
5
5
5
5
5
5
5
5
5
5
5
5
5
5
5
5
5
5
5
5
5
5
5
5
5
5
5
5
5
5
5
5
5
5
5
5
5
5
5
5
5
5
5
5
5
5
5
5
5
5
5
5
5
5
5
5
5
5
5
5
5
5
5
5
5
5
5
5
5
5
5
5
5
5
5
5
5
5
5
5
5
5
5
5
5
5
5
5
5
5
5
5
5
5
5
5
5
5
5
5
5
5
5
5
5
5
5
5
5
5
5
5
5
5
5
5
5
5
5
5
5
5
5
5
5
5
5
5
5
5
5
5
5
5
5
5
5
5
5
5
5
5
5
5
5
5
5
5
5
5
5
5
5
5
5
5
5
5
5
5
5
5
5
5
5
5
5
5
5
5
5
5
5
5
5
5
5
5
5
5
5
5
5
5
5
5
5
5
5
5
5
5
5
5
5
5
5
5
5
5
5
5
5
5
5
5
5
5
5
5
5
5
5
5
5
5
5
5
5
5
5
5
5
5
5
5
5
5
5
5
5
5
5
5
5
5
5
5
5
5
5
5
5
5
5
5
5
5
5
5
5
5
5
5
5
5
5
5
5
5
5
5
5
5
5
5
5
5
5
5
5
5
5
5
5
5
5
5
5
5
5
5
5
5
5
5
5
5
5
5
5
5
5
5
5
5
5
5
5
5
5
5
5
5
5
5
5
5
5
5
5
5
5
5
5
5
5
5
5
5
5
5
5
5
5
5
5
5
5
5
5
5
5
5
5
5
5
5
5
5
5
5
5
5
5
5
5
5
5
5
5
5
5
5
5
5
5
5
5
5
5
5
5
5
5
5
5
5
5
5
5
5
5
5
5
5
5
5
5
5
5
5
5
5
5
5
5
5
5
5
5
5
5
5
5
5
5
5
5
5
5
5
5
5
5
5
5
5
5
5
5
5
5
5
5
5
5
5
5
5
5
5
5
5
5
5
5
5
5
5
5
5
5
5
5
5
5
5
5
5
5
5
5
5
5
5
5
5
5
5
5
5
5
5
5
5
5
5
5
5
5
5
5
5
5
5
5
5
5
5
5
5
5
5
5
5
5
5
5
5
5
5
5
5
5
5
5
5
5
5
5
5
5
5
5
5
5
5
5
5
5
5
5
5
5
5
5
5
5
5
5
5
5
5
5
5
5
5
5
5
5
5
5
5
5
5
5
5
5
5
5
5
5
5
5
5
5
5
5
5
5
5
5
5
5
5
5
5
5
5
5
5
5
5
5
5
5
5
5
5
5
5
5
5
5
5
5
5
5
5
5
5
5
5
5
5
5
5
5
5
5
5
5
5
5
5
5
5
5
5
5
5
5
5
5
5
5
5
5
5
5
5
5
5
5
5
5
5
5
5
5
5
5
5
5
5
5
5
5
5
5
5
5
5
5
5
5
5
5
5
5
5
5
5
5
5
5
5
5
5
5
5
5
5
5
5
5
5
5
5
5
5
5
5
5
5
5
5
5
5
5
5
5
5
5
5
5
5
5
5
5
5
5
5
5
5
5
5
5
5
5
5
5
5
5
5
5
5
5
5
5
5
5
5
5
5
5
5
5
5
5
5
5
5
5
5
5
5
5
5
5
5
5
5
5
5
5
5
5
5
5
5
5
5
5
5
5
5
5
5
5
5
5
5
5
5
5
5
5
5
5
5
5
5
5
5
5
5
5
5
5
5
5
5
5
5
5
5
5
5
5
5
5
5
5
5
5
5
5
5
5
5
5
5
5
5
5
5
5
5
5
5
5
5
5
5
5
5
5
5
5
5
5
5
5
5
5
5
5
5
5
5
5
5
5
5
5
5
5
5
5
5
5
5
5
5
5
5
5
5
5
5
5
5
5
5
5
5
5
5
5
5
5
5
5
5
5
5
5
5
5
5
5
5
5
5
5
5
5
5
5
5
5
5
5
5
5
5
5
5
5
5
5
5
5
5
5
5
5
5
5
5
5
5
5
5
5
5
5
5
5
5
5
5
5
5
5
5
5
5
5
5
5
5
5
5
5
5
5
5
5
5
5
5
5
5
5
5
5
5
5
5
5
5
5
5
5
5
5
5
5
5
5
5
5
5
5
5
5
5
5
5
5
5
5
5
5
5
5
5
5
5
5
5
5
5
5
5
5
5
5
5
5
5
5
5
5
5
5
5
5
5
5
5
5
5
5
5
5
5
5
5
5
5
5
5
5
5
5
5
5
5
5
5
5
5
5
5
5
5
5
5
5
5
5
5
5
5
5
5
5
5
5
5
5
5
5
5
5
5
5
5
5
5
5
5
5
5
5
5
5
5
5
5
5
5
5
5
5
5
5
5
5
5
5
5
5
5
5
5
5
5
5
5
5
5
5
5
5
5
5
5
5
5
5
5
5
5
5
5
5
5
5
5
5
5
5
5
5
5
5
5
5
5
5
5
5
5
5
5
5
5
5
5
5
5
5
5
5
5
5
5
5
5
5
5
5
5
5
5
5
5
5
5
5
5
5
5
5
5
5
5
5
5
5
5
5
5
5
5
5
5
5
5
5
5
5
5
5
5
5
5
5
5
5
5
5
5
5
5
5
5
5
5
5
5
5
5
5
5
5
5
5
5
5
5
5
5
5
5
5
5
5
5
5
5
5
5
5
5
5
5
5
5
5
5
5
5
5
5
5
5
5
5
5
5
5
5
5
5
5
5
5
5
5
5
5
5
5
5
5
5
5
5
5
5
5
5
5
5
5
5
5
5
5
5
5
5
5
5
5
5
5
5
5
5
5
5
5
5
5
5
5
5
5
5
5
5
5
5
5
5
5
5
5
5
5
5
5
5
5
5
5
5
5
5
5
5
5
5
5
5
5
5
5
5
5
5
5
5
5
5
5
5
5
5
5
5
5
5
5
5
5
5
5
5
5
5
5
5
5
5
5
5
5
5
5
5
5
5
5
5
5
5
5
5
5
5
5
5
5
5
5
5
5
5
5
5
5
5
5
5
5
5
5
5
5
5
5
5
5
5
5
5
5
5
5
5
5
5
5
5
5
5
5
5
5
5
5
5
5
5
5
5
5
5
5
5
5
5
5
5
5
5
5
5
5
5
5
5
5
5
5
5
5
5
5
5
5
5
5
5
5
5
5
5
5
5
5
5
5
5
5
5
5
5
5
5
5
5
5
5
5
5
5
5
5
5
5
5
5
5
5
5
5
5
5
5
5
5
5
5
5
5
5
5
5
5
5
5
5
5
5
5
5
5
5
5
5
5
5
5
5
5
5
5
5
5
5
5
5
5
5
5
5
5
5
5
5
5
5
5
5
5
5
5
5
5
5
5
5
5
5
5
5
5
5
5
5
5
5
5
5
5
5
5
5
5
5
5
5
5
5
5
5
5
5
5
5
5
5
5
5
5
5
5
5
5
5
5
5
5
5
5
5
5
5
5
5
5
5
5
5
5
5
5
5
5
5
5
5
5
5
5
5
5
5
5
5
5
5
5
5
5
5
5
5
5
5
5
5
5
5
5
5
5
5
5
5
5
5
5
5
5
5
5
5
5
5
5
5
5
5
5
5
5
5
5
5
5
5
5
5
5
5
5
5
5
5
5
5
5
5
5
5
5
5
5
5
5
5
5
5
5
5
5
5
5
5
5
5
5
5
5
5
5
5
5
5
5
5
5
5
5
5
5
5
5
5
5
5
5
5
5
5
5
5
5
5
5
5
5
5
5
5
5
5
5
5
5
5
5
5
5
5
5
5
5
5
5
5
5
5
5
5
5
5
5
5
5
5
5
5
5
5
5
5
5
5
5
5
5
5
5
5
5
5
5
5
5
5
5
5
5
5
5
5
5
5
5
5
5
5
5
5
5
5
5
5
5
5
5
5
5
5
5
5
5
5
5
5
5
5
5
5
5
5
5
5
5
5
5
5
5
5
5
5
5
5
5
5
5
5
5
5
5
5
5
5
5
5
5
5
5
5
5
5
5
5
5
5
5
5
5
5
5
5
5
5
5
5
5
5
5
5
5
5
5
5
5
5
5
5
5
5
5
5
5
5
5
5
5
5
5
5
5
5
5
5
5
5
5
5
5
5
5
5
5
5
5
5
5
5
5
5
5
5
5
5
5
5
5
5
5
5
5
5
5
5
5
5
5
5
5
5
5
5
5
5
5
5
5
5
5
5
5
5
5
5
5
5
5
5
5
5
5
5
5
5
5
5
5
5
5
5
5
5
5
5
5
5
5
5
5
5
5
5
5
5
5
5
5
5
5
5
5
5
5
5
5
5
5
5
5
5
5
5
5
5
5
5
5
5
5
5
5
5
5
5
5
5
5
5
5
5
5
5
5
5
5
5
5
5
5
5
5
5
5
5
5
5
5
5
5
5
5
5
5
5
5
5
5
5
5
5
5
5
5
5
5
5
5
5
5
5
5
5
5
5
5
5
5
5
5
5
5
5
5
5
5
5
5
5
5
5
5
5
5
5
5
5
5
5
5
5
5
5
5
5
5
5
5
5
5
5
5
5
5
5
5
5
5
5
5
5
5
5
5
5
5
5
5
5
5
5
5
5
5
5
5
5
5
5
5
5
5
5
5
5
5
5
5
5
5
5
5
5
5
5
5
5
5
5
5
5
5
5
5
5
5
5
5
5
5
5
5
5
5
5
5
5
5
5
5
5
5
5
5
5
5
5
5
5
5
5
5
5
5
5
5
5
5
5
5
5
5
5
5
5
5
5
5
5
5
5
5
5
5
5
5
5
5
5
5
5
5
5
5
5
5
5
5
5
5
5
5
5
5
5
5
5
5
5
5
5
5
5
5
5
5
5
5
5
5
5
5
5
5
5
5
5
5
5
5
5
5
5
5
5
5
5
5
5
5
5
5
5
5
5
5
5
5
5
5
5
5
5
5
5
5
5
5
5
5
5
5
5
5
5
5
5
5
5
5
5
5
5
5
5
5
5
5
5
5
5
5
5
5
5
5
5
5
5
5
5
5
5
5
5
5
5
5
5
5
5
5
5
5
5
5
5
5
5
5
5
5
5
5
5
5
5
5
5
5
5
5
5
5
5
5
5
5
5
5
5
5
5
5
5
5
5
5
5
5
5
5
5
5
5
5
5
5
5
5
5
5
5
5
5
5
5
5
5
5
5
5
5
5
5
5
5
5
5
5
5
5
5
5
5
5
5
5
5
5
5
5
5
5
5
5
5
5
5
5
5
5
5
5
5
5
5
5
5
5
5
5
5
5
5
5
5
5
5
5
5
5
5
5
5
5
5
5
5
5
5
5
5
5
5
5
5
5
5
5
5
5
5
5
5
5
5
5
5
5
5
5
5
5
5
5
5
5
5
5
5
5
5
5
5
5
5
5
5
5
5
5
5
5
5
5
5
5
5
5
5
5
5
5
5
5
5
5
5
5
5
5
5
5
5
5
5
5
5
5
5
5
5
5
5
5
5
5
5
5
5
5
5
5
5
5
5
5
5
5
5
5
5
5
5
5
5
5
5
5
5
5
5
5
5
5
5
5
5
5
5
5
5
5
5
5
5
5
5
5
5
5
5
5
5
5
5
5
5
5
5
5
5
5
5
5
5
5
5
5
5
5
5
5
5
5
5
5
5
5
5
5
5
5
5
5
5
5
5
5
5
5
5
5
5
5
5
5
5
5
5
5
5
5
5
5
5
5
5
5
5
5
5
5
5
5
5
5
5
5
5
5
5
5
5
5
5
5
5
5
5
5
5
5
5
5
5
5
5
5
5
5
5
5
5
5
5
5
5
5
5
5
5
5
5
5
5
5
5
5
5
5
5
5
5
5
5
5
5
5
5
5
5
5
5
5
5
5
5
5
5
5
5
5
5
5
5
5
5
5
5
5
5
5
5
5
5
5
5
5
5
5
5
5
5
5
5
5
5
5
5
5
5
5
5
5
5
5
5
5
5
5
5
5
5
5
5
5
5
5
5
5
5
5
5
5
5
5
5
5
5
5
5
5
5
5
5
5
5
5
5
5
5
5
5
5
5
5
5
5
5
5
5
5
5
5
5
5
5
5
5
5
5
5
5
5
5
5
5
5
5
5
5
5
5
5
5
5
5
5
5
5
5
5
5
5
5
5
5
5
5
5
5
5
5
5
5
5
5
5
5
5
5
5
5
5
5
5
5
5
5
5
5
5
5
5
5
5
5
5
5
5
5
5
5
5
5
5
5
5
5
5
5
5
5
5
5
5
5
5
5
5
5
5
5
5
5
5
5
5
5
5
5
5
5
5
5
5
5
5
5
5
5
5
5
5
5
5
5
5
5
5
5
5
5
5
5
5
5
5
5
5
5
5
5
5
5
5
5
5
5
5
5
5
5
5
5
5
5
5
5
5
5
5
5
5
5
5
5
5
5
5
5
5
5
5
5
5
5
5
5
5
5
5
5
5
5
5
5
5
5
5
5
5
5
5
5
5
5
5
5
5
5
5
5
5
5
5
5
5
5
5
5
5
5
5
5
5
5
5
5
5
5
5
5
5
5
5
5
5
5
5
5
5
5
5
5
5
5
5
5
5
5
5
5
5
5
5
5
5
5
5
5
5
5
5
5
5
5
5
5
5
5
5
5
5
5
5
5
5
5
5
5
5
5
5
5
5
5
5
5
5
5
5
5
5
5
5
5
5
5
5
5
5
5
5
5
5
5
5
5
5
5
5
5
5
5
5
5
5
5
5
5
5
5
5
5
5
5
5
5
5
5
5
5
5
5
5
5
5
5
5
5
5
5
5
5
5
5
5
5
5
5
5
5
5
5
5
5
5
5
5
5
5
5
5
5
5
5
5
5
5
5
5
5
5
5
5
5
5
5
5
5
5
5
5
5
5
5
5
5
5
5
5
5
5
5
5
5
5
5
5
5
5
5
5
5
5
5
5
5
5
5
5
5
5
5
5
5
5
5
5
5
5
5
5
5
5
5
5
5
5
5
5
5
5
5
5
5
5
5
5
5
5
5
5
5
5
5
5
5
5
5
5
5
5
5
5
5
5

POINT_DATA 2434
SCALARS v:bnd int 1
LOOKUP_TABLE default
4
4
4
4
4
4
4
4
4
141
141
141
4
4
4
4
4
142
142
142
142
4
4
4
4
4
4
4
4
4
4
131
131
131
131
4
4
4
4
4
132
132
132
4
4
4
4
132
4
4
4
4
4
4
4
4
4
141
141
141
4
4
4
4
4
142
142
142
142
4
4
4
4
4
4
4
4
4
4
131
131
131
131
4
4
4
4
4
132
132
132
4
4
4
4
132
4
4
4
4
4
4
4
4
4
141
141
141
4
4
4
4
4
142
142
142
142
4
4
4
4
4
4
4
4
4
4
131
131
131
131
4
4
4
4
4
132
132
132
4
4
4
4
132
4
4
4
4
4
4
4
4
4
141
141
141
4
4
4
4
4
142
142
142
142
4
4
4
4
4
4
4
4
4
4
131
131
131
131
4
4
4
4
4
132
132
132
4
4
4
4
132
4
4
4
4
4
4
4
4
4
141
141
141
4
4
4
4
4
142
142
142
142
4
4
4
4
4
4
4
4
4
4
131
131
131
131
4
4
4
4
4
132
132
132
4
4
4
4
132
4
4
4
4
4
4
4
4
4
4
4
4
4
4
4
4
4
4
4
4
4
4
4
4
4
4
4
4
4
4
4
4
4
4
4
4
4
4
4
4
4
4
4
4
4
4
4
4
4
4
4
4
4
4
4
4
4
4
4
4
4
4
4
4
4
4
4
4
4
4
4
4
4
4
4
4
4
4
4
4
4
4
4
4
4
4
4
4
4
4
4
4
4
4
4
4
4
4
4
4
4
4
4
4
4
4
4
4
4
4
4
4
4
4
4
4
4
4
4
4
4
4
4
4
4
4
4
4
4
4
4
4
4
4
4
4
4
4
4
4
4
4
4
4
4
4
4
4
4
4
4
4
4
4
4
4
4
4
4
4
4
4
4
4
4
4
4
4
4
4
4
4
4
4
4
4
4
4
4
4
4
4
4
4
4
4
4
4
4
4
4
4
4
4
4
4
4
4
4
4
4
4
4
4
4
4
4
4
4
4
4
4
4
4
4
4
4
4
4
4
4
4
4
4
4
4
4
4
4
4
4
4
4
4
4
4
4
4
4
4
4
4
4
4
4
4
4
4
4
4
4
4
4
4
4
4
4
4
4
4
4
4
4
4
4
4
4
4
4
4
4
4
4
4
4
4
4
4
4
4
4
4
4
4
4
4
4
4
4
4
4
4
4
4
4
4
4
4
4
4
4
4
4
4
4
4
4
4
4
4
4
4
4
4
4
4
4
4
4
4
4
4
4
4
4
4
4
4
4
4
4
4
4
4
4
4
4
4
4
4
4
4
4
4
4
4
4
4
4
4
4
4
4
4
4
4
4
4
4
4
4
4
4
4
4
4
4
4
4
4
4
4
4
4
4
4
4
4
4
4
4
4
4
4
4
4
4
4
4
4
4
4
4
4
4
4
4
4
4
4
4
4
4
4
4
4
4
4
4
4
4
4
4
4
4
4
4
4
4
4
4
4
4
4
4
4
4
4
4
4
4
4
4
4
4
4
4
4
4
4
4
4
4
4
4
4
4
4
4
4
4
4
4
4
4
4
4
4
4
4
4
4
4
4
4
4
4
4
4
4
4
4
4
4
4
4
4
4
4
4
4
4
4
4
4
4
4
4
4
4
4
4
4
4
4
4
4
4
4
4
4
4
4
4
4
4
4
4
4
4
4
4
4
4
4
4
4
4
4
4
4
4
4
4
4
4
4
4
4
4
4
4
4
4
4
4
4
4
4
4
4
4
4
4
4
4
4
4
4
4
4
4
4
4
4
4
4
4
4
4
4
4
4
4
4
4
4
4
4
4
4
4
4
4
4
4
4
4
4
4
4
4
4
4
4
4
4
4
4
4
4
4
4
4
4
4
4
4
4
4
4
4
4
4
4
4
4
4
4
4
4
4
4
4
4
4
4
4
4
4
4
4
4
4
4
4
4
4
4
4
4
4
4
4
4
4
4
4
4
4
4
4
4
4
4
4
4
4
4
4
4
4
4
4
4
4
4
4
4
4
4
4
4
4
4
4
4
4
4
4
4
4
4
4
4
4
4
4
4
4
4
4
4
4
4
4
4
4
4
4
4
4
4
4
4
4
4
4
4
4
4
4
4
4
4
4
4
4
4
4
4
4
4
4
4
4
4
4
4
4
4
4
4
4
4
4
4
4
4
4
4
4
4
4
4
4
4
4
4
4
4
4
4
4
4
4
4
4
4
4
4
4
4
4
4
4
4
4
4
4
4
4
4
4
4
4
4
4
4
4
4
4
4
4
4
4
4
4
4
4
4
4
4
4
4
4
4
4
4
4
4
4
4
4
4
4
4
4
4
4
4
4
4
4
4
4
4
4
4
4
4
4
4
4
4
4
4
4
4
4
4
4
4
4
4
4
4
4
4
4
4
4
4
4
4
4
4
4
4
4
4
4
4
4
4
4
4
4
4
4
4
4
4
4
4
4
4
4
4
4
4
4
4
4
4
4
4
4
4
4
4
4
4
4
4
4
4
4
4
4
4
4
4
4
4
4
4
4
4
4
4
4
4
4
4
4
4
4
4
4
4
4
4
4
4
4
4
4
4
4
4
4
4
4
4
4
4
4
4
4
4
4
4
4
4
4
4
4
4
4
4
4
4
4
4
4
4
4
4
4
4
4
4
4
4
4
4
4
4
4
4
4
4
4
4
4
4
4
4
4
4
4
4
4
4
4
4
4
4
4
4
4
4
4
4
4
4
4
4
4
4
4
4
4
4
4
4
4
4
4
4
4
4
4
4
4
4
4
4
4
4
4
4
4
4
4
4
4
4
4
4
4
4
4
4
4
4
4
4
4
4
4
4
4
4
4
4
4
4
4
4
4
4
4
4
4
4
4
4
4
4
4
4
4
4
4
4
4
4
4
4
4
4
4
4
4
4
4
4
4
4
4
4
4
4
4
4
4
4
4
4
4
4
4
4
4
4
4
4
4
4
4
4
4
4
4
4
4
4
4
4
4
4
4
4
4
4
4
4
4
4
4
4
4
4
4
4
4
4
4
4
4
4
4
4
4
4
4
4
4
4
4
4
4
4
4
4
4
4
4
4
4
4
4
4
4
4
4
4
4
4
4
4
4
4
4
4
4
4
4
4
4
4
4
4
4
4
4
4
4
4
4
4
4
4
4
4
4
4
4
4
4
4
4
4
4
4
4
4
4
4
4
4
4
4
4
4
4
4
4
4
4
4
4
4
4
4
4
4
4
4
4
4
4
4
4
4
4
4
4
4
4
4
4
4
4
4
4
4
4
4
4
4
4
4
4
4
4
4
4
4
4
4
4
4
4
4
4
4
4
4
4
4
4
4
4
4
4
4
4
4
4
4
4
4
4
4
4
4
4
4
4
4
4
4
4
4
4
4
4
4
4
4
4
4
4
4
4
4
4
4
4
4
4
4
4
4
4
4
4
4
4
4
4
4
4
4
4
4
4
4
4
4
4
4
4
4
4
4
4
4
4
4
4
4
4
4
4
4
4
4
4
4
4
4
4
4
4
4
4
4
4
4
4
4
4
4
4
4
4
4
4
4
4
4
4
4
4
4
4
4
4
4
4
4
4
4
4
4
4
4
4
4
4
4
4
4
4
4
4
4
4
4
4
4
4
4
4
4
4
4
4
4
4
4
4
4
4
4
4
4
4
4
4
4
4
4
4
4
4
4
4
4
4
4
4
4
4
4
4
4
4
4
4
4
4
4
4
4
4
4
4
4
4
4
4
4
4
4
4
4
4
4
4
4
4
4
4
4
4
4
4
4
4
4
4
4
4
4
4
4
4
4
4
4
4
4
4
4
4
4
4
4
4
4
4
4
4
4
4
4
4
4
4
4
4
4
4
4
4
4
4
4
4
4
4
4
4
4
4
4
4
4
4
4
4
4
4
4
4
4
4
4
4
4
4
4
4
4
4
4
4
4
4
4
4
4
4
4
4
4
4
4
4
4
4
4
4
4
4
4
4
4
4
4
4
4
4
4
4
4
4
4
4
4
4
4
4
4
4
4
4
4
4
4
4
4
4
4
4
4
4
4
4
4
4
4
4
4
4
4
4
4
4
4
4
4
4
4
4
4
4
4
4
4
4
4
4
4
4
4
4
4
4
4
4
4
4
4
4
4
4
4
4
4
4
4
4
4
4
4
4
4
4
4
4
4
4
4
4
4
4
4
4
4
4
4
4
4
4
4
4
4
4
4
4
4
4
4
4
4
4
4
4
4
4
4
4
4
4
4
4
4
4
4
4
4
4
4
4
4
4
4
4
4
4
4
4
4
4
4
4
4
4
4
4
4
4
4
4
4
4
4
4
4
4
4
4
4
4
4
4
4
4
4
4
4
4
4
4
4
4
4
4
4
4
4
4
4
4
4
4
4
4
4
4
4
4
4
4
4
4
4
4
4
4
4
4
4
4
4
4
4
4
4
4
4
4
4
4
4
4
4
4
4
4
4
4
4
4
4
4
4
4
4
4
4
4
4
4
4
4
4
4
4
4
4
4
4
4
4
4
4
4
4
4
4
4
4
4
4
4
4
4
4
4
4
4
4
4
4
4
4
4
4
4
4
4
4
4
4
4
4
4
4
4
4
4
4
4
4
4
4
4
4
4
4
4
4
4
4
4
4
4
4
4
4
4
4
4
4
4
4
4
4
4
4
4
4
4
4
4
4
4
4
4
4
4
4
4
4
4
4
4
4
4
4
4
4
4
4
4
4
4
4
4
4
4
4
4
4
4
4
4
4
4
4
4
4
4
4
4
4
4
4
4
4
4
4
4
4
4
4
4
4
4
4
4
4
4
4
4
4
4
4
4
4
4
4
4
4
4
4
4
4
4
4
4
4
4
4
4
4
4
4
4
4
4
4
4
4
4
4
4
4
4
4
4
4
4
4
4
4
4
4
4
4
4
4
4
4
4
4
4
4
4
4
4
4
4
4
4
4
4
4
4
4
4
4
4
4
4
4
4
4
4
4
4
4
4
4
4
4
4
4
4
4
4
4
4
4
4
4
4
4
4
4
4
4
4
4
4
4
4
4
4
4
4
4
4
4
4
4
4
4
4
4
4
4
4
4
4
4
4
4
4
4
4
4
4
4
4
4
4
4
4
4
4
4
4
4
4
4
4
4
4
4
4
4
4
4
4
4
4
4
4
4
4
4
4
4
4
4
4
4
4
4
4
4
4
4
4
4
4
4
4
4
4
4
4
4
4
4
4
4
4
4
4
4
4
4
4
4
4
4
4
4
4
4
4
4
4
4
4
4
4
4
4
4
4
4
4
4
4
4
4
4
4
4
4
4
4
4
4
4
4
4
4
4
4
4
4
4
4
4
4
4
4
4
4
4
4
4
4
4
4
4
4
4
4
4
4
4
4
4
4
4
4
4
4
4
4
4
4
4
4
4
4
4
4
4
4
4
4
4
4
4
4
4
4
4
4
4
4
4
4
4
4
4
4
4
4
4
4

SCALARS v:bnd_sim int 1
LOOKUP_TABLE default
4
4
4
4
4
4
4
4
4
14
14
14
4
4
4
4
4
14
14
14
14
4
4
4
4
4
4
4
4
4
4
13
13
13
13
4
4
4
4
4
13
13
13
4
4
4
4
13
4
4
4
4
4
4
4
4
4
14
14
14
4
4
4
4
4
14
14
14
14
4
4
4
4
4
4
4
4
4
4
13
13
13
13
4
4
4
4
4
13
13
13
4
4
4
4
13
4
4
4
4
4
4
4
4
4
14
14
14
4
4
4
4
4
14
14
14
14
4
4
4
4
4
4
4
4
4
4
13
13
13
13
4
4
4
4
4
13
13
13
4
4
4
4
13
4
4
4
4
4
4
4
4
4
14
14
14
4
4
4
4
4
14
14
14
14
4
4
4
4
4
4
4
4
4
4
13
13
13
13
4
4
4
4
4
13
13
13
4
4
4
4
13
4
4
4
4
4
4
4
4
4
14
14
14
4
4
4
4
4
14
14
14
14
4
4
4
4
4
4
4
4
4
4
13
13
13
13
4
4
4
4
4
13
13
13
4
4
4
4
13
4
4
4
4
4
4
4
4
4
4
4
4
4
4
4
4
4
4
4
4
4
4
4
4
4
4
4
4
4
4
4
4
4
4
4
4
4
4
4
4
4
4
4
4
4
4
4
4
4
4
4
4
4
4
4
4
4
4
4
4
4
4
4
4
4
4
4
4
4
4
4
4
4
4
4
4
4
4
4
4
4
4
4
4
4
4
4
4
4
4
4
4
4
4
4
4
4
4
4
4
4
4
4
4
4
4
4
4
4
4
4
4
4
4
4
4
4
4
4
4
4
4
4
4
4
4
4
4
4
4
4
4
4
4
4
4
4
4
4
4
4
4
4
4
4
4
4
4
4
4
4
4
4
4
4
4
4
4
4
4
4
4
4
4
4
4
4
4
4
4
4
4
4
4
4
4
4
4
4
4
4
4
4
4
4
4
4
4
4
4
4
4
4
4
4
4
4
4
4
4
4
4
4
4
4
4
4
4
4
4
4
4
4
4
4
4
4
4
4
4
4
4
4
4
4
4
4
4
4
4
4
4
4
4
4
4
4
4
4
4
4
4
4
4
4
4
4
4
4
4
4
4
4
4
4
4
4
4
4
4
4
4
4
4
4
4
4
4
4
4
4
4
4
4
4
4
4
4
4
4
4
4
4
4
4
4
4
4
4
4
4
4
4
4
4
4
4
4
4
4
4
4
4
4
4
4
4
4
4
4
4
4
4
4
4
4
4
4
4
4
4
4
4
4
4
4
4
4
4
4
4
4
4
4
4
4
4
4
4
4
4
4
4
4
4
4
4
4
4
4
4
4
4
4
4
4
4
4
4
4
4
4
4
4
4
4
4
4
4
4
4
4
4
4
4
4
4
4
4
4
4
4
4
4
4
4
4
4
4
4
4
4
4
4
4
4
4
4
4
4
4
4
4
4
4
4
4
4
4
4
4
4
4
4
4
4
4
4
4
4
4
4
4
4
4
4
4
4
4
4
4
4
4
4
4
4
4
4
4
4
4
4
4
4
4
4
4
4
4
4
4
4
4
4
4
4
4
4
4
4
4
4
4
4
4
4
4
4
4
4
4
4
4
4
4
4
4
4
4
4
4
4
4
4
4
4
4
4
4
4
4
4
4
4
4
4
4
4
4
4
4
4
4
4
4
4
4
4
4
4
4
4
4
4
4
4
4
4
4
4
4
4
4
4
4
4
4
4
4
4
4
4
4
4
4
4
4
4
4
4
4
4
4
4
4
4
4
4
4
4
4
4
4
4
4
4
4
4
4
4
4
4
4
4
4
4
4
4
4
4
4
4
4
4
4
4
4
4
4
4
4
4
4
4
4
4
4
4
4
4
4
4
4
4
4
4
4
4
4
4
4
4
4
4
4
4
4
4
4
4
4
4
4
4
4
4
4
4
4
4
4
4
4
4
4
4
4
4
4
4
4
4
4
4
4
4
4
4
4
4
4
4
4
4
4
4
4
4
4
4
4
4
4
4
4
4
4
4
4
4
4
4
4
4
4
4
4
4
4
4
4
4
4
4
4
4
4
4
4
4
4
4
4
4
4
4
4
4
4
4
4
4
4
4
4
4
4
4
4
4
4
4
4
4
4
4
4
4
4
4
4
4
4
4
4
4
4
4
4
4
4
4
4
4
4
4
4
4
4
4
4
4
4
4
4
4
4
4
4
4
4
4
4
4
4
4
4
4
4
4
4
4
4
4
4
4
4
4
4
4
4
4
4
4
4
4
4
4
4
4
4
4
4
4
4
4
4
4
4
4
4
4
4
4
4
4
4
4
4
4
4
4
4
4
4
4
4
4
4
4
4
4
4
4
4
4
4
4
4
4
4
4
4
4
4
4
4
4
4
4
4
4
4
4
4
4
4
4
4
4
4
4
4
4
4
4
4
4
4
4
4
4
4
4
4
4
4
4
4
4
4
4
4
4
4
4
4
4
4
4
4
4
4
4
4
4
4
4
4
4
4
4
4
4
4
4
4
4
4
4
4
4
4
4
4
4
4
4
4
4
4
4
4
4
4
4
4
4
4
4
4
4
4
4
4
4
4
4
4
4
4
4
4
4
4
4
4
4
4
4
4
4
4
4
4
4
4
4
4
4
4
4
4
4
4
4
4
4
4
4
4
4
4
4
4
4
4
4
4
4
4
4
4
4
4
4
4
4
4
4
4
4
4
4
4
4
4
4
4
4
4
4
4
4
4
4
4
4
4
4
4
4
4
4
4
4
4
4
4
4
4
4
4
4
4
4
4
4
4
4
4
4
4
4
4
4
4
4
4
4
4
4
4
4
4
4
4
4
4
4
4
4
4
4
4
4
4
4
4
4
4
4
4
4
4
4
4
4
4
4
4
4
4
4
4
4
4
4
4
4
4
4
4
4
4
4
4
4
4
4
4
4
4
4
4
4
4
4
4
4
4
4
4
4
4
4
4
4
4
4
4
4
4
4
4
4
4
4
4
4
4
4
4
4
4
4
4
4
4
4
4
4
4
4
4
4
4
4
4
4
4
4
4
4
4
4
4
4
4
4
4
4
4
4
4
4
4
4
4
4
4
4
4
4
4
4
4
4
4
4
4
4
4
4
4
4
4
4
4
4
4
4
4
4
4
4
4
4
4
4
4
4
4
4
4
4
4
4
4
4
4
4
4
4
4
4
4
4
4
4
4
4
4
4
4
4
4
4
4
4
4
4
4
4
4
4
4
4
4
4
4
4
4
4
4
4
4
4
4
4
4
4
4
4
4
4
4
4
4
4
4
4
4
4
4
4
4
4
4
4
4
4
4
4
4
4
4
4
4
4
4
4
4
4
4
4
4
4
4
4
4
4
4
4
4
4
4
4
4
4
4
4
4
4
4
4
4
4
4
4
4
4
4
4
4
4
4
4
4
4
4
4
4
4
4
4
4
4
4
4
4
4
4
4
4
4
4
4
4
4
4
4
4
4
4
4
4
4
4
4
4
4
4
4
4
4
4
4
4
4
4
4
4
4
4
4
4
4
4
4
4
4
4
4
4
4
4
4
4
4
4
4
4
4
4
4
4
4
4
4
4
4
4
4
4
4
4
4
4
4
4
4
4
4
4
4
4
4
4
4
4
4
4
4
4
4
4
4
4
4
4
4
4
4
4
4
4
4
4
4
4
4
4
4
4
4
4
4
4
4
4
4
4
4
4
4
4
4
4
4
4
4
4
4
4
4
4
4
4
4
4
4
4
4
4
4
4
4
4
4
4
4
4
4
4
4
4
4
4
4
4
4
4
4
4
4
4
4
4
4
4
4
4
4
4
4
4
4
4
4
4
4
4
4
4
4
4
4
4
4
4
4
4
4
4
4
4
4
4
4
4
4
4
4
4
4
4
4
4
4
4
4
4
4
4
4
4
4
4
4
4
4
4
4
4
4
4
4
4
4
4
4
4
4
4
4
4
4
4
4
4
4
4
4
4
4
4
4
4
4
4
4
4
4
4
4
4
4
4
4
4
4
4
4
4
4
4
4
4
4
4
4
4
4
4
4
4
4
4
4
4
4
4
4
4
4
4
4
4
4
4
4
4
4
4
4
4
4
4
4
4
4
4
4
4
4
4
4
4
4
4
4
4
4
4
4
4
4
4
4
4
4
4
4
4
4
4
4
4
4
4
4
4
4
4
4
4
4
4
4
4
4
4
4
4
4
4
4
4
4
4
4
4
4
4
4
4
4
4
4
4
4
4
4
4
4
4
4
4
4
4
4
4
4
4
4
4
4
4
4
4
4
4
4
4
4
4
4
4
4
4
4
4
4
4
4
4
4
4
4
4
4
4
4
4
4
4
4
4
4
4
4
4
4
4
4
4
4
4
4
4
4
4
4
4
4
4
4
4
4
4
4
4
4
4
4
4
4
4
4
4
4
4
4
4
4
4
4
4
4
4
4
4
4
4
4
4
4
4
4
4
4
4
4
4
4
4
4
4
4
4
4
4
4
4
4
4
4
4
4
4
4
4
4
4
4
4
4
4
4
4
4
4
4
4
4
4
4
4
4
4
4
4
4
4
4
4
4
4
4
4
4
4
4
4
4
4
4
4
4
4
4
4
4
4
4
4
4
4
4
4
4
4
4
4
4
4
4
4
4
4
4
4
4
4
4
4
4
4
4
4
4
4
4
4
4
4
4
4
4
4
4
4
4
4
4
4
4
4
4
4
4
4
4
4
4
4
4
4
4
4
4
4
4
4
4
4
4
4
4
4
4
4
4
4
4
4
4
4
4
4
4
4
4
4
4
4
4
4
4
4
4
4
4
4
4
4
4
4
4
4
4
4
4
4
4
4
4
4
4
4
4
4
4
4
4
4
4
4
4
4
4
4
4
4
4
4
4
4
4
4
4
4
4
4
4
4
4
4
4
4
4
4
4
4
4
4
4
4
4
4
4
4
4
4
4
4
4
4
4
4
4
4
4
4
4
4
4
4
4
4
4
4
4
4
4
4
4
4
4
4
4
4
4
4
4
4
4
4
4
4
4
4
4
4
4
4
4
4
4
4
4
4
4
4
4
4
4
4
4
4
4
4
4
4
4
4
4
4
4
4
4
4
4
4
4
4
4
4
4
4
4
4
4
4
4
4
4
4
4
4
4
4
4
4
4
4
4
4
4
4
4
4
4
4
4
4
4
4
4
4
4
4
4
4
4
4
4
4
4
4
4
4
4
4
4
4
4
4
4
4
4
4
4
4
4
4
4
4
4
4
4
4
4
4
4
4
4
4
4
4
4
4
4
4
4
4
4
4
4
4
4
4
4
4
4
4
4
4
4
4
4
4
4
4
4
4
4
4
4
4
4
4
4
4
4
4
4
4
4
4
4
4
4
4
4
4
4
4
4
4
4
4
4
4
4
4
4
4
4
4
4
4
4
4
4
4
4
4
4
4
4
4
4
4
4
4
4
4
4
4
4
4
4
4
4
4
4
4
4
4
4
4
4

SCALARS v:x double 3
LOOKUP_TABLE default
0.0000000000000000 0.0000000000000000 0.0000000000000000
10.0000000000000000 0.0000000000000000 0.0000000000000000
10.0000000000000000 10.0000000000000000 0.0000000000000000
0.0000000000000000 10.0000000000000000 0.0000000000000000
2.2500000000000000 1.1499999999999999 0.0000000000000000
2.1914213562373090 1.2914213562373089 0.0000000000000000
2.0499999999999998 1.3500000000000001 0.0000000000000000
1.9085786437626899 1.2914213562373089 0.0000000000000000
1.8500000000000001 1.1499999999999999 0.0000000000000000
1.9085786437626899 1.0043103510797633 0.0000000000000000
2.0499999999999998 0.9457317073170731 0.0000000000000000
2.1914213562373090 1.0043103510797633 0.0000000000000000
2.4500000000000002 1.1499999999999999 0.0000000000000000
2.0499999999999998 1.5500000000000000 0.0000000000000000
1.6499999999999999 1.1499999999999999 0.0000000000000000
2.0499999999999998 0.7499999999999999 0.0000000000000000
2.2500000000000000 8.8499999999999996 0.0000000000000000
2.1914213562373090 8.9956896489202354 0.0000000000000000
2.0499999999999998 9.0542682926829254 0.0000000000000000
1.9085786437626899 8.9956896489202354 0.0000000000000000
1.8500000000000001 8.8542682926829261 0.0000000000000000
1.9085786437626899 8.7085786437626904 0.0000000000000000
2.0499999999999998 8.6500000000000004 0.0000000000000000
2.1914213562373090 8.7085786437626904 0.0000000000000000
2.4500000000000002 8.8499999999999996 0.0000000000000000
2.0499999999999998 9.2500000000000000 0.0000000000000000
1.6499999999999999 8.8499999999999996 0.0000000000000000
2.0499999999999998 8.4499999999999993 0.0000000000000000
1.3500000000000001 2.0499999999999998 0.0000000000000000
1.2914213562373089 2.1914213562373090 0.0000000000000000
1.1499999999999999 2.2500000000000000 0.0000000000000000
1.0043103510797633 2.1914213562373090 0.0000000000000000
0.9457317073170731 2.0499999999999998 0.0000000000000000
1.0043103510797633 1.9085786437626899 0.0000000000000000
1.1457317073170732 1.8500000000000001 0.0000000000000000
1.2914213562373089 1.9085786437626899 0.0000000000000000
1.5500000000000000 2.0499999999999998 0.0000000000000000
1.1499999999999999 2.4500000000000002 0.0000000000000000
0.7499999999999999 2.0499999999999998 0.0000000000000000
1.1499999999999999 1.6499999999999999 0.0000000000000000
9.0542682926829254 2.0499999999999998 0.0000000000000000
8.9956896489202354 2.1914213562373090 0.0000000000000000
8.8542682926829261 2.2500000000000000 0.0000000000000000
8.7085786437626904 2.1914213562373090 0.0000000000000000
8.6500000000000004 2.0499999999999998 0.0000000000000000
8.7085786437626904 1.9085786437626899 0.0000000000000000
8.8499999999999996 1.8500000000000001 0.0000000000000000
8.9956896489202354 1.9085786437626899 0.0000000000000000
9.2500000000000000 2.0499999999999998 0.0000000000000000
8.8499999999999996 2.4500000000000002 0.0000000000000000
8.4499999999999993 2.0499999999999998 0.0000000000000000
8.8499999999999996 1.6499999999999999 0.0000000000000000
3.7250000000000001 1.1499999999999999 0.0000000000000000
3.6664213562373100 1.2914213562373089 0.0000000000000000
3.5249999999999999 1.3500000000000001 0.0000000000000000
3.3835786437626898 1.2914213562373089 0.0000000000000000
3.3250000000000002 1.1499999999999999 0.0000000000000000
3.3835786437626898 1.0043103510797633 0.0000000000000000
3.5249999999999999 0.9457317073170731 0.0000000000000000
3.6664213562373100 1.0043103510797633 0.0000000000000000
3.9249999999999998 1.1499999999999999 0.0000000000000000
3.5249999999999999 1.5500000000000000 0.0000000000000000
3.1250000000000000 1.1499999999999999 0.0000000000000000
3.5249999999999999 0.7499999999999999 0.0000000000000000
3.7250000000000001 8.8499999999999996 0.0000000000000000
3.6664213562373100 8.9956896489202354 0.0000000000000000
3.5249999999999999 9.0542682926829254 0.0000000000000000
3.3835786437626898 8.9956896489202354 0.0000000000000000
3.3250000000000002 8.8542682926829261 0.0000000000000000
3.3835786437626898 8.7085786437626904 0.0000000000000000
3.5249999999999999 8.6500000000000004 0.0000000000000000
3.6664213562373100 8.7085786437626904 0.0000000000000000
3.9249999999999998 8.8499999999999996 0.0000000000000000
3.5249999999999999 9.2500000000000000 0.0000000000000000
3.1250000000000000 8.8499999999999996 0.0000000000000000
3.5249999999999999 8.4499999999999993 0.0000000000000000
1.3500000000000001 3.5249999999999999 0.0000000000000000
1.2914213562373089 3.6664213562373100 0.0000000000000000
1.1499999999999999 3.7250000000000001 0.0000000000000000
1.0043103510797633 3.6664213562373100 0.0000000000000000
0.9457317073170731 3.5249999999999999 0.0000000000000000
1.0043103510797633 3.3835786437626898 0.0000000000000000
1.1457317073170732 3.3250000000000002 0.0000000000000000
1.2914213562373089 3.3835786437626898 0.0000000000000000
1.5500000000000000 3.5249999999999999 0.0000000000000000
1.1499999999999999 3.9249999999999998 0.0000000000000000
0.7499999999999999 3.5249999999999999 0.0000000000000000
1.1499999999999999 3.1250000000000000 0.0000000000000000
9.0542682926829254 3.5249999999999999 0.0000000000000000
8.9956896489202354 3.6664213562373100 0.0000000000000000
8.8542682926829261 3.7250000000000001 0.0000000000000000
8.7085786437626904 3.6664213562373100 0.0000000000000000
8.6500000000000004 3.5249999999999999 0.0000000000000000
8.7085786437626904 3.3835786437626898 0.0000000000000000
8.8499999999999996 3.3250000000000002 0.0000000000000000
8.9956896489202354 3.3835786437626898 0.0000000000000000
9.2500000000000000 3.5249999999999999 0.0000000000000000
8.8499999999999996 3.9249999999999998 0.0000000000000000
8.4499999999999993 3.5249999999999999 0.0000000000000000
8.8499999999999996 3.1250000000000000 0.0000000000000000
5.2000000000000002 1.1499999999999999 0.0000000000000000
5.1414213562373092 1.2914213562373089 0.0000000000000000
5.0000000000000000 1.3500000000000001 0.0000000000000000
4.8585786437626908 1.2914213562373089 0.0000000000000000
4.7999999999999998 1.1499999999999999 0.0000000000000000
4.8585786437626908 1.0043103510797633 0.0000000000000000
5.0000000000000000 0.9457317073170731 0.0000000000000000
5.1414213562373092 1.0043103510797633 0.0000000000000000
5.4000000000000004 1.1499999999999999 0.0000000000000000
5.0000000000000000 1.5500000000000000 0.0000000000000000
4.5999999999999996 1.1499999999999999 0.0000000000000000
5.0000000000000000 0.7499999999999999 0.0000000000000000
5.2000000000000002 8.8499999999999996 0.0000000000000000
5.1414213562373092 8.9956896489202354 0.0000000000000000
5.0000000000000000 9.0542682926829254 0.0000000000000000
4.8585786437626908 8.9956896489202354 0.0000000000000000
4.7999999999999998 8.8542682926829261 0.0000000000000000
4.8585786437626908 8.7085786437626904 0.0000000000000000
5.0000000000000000 8.6500000000000004 0.0000000000000000
5.1414213562373092 8.7085786437626904 0.0000000000000000
5.4000000000000004 8.8499999999999996 0.0000000000000000
5.0000000000000000 9.2500000000000000 0.0000000000000000
4.5999999999999996 8.8499999999999996 0.0000000000000000
5.0000000000000000 8.4499999999999993 0.0000000000000000
1.3500000000000001 5.0000000000000000 0.0000000000000000
1.2914213562373089 5.1414213562373092 0.0000000000000000
1.1499999999999999 5.2000000000000002 0.0000000000000000
1.0043103510797633 5.1414213562373092 0.0000000000000000
0.9457317073170731 5.0000000000000000 0.0000000000000000
1.0043103510797633 4.8585786437626908 0.0000000000000000
1.1457317073170732 4.7999999999999998 0.0000000000000000
1.2914213562373089 4.8585786437626908 0.0000000000000000
1.5500000000000000 5.0000000000000000 0.0000000000000000
1.1499999999999999 5.4000000000000004 0.0000000000000000
0.7499999999999999 5.0000000000000000 0.0000000000000000
1.1499999999999999 4.5999999999999996 0.0000000000000000
9.0542682926829254 5.0000000000000000 0.0000000000000000
8.9956896489202354 5.1414213562373092 0.0000000000000000
8.8542682926829261 5.2000000000000002 0.0000000000000000
8.7085786437626904 5.1414213562373092 0.0000000000000000
8.6500000000000004 5.0000000000000000 0.0000000000000000
8.7085786437626904 4.8585786437626908 0.0000000000000000
8.8499999999999996 4.7999999999999998 0.0000000000000000
8.9956896489202354 4.8585786437626908 0.0000000000000000
9.2500000000000000 5.0000000000000000 0.0000000000000000
8.8499999999999996 5.4000000000000004 0.0000000000000000
8.4499999999999993 5.0000000000000000 0.0000000000000000
8.8499999999999996 4.5999999999999996 0.0000000000000000
6.6750000000000007 1.1499999999999999 0.0000000000000000
6.6164213562373098 1.2914213562373089 0.0000000000000000
6.4750000000000014 1.3500000000000001 0.0000000000000000
6.3335786437626913 1.2914213562373089 0.0000000000000000
6.2750000000000004 1.1499999999999999 0.0000000000000000
6.3335786437626913 1.0043103510797633 0.0000000000000000
6.4750000000000014 0.9457317073170731 0.0000000000000000
6.6164213562373098 1.0043103510797633 0.0000000000000000
6.8750000000000009 1.1499999999999999 0.0000000000000000
6.4750000000000014 1.5500000000000000 0.0000000000000000
6.0750000000000002 1.1499999999999999 0.0000000000000000
6.4750000000000014 0.7499999999999999 0.0000000000000000
6.6750000000000007 8.8499999999999996 0.0000000000000000
6.6164213562373098 8.9956896489202354 0.0000000000000000
6.4750000000000014 9.0542682926829254 0.0000000000000000
6.3335786437626913 8.9956896489202354 0.0000000000000000
6.2750000000000004 8.8542682926829261 0.0000000000000000
6.3335786437626913 8.7085786437626904 0.0000000000000000
6.4750000000000014 8.6500000000000004 0.0000000000000000
6.6164213562373098 8.7085786437626904 0.0000000000000000
6.8750000000000009 8.8499999999999996 0.0000000000000000
6.4750000000000014 9.2500000000000000 0.0000000000000000
6.0750000000000002 8.8499999999999996 0.0000000000000000
6.4750000000000014 8.4499999999999993 0.0000000000000000
1.3500000000000001 6.4750000000000014 0.0000000000000000
1.2914213562373089 6.6164213562373098 0.0000000000000000
1.1499999999999999 6.6750000000000007 0.0000000000000000
1.0043103510797633 6.6164213562373098 0.0000000000000000
0.9457317073170731 6.4750000000000014 0.0000000000000000
1.0043103510797633 6.3335786437626913 0.0000000000000000
1.1457317073170732 6.2750000000000004 0.0000000000000000
1.2914213562373089 6.3335786437626913 0.0000000000000000
1.5500000000000000 6.4750000000000014 0.0000000000000000
1.1499999999999999 6.8750000000000009 0.0000000000000000
0.7499999999999999 6.4750000000000014 0.0000000000000000
1.1499999999999999 6.0750000000000002 0.0000000000000000
9.0542682926829254 6.4750000000000014 0.0000000000000000
8.9956896489202354 6.6164213562373098 0.0000000000000000
8.8542682926829261 6.6750000000000007 0.0000000000000000
8.7085786437626904 6.6164213562373098 0.0000000000000000
8.6500000000000004 6.4750000000000014 0.0000000000000000
8.7085786437626904 6.3335786437626913 0.0000000000000000
8.8499999999999996 6.2750000000000004 0.0000000000000000
8.9956896489202354 6.3335786437626913 0.0000000000000000
9.2500000000000000 6.4750000000000014 0.0000000000000000
8.8499999999999996 6.8750000000000009 0.0000000000000000
8.4499999999999993 6.4750000000000014 0.0000000000000000
8.8499999999999996 6.0750000000000002 0.0000000000000000
8.1500000000000004 1.1499999999999999 0.0000000000000000
8.0914213562373103 1.2914213562373089 0.0000000000000000
7.9500000000000002 1.3500000000000001 0.0000000000000000
7.8085786437626910 1.2914213562373089 0.0000000000000000
7.7500000000000000 1.1499999999999999 0.0000000000000000
7.8085786437626910 1.0043103510797633 0.0000000000000000
7.9500000000000002 0.9457317073170731 0.0000000000000000
8.0914213562373103 1.0043103510797633 0.0000000000000000
8.3499999999999996 1.1499999999999999 0.0000000000000000
7.9500000000000002 1.5500000000000000 0.0000000000000000
7.5499999999999998 1.1499999999999999 0.0000000000000000
7.9500000000000002 0.7499999999999999 0.0000000000000000
8.1500000000000004 8.8499999999999996 0.0000000000000000
8.0914213562373103 8.9956896489202354 0.0000000000000000
7.9500000000000002 9.0542682926829254 0.0000000000000000
7.8085786437626910 8.9956896489202354 0.0000000000000000
7.7500000000000000 8.8542682926829261 0.0000000000000000
7.8085786437626910 8.7085786437626904 0.0000000000000000
7.9500000000000002 8.6500000000000004 0.0000000000000000
8.0914213562373103 8.7085786437626904 0.0000000000000000
8.3499999999999996 8.8499999999999996 0.0000000000000000
7.9500000000000002 9.2500000000000000 0.0000000000000000
7.5499999999999998 8.8499999999999996 0.0000000000000000
7.9500000000000002 8.4499999999999993 0.0000000000000000
1.3500000000000001 7.9500000000000002 0.0000000000000000
1.2914213562373089 8.0914213562373103 0.0000000000000000
1.1499999999999999 8.1500000000000004 0.0000000000000000
1.0043103510797633 8.0914213562373103 0.0000000000000000
0.9457317073170731 7.9500000000000002 0.0000000000000000
1.0043103510797633 7.8085786437626910 0.0000000000000000
1.1457317073170732 7.7500000000000000 0.0000000000000000
1.2914213562373089 7.8085786437626910 0.0000000000000000
1.5500000000000000 7.9500000000000002 0.0000000000000000
1.1499999999999999 8.3499999999999996 0.0000000000000000
0.7499999999999999 7.9500000000000002 0.0000000000000000
1.1499999999999999 7.5499999999999998 0.0000000000000000
9.0542682926829254 7.9500000000000002 0.0000000000000000
8.9956896489202354 8.0914213562373103 0.0000000000000000
8.8542682926829261 8.1500000000000004 0.0000000000000000
8.7085786437626904 8.0914213562373103 0.0000000000000000
8.6500000000000004 7.9500000000000002 0.0000000000000000
8.7085786437626904 7.8085786437626910 0.0000000000000000
8.8499999999999996 7.7500000000000000 0.0000000000000000
8.9956896489202354 7.8085786437626910 0.0000000000000000
9.2500000000000000 7.9500000000000002 0.0000000000000000
8.8499999999999996 8.3499999999999996 0.0000000000000000
8.4499999999999993 7.9500000000000002 0.0000000000000000
8.8499999999999996 7.5499999999999998 0.0000000000000000
0.4999999999995512 0.0000000000000000 0.0000000000000000
0.9999999999991893 0.0000000000000000 0.0000000000000000
1.4999999999982849 0.0000000000000000 0.0000000000000000
1.9999999999968270 0.0000000000000000 0.0000000000000000
2.4999999999953681 0.0000000000000000 0.0000000000000000
2.9999999999939102 0.0000000000000000 0.0000000000000000
3.4999999999924509 0.0000000000000000 0.0000000000000000
3.9999999999910272 0.0000000000000000 0.0000000000000000
4.4999999999916493 0.0000000000000000 0.0000000000000000
4.9999999999924114 0.0000000000000000 0.0000000000000000
5.4999999999931717 0.0000000000000000 0.0000000000000000
5.9999999999939320 0.0000000000000000 0.0000000000000000
6.4999999999946940 0.0000000000000000 0.0000000000000000
6.9999999999954552 0.0000000000000000 0.0000000000000000
7.4999999999962164 0.0000000000000000 0.0000000000000000
7.9999999999969784 0.0000000000000000 0.0000000000000000
8.4999999999977334 0.0000000000000000 0.0000000000000000
8.9999999999984901 0.0000000000000000 0.0000000000000000
9.4999999999992450 0.0000000000000000 0.0000000000000000
10.0000000000000000 0.4999999999995512 0.0000000000000000
10.0000000000000000 0.9999999999991893 0.0000000000000000
10.0000000000000000 1.4999999999982849 0.0000000000000000
10.0000000000000000 1.9999999999968270 0.0000000000000000
10.0000000000000000 2.4999999999953681 0.0000000000000000
10.0000000000000000 2.9999999999939102 0.0000000000000000
10.0000000000000000 3.4999999999924509 0.0000000000000000
10.0000000000000000 3.9999999999910272 0.0000000000000000
10.0000000000000000 4.4999999999916493 0.0000000000000000
10.0000000000000000 4.9999999999924114 0.0000000000000000
10.0000000000000000 5.4999999999931717 0.0000000000000000
10.0000000000000000 5.9999999999939320 0.0000000000000000
10.0000000000000000 6.4999999999946940 0.0000000000000000
10.0000000000000000 6.9999999999954552 0.0000000000000000
10.0000000000000000 7.4999999999962164 0.0000000000000000
10.0000000000000000 7.9999999999969784 0.0000000000000000
10.0000000000000000 8.4999999999977334 0.0000000000000000
10.0000000000000000 8.9999999999984901 0.0000000000000000
10.0000000000000000 9.4999999999992450 0.0000000000000000
9.4999999999999982 10.0000000000000000 0.0000000000000000
8.9999999999999982 10.0000000000000000 0.0000000000000000
8.4999999999999964 10.0000000000000000 0.0000000000000000
7.9999999999999956 10.0000000000000000 0.0000000000000000
7.4999999999999947 10.0000000000000000 0.0000000000000000
6.9999999999999938 10.0000000000000000 0.0000000000000000
6.4999999999999929 10.0000000000000000 0.0000000000000000
5.9999999999999911 10.0000000000000000 0.0000000000000000
5.4999999999999902 10.0000000000000000 0.0000000000000000
4.9999999999999893 10.0000000000000000 0.0000000000000000
4.4999999999999876 10.0000000000000000 0.0000000000000000
3.9999999999999880 10.0000000000000000 0.0000000000000000
3.4999999999999871 10.0000000000000000 0.0000000000000000
2.9999999999999849 10.0000000000000000 0.0000000000000000
2.4999999999999840 10.0000000000000000 0.0000000000000000
1.9999999999999820 10.0000000000000000 0.0000000000000000
1.4999999999999880 10.0000000000000000 0.0000000000000000
0.9999999999999911 10.0000000000000000 0.0000000000000000
0.4999999999999964 10.0000000000000000 0.0000000000000000
0.0000000000000000 9.4999999999999982 0.0000000000000000
0.0000000000000000 8.9999999999999982 0.0000000000000000
0.0000000000000000 8.4999999999999964 0.0000000000000000
0.0000000000000000 7.9999999999999956 0.0000000000000000
0.0000000000000000 7.4999999999999947 0.0000000000000000
0.0000000000000000 6.9999999999999938 0.0000000000000000
0.0000000000000000 6.4999999999999929 0.0000000000000000
0.0000000000000000 5.9999999999999911 0.0000000000000000
0.0000000000000000 5.4999999999999902 0.0000000000000000
0.0000000000000000 4.9999999999999893 0.0000000000000000
0.0000000000000000 4.4999999999999876 0.0000000000000000
0.0000000000000000 3.9999999999999880 0.0000000000000000
0.0000000000000000 3.4999999999999871 0.0000000000000000
0.0000000000000000 2.9999999999999849 0.0000000000000000
0.0000000000000000 2.4999999999999840 0.0000000000000000
0.0000000000000000 1.9999999999999820 0.0000000000000000
0.0000000000000000 1.4999999999999880 0.0000000000000000
0.0000000000000000 0.9999999999999911 0.0000000000000000
0.0000000000000000 0.4999999999999964 0.0000000000000000
1.2893627605677971 0.4039453131408748 0.0000000000000000
9.5960546868591283 1.2893627605677851 0.0000000000000000
0.4039453131416964 1.2893627605693720 0.0000000000000000
1.2893627605693680 9.5960546868583023 0.0000000000000000
8.7106372394306248 9.5960546868583041 0.0000000000000000
0.4039453131416960 8.7106372394306231 0.0000000000000000
9.5960546868577801 8.7106372394285660 0.0000000000000000
8.7106372394285518 0.4039453131422275 0.0000000000000000
5.7075233914240791 0.4042393686776080 0.0000000000000000
9.5957606313223884 5.7075233914240791 0.0000000000000000
5.7075233914302368 9.5957606313225146 0.0000000000000000
0.4042393686774852 5.7075233914302341 0.0000000000000000
0.4042393686774870 4.2924766085697446 0.0000000000000000
4.2924766085697446 9.5957606313225163 0.0000000000000000
4.2924766085613086 0.4042393686777679 0.0000000000000000
9.5957606313222321 4.2924766085613069 0.0000000000000000
7.2069014692790221 0.4049680369470985 0.0000000000000000
9.5950319630528966 7.2069014692790212 0.0000000000000000
9.5950319630544136 2.7930985307109211 0.0000000000000000
2.7930985307109228 0.4049680369455825 0.0000000000000000
7.2069014692833626 9.5950319630534118 0.0000000000000000
0.4049680369465854 7.2069014692833644 0.0000000000000000
2.7930985307166170 9.5950319630534118 0.0000000000000000
0.4049680369465844 2.7930985307166138 0.0000000000000000
1.6708501783167731 0.3863520175059511 0.0000000000000000
1.4885952842359449 0.7425995741786342 0.0000000000000000
1.1412865090567641 0.7721447548851975 0.0000000000000000
9.6136479824940473 1.6708501783167720 0.0000000000000000
9.2574004258213645 1.4885952842359440 0.0000000000000000
9.2278552451148013 1.1412865090567650 0.0000000000000000
1.6708501783182761 9.6136479824933581 0.0000000000000000
1.4885952842374850 9.2574004258210483 0.0000000000000000
1.1412865090584210 9.2278552451134228 0.0000000000000000
0.3863520175066478 1.6708501783182710 0.0000000000000000
0.7425995741789606 1.4885952842374710 0.0000000000000000
8.3291498216817104 9.6136479824933527 0.0000000000000000
8.5114047157625006 9.2574004258210447 0.0000000000000000
8.8587134909415628 9.2278552451134157 0.0000000000000000
0.3863520175066551 8.3291498216817210 0.0000000000000000
0.7425995741789655 8.5114047157625219 0.0000000000000000
8.3291498216798718 0.3863520175071021 0.0000000000000000
8.5114047157606176 0.7425995741789477 0.0000000000000000
9.6136479824928998 8.3291498216798736 0.0000000000000000
9.2574004258210554 8.5114047157606265 0.0000000000000000
3.1674386036702278 0.3860908059164893 0.0000000000000000
2.9863879636863939 0.7354510674391217 0.0000000000000000
2.6418218847319102 0.7717396649900677 0.0000000000000000
2.4421404012633641 0.4849557342742457 0.0000000000000000
9.6139091940834991 3.1674386036702189 0.0000000000000000
9.2645489325608725 2.9863879636863890 0.0000000000000000
9.2170866278041359 2.6572742118381929 0.0000000000000000
9.5137140624869581 2.4439799640141149 0.0000000000000000
0.3860908059173203 3.1674386036752100 0.0000000000000000
0.7354510674380645 2.9863879636915631 0.0000000000000000
0.7717396649917603 2.6418218847376682 0.0000000000000000
0.5043563073679382 2.4236159203324301 0.0000000000000000
3.1674386036752100 9.6139091940826766 0.0000000000000000
2.9863879636915671 9.2645489325619348 0.0000000000000000
2.6413943757926082 9.2341267297758520 0.0000000000000000
2.4235973729847569 9.4958982044139386 0.0000000000000000
6.8325613963247713 9.6139091940826784 0.0000000000000000
7.0136752201178334 9.2644205831630035 0.0000000000000000
7.3586146504658654 9.2341083941474267 0.0000000000000000
7.5764030186167490 9.4958974089281796 0.0000000000000000
0.3860908059173205 6.8325613963247740 0.0000000000000000
0.7354510674380570 7.0136120363084178 0.0000000000000000
0.7780257977669484 7.3493021401191028 0.0000000000000000
0.4857040834158266 7.5568029350244226 0.0000000000000000
6.8325613963210259 0.3860908059177289 0.0000000000000000
7.0136120363045116 0.7354510674370440 0.0000000000000000
7.3586056242037383 0.7658732702247277 0.0000000000000000
7.5764026270113334 0.5041017955868261 0.0000000000000000
9.6139091940822645 6.8325613963210294 0.0000000000000000
9.2645489325629402 7.0136120363045196 0.0000000000000000
9.2613161964755868 7.3446308197128616 0.0000000000000000
9.5189794873264617 7.5562468254491737 0.0000000000000000
9.5602283186989716 4.6398490411693736 0.0000000000000000
9.2639816785339377 4.4954771650922796 0.0000000000000000
9.2329423744454449 4.1383944557875179 0.0000000000000000
9.4949208302289119 3.9220746832577640 0.0000000000000000
4.7056942027770106 0.3866054676351999 0.0000000000000000
4.4958895133822354 0.7315017099269715 0.0000000000000000
4.1379057800088779 0.7670694956050578 0.0000000000000000
3.9220534822053130 0.5050796847496811 0.0000000000000000
0.3883194512592068 4.6981430621294828 0.0000000000000000
0.7372522921741206 4.4941305957451467 0.0000000000000000
0.7678910073554632 4.1376545060671290 0.0000000000000000
0.5017562409619658 3.9251666943802248 0.0000000000000000
4.6398490411773814 9.5602283186996413 0.0000000000000000
4.4954771651011036 9.2639816785348010 0.0000000000000000
4.1383944557951864 9.2329423744447556 0.0000000000000000
3.9252116378768251 9.4982943774661450 0.0000000000000000
5.2947100690205406 9.6040294294199864 0.0000000000000000
5.5021284417890994 9.2775552710567588 0.0000000000000000
5.8618110707234656 9.2342243588203790 0.0000000000000000
6.0748008455122884 9.4983722433781654 0.0000000000000000
0.3866054676356619 5.2943057972187146 0.0000000000000000
0.7315017099253526 5.5041104866126647 0.0000000000000000
0.7670694956056403 5.8620942199839714 0.0000000000000000
0.5017063435038865 6.0748180435966219 0.0000000000000000
5.3018569378670657 0.3883194512589082 0.0000000000000000
5.5067699914037931 0.7387433879024016 0.0000000000000000
5.8619265665579698 0.7674469207614164 0.0000000000000000
6.0776526501802373 0.5047702211490738 0.0000000000000000
9.6040294294208977 5.2947100690156246 0.0000000000000000
9.2775552710571194 5.5021284417843068 0.0000000000000000
9.2348814590899408 5.8612634880408949 0.0000000000000000
9.5039548243824719 6.0690877204539584 0.0000000000000000
9.2278552451125417 8.8587134909395147 0.0000000000000000
8.8587134909394987 0.7721447548874716 0.0000000000000000
0.7721447548865750 8.8587134909415841 0.0000000000000000
0.7721447548865701 1.1412865090584050 0.0000000000000000
9.1259408469164818 0.4357333388125131 0.0000000000000000
9.5642666611878333 0.8740591530804849 0.0000000000000000
9.5642666611875136 9.1259408469168726 0.0000000000000000
9.1259408469186329 9.5642666611874816 0.0000000000000000
0.4357333388119069 0.8740591530815960 0.0000000000000000
0.8740591530803483 0.4357333388115386 0.0000000000000000
0.8740591530812307 9.5642666611880944 0.0000000000000000
0.4357333388119001 9.1259408469187626 0.0000000000000000
9.0474984166707149 2.8408807246459542 0.0000000000000000
2.8346081498466491 0.9770757470854671 0.0000000000000000
0.9882811367307173 2.8184455416926948 0.0000000000000000
2.8287352057129640 9.0185939352020235 0.0000000000000000
0.9971865586379027 7.1542214836592368 0.0000000000000000
7.1808383803653424 9.0322064563803455 0.0000000000000000
7.1909262461483046 0.9858886899138815 0.0000000000000000
9.0245405826444074 7.2109598443798220 0.0000000000000000
1.3045775636074299 1.0162461115407151 0.0000000000000000
8.9956586796161471 1.3229624830162889 0.0000000000000000
1.0056231776190121 1.3124796367467519 0.0000000000000000
1.0368568771204201 8.6807084305137074 0.0000000000000000
1.3106337913671939 9.0326713459893142 0.0000000000000000
8.6796990146581194 8.9542277286486716 0.0000000000000000
8.6843410453713439 1.0067512459337800 0.0000000000000000
9.0027192837576369 8.6868847995373599 0.0000000000000000
9.0301741085752099 4.3247255213340381 0.0000000000000000
4.3193941404221761 0.9670503228922767 0.0000000000000000
4.3191512850643514 9.0214940081388164 0.0000000000000000
0.9833836303383299 4.3215829360297171 0.0000000000000000
5.6799231652581081 9.0262594814121826 0.0000000000000000
0.9640143597029136 5.6787722083905168 0.0000000000000000
5.6780245132309108 0.9722792226852467 0.0000000000000000
9.0240025875599770 5.6794717131233039 0.0000000000000000
6.1340713335665438 0.7915265892928753 0.0000000000000000
9.2066793771128577 6.1437872577800920 0.0000000000000000
0.7908151411389894 6.1366379947892016 0.0000000000000000
6.1365879368983904 9.2094135990790349 0.0000000000000000
3.8652230503333418 9.2104240405091122 0.0000000000000000
0.7909603760069677 3.8633175825487820 0.0000000000000000
9.2066793771181565 3.8562127422075840 0.0000000000000000
3.8562127422075880 0.7933206228818490 0.0000000000000000
7.6375011287760870 0.7872330439880770 0.0000000000000000
9.2162698532532321 7.6037178793095634 0.0000000000000000
7.6375011287796841 9.2127669560136276 0.0000000000000000
0.7818732451610495 7.6092483064647194 0.0000000000000000
2.3624988712202968 9.2127669560136365 0.0000000000000000
0.7880126510953401 2.3673549073721869 0.0000000000000000
2.3878874013774749 0.7787532331316621 0.0000000000000000
9.2094712130602883 2.3849992124453210 0.0000000000000000
0.4460632726950174 9.5539367273049827 0.0000000000000000
9.5607305604428383 9.5607305604421420 0.0000000000000000
0.4392694395567217 0.4392694395571430 0.0000000000000000
9.5607305604417867 0.4392694395570849 0.0000000000000000
1.7960806972377441 0.6890732429553671 0.0000000000000000
9.3109267570446299 1.7960806972377401 0.0000000000000000
0.6890732429559432 1.7960806972385730 0.0000000000000000
0.6879374371655873 8.2043897689240168 0.0000000000000000
1.7960806972385801 9.3109267570440597 0.0000000000000000
8.2039193027614079 9.3109267570440544 0.0000000000000000
9.3109267570436636 8.2039193027603154 0.0000000000000000
8.2039193027603154 0.6890732429563371 0.0000000000000000
1.9902254063380040 0.4509926195223025 0.0000000000000000
9.5490073804776863 1.9902254063380069 0.0000000000000000
1.9718934663286740 9.5164967051050127 0.0000000000000000
0.4835032948950029 1.9718934663286629 0.0000000000000000
8.0281065336713198 9.5164967051049949 0.0000000000000000
0.4508033185581742 8.0098530046872121 0.0000000000000000
9.5490073804761710 8.0097745936584062 0.0000000000000000
8.0281065336705524 0.4835032948961339 0.0000000000000000
1.0592996012066200 8.9498866795175758 0.0000000000000000
8.9604339286528738 8.9487294527823931 0.0000000000000000
1.0520960834175079 1.0520960834191460 0.0000000000000000
8.9512367847647756 1.0536793350827289 0.0000000000000000
9.3127193347674950 3.2847992024859471 0.0000000000000000
9.1081694575205230 3.1967349582474158 0.0000000000000000
3.2843287363233711 0.6861448594421280 0.0000000000000000
3.1964549188649332 0.8911544676042529 0.0000000000000000
0.6872806652324497 3.2847992024888870 0.0000000000000000
0.8918305424773868 3.1967349582513509 0.0000000000000000
3.2847992024888830 9.3127193347675448 0.0000000000000000
3.1967349582513478 9.1081694575226102 0.0000000000000000
0.6872806652324495 6.7152007975111072 0.0000000000000000
0.8918305424773775 6.8032650417486362 0.0000000000000000
6.7152113281460117 9.3126979432010550 0.0000000000000000
6.8033089193940706 9.1080803259955729 0.0000000000000000
9.3127193347677402 6.7152007975088690 0.0000000000000000
9.1081694575242764 6.8032650417457301 0.0000000000000000
6.7156712636714477 0.6861448594418775 0.0000000000000000
6.8035450811281990 0.8911544676004776 0.0000000000000000
3.4707634395206202 0.4717317658260226 0.0000000000000000
9.5281330191989149 3.4708194473970981 0.0000000000000000
0.4708020417966963 3.4703865989755251 0.0000000000000000
3.4703865989755212 9.5291979582032997 0.0000000000000000
0.4708020417967024 6.5296134010244682 0.0000000000000000
6.5296146546714784 9.5291954115882422 0.0000000000000000
6.5213566347061738 0.4599912858922749 0.0000000000000000
9.5426378087513068 6.5209095945844009 0.0000000000000000
1.6921235503199090 0.8781539140001073 0.0000000000000000
9.1218460859998931 1.6921235503199010 0.0000000000000000
1.6921235503211620 9.1218460859997013 0.0000000000000000
8.3078764496788224 9.1218460859996995 0.0000000000000000
0.8781539140003047 1.6921235503211500 0.0000000000000000
0.8770181082099445 8.3083469158414403 0.0000000000000000
9.1218460859996515 8.3078764496773321 0.0000000000000000
8.3078764496773339 0.8781539140003536 0.0000000000000000
8.9584465264241437 5.8920818401897392 0.0000000000000000
8.7986556018431781 5.7649120200089783 0.0000000000000000
5.8921420174956909 1.0423760943607689 0.0000000000000000
5.7667005951961343 1.2058150323324510 0.0000000000000000
1.0321167673441509 5.8911980359955134 0.0000000000000000
1.2058150323331880 5.7667005952076140 0.0000000000000000
5.8916565712577311 8.9965708098812964 0.0000000000000000
5.7693487883116639 8.8059122270975436 0.0000000000000000
1.0190582509993980 4.1087173474049639 0.0000000000000000
1.1776786210253081 4.2272542885067832 0.0000000000000000
4.1074787601268694 8.9568607471726267 0.0000000000000000
4.2329635681738029 8.8067507059835126 0.0000000000000000
4.1082318479315969 1.0530529991848150 0.0000000000000000
4.2431340271187894 1.1776220909263040 0.0000000000000000
8.9623993104067630 4.1091486001666846 0.0000000000000000
8.8017446927649079 4.2412884910711330 0.0000000000000000
8.6948252881457666 7.6702302240222249 0.0000000000000000
8.6730988893871892 7.4798362823805986 0.0000000000000000
8.5228860398851225 7.6196101175415167 0.0000000000000000
8.4833477990574284 7.4222488193449694 0.0000000000000000
8.3400269879034106 7.5648606542620458 0.0000000000000000
8.2886708251383840 7.3713454142552157 0.0000000000000000
8.1482022560550380 7.5134576088177836 0.0000000000000000
8.0951583636496807 7.3208338753260254 0.0000000000000000
7.9548591533084592 7.4628980257747060 0.0000000000000000
7.9016935741762380 7.2702774540259121 0.0000000000000000
7.7612838963013147 7.4127404512740549 0.0000000000000000
7.7081376474076606 7.2199136869232250 0.0000000000000000
7.5677261331433119 7.3624083657102002 0.0000000000000000
7.5145827610657303 7.1695525196775280 0.0000000000000000
7.3741851365113433 7.3119950910225322 0.0000000000000000
7.3210314872725561 7.1191761765687946 0.0000000000000000
7.1806349978192179 7.2616141201381517 0.0000000000000000
7.1274781898487234 7.0688065281982597 0.0000000000000000
6.9870814850872858 7.2112451472708701 0.0000000000000000
6.9339244476016892 7.0184384180378991 0.0000000000000000
7.0743211437938571 6.8759998381137430 0.0000000000000000
6.8807673273593091 6.8256319930291696 0.0000000000000000
6.7403706188025483 6.9680706171326534 0.0000000000000000
6.6872135008868323 6.7752641838106094 0.0000000000000000
6.8276102114268058 6.6328255526210160 0.0000000000000000
6.6340563835029300 6.5824577485883706 0.0000000000000000
6.4936596728743190 6.7248963800946742 0.0000000000000000
6.4405025550897106 6.5320899463041719 0.0000000000000000
6.5808992656515359 6.3896513150364989 0.0000000000000000
6.3873454372508904 6.3392835127073912 0.0000000000000000
6.2469487266997721 6.4817221439367909 0.0000000000000000
6.1937916088531191 6.2889157103680251 0.0000000000000000
6.3341883194037489 6.1464770791403316 0.0000000000000000
6.1406344910038122 6.0961092768086989 0.0000000000000000
6.2810312015548471 5.9536706455795514 0.0000000000000000
6.0874773731546394 5.9033028432489001 0.0000000000000000
5.9470806626035824 6.0457414744781097 0.0000000000000000
5.8939235447543554 5.8529350409185010 0.0000000000000000
5.7535268342033081 5.9953736721476796 0.0000000000000000
5.7003697163540714 5.8025672385881020 0.0000000000000000
5.8407664269051232 5.6601286073589172 0.0000000000000000
5.6472125985048374 5.6097608050285288 0.0000000000000000
5.5068158879537847 5.7521994362577118 0.0000000000000000
5.4536587701045516 5.5593930026981386 0.0000000000000000
5.7876093090558864 5.4673221737993334 0.0000000000000000
5.3132620595535007 5.7018316339273269 0.0000000000000000
5.2601049417042676 5.5090252003677502 0.0000000000000000
5.1197082311532149 5.6514638315969368 0.0000000000000000
5.0665511133039827 5.4586573980373627 0.0000000000000000
4.9261544027529300 5.6010960292665501 0.0000000000000000
4.8729972849036969 5.4082895957069752 0.0000000000000000
5.0133939954547504 5.2658509644777878 0.0000000000000000
4.8198401670544628 5.2154831621473994 0.0000000000000000
4.9602368776055146 5.0730445309182137 0.0000000000000000
4.7666830492052306 5.0226767285878244 0.0000000000000000
4.9070797597562814 4.8802380973586388 0.0000000000000000
4.7135259313559974 4.8298702950282504 0.0000000000000000
4.6794434565034173 5.3579217933765841 0.0000000000000000
4.8539226419070491 4.6874316637990630 0.0000000000000000
4.6603688135067634 4.6370638614686754 0.0000000000000000
4.8007655240578142 4.4946252302394880 0.0000000000000000
4.6072116956575293 4.4442574279091014 0.0000000000000000
4.4668149851064776 4.5866960591382888 0.0000000000000000
4.4136578672572444 4.3938896255787139 0.0000000000000000
4.7476084062085810 4.3018187966799148 0.0000000000000000
4.9411622346088624 4.3521865990102997 0.0000000000000000
4.2732611567061927 4.5363282568079004 0.0000000000000000
4.2201040388569604 4.3435218232483237 0.0000000000000000
4.9793115206021641 5.7939024628261260 0.0000000000000000
4.8880051167596301 4.1593801654507256 0.0000000000000000
5.0815589451599150 4.2097479677811123 0.0000000000000000
4.0797073283059087 4.4859604544775111 0.0000000000000000
4.0265502104566746 4.2931540209179362 0.0000000000000000
5.0284018273106810 4.0169415342215373 0.0000000000000000
5.2219556557109623 4.0673093365519231 0.0000000000000000
5.1687985378617318 3.8745029029923490 0.0000000000000000
5.3623523662620132 3.9248707053227361 0.0000000000000000
3.8861534999056229 4.4355926521471236 0.0000000000000000
3.8329963820563879 4.2427862185875496 0.0000000000000000
5.3091952484127836 3.7320642717631629 0.0000000000000000
5.5027490768130711 3.7824320740935500 0.0000000000000000
5.1156414200125049 3.6816964694327781 0.0000000000000000
5.4495919589638371 3.5896256405339768 0.0000000000000000
5.6431457873641229 3.6399934428643670 0.0000000000000000
3.6925996715053371 4.3852248498167370 0.0000000000000000
3.6394425536561039 4.1924184162571621 0.0000000000000000
3.7798392642071561 4.0499797850279746 0.0000000000000000
3.5862854358068699 3.9996119826975871 0.0000000000000000
3.7266821463579221 3.8571733514684010 0.0000000000000000
3.5331283179576380 3.8068055491380108 0.0000000000000000
3.7457567893545720 4.5780312833763102 0.0000000000000000
3.6735250285086889 3.6643669179088252 0.0000000000000000
3.4799712001084071 3.6139991155784350 0.0000000000000000
5.5899886695148897 3.4471870093047920 0.0000000000000000
5.7835424979151719 3.4975548116351818 0.0000000000000000
5.8366996157644069 3.6903612451947549 0.0000000000000000
5.9770963263154604 3.5479226139655711 0.0000000000000000
6.0302534441646918 3.7407290475251460 0.0000000000000000
6.1706501547157453 3.5982904162959590 0.0000000000000000
6.2238072725649767 3.7910968498555340 0.0000000000000000
6.3642039831160249 3.6486582186263439 0.0000000000000000
6.4173611009652660 3.8414646521859050 0.0000000000000000
3.4458887252558150 4.1420506139267754 0.0000000000000000
3.6203679106594588 3.4715604843492489 0.0000000000000000
3.4268140822591762 3.4211926820188610 0.0000000000000000
6.3110468652667970 3.4558517850667680 0.0000000000000000
6.5046006936670757 3.5062195873971560 0.0000000000000000
5.7303853800659406 3.3047483780756051 0.0000000000000000
5.5368315516656574 3.2543805757452162 0.0000000000000000
6.4514435758178461 3.3134131538375802 0.0000000000000000
6.6449974042181266 3.3637809561679681 0.0000000000000000
3.2864173717081222 3.5636313132480462 0.0000000000000000
3.2332602538588908 3.3708248796884712 0.0000000000000000
5.6772282622167030 3.1119419445160288 0.0000000000000000
3.5672107928102288 3.2787540507896740 0.0000000000000000
5.4836744338164216 3.0615741421856399 0.0000000000000000
6.5918402863688987 3.1709745226083981 0.0000000000000000
6.7853941147691907 3.2213423249387789 0.0000000000000000
6.8385512326184363 3.4141487584983401 0.0000000000000000
5.6240711443674751 2.9191355109564570 0.0000000000000000
6.7322369969199514 3.0285358913792080 0.0000000000000000
6.9257908253202336 3.0789036937095990 0.0000000000000000
3.0928635433078360 3.5132635109176560 0.0000000000000000
3.0397064254586050 3.3204570773580802 0.0000000000000000
6.8726337074710031 2.8860972601500219 0.0000000000000000
7.0661875358712880 2.9364650624804089 0.0000000000000000
7.0130304180220566 2.7436586289208340 0.0000000000000000
6.0834105620139294 3.9335354810847138 0.0000000000000000
3.7607646212105128 3.3291218531200628 0.0000000000000000
3.7076075033612832 3.1363154195604892 0.0000000000000000
3.9011613317615672 3.1866832218908798 0.0000000000000000
3.8480042139123358 2.9938767883313049 0.0000000000000000
3.6544503855120518 2.9435089860009160 0.0000000000000000
5.4305173159671876 2.8687677086260668 0.0000000000000000
5.5709140265182437 2.7263290773968820 0.0000000000000000
7.2065383999425281 2.7942026105021829 0.0000000000000000
4.0415580423126212 3.0442445906616951 0.0000000000000000
3.9884009244633889 2.8514381571021201 0.0000000000000000
7.1534271285731119 2.6012199976916550 0.0000000000000000
5.2751127735602061 4.2601157701114829 0.0000000000000000
2.8993097149075511 3.4628957085872649 0.0000000000000000
2.8461525970583210 3.2700892750276900 0.0000000000000000
7.2597337231916086 2.9868622280192931 0.0000000000000000
7.4000833137495192 2.8446046699091481 0.0000000000000000
7.4273317797589362 7.5049040890751382 0.0000000000000000
6.6790798790707173 2.8357294578196299 0.0000000000000000
5.3773601981179580 2.6759612750664901 0.0000000000000000
5.5177569086690132 2.5335226438373049 0.0000000000000000
4.1819547528636747 2.9018059594325090 0.0000000000000000
4.1287976350144424 2.7089995258729340 0.0000000000000000
2.7057558865072671 3.4125279062568752 0.0000000000000000
2.6525987686580370 3.2197214726972989 0.0000000000000000
2.7589130043564971 3.6053343398164510 0.0000000000000000
2.7929954792090919 3.0772828414681150 0.0000000000000000
2.5994328597207010 3.0269488395682380 0.0000000000000000
2.7398368961785100 2.8844820413136238 0.0000000000000000
2.5462740324932280 2.8341489783145959 0.0000000000000000
2.6866792492360130 2.6916776420392181 0.0000000000000000
4.0947151601618561 3.2370510242212722 0.0000000000000000
7.6523356118599013 7.0316176579452589 0.0000000000000000
7.4532847923130179 3.0372406337305340 0.0000000000000000
7.5936810429842563 2.8948037697314901 0.0000000000000000
2.4933305972853921 2.6412535868884119 0.0000000000000000
2.6335576569781369 2.4988567212160691 0.0000000000000000
2.3526429677630780 2.7844132193391018 0.0000000000000000
2.8270832102353700 2.5492314844725992 0.0000000000000000
2.7739273007941891 2.3564237965234520 0.0000000000000000
2.9674760599407608 2.4067925962139332 0.0000000000000000
5.7113107370693008 2.5838904461676981 0.0000000000000000
5.6581536192200694 2.3910840126081201 0.0000000000000000
5.8517074476203534 2.4414518149385138 0.0000000000000000
4.3223514634147264 2.7593673282033242 0.0000000000000000
4.2691943455654924 2.5665608946437488 0.0000000000000000
4.0756405171652066 2.5161930923133600 0.0000000000000000
4.2160692174045078 2.3736136815734410 0.0000000000000000
4.4095963877312530 2.4240988001627759 0.0000000000000000
5.7986952555292577 2.2480884594164370 0.0000000000000000
5.9922732382225634 2.2983634414197449 0.0000000000000000
5.3242030802687283 2.4831548415069120 0.0000000000000000
2.5653591759562122 3.5549665374860600 0.0000000000000000
2.6185162938054432 3.7477729710456340 0.0000000000000000
5.1006335881565663 4.9306058996890263 0.0000000000000000
5.2901206054161376 3.0112063398552542 0.0000000000000000
4.3564721481727222 2.2311476765505032 0.0000000000000000
2.4396108569254351 2.4497838866246369 0.0000000000000000
2.9142986020255601 2.2139916578129051 0.0000000000000000
3.1078349152098892 2.2644115759947172 0.0000000000000000
2.4249624654051600 3.6974051687152438 0.0000000000000000
2.4781195832543901 3.8902116022748179 0.0000000000000000
7.6468824158270872 3.0876184948689911 0.0000000000000000
7.7872863689132901 2.9451815975822191 0.0000000000000000
7.7342238580491598 2.7524674006674510 0.0000000000000000
7.5064533081260922 3.2300110049761952 0.0000000000000000
7.9276716991179841 2.8027238903750331 0.0000000000000000
4.0223988275813616 2.3231024849264390 0.0000000000000000
2.2845657548541061 3.8398437999444281 0.0000000000000000
2.3377228727033370 4.0326502335040031 0.0000000000000000
2.5312767011036219 4.0830180358343942 0.0000000000000000
2.3908799905525702 4.2254566670635789 0.0000000000000000
2.5844338189528520 4.2758244693939691 0.0000000000000000
2.4440400794969341 4.4182622814863084 0.0000000000000000
2.6375914319846081 4.4686307664307350 0.0000000000000000
2.4971977750591110 4.6110685557692737 0.0000000000000000
2.6907487286497571 4.6614371506904089 0.0000000000000000
2.5503520479013568 4.8038757737029432 0.0000000000000000
2.7439054021338132 4.8542437067623494 0.0000000000000000
2.6035086175218960 4.9966823584102613 0.0000000000000000
2.7970623545507318 5.0470501859319397 0.0000000000000000
2.6566656164276292 5.1894888247627957 0.0000000000000000
2.8502194250039969 5.2398566325586762 0.0000000000000000
2.7098227065536191 5.3822952659657242 0.0000000000000000
2.9033765303333632 5.4326630695700047 0.0000000000000000
2.7629798176956699 5.5751017013744830 0.0000000000000000
2.9565336449780899 5.6254695040130702 0.0000000000000000
2.8161369338929529 5.7679081353895034 0.0000000000000000
3.0096907620179119 5.8182759377958044 0.0000000000000000
2.8692940513319560 5.9607145690621781 0.0000000000000000
3.0628478796638681 6.0110823714114234 0.0000000000000000
2.9224511690789350 6.1535210026499430 0.0000000000000000
3.1160049974621762 6.2038888049850360 0.0000000000000000
2.9756082869026299 6.3463274362165576 0.0000000000000000
3.1691621152986631 6.3966952385481246 0.0000000000000000
3.0287654047454788 6.5391338697778938 0.0000000000000000
3.2223192331447050 6.5895016721085797 0.0000000000000000
3.0819225225931159 6.7319403033379093 0.0000000000000000
3.2754763509931388 6.7823081056683723 0.0000000000000000
3.4158730615441502 6.6398694744392044 0.0000000000000000
3.4690301793932399 6.8326759079988131 0.0000000000000000
3.1350796404419512 6.9247467368975926 0.0000000000000000
3.6094268899442632 6.6902372767696434 0.0000000000000000
3.6625840077934622 6.8830437103292246 0.0000000000000000
2.9415258120416410 6.8743789345672113 0.0000000000000000
2.9946829298907711 7.0671853681268137 0.0000000000000000
2.8011291014904960 7.0168175657964156 0.0000000000000000
3.8029807183445090 6.7406050791000496 0.0000000000000000
3.8561378361937289 6.9334115126596281 0.0000000000000000
3.9965345467447810 6.7909728814304451 0.0000000000000000
4.0496916645940084 6.9837793149900236 0.0000000000000000
4.1900883751450646 6.8413406837608370 0.0000000000000000
4.2432454929942933 7.0341471173204173 0.0000000000000000
4.3836422035453460 6.8917084860912290 0.0000000000000000
4.4367993213945800 7.0845149196508084 0.0000000000000000
4.5771960319456308 6.9420762884216192 0.0000000000000000
3.7498236004952852 6.5477986455404613 0.0000000000000000
3.2032445902035320 5.8686437401853668 0.0000000000000000
2.8542862193397069 7.2096239993559994 0.0000000000000000
4.6303531497948676 7.1348827219811817 0.0000000000000000
4.7707498603459157 6.9924440907520031 0.0000000000000000
4.4899564392438203 7.2773213532103611 0.0000000000000000
4.8239069781951516 7.1852505243115656 0.0000000000000000
2.6607323909394229 7.1592561970256030 0.0000000000000000
4.9643036887462033 7.0428118930823818 0.0000000000000000
5.0174608065954391 7.2356183266419487 0.0000000000000000
3.7157411256426780 7.0758501438888084 0.0000000000000000
2.5694259889476050 5.5247338991399717 0.0000000000000000
2.7138895087886450 7.3520626305851797 0.0000000000000000
5.1578575171464882 7.0931796954127702 0.0000000000000000
5.2110146349957276 7.2859861289723460 0.0000000000000000
2.7820544585009328 6.2959596338865476 0.0000000000000000
2.9074433371889290 7.4024304329155726 0.0000000000000000
2.7670466266378679 7.5448690641447573 0.0000000000000000
2.5203356803883619 7.3016948282547824 0.0000000000000000
5.3514113455467713 7.1435474977431506 0.0000000000000000
5.4045684633960152 7.3363539313027291 0.0000000000000000
4.3304850856961199 6.6989020525316523 0.0000000000000000
5.1047003992972542 6.9003732618531837 0.0000000000000000
2.4671785625391371 7.1088883946952066 0.0000000000000000
2.3267818519880779 7.2513270259243896 0.0000000000000000
3.0437732401143340 5.2902244385531167 0.0000000000000000
5.5449651739470571 7.1939153000735283 0.0000000000000000
5.5981222917963027 7.3867217336331024 0.0000000000000000
5.4577255812452501 7.5291603648622898 0.0000000000000000
5.6512794096455474 7.5795281671926684 0.0000000000000000
5.7916761201965912 7.4370895359634783 0.0000000000000000
5.8456258553131706 7.6312282936618736 0.0000000000000000
5.7047664879978157 7.7740501815029903 0.0000000000000000
2.9606004550381528 7.5952368664751484 0.0000000000000000
2.8202037444870962 7.7376754977043358 0.0000000000000000
2.2504832800015180 4.3678952982927672 0.0000000000000000
5.9876380316150524 7.4899227452769122 0.0000000000000000
2.2737717163733242 7.0586654675440466 0.0000000000000000
2.1333995028613439 7.2011282446364362 0.0000000000000000
2.1864137213159460 7.3937938273273121 0.0000000000000000
6.0433995520418637 7.6859989256493488 0.0000000000000000
7.8746430226281294 2.6100426338027951 0.0000000000000000
7.8150110812193541 7.6054042208746431 0.0000000000000000
7.0402484366336573 7.4040683884986978 0.0000000000000000
6.8466864670626757 7.3536863826633567 0.0000000000000000
6.8998544373185924 7.5465072254499654 0.0000000000000000
5.0706179244446741 7.4284247602015103 0.0000000000000000
4.1028487824432363 7.1765857485496038 0.0000000000000000
2.1441690443030521 3.9822824311736120 0.0000000000000000
4.3755085812639596 2.9521737617628978 0.0000000000000000
6.3982864579686058 3.1206067202780070 0.0000000000000000
4.8348479989103996 3.9665737318911520 0.0000000000000000
6.9598733001728270 2.5508521953612600 0.0000000000000000
7.1001397312647621 2.4082851522865338 0.0000000000000000
6.9066944690804108 2.3580243598274300 0.0000000000000000
7.0465813367464287 2.2150784028286878 0.0000000000000000
7.2404261358845936 2.2657369977924571 0.0000000000000000
7.1868746891614403 2.0725369634270949 0.0000000000000000
7.3812083997928024 2.1236412717734221 0.0000000000000000
2.4631117834319940 5.1391210236993459 0.0000000000000000
5.8066839520525413 6.1881801057072554 0.0000000000000000
5.6131301236522484 6.1378123033768563 0.0000000000000000
5.6050206556638607 2.1981847587214598 0.0000000000000000
2.3718203752948379 3.5045945919781132 0.0000000000000000
4.7857576922018801 5.7435346604957367 0.0000000000000000
4.8389148100511132 5.9363410940553152 0.0000000000000000
4.6453609816508292 5.8859732917249268 0.0000000000000000
6.4745850299551346 6.0040384479099451 0.0000000000000000
6.4214279121059512 5.8112320143501721 0.0000000000000000
6.6149817405062503 5.8615998166805250 0.0000000000000000
6.5618246226570216 5.6687933831209110 0.0000000000000000
6.7553784510573118 5.7191611854512852 0.0000000000000000
6.7022213332080831 5.5263547518916996 0.0000000000000000
6.8957751616083662 5.5767225542220871 0.0000000000000000
6.8426180437591366 5.3839161206625086 0.0000000000000000
7.0361718721594224 5.4342839229928952 0.0000000000000000
6.9830147543101901 5.2414774894333220 0.0000000000000000
7.0893289900086511 5.6270903565524728 0.0000000000000000
6.7894609259099052 5.1911096871029283 0.0000000000000000
6.9298576364609588 5.0486710558737444 0.0000000000000000
7.1234114648612419 5.0990388582041346 0.0000000000000000
7.0702543470120096 4.9062324246445588 0.0000000000000000
6.7363038080606756 4.9983032535433498 0.0000000000000000
7.2638081754122918 4.9566002269749392 0.0000000000000000
7.2106510575630596 4.7637937934153669 0.0000000000000000
7.4042048859633400 4.8141615957457518 0.0000000000000000
7.3510477681141104 4.6213551621861768 0.0000000000000000
7.4573620038125821 5.0069680293053267 0.0000000000000000
7.5446015965143918 4.6717229645165688 0.0000000000000000
7.4914444786651666 4.4789165309569947 0.0000000000000000
7.6849983070654488 4.5292843332873884 0.0000000000000000
7.6318411892162246 4.3364778997278126 0.0000000000000000
7.2978906502648844 4.4285487286265983 0.0000000000000000
7.8253950176165050 4.3868457020582037 0.0000000000000000
7.7722378997672799 4.1940392684986314 0.0000000000000000
6.5959070975096239 5.1407418847725399 0.0000000000000000
6.5427499796603934 4.9479354512129596 0.0000000000000000
5.6662872415014824 6.3306187369364304 0.0000000000000000
2.7210116014472590 2.1635502717473818 0.0000000000000000
2.8611783305823830 2.0211749582436722 0.0000000000000000
4.3264182745554276 4.7291346903674762 0.0000000000000000
7.5786840713669994 4.1436714661682359 0.0000000000000000
7.7190807819180520 4.0012328349390458 0.0000000000000000
3.5522029609542849 4.5276634810459244 0.0000000000000000
3.9202359747582052 3.9075411537987912 0.0000000000000000
3.6053600788035221 4.7204699146054976 0.0000000000000000
4.5159052918150087 2.8097351305337162 0.0000000000000000
4.5690624096642436 3.0025415640932880 0.0000000000000000
4.5489734797037897 2.2819333377766018 0.0000000000000000
6.8085355689065477 5.9119676190108654 0.0000000000000000
4.7175927424966844 6.7996376571924104 0.0000000000000000
2.6757402229091918 5.9103467667379768 0.0000000000000000
5.4727334131011922 6.2802509346060393 0.0000000000000000
6.6831466902114514 4.8054968199837740 0.0000000000000000
6.4895928618111656 4.7551290176533776 0.0000000000000000
6.3491961512601094 4.8975676488825659 0.0000000000000000
6.6299895723622129 4.6126903864241946 0.0000000000000000
6.2960390334108753 4.7047612153229901 0.0000000000000000
6.1556423228598236 4.8471998465521713 0.0000000000000000
6.1024852050105958 4.6543934129925937 0.0000000000000000
5.9620884944595396 4.7968320442217758 0.0000000000000000
7.5255269535177733 3.9508650326086561 0.0000000000000000
5.9324741779173253 7.2950618058981256 0.0000000000000000
1.9926329984711910 7.3432074570910268 0.0000000000000000
5.7453932119218951 2.0558389478193622 0.0000000000000000
7.9657917281675612 4.2444070708290207 0.0000000000000000
7.7000488091692576 3.2804202999725511 0.0000000000000000
2.3568018381128439 4.7535152798849936 0.0000000000000000
3.0140135480688230 7.7879727271672410 0.0000000000000000
2.8736595000480070 7.9303995962518501 0.0000000000000000
2.6798568068879889 7.8801004064315103 0.0000000000000000
3.1541969459686769 7.6455929066609594 0.0000000000000000
2.7338168153512870 8.0737132451038693 0.0000000000000000
7.3292442596259608 1.9320413598690320 0.0000000000000000
8.0668515864835761 2.6590830785871602 0.0000000000000000
7.7381554249146776 4.7220907668469687 0.0000000000000000
1.9396084237964830 7.1515331179928658 0.0000000000000000
4.4957890009121373 2.0891331240116271 0.0000000000000000
4.3032768204180893 2.0385093962954128 0.0000000000000000
4.4414566775026074 1.8982464374272610 0.0000000000000000
4.6864845462004912 2.1412494609000539 0.0000000000000000
8.0444321813733044 7.1321962442598803 0.0000000000000000
4.2500122053286677 1.8483414231448569 0.0000000000000000
8.1195080560608766 2.8516916786704072 0.0000000000000000
7.1330881888361057 1.8838313763662200 0.0000000000000000
2.6679008610827530 1.9707309453167821 0.0000000000000000
2.8090317837246430 1.8280952671810060 0.0000000000000000
5.9089313766103100 4.6040256106622000 0.0000000000000000
4.6985180995000606 6.0787797252844964 0.0000000000000000
4.5049642710997766 6.0284119229541071 0.0000000000000000
4.4518071532505470 5.8356054893945322 0.0000000000000000
4.3114104426994908 5.9780441206237143 0.0000000000000000
4.2582533248502621 5.7852376870641384 0.0000000000000000
4.1178566142992086 5.9276763182933214 0.0000000000000000
4.0646994964499799 5.7348698847337429 0.0000000000000000
2.8120701222057218 3.7981407733760282 0.0000000000000000
3.9243027858989228 5.8773085159629277 0.0000000000000000
3.8711456680496972 5.6845020824033492 0.0000000000000000
4.0115423786007538 5.5420634511741662 0.0000000000000000
3.8179885502004698 5.4916956488437734 0.0000000000000000
3.0206328910455840 2.5995991497295332 0.0000000000000000
2.4140459417289888 6.9161061069988392 0.0000000000000000
2.2201300642529662 6.8664077810072843 0.0000000000000000
2.8311448646225248 4.5189986778736024 0.0000000000000000
6.1283708776528476 7.3477414447157248 0.0000000000000000
6.0452894560291632 2.4917113268873079 0.0000000000000000
6.1853332642755783 2.3506288317004680 0.0000000000000000
3.9583852607515260 5.3492570176145922 0.0000000000000000
6.8529606289012897 2.1646438811819229 0.0000000000000000
2.0457284840139001 7.5359539875215074 0.0000000000000000
5.5518434092371098 2.0054556754344568 0.0000000000000000
8.0189488460167908 4.4372135043885947 0.0000000000000000
6.1325008687224614 2.1565745524801452 0.0000000000000000
3.2076171494210559 7.8383268069956191 0.0000000000000000
3.3477661802826590 7.6959564615502494 0.0000000000000000
1.7998255478636160 7.2921728403766206 0.0000000000000000
1.7472281256709370 7.1031991555524323 0.0000000000000000
2.9265340361684591 8.1249579331446640 0.0000000000000000
5.7685346660592511 4.7464642418913803 0.0000000000000000
5.4918080560978142 7.0011088665139534 0.0000000000000000
2.9374590498732069 4.9046115589013057 0.0000000000000000
5.1838063697176748 2.6255934727360990 0.0000000000000000
2.5413405189167428 8.0282166018224750 0.0000000000000000
2.7861212696344988 8.2657269960526758 0.0000000000000000
5.6913377158167933 1.8632778055752590 0.0000000000000000
8.0148820348760879 2.4674461422244689 0.0000000000000000
8.2054809414285685 2.5164698084517458 0.0000000000000000
7.5210855465156730 1.9816384407281220 0.0000000000000000
7.4694698016170582 1.7906540835991360 0.0000000000000000
6.7081390266480359 7.4942658765756054 0.0000000000000000
6.7612138500570982 7.6882630942709520 0.0000000000000000
6.9533025259584491 7.7392176611341172 0.0000000000000000
6.8134501870914264 7.8821097069666681 0.0000000000000000
7.0062865133808341 7.9321408158507412 0.0000000000000000
6.6236409761728474 7.8337254038297717 0.0000000000000000
6.0729938022444419 7.1527345466409011 0.0000000000000000
6.2087994407090514 5.0400062801117613 0.0000000000000000
7.2297257005597064 5.4846517253232898 0.0000000000000000
7.2828828184089360 5.6774581588828639 0.0000000000000000
7.4232795289599922 5.5350195276536791 0.0000000000000000
7.4764366468092227 5.7278259612132540 0.0000000000000000
7.6168333573602780 5.5853873299840657 0.0000000000000000
7.6699722981066332 5.7781987750071160 0.0000000000000000
7.5295907351413121 5.9206332300167404 0.0000000000000000
7.8103987152488301 5.6358392620042697 0.0000000000000000
7.7231258815191994 5.9710061830179209 0.0000000000000000
7.5827467589982476 6.1134399651921720 0.0000000000000000
7.7780536573912258 6.1641034589813630 0.0000000000000000
7.9201506627377132 6.0215418207329039 0.0000000000000000
7.6359772389208711 6.3060765337259186 0.0000000000000000
7.4423650244657296 6.2558495276772099 0.0000000000000000
7.8281036707449632 6.3601285318345129 0.0000000000000000
4.1710137321484364 6.1204827518528981 0.0000000000000000
7.7572319894927100 5.4429627203698452 0.0000000000000000
7.9507838963116164 5.4933165010852694 0.0000000000000000
7.4953030730530266 6.4484327274169786 0.0000000000000000
3.3095588258490141 6.2542566073191326 0.0000000000000000
7.8976270987259447 5.3005124044615171 0.0000000000000000
3.1801031360096621 3.1780184461288981 0.0000000000000000
5.8176249727677556 2.9695033132868431 0.0000000000000000
5.4005016522553220 5.3665865691385486 0.0000000000000000
6.3682707942567376 5.6184255807905217 0.0000000000000000
5.5559061946623034 3.9752385076531138 0.0000000000000000
4.8920719279003446 6.1291475276148928 0.0000000000000000
4.3605007494080157 4.2010831920191407 0.0000000000000000
3.1882367582910729 7.1175531704571977 0.0000000000000000
6.2428819155616413 4.5119547817634151 0.0000000000000000
3.8820725934758200 2.4657779276784160 0.0000000000000000
3.8287912333741692 2.2728436693365892 0.0000000000000000
3.6885074548928669 2.4154203960873590 0.0000000000000000
2.3608121510077549 6.7233951555869300 0.0000000000000000
2.1667324296454131 6.6735638437968863 0.0000000000000000
3.7989139072038078 4.7708377169358851 0.0000000000000000
3.6585171966527592 4.9132763481650690 0.0000000000000000
3.6353709104311029 2.2226971422700519 0.0000000000000000
3.7755464660571971 2.0801917691257348 0.0000000000000000
2.3076021682201411 6.5305983851101566 0.0000000000000000
2.1103795201898818 6.4812412650132529 0.0000000000000000
2.2539036076134620 6.3378742045270373 0.0000000000000000
2.0565995299466908 6.2885291827457426 0.0000000000000000
2.2005524372389940 6.1450972050122168 0.0000000000000000
2.0052100865409170 6.0952144936011026 0.0000000000000000
2.1476575897094610 5.9522109678625892 0.0000000000000000
1.9523912928188729 5.9023100501790129 0.0000000000000000
2.0946005709347020 5.7593748987275877 0.0000000000000000
1.9010554351444520 5.7089944797196361 0.0000000000000000
2.0419216197452781 5.5664369262185982 0.0000000000000000
8.1595275110567247 4.2949274302782010 0.0000000000000000
8.1062187644667532 4.1019938657862962 0.0000000000000000
2.6138451798988389 1.7754658257691449 0.0000000000000000
2.4740527721137040 1.9204442401106629 0.0000000000000000
3.0043021132867760 1.8755059186243110 0.0000000000000000
3.3999393548773029 7.8915442567184124 0.0000000000000000
3.5411173058445482 7.7467984972058490 0.0000000000000000
3.5932541289805209 7.9424660391683917 0.0000000000000000
3.7345975080555909 7.7973376684436939 0.0000000000000000
3.7877511008231481 7.9905218312008417 0.0000000000000000
3.9283321781408498 7.8472150715362012 0.0000000000000000
3.9814922600779870 8.0404225652752519 0.0000000000000000
4.1219114464882773 7.8975569216237211 0.0000000000000000
4.1751137973116412 8.0904173955782142 0.0000000000000000
4.3154807996853171 7.9478582365757093 0.0000000000000000
4.3686814979836166 8.1407119546742877 0.0000000000000000
4.5090395275970119 7.9982027504706332 0.0000000000000000
4.0350686633038482 8.2336271049705481 0.0000000000000000
2.9776821999778811 8.3172339803997026 0.0000000000000000
2.0910119264538229 3.7894759976140362 0.0000000000000000
1.9488031831872621 3.9324326595439070 0.0000000000000000
8.4327079215005618 7.2259568364864091 0.0000000000000000
1.8482815551009850 5.5160812668518560 0.0000000000000000
1.9887501291887071 5.3736325164862961 0.0000000000000000
1.7589012432435240 5.8519128596470589 0.0000000000000000
6.8673204387534073 8.0747537187163108 0.0000000000000000
7.0572277275533253 8.1253688454218338 0.0000000000000000
7.1992449973110251 7.9826311851274818 0.0000000000000000
7.2498881398681947 8.1759196258173823 0.0000000000000000
7.3924656097910741 8.0331674260007180 0.0000000000000000
6.9159807073243336 8.2645066659134034 0.0000000000000000
2.7566333999575861 1.6341094229394220 0.0000000000000000
8.2127149546541105 4.4877592900242398 0.0000000000000000
4.3855107181104307 1.7073341090420611 0.0000000000000000
1.6100094967357299 7.2440490637525716 0.0000000000000000
5.4991523035501970 1.8103892701165620 0.0000000000000000
5.3579254487326624 1.9503944142683269 0.0000000000000000
7.4452268361577660 8.2282087764856815 0.0000000000000000
7.5859246667294036 8.0861519005168994 0.0000000000000000
7.3025760613160928 8.3686336918139599 0.0000000000000000
4.1903528274188204 1.6563182399412659 0.0000000000000000
3.5822147216045481 2.0301184819229481 0.0000000000000000
1.6609808137806099 7.4352721496384842 0.0000000000000000
5.8216917839084781 4.9392706754509561 0.0000000000000000
3.6775918396494118 5.6341342800729501 0.0000000000000000
3.6244347218001818 5.4413278465133734 0.0000000000000000
4.5581213889490106 6.2212183565136829 0.0000000000000000
6.2665681162740912 7.2031209109666037 0.0000000000000000
2.2395008851308771 7.5865358714323294 0.0000000000000000
2.0990959317941820 7.7289105109343978 0.0000000000000000
7.4339194164454172 2.3168931077671351 0.0000000000000000
5.5258905309504209 6.4730573681656134 0.0000000000000000
5.7194443593507067 6.5234251704959920 0.0000000000000000
5.3323367025501369 6.4226895658352223 0.0000000000000000
3.4649633682524779 4.8629085458346779 0.0000000000000000
4.7094591202152927 2.8601029328641019 0.0000000000000000
4.7626162380645312 3.0529093664236728 0.0000000000000000
4.6222195275134830 3.1953479976528620 0.0000000000000000
5.6281379555081932 4.8889028731205606 0.0000000000000000
5.7153775482100233 4.5536578083318036 0.0000000000000000
6.7130589957872679 2.3075751512988920 0.0000000000000000
6.6569560781518167 2.1154258710392169 0.0000000000000000
7.3019245673649760 6.3982695745260223 0.0000000000000000
7.2487966699677688 6.2054972492063492 0.0000000000000000
3.4880903947313588 7.5536075422657243 0.0000000000000000
6.2387656807063232 2.5423773454791530 0.0000000000000000
4.8157733559137714 3.2457157999832469 0.0000000000000000
4.6753766453627197 3.3881544312124370 0.0000000000000000
5.1314479568528402 2.4335742943722658 0.0000000000000000
7.6659236640688322 3.8084264013794580 0.0000000000000000
7.4723698356685544 3.7580585990490749 0.0000000000000000
7.3319731251174911 3.9004972302782588 0.0000000000000000
7.2788160072682659 3.7076907967186781 0.0000000000000000
7.1384192967172080 3.8501294279478619 0.0000000000000000
4.1519390891518100 5.3996248199449859 0.0000000000000000
4.0987819713025821 5.2068183863854101 0.0000000000000000
3.8751698659432749 7.6543975755768461 0.0000000000000000
5.8557742587610822 4.4112191771026241 0.0000000000000000
4.2623187304731980 7.7550317150539279 0.0000000000000000
8.0923547577362296 5.3520538164314440 0.0000000000000000
8.1440116406599614 5.5430224585994319 0.0000000000000000
8.2838176593862158 5.4037461816094332 0.0000000000000000
8.0389637995711070 5.1589176212134138 0.0000000000000000
8.2999596016472807 4.1525184629332212 0.0000000000000000
8.3345562860354612 5.5917729661966646 0.0000000000000000
2.5620512400973952 1.5807375644249559 0.0000000000000000
4.5615749295444914 8.1933490899843111 0.0000000000000000
4.7021784289887476 8.0503535154290056 0.0000000000000000
4.6493614534089298 7.8560456361111202 0.0000000000000000
4.8425107687180713 7.9086756028283407 0.0000000000000000
2.8394080758367219 8.4553498951709045 0.0000000000000000
2.6494278790138601 8.4112101576162601 0.0000000000000000
4.4222480323406099 8.3328467998299978 0.0000000000000000
1.9654803489250761 6.6288858621560056 0.0000000000000000
4.5758873714590500 1.7563878016574690 0.0000000000000000
8.2466264259824076 3.9595644162355499 0.0000000000000000
5.6387694526869616 1.6708028236647441 0.0000000000000000
5.8307571329736252 1.7202926990159031 0.0000000000000000
5.4500099311264139 1.6186031640037091 0.0000000000000000
7.4957775200187378 8.4210097768473151 0.0000000000000000
1.5673599046047411 7.0529921168638703 0.0000000000000000
4.6111855176086163 8.3852938113899569 0.0000000000000000
1.6940321308314250 6.9164953934206039 0.0000000000000000
7.6586547581284830 1.8395808197581320 0.0000000000000000
7.7144616599238844 2.0303284090910338 0.0000000000000000
7.6058147709983608 1.6535070267494929 0.0000000000000000
7.4191525233298954 1.6077117528397531 0.0000000000000000
3.7224380744531498 1.8879150491213390 0.0000000000000000
8.1540843840227151 2.3295972133771379 0.0000000000000000
4.5224396233455630 1.5695680075449290 0.0000000000000000
3.2574084236172269 8.0377751379651805 0.0000000000000000
1.9053464129895730 7.6781898783157603 0.0000000000000000
1.9586744171254991 7.8711041727624051 0.0000000000000000
8.2013437193941048 7.7079027164941829 0.0000000000000000
8.1978794270670718 5.7344116540755694 0.0000000000000000
8.3903062375357731 5.7817145250741433 0.0000000000000000
8.2545064229415495 5.9256474493418807 0.0000000000000000
8.4474017308102205 5.9725462137442351 0.0000000000000000
7.5332824908729528 7.8912417979518583 0.0000000000000000
7.7273521835427852 7.9417028817059050 0.0000000000000000
2.1521868115016898 7.9217345118903539 0.0000000000000000
6.3253731184618696 7.3957401918247871 0.0000000000000000
3.4840380112491300 5.5837664777425449 0.0000000000000000
6.2128662518497126 7.0097736422758832 0.0000000000000000
6.0193998002737299 6.9594928854681486 0.0000000000000000
3.4308808933999000 5.3909600441829664 0.0000000000000000
6.7993671300418894 1.9723009588411320 0.0000000000000000
5.6812950733574201 5.0817093066801329 0.0000000000000000
5.8748489017577059 5.1320771090105461 0.0000000000000000
7.8213282064758012 2.4170783398940738 0.0000000000000000
4.4818228169624330 3.3377866288820508 0.0000000000000000
4.5349799348116697 3.5305930624416271 0.0000000000000000
4.3414261064113822 3.4802252601112378 0.0000000000000000
4.3945832242606171 3.6730316936708149 0.0000000000000000
4.9911843637991860 2.5761441348007490 0.0000000000000000
7.3550743941225933 6.5910729106888741 0.0000000000000000
7.5429723666659472 6.6505611508540561 0.0000000000000000
2.0034703282994131 4.1248074008529114 0.0000000000000000
1.8080541329415249 4.0749720189648908 0.0000000000000000
1.8629645602238121 4.2672772098557470 0.0000000000000000
1.6702163218792700 4.2163665756917723 0.0000000000000000
1.7230955110335100 4.4090665871270751 0.0000000000000000
1.6159686894904179 4.0270448023172563 0.0000000000000000
1.9164880536097619 4.4599014179329952 0.0000000000000000
1.7745633795491409 4.6013021583478793 0.0000000000000000
1.5806773102235070 4.5494088142706106 0.0000000000000000
1.9694215875442660 4.6525942685791000 0.0000000000000000
3.1460206611570651 3.7060699444772340 0.0000000000000000
8.0721413439055354 4.6300496018323827 0.0000000000000000
2.4590457859547650 3.1694040470173879 0.0000000000000000
3.4949617045360011 2.3651384045591848 0.0000000000000000
7.1915764145664420 4.0429358615074404 0.0000000000000000
6.9980225861661554 3.9925680591770440 0.0000000000000000
4.2010293958603251 3.6226638913404270 0.0000000000000000
5.3854938203993674 6.6154959993947999 0.0000000000000000
5.1919399919990772 6.5651281970644062 0.0000000000000000
4.5731292208049457 4.9723089262574351 0.0000000000000000
7.8446264324167014 5.1078450542748968 0.0000000000000000
4.3986500354013174 5.6427990558349546 0.0000000000000000
5.9811631374561758 5.5176899761297289 0.0000000000000000
6.0984148532521889 2.6846396567448538 0.0000000000000000
6.2919633948814351 2.7350277751249079 0.0000000000000000
6.1515734503846904 2.8774404057017882 0.0000000000000000
2.9333919455632542 2.9348451491397789 0.0000000000000000
5.2791795847009020 6.2298831322756500 0.0000000000000000
2.7248305295039001 4.1333858381647879 0.0000000000000000
2.7479719836412690 6.8240111322368451 0.0000000000000000
2.1823159348451111 5.4239986322939622 0.0000000000000000
2.1291584177540051 5.2311922549518108 0.0000000000000000
1.9356045228134080 5.1808244619909880 0.0000000000000000
3.5481361498135882 2.5578961188817750 0.0000000000000000
2.5012348346243640 6.5808783828642987 0.0000000000000000
4.6019551814081492 2.4748094144854629 0.0000000000000000
2.0760037943272400 5.0383936902615094 0.0000000000000000
4.9030129486155776 2.9104707351944810 0.0000000000000000
3.5371951290983561 5.7765729113021340 0.0000000000000000
7.1083975384004479 6.3479384677454593 0.0000000000000000
7.0511797040153823 4.1853744927366208 0.0000000000000000
6.8576258756150930 4.1350066904062270 0.0000000000000000
6.8044687577658616 3.9422002568466490 0.0000000000000000
6.9107829934643208 4.3278131239658011 0.0000000000000000
6.7172291650640350 4.2774453216354136 0.0000000000000000
4.2541865137095547 3.8154703248999988 0.0000000000000000
2.3946989650961572 6.1952994495918858 0.0000000000000000
7.1424861078578807 5.8198967901120513 0.0000000000000000
2.2884564939291181 5.8096599476876003 0.0000000000000000
4.2923357997028626 5.2571861887158011 0.0000000000000000
6.8235434007624960 4.6630581887545830 0.0000000000000000
4.4477403421098440 3.8658381272303881 0.0000000000000000
4.7285337632119511 3.5809608647720141 0.0000000000000000
6.4323592243039842 2.5925925299039929 0.0000000000000000
5.4877412449571370 5.0313415043497427 0.0000000000000000
5.4345841271079074 4.8385350707901713 0.0000000000000000
5.6622204303607946 4.3608513747722331 0.0000000000000000
8.0530432546128576 3.9091720117154769 0.0000000000000000
6.4610906004790154 7.2515963240711452 0.0000000000000000
4.7897349713665038 7.7137807107983090 0.0000000000000000
5.8026171409118437 4.2184127435430634 0.0000000000000000
5.9961709693121286 4.2687805458734536 0.0000000000000000
5.5218237198097428 4.5032900060014152 0.0000000000000000
4.5962446963825254 7.6630648320561816 0.0000000000000000
4.9832849343345460 7.7641774641147698 0.0000000000000000
5.0361521324363139 7.9591756328997656 0.0000000000000000
5.1768527077157849 7.8145721295663542 0.0000000000000000
5.2301149231876991 8.0073547054653176 0.0000000000000000
8.4401820795434617 4.0099337488456790 0.0000000000000000
2.7040740015094680 1.4403689693206401 0.0000000000000000
2.9020867448968088 1.4912135142494960 0.0000000000000000
7.8580508115979733 1.8850865958813969 0.0000000000000000
8.3405609098253457 2.3782008621746908 0.0000000000000000
8.3904171070521159 2.5638501473334210 0.0000000000000000
1.8953440598854490 3.7397125644344449 0.0000000000000000
2.0375174966488232 3.5967661490687042 0.0000000000000000
8.3120059491102651 6.1156223616107219 0.0000000000000000
6.6042248882303660 1.9233757931572839 0.0000000000000000
6.7431104622204021 1.7828378186616540 0.0000000000000000
1.8608340410185540 6.2350262903843294 0.0000000000000000
7.3572264434287007 8.5574317626377905 0.0000000000000000
7.1602235010811350 8.5097037455092508 0.0000000000000000
2.0111752094940329 8.0635249541154099 0.0000000000000000
2.2090807457832078 8.1227866251874019 0.0000000000000000
1.4157093906469700 7.1697279879148237 0.0000000000000000
8.4710560503114589 5.4535525146510189 0.0000000000000000
4.4764916121906122 8.5203013112046708 0.0000000000000000
4.2837025654955099 8.4716544591003000 0.0000000000000000
1.5196395078768890 6.8677189463658417 0.0000000000000000
2.7044690322356351 8.5953457212422126 0.0000000000000000
8.2662368388093697 4.6783634871847637 0.0000000000000000
8.4049690861092792 4.5386644397510523 0.0000000000000000
3.0255960569580869 8.5023877077629315 0.0000000000000000
3.1639879671329911 8.3684192315250314 0.0000000000000000
1.8315748831853329 4.7928494986725729 0.0000000000000000
8.1922667684317183 3.7712274015039169 0.0000000000000000
7.9996826481459529 3.7171079112086720 0.0000000000000000
8.1385967882260459 3.5784976843451419 0.0000000000000000
6.7308290819066077 8.2154669802625655 0.0000000000000000
6.7807439729658494 8.4027761027815284 0.0000000000000000
8.5441182115774570 2.4197622132482470 0.0000000000000000
8.5809920427244304 2.6151063536396491 0.0000000000000000
8.4437031944736098 2.7564574856832320 0.0000000000000000
7.7798059600521361 8.1341792278487564 0.0000000000000000
7.9214152675603113 7.9922258811812883 0.0000000000000000
2.5165862773675500 8.5487822101922468 0.0000000000000000
2.4627703348427228 8.3690916297903826 0.0000000000000000
3.9158864719088560 1.9378309855883420 0.0000000000000000
3.8614280401025090 1.7461009455009779 0.0000000000000000
7.9093016942488763 2.0769573145318621 0.0000000000000000
8.0578189621365066 1.9346643950168980 0.0000000000000000
7.4070741174385564 6.7845819031073997 0.0000000000000000
3.2904841828488478 5.5333986754121511 0.0000000000000000
6.0533948983016330 6.4313543415987340 0.0000000000000000
5.3703313998067053 7.8644360874641821 0.0000000000000000
5.4231804472840999 8.0572409549851507 0.0000000000000000
5.2851160854095083 8.1989679243315514 0.0000000000000000
5.4758670691909170 8.2492648929964503 0.0000000000000000
5.3359121130204432 8.3863013711897256 0.0000000000000000
5.5235944524784202 8.4377179914508158 0.0000000000000000
5.6662715981135747 8.3003274870627166 0.0000000000000000
7.3701224111107626 5.3422130940940971 0.0000000000000000
7.0552465151560781 6.1551418549008234 0.0000000000000000
2.4865630657941300 7.8307145478766254 0.0000000000000000
3.8520710250530401 4.9636441504954600 0.0000000000000000
7.0852621788679793 3.6573229943882848 0.0000000000000000
7.2256588894190239 3.5148843631591031 0.0000000000000000
8.1262060462110934 4.8220910150011704 0.0000000000000000
3.9924677356040918 4.8212055192662726 0.0000000000000000
5.6853618844980973 7.0514766688443311 0.0000000000000000
6.9148487888375492 6.2975788493441849 0.0000000000000000
5.6322047666488597 6.8586702352847553 0.0000000000000000
5.2695638691784126 2.2887797675127488 0.0000000000000000
5.0739258782104359 2.2417574051233702 0.0000000000000000
7.9464061384677169 3.5244379858913599 0.0000000000000000
8.0871137957220132 3.3811105076919130 0.0000000000000000
6.5157933149031777 2.2594303187389642 0.0000000000000000
3.3545794335085759 2.5075364364242181 0.0000000000000000
3.4077389579450830 2.7003361034230990 0.0000000000000000
5.3664191774027312 5.8946380674868948 0.0000000000000000
4.2391786818536303 5.0643797551562280 0.0000000000000000
6.1065520161507809 6.6241607751585549 0.0000000000000000
7.6127665462196186 3.6156199678198981 0.0000000000000000
3.7116743145019928 5.1060827817246324 0.0000000000000000
4.7366481337373694 7.5205971390777950 0.0000000000000000
5.5856566501416873 1.4872930752389890 0.0000000000000000
5.3994532568896201 1.4341240538709210 0.0000000000000000
3.6499730391967149 8.1356951252902885 0.0000000000000000
8.6327746271219699 2.8052436028041430 0.0000000000000000
8.4965731373482996 2.9508360838032650 0.0000000000000000
7.5721578325077950 1.4523628136766920 0.0000000000000000
7.3691309948500852 1.4217342959394179 0.0000000000000000
7.2250898258761298 1.5600880690673671 0.0000000000000000
7.1678076826747166 1.3742710207286410 0.0000000000000000
7.0205128770279446 1.5124817699873330 0.0000000000000000
8.4563748797725964 4.7194871667453038 0.0000000000000000
5.7186148618385317 8.4831566050205858 0.0000000000000000
5.8589619304128524 8.3520813236648621 0.0000000000000000
5.8080847899768884 8.1608478862742224 0.0000000000000000
6.0001054649969348 8.2149539629158976 0.0000000000000000
6.0495844110125647 8.4040047430439468 0.0000000000000000
6.1878345978783713 8.2698663520413689 0.0000000000000000
6.1437754157546793 8.0772939987199734 0.0000000000000000
6.3316593926905940 8.1317697904145572 0.0000000000000000
6.2894556998599436 7.9340159376176276 0.0000000000000000
8.4853587181594676 4.2060276740493583 0.0000000000000000
1.8522726682368671 3.5441081367940042 0.0000000000000000
1.9860889451563510 3.4038903419307802 0.0000000000000000
1.8021955744773119 3.3504791041811171 0.0000000000000000
1.9339096157170750 3.2120821827978290 0.0000000000000000
1.7420188194338710 3.1611071706077669 0.0000000000000000
1.8796421240631369 3.0210383767315081 0.0000000000000000
1.6870240875377731 2.9714022826039099 0.0000000000000000
1.8262488484073980 2.8300575351893671 0.0000000000000000
1.6338430748131050 2.7799156074849920 0.0000000000000000
1.7735326726007159 2.6381183504238961 0.0000000000000000
1.5818579068567020 2.5875731855445179 0.0000000000000000
1.7208386753411371 2.4458287885686421 0.0000000000000000
1.9136734092019820 2.4961880759509820 0.0000000000000000
1.8607954071539790 2.3037485774428799 0.0000000000000000
1.5534775943173300 3.1137084418296470 0.0000000000000000
2.0726734822583590 3.0701540008699610 0.0000000000000000
2.0535348105891038 2.3537391998845290 0.0000000000000000
2.0009426038500919 2.1614681531482058 0.0000000000000000
2.1943268686315589 2.2120265085997288 0.0000000000000000
2.1417312769848742 2.0167447816587520 0.0000000000000000
1.9480050305285750 1.9684058367738839 0.0000000000000000
1.4409095864962309 2.7299192213724921 0.0000000000000000
1.5307799635594530 2.4018232218560258 0.0000000000000000
2.1059991691174380 2.5447264588721290 0.0000000000000000
3.5269942795519822 1.8459240945959090 0.0000000000000000
3.3883589601300779 1.9812692954923179 0.0000000000000000
3.3342129705610550 1.7910286956340229 0.0000000000000000
8.4884149719551427 6.1638378085929588 0.0000000000000000
2.3430524120947762 8.5146632172491152 0.0000000000000000
4.7082329919225900 1.6218448601531770 0.0000000000000000
4.7645163388453406 1.8044981075190449 0.0000000000000000
4.6351529557647462 1.4361673328886579 0.0000000000000000
4.4630843568933303 1.3858438264778190 0.0000000000000000
1.6393518994010681 6.7420895379934489 0.0000000000000000
1.4875803089164610 4.1681374394061930 0.0000000000000000
1.4448428647201641 3.9815936093342690 0.0000000000000000
1.5780367178657440 3.8494442076955271 0.0000000000000000
5.5823993999051940 8.6323831284126396 0.0000000000000000
7.9801448926958054 8.1802106308922138 0.0000000000000000
8.1138237859146010 8.0424984024794792 0.0000000000000000
8.1742056557998808 8.2279870780714557 0.0000000000000000
5.2770617924023684 1.5605621316865761 0.0000000000000000
4.6501828748275038 8.5639209756251660 0.0000000000000000
2.0864229684560831 1.8299694946939860 0.0000000000000000
1.8918865683945589 1.7868251811561711 0.0000000000000000
1.8273624830513759 8.0215262901144300 0.0000000000000000
1.8690070720664840 8.2039257941327044 0.0000000000000000
1.6961093989100711 8.1642498273444719 0.0000000000000000
1.7336845678939521 8.3354344115244583 0.0000000000000000
1.5612054703594700 8.2897403829583993 0.0000000000000000
1.6064923547793879 8.4587846520559538 0.0000000000000000
1.4375223787680900 8.4149115129958609 0.0000000000000000
1.4824595177527780 8.5836683731694947 0.0000000000000000
1.7749630666844221 8.4987833577346343 0.0000000000000000
1.2518855355322640 8.5152534031883675 0.0000000000000000
8.4206642091804085 5.2731528451512819 0.0000000000000000
3.2306481389291308 8.5663006534122967 0.0000000000000000
8.5839643629373441 4.5924346856679694 0.0000000000000000
7.2174235296308176 8.6916829232371757 0.0000000000000000
7.3220705788081668 1.2053969899040970 0.0000000000000000
2.8407099782219620 1.3005344562084611 0.0000000000000000
8.6367402410765326 4.0888680052128823 0.0000000000000000
8.5720623980250910 3.8973531161260691 0.0000000000000000
7.5482304620871981 8.6093063617147259 0.0000000000000000
7.6748130284794147 8.4672558146026802 0.0000000000000000
2.4840418507216580 1.3753750760876471 0.0000000000000000
2.3620008726487081 1.5302574337468919 0.0000000000000000
6.2377878337450783 8.4566639726921675 0.0000000000000000
6.1034847688667684 8.5887968299481194 0.0000000000000000
1.7437108089833311 1.9167866615654461 0.0000000000000000
1.7005124814183790 1.7259480812222090 0.0000000000000000
8.5912158046750520 5.2939561889394593 0.0000000000000000
8.6666786686106096 5.4714970192758194 0.0000000000000000
2.2436894705580812 8.3505283805865247 0.0000000000000000
7.0202215043478642 8.6336953755136321 0.0000000000000000
8.6426536029199799 6.0566505744147534 0.0000000000000000
7.7454115147656584 1.5262104661942999 0.0000000000000000
8.8307083648904925 7.3496605349738333 0.0000000000000000
6.9675507201104381 8.4550715032878188 0.0000000000000000
6.8484629977336384 8.5791869434226946 0.0000000000000000
2.4014330412740419 8.1817651641188682 0.0000000000000000
8.2908813540818826 2.1905259703899258 0.0000000000000000
6.6533850393893150 8.5525625717874991 0.0000000000000000
6.4803259574505674 7.9816269655673464 0.0000000000000000
4.7992789418393569 8.4460891967081597 0.0000000000000000
4.7492291294539211 8.2457556235621716 0.0000000000000000
2.4183406777756682 1.7151176094365590 0.0000000000000000
5.3099447480949413 1.7510901918752819 0.0000000000000000
5.1653741427544801 1.8942370187569599 0.0000000000000000
4.8912916968837648 8.1000524710625399 0.0000000000000000
5.9140581928603391 8.5284552259150921 0.0000000000000000
1.3950528081695011 8.2213595808521376 0.0000000000000000
2.1987911032887011 1.6607853708115230 0.0000000000000000
3.1161537316814498 8.1772502708461321 0.0000000000000000
3.3084746487081071 8.2277660593149680 0.0000000000000000
1.8607871140563090 1.5927822581561910 0.0000000000000000
1.6539529024801920 1.5420225794339710 0.0000000000000000
1.5088963070396659 1.6748680596837939 0.0000000000000000
1.4632808556418730 1.4848350951523290 0.0000000000000000
8.6267900787323590 7.2776547541664396 0.0000000000000000
8.5649702673783761 7.0754176883262412 0.0000000000000000
8.3742401008607068 7.0359847138531144 0.0000000000000000
8.4982829635292276 6.8897123393257083 0.0000000000000000
8.3140224017492006 6.8528414865637117 0.0000000000000000
8.4289965873096424 6.6824492087821756 0.0000000000000000
8.2395326005081131 6.6672467475071118 0.0000000000000000
8.1235953723410468 6.8179697879341834 0.0000000000000000
8.0574234267309368 6.6303070980115288 0.0000000000000000
7.9280732370186264 6.7774466292529620 0.0000000000000000
8.1941718646459201 6.4743339687457571 0.0000000000000000
7.8627399938101554 6.5911778410513140 0.0000000000000000
1.6986281038390980 3.6756689870180632 0.0000000000000000
1.7574724812015829 3.8832125399956809 0.0000000000000000
8.3020984657669690 8.0923853953331513 0.0000000000000000
8.3511997325706915 8.2755117497589303 0.0000000000000000
8.2330178351891377 8.4074436675666888 0.0000000000000000
8.4052252251933464 8.4512129906655229 0.0000000000000000
8.5516692311885532 8.3116623449876403 0.0000000000000000
8.5869343561745310 8.5005765274677003 0.0000000000000000
8.2562851145736182 8.5769066547767281 0.0000000000000000
7.1089078095422531 8.3165340129606058 0.0000000000000000
8.3834034306935532 3.8304706315873851 0.0000000000000000
7.6349969008159722 8.2793051311791483 0.0000000000000000
5.5329048413361166 1.3032685304648111 0.0000000000000000
1.4307628224127329 6.7094967524372038 0.0000000000000000
1.8261114506282770 6.7760230230745577 0.0000000000000000
1.7387426252831539 6.5759559269432977 0.0000000000000000
8.2308419914702586 5.2226399957220639 0.0000000000000000
1.6564849635417260 2.2565450696542229 0.0000000000000000
8.2166398348558012 5.0223416264535139 0.0000000000000000
1.4976806636972970 2.9245727333962099 0.0000000000000000
1.3409675192563959 2.8727721895044001 0.0000000000000000
1.2213183350034080 2.7015963393633591 0.0000000000000000
6.0977880623036276 7.8818942847876698 0.0000000000000000
6.2426168571868574 7.7373779208367406 0.0000000000000000
7.7320943912125113 6.7336989164598888 0.0000000000000000
5.8996187418384363 7.8271500898846940 0.0000000000000000
8.7603713463561803 2.6513898130673490 0.0000000000000000
6.9348703936228322 1.8336510080942920 0.0000000000000000
1.6020269460358869 3.3266869221962159 0.0000000000000000
1.4222828386416650 3.2508837548431111 0.0000000000000000
1.3413394485820920 3.0681720484932180 0.0000000000000000
6.5325604200372478 8.1690053616326708 0.0000000000000000
8.2543033632614300 7.9002345765304023 0.0000000000000000
8.1166810811166190 6.0699714447528699 0.0000000000000000
8.1748073473585610 6.2621883694201443 0.0000000000000000
3.4552271038844160 8.0835945027153855 0.0000000000000000
8.4675282621018102 2.2495356155026021 0.0000000000000000
8.2536757749662844 1.9927937822222961 0.0000000000000000
8.3930996943824567 1.8628933610880241 0.0000000000000000
8.2129878984321678 1.8033452882822560 0.0000000000000000
8.3482659497950653 1.6763202568811491 0.0000000000000000
8.5315363186556077 1.7304785902169610 0.0000000000000000
8.4797531922278218 1.5491980557753491 0.0000000000000000
8.3055148270977615 1.4997728105399599 0.0000000000000000
8.4267510045824743 1.3587119134127801 0.0000000000000000
8.6103563861983350 1.4064408715955070 0.0000000000000000
8.0142653001166355 1.7438761525316751 0.0000000000000000
7.9697296204963353 6.2205991096938984 0.0000000000000000
2.0241124139124000 6.8194149741397494 0.0000000000000000
6.5486179454698892 1.7337195548318900 0.0000000000000000
6.4014169396871994 1.8709072264127591 0.0000000000000000
6.6805194480163701 1.5722505861129119 0.0000000000000000
6.8745321840181157 1.6434987648478740 0.0000000000000000
6.8357116293510636 1.4521237636079429 0.0000000000000000
6.9606951513305093 1.3256086020506330 0.0000000000000000
5.7790229342878217 1.5375717172963990 0.0000000000000000
5.9716089817639304 1.5837765812859981 0.0000000000000000
6.0219004959765181 1.7667445059820770 0.0000000000000000
6.1561930088540979 1.6326516400334781 0.0000000000000000
6.1176279583620126 1.4412994699781769 0.0000000000000000
5.9182155687585416 1.3918342007926010 0.0000000000000000
6.2085486907409209 1.8178865932341690 0.0000000000000000
6.0738254620132546 1.9602463549679270 0.0000000000000000
6.2648432197165977 2.0148883730200140 0.0000000000000000
2.3346408262900180 2.0639390465314071 0.0000000000000000
6.9918984049535888 2.0225607306222568 0.0000000000000000
1.3793011633608481 2.5387002222048118 0.0000000000000000
1.3509411882492941 2.3612893650924822 0.0000000000000000
1.4549379119312971 2.2185131688066728 0.0000000000000000
3.0562482287405861 1.3278007189414480 0.0000000000000000
3.0966272131263670 1.5340456085247549 0.0000000000000000
3.2451969381493702 1.4060575485682700 0.0000000000000000
3.3170162660000870 1.5910348864739070 0.0000000000000000
8.0621718793138708 7.8500592047736664 0.0000000000000000
4.1092143828926648 1.9883557361733630 0.0000000000000000
5.9371806106052780 2.1056665484401909 0.0000000000000000
1.7933231356762840 2.1094923830974390 0.0000000000000000
1.9087414987593680 6.4285848193230963 0.0000000000000000
1.0217539898578969 2.6252287413739710 0.0000000000000000
6.4611905906625893 2.0665358406357419 0.0000000000000000
7.8053661926011850 1.6997101768524989 0.0000000000000000
8.2448233213588988 1.3162907664400390 0.0000000000000000
1.5349939727799620 4.3602437346409308 0.0000000000000000
1.3646057143558961 4.5215335827084324 0.0000000000000000
1.4509430476911289 4.7314973794472408 0.0000000000000000
1.6409724484284260 4.7421932125366340 0.0000000000000000
8.6783045468071016 3.0188074768907489 0.0000000000000000
8.5539737564294001 3.1409693367668901 0.0000000000000000
8.3668429714044024 3.0932214946979220 0.0000000000000000
8.4301754892961167 3.2926298548937121 0.0000000000000000
8.2309125360793338 3.2371542118936381 0.0000000000000000
8.1752048563618462 3.0453715380332000 0.0000000000000000
3.0658977315008369 7.9827804120617802 0.0000000000000000
5.7571248322831368 7.9678737882266706 0.0000000000000000
8.0591144748540362 5.8781035197110647 0.0000000000000000
1.8527486206031540 7.4855168576176441 0.0000000000000000
1.7126784103290040 7.6254640179355206 0.0000000000000000
1.5248371953152431 7.5678039010322191 0.0000000000000000
1.4726859307972791 7.3858310750209046 0.0000000000000000
1.2831912788218740 7.3518335561381418 0.0000000000000000
3.1506160896575759 1.7296780497734221 0.0000000000000000
5.0873598998008376 8.1486249908078285 0.0000000000000000
8.5321576671837676 4.4014417893799136 0.0000000000000000
6.1862673241879360 7.5398960695711086 0.0000000000000000
6.3800550128447089 7.5859924750570329 0.0000000000000000
5.2149228055474044 2.0956834792177501 0.0000000000000000
5.0208052051114169 2.0461822682616440 0.0000000000000000
4.9651222614287267 1.8550942366344629 0.0000000000000000
3.9691515716351269 2.1304046659351110 0.0000000000000000
4.8806901903689814 2.1903645678616290 0.0000000000000000
7.7693884884871682 2.2226796619031481 0.0000000000000000
6.2835434092946354 1.5159608563541720 0.0000000000000000
8.0042705658556716 5.6855475050217459 0.0000000000000000
1.7431828529453570 7.8455333245145349 0.0000000000000000
7.8680396513378774 7.7987528136665656 0.0000000000000000
8.3505078818302465 4.3466521821550170 0.0000000000000000
8.3951434997725904 7.7565877087292820 0.0000000000000000
7.6741629841256831 7.7484292260681720 0.0000000000000000
8.0994749718310324 8.5302854312364218 0.0000000000000000
4.1627638280174111 2.1808556069090450 0.0000000000000000
8.6009841913897169 5.8287233243169947 0.0000000000000000
7.4804282513962486 7.6979491572337064 0.0000000000000000
3.1967118777252379 1.9285474607087889 0.0000000000000000
2.9535140730307319 1.6827490880918281 0.0000000000000000
3.6507165272221052 1.6745267167265669 0.0000000000000000
3.8096294083196982 1.5538462718668189 0.0000000000000000
3.9984568838219898 1.6070173356511199 0.0000000000000000
3.9419548183405149 1.4292011576132599 0.0000000000000000
4.1410851474985728 1.4747423274216320 0.0000000000000000
4.0542251352455843 1.7973274443333209 0.0000000000000000
2.5958183098388590 8.2216206324174212 0.0000000000000000
7.5745472156884057 2.1740037719556251 0.0000000000000000
8.2374307692447530 7.1802914070918753 0.0000000000000000
7.1465452922659027 7.7897606962151240 0.0000000000000000
7.0934504429492842 7.5968971142313819 0.0000000000000000
7.8645054330536794 5.8283728442491682 0.0000000000000000
2.3461331056319681 7.9736653909098836 0.0000000000000000
7.6276923269332721 2.3667777801565788 0.0000000000000000
7.4866935278201137 2.5095128743308979 0.0000000000000000
7.2869264111843011 7.6473645794717520 0.0000000000000000
7.6209906876574731 7.5553059183726514 0.0000000000000000
8.7965164106875502 7.0966440227661591 0.0000000000000000
7.2337962008094552 7.4544738970729414 0.0000000000000000
7.8507259143828749 7.0849794479335957 0.0000000000000000
4.2289776240978174 8.2826555843902891 0.0000000000000000
4.0887520816286891 8.4253187238497578 0.0000000000000000
3.8959730427821762 8.3773198070135138 0.0000000000000000
3.9613821704317722 8.5727929823506059 0.0000000000000000
3.7549704905552201 8.5191689717635217 0.0000000000000000
3.6982353467496001 8.3221533751827081 0.0000000000000000
3.8411824800368621 8.1844159491938466 0.0000000000000000
7.4571428305841980 6.9786035869531080 0.0000000000000000
6.6540825154379597 7.3012808915179237 0.0000000000000000
6.7936865737737584 7.1605384505932292 0.0000000000000000
2.2926824991963990 7.7793833392753156 0.0000000000000000
7.2669609396069461 6.9267881980868156 0.0000000000000000
7.8935521927670074 3.3309348213427370 0.0000000000000000
8.0347011799417274 3.1880372980263769 0.0000000000000000
7.8405450311231597 3.1379484162020121 0.0000000000000000
7.9808195319198134 2.9951590698148740 0.0000000000000000
5.7344521912066568 5.2745157402397354 0.0000000000000000
5.9280060196069408 5.3248835425701433 0.0000000000000000
6.1215598480072284 5.3752513449005406 0.0000000000000000
6.0684027301579953 5.1824449113409496 0.0000000000000000
6.2619565585582819 5.2328127136713496 0.0000000000000000
7.0211640374320989 6.6831933635088463 0.0000000000000000
2.2695596074507489 5.0887568348564152 0.0000000000000000
7.0321050610187399 3.4645165608287170 0.0000000000000000
7.1725017715697827 3.3220779295995388 0.0000000000000000
6.3001058445359890 6.6745285775428780 0.0000000000000000
5.2450971098483059 6.7579346306239874 0.0000000000000000
5.0515432814480228 6.7075668282936007 0.0000000000000000
4.9983861635987914 6.5147603947340169 0.0000000000000000
4.8579894530477397 6.6571990259632088 0.0000000000000000
4.8048323351985092 6.4643925924036312 0.0000000000000000
4.6644356246474530 6.6068312236328204 0.0000000000000000
7.4192127178193168 3.5652521654895071 0.0000000000000000
7.9318723107375364 4.7723409537402937 0.0000000000000000
3.9774599037481528 6.0701149495225044 0.0000000000000000
3.7839060753478688 6.0197471471921142 0.0000000000000000
4.0306170215973864 6.2629213830820829 0.0000000000000000
4.2241708499976678 6.3132891854124757 0.0000000000000000
4.0837741394466152 6.4557278166416676 0.0000000000000000
4.2773279678468974 6.5060956189720596 0.0000000000000000
4.1369312572958439 6.6485342502012541 0.0000000000000000
3.8902203110463320 6.4053600143112668 0.0000000000000000
3.2373270655854531 5.3405922416910698 0.0000000000000000
3.3777237756483109 5.1981536105964832 0.0000000000000000
3.1841699478501200 5.1477858081001067 0.0000000000000000
6.5086675048078009 5.4759869495613192 0.0000000000000000
7.1574939397138291 4.5709873598557849 0.0000000000000000
1.7951934284649660 5.3232651186090427 0.0000000000000000
1.6549094681677270 5.4656231154158226 0.0000000000000000
1.6112012641637561 5.2848799036504266 0.0000000000000000
1.4666694252425430 5.4200324051002804 0.0000000000000000
1.5180885671562070 5.6079988160968366 0.0000000000000000
1.3147698899930120 5.5620739688848007 0.0000000000000000
1.7242668958616680 5.1204442605320466 0.0000000000000000
1.8824502661975870 4.9880176255398876 0.0000000000000000
2.0231831465000440 4.8451651694813416 0.0000000000000000
2.1632652801291430 4.7030485346586151 0.0000000000000000
2.1100409795512420 4.5102773054095202 0.0000000000000000
1.7081324146588810 5.6585937080978326 0.0000000000000000
1.5709550427415999 5.8001423580393396 0.0000000000000000
1.6181697806866531 5.9919335946224841 0.0000000000000000
1.4441130659249850 5.9263990134289521 0.0000000000000000
1.4658036556898411 6.1197138532222626 0.0000000000000000
1.6754037592877080 6.1763439613891880 0.0000000000000000
1.8118183672660380 6.0421235416371957 0.0000000000000000
6.8616925174612078 6.1047737797727937 0.0000000000000000
6.6681388301397213 6.0544062047738247 0.0000000000000000
7.1956426134423523 6.0127011556674859 0.0000000000000000
4.2882689885621446 3.2874188265516628 0.0000000000000000
3.5562697720950380 6.4974308432100560 0.0000000000000000
3.7307489574986330 5.8269407136325402 0.0000000000000000
3.5903522469475839 5.9693793448617223 0.0000000000000000
3.6435093647968189 6.1621857784212972 0.0000000000000000
3.4499555363971219 6.1118179760907534 0.0000000000000000
5.4686666019605008 4.3104835724418553 0.0000000000000000
3.5031126542464581 6.3046244096502981 0.0000000000000000
5.0324686384513964 5.9867088963857009 0.0000000000000000
7.5405301038599069 2.7020678572255670 0.0000000000000000
7.3360393292945174 5.8702643869823996 0.0000000000000000
4.2964026108435194 7.2269535508799958 0.0000000000000000
4.1560059002924596 7.3693921821091717 0.0000000000000000
3.9624520718921832 7.3190243797787664 0.0000000000000000
4.3495597286927747 7.4197599844395228 0.0000000000000000
2.3414825654355269 6.0025053220986253 0.0000000000000000
2.4821058626683650 5.8600017164353169 0.0000000000000000
7.7040994523368500 5.2501685616718916 0.0000000000000000
7.5636809768204003 5.3925876161064128 0.0000000000000000
4.8689304737630001 3.4385222335428240 0.0000000000000000
5.0093271843140528 3.2960836023136322 0.0000000000000000
3.3627159436963381 6.4470630408792324 0.0000000000000000
6.0152456123087656 4.9896384777813578 0.0000000000000000
4.8500111345133083 2.7178173790340838 0.0000000000000000
5.2641717528449572 7.4787925625318943 0.0000000000000000
3.4118062504032349 4.6701021122751110 0.0000000000000000
3.3586491325540000 4.4772956787155378 0.0000000000000000
3.2182524220029500 4.6197343099447252 0.0000000000000000
3.1650953041537169 4.4269278763851512 0.0000000000000000
3.0246986101726940 4.5693665030459423 0.0000000000000000
6.2578897474175559 3.2630453515071922 0.0000000000000000
6.1174930368665112 3.4054839827363850 0.0000000000000000
6.0643359190172621 3.2126775491768118 0.0000000000000000
3.1500874725325012 5.6758373065766508 0.0000000000000000
6.3532629623852914 6.8673350111021962 0.0000000000000000
2.8352115763445709 6.4887660674476679 0.0000000000000000
7.3169652932615268 5.1494066605345186 0.0000000000000000
3.3054920147047642 4.2844892451559629 0.0000000000000000
3.1119381863044802 4.2341214428255780 0.0000000000000000
3.2523348968555230 4.0916828115963888 0.0000000000000000
3.0587810684552359 4.0413150092660022 0.0000000000000000
3.3927316074065761 3.9492441803671992 0.0000000000000000
5.2369634875669080 2.8183999062956748 0.0000000000000000
3.2564017080205021 6.0614501737538404 0.0000000000000000
6.5721109304934098 2.4504590342671442 0.0000000000000000
4.5881370526608967 3.7233994960011980 0.0000000000000000
4.2351118707129114 3.0946123929920870 0.0000000000000000
4.1478722780110910 3.4298574577808498 0.0000000000000000
4.0074755674600304 3.5722960890100341 0.0000000000000000
3.9543184496107990 3.3794896554504552 0.0000000000000000
2.0568338152001151 4.3175373199270046 0.0000000000000000
6.7703862829132628 4.4702517551949974 0.0000000000000000
6.5768324545129770 4.4198839528646179 0.0000000000000000
6.5236753366637474 4.2270775193050341 0.0000000000000000
6.6640720472148063 4.0846388880758413 0.0000000000000000
6.6109149293655634 3.8918324545162761 0.0000000000000000
6.7513116399166364 3.7493938232870732 0.0000000000000000
3.2141852340891561 2.6499685273579572 0.0000000000000000
3.2673427287114900 2.8427733813401530 0.0000000000000000
4.9943193524581000 4.5449930325698764 0.0000000000000000
3.2714095398521881 4.8125407435042904 0.0000000000000000
4.7326005743526487 5.5507282269361617 0.0000000000000000
3.0478400477399958 7.2599918016863940 0.0000000000000000
3.2413938761402750 7.3103596040167762 0.0000000000000000
3.3817905866913391 7.1679209727875923 0.0000000000000000
2.4479329922650792 6.3881067531281932 0.0000000000000000
3.1991777790062899 3.8988763780368139 0.0000000000000000
5.9129981877508344 6.5737929728269329 0.0000000000000000
4.1669469210077281 4.1507153896887514 0.0000000000000000
2.1972598885100010 4.1751048918023113 0.0000000000000000
5.2069478238550371 5.3162187668081744 0.0000000000000000
5.3473445344060879 5.1737801355789879 0.0000000000000000
5.1537907060058004 5.1234123332486030 0.0000000000000000
6.9448654683169231 3.7997616256174682 0.0000000000000000
3.0969303560654322 5.4830308726360109 0.0000000000000000
4.9561700664648161 3.1032771687540550 0.0000000000000000
6.2769643904142196 3.9839032834150969 0.0000000000000000
6.6490642153588606 5.3335483183321193 0.0000000000000000
6.4555103869585686 5.2831805160017362 0.0000000000000000
3.9092949540429549 7.1262179462192039 0.0000000000000000
5.1387828741498467 6.3723217635048366 0.0000000000000000
5.2560381305635566 3.5392578382035849 0.0000000000000000
2.9183843579041890 4.1837536404951914 0.0000000000000000
7.8785852083760819 4.5796374770256394 0.0000000000000000
2.8802353887090621 2.7420394892541609 0.0000000000000000
7.2447335324156628 4.2357422950670198 0.0000000000000000
7.1043368218646030 4.3781809262962001 0.0000000000000000
3.4990458431050508 4.3348570474863486 0.0000000000000000
5.5599730058030161 5.9450058698172841 0.0000000000000000
2.4099579782022480 4.9463185080080088 0.0000000000000000
4.4177246783979456 6.3636569877428748 0.0000000000000000
6.5468167906415760 6.9177028139471783 0.0000000000000000
5.0474764703073323 4.7377994661294496 0.0000000000000000
5.1878731808583911 4.5953608349002497 0.0000000000000000
3.5140536749609979 3.0859476172301008 0.0000000000000000
3.3736569644099492 3.2283862484592860 0.0000000000000000
4.9752447094614531 3.8241351006619668 0.0000000000000000
6.8194765896217717 2.6932908265904381 0.0000000000000000
2.3799368374578962 7.4441321179661184 0.0000000000000000
2.4330960876865291 7.6369398930435466 0.0000000000000000
4.6262863386541850 5.1651153598170083 0.0000000000000000
4.0687583640009137 7.7046718754191588 0.0000000000000000
7.6509463778925788 5.0573637844332797 0.0000000000000000
3.9433774288955612 6.5981664478708604 0.0000000000000000
3.8139217390597420 3.5219282866796409 0.0000000000000000
2.8883686941930180 6.6815725010074694 0.0000000000000000
5.1347160630091579 4.4025544013406748 0.0000000000000000
2.9524668327567780 3.6557021421468452 0.0000000000000000
3.9733930926074401 4.1003475873583621 0.0000000000000000
2.5122047036796360 3.3621678095053049 0.0000000000000000
2.3188389735652621 3.3119672337990682 0.0000000000000000
2.2658228874064972 3.1195153590796671 0.0000000000000000
2.4059498288170080 2.9768113201853810 0.0000000000000000
2.2121015127387951 2.9280205670008250 0.0000000000000000
2.1786229991478470 3.4544391731282311 0.0000000000000000
2.5162688740714700 5.3319274647607093 0.0000000000000000
2.3758717605671631 5.4743661532305410 0.0000000000000000
4.6944512883593497 4.1090123631203426 0.0000000000000000
5.7644678549185357 2.7766968797272731 0.0000000000000000
2.3227143963534149 5.2815603939654636 0.0000000000000000
7.4382873608159414 4.2861100973974189 0.0000000000000000
7.3851302429667172 4.0933036638378413 0.0000000000000000
2.6267098549551999 7.6874667785025199 0.0000000000000000
6.5277421431009603 6.1968448738945998 0.0000000000000000
3.3395744895573531 3.7564377468076220 0.0000000000000000
5.8898567336136454 3.8831676787543241 0.0000000000000000
5.4643568009951053 2.3404393001507828 0.0000000000000000
3.7688982434919089 7.2686565774483736 0.0000000000000000
3.5753444150916249 7.2182887751179843 0.0000000000000000
3.6284991283310979 7.4111074924040441 0.0000000000000000
5.1728653490024481 5.8442702651565064 0.0000000000000000
3.9393106177548578 4.6283990857066986 0.0000000000000000
2.5802984027003029 2.3068761440306620 0.0000000000000000
3.3967984185608620 5.9190115425275867 0.0000000000000000
5.3432777232653788 3.2040127734148292 0.0000000000000000
6.5386831685196629 2.9781680890488240 0.0000000000000000
7.5105218021969957 5.1997771079848230 0.0000000000000000
3.3014001935310859 2.3148056753540800 0.0000000000000000
7.3891968552183203 6.0630642524570586 0.0000000000000000
2.9865492669098939 3.1276508002819812 0.0000000000000000
4.5540545778083006 4.2514509943495300 0.0000000000000000
4.5199721029557134 4.7795024926978602 0.0000000000000000
5.5940554806556051 5.4169543714689290 0.0000000000000000
6.4023532691093372 5.0903740824421533 0.0000000000000000
4.4558603423481777 7.8054615980444346 0.0000000000000000
5.8257731578531926 6.9090525452022433 0.0000000000000000
5.9661722955381613 6.7666163319046300 0.0000000000000000
6.3151136764075133 5.4256191472309307 0.0000000000000000
2.2314168363007658 3.6470874800747919 0.0000000000000000
4.4286656991131954 3.1449801953224750 0.0000000000000000
3.7416852757423400 2.6082538671800419 0.0000000000000000
6.3451275253321846 2.9278072605984020 0.0000000000000000
7.1765685827104742 5.2918452917637087 0.0000000000000000
3.7948463123178491 2.8010686790997110 0.0000000000000000
3.9352405430298409 2.6586218748744308 0.0000000000000000
4.1328644461551418 4.6787668880370870 0.0000000000000000
4.1137898031584959 3.9579089561291809 0.0000000000000000
2.5735024326524170 7.4945275520828156 0.0000000000000000
2.5884308361156529 6.2456171166752954 0.0000000000000000
2.6416132606071039 6.4384221087798803 0.0000000000000000
2.9906161411155820 5.0974179997964342 0.0000000000000000
3.8370631931971069 6.2125535807516910 0.0000000000000000
4.4625507787167820 2.6169780112222618 0.0000000000000000
3.8670788569089729 3.7147347202392180 0.0000000000000000
5.0435908468714192 2.7682106942643241 0.0000000000000000
2.6716734116546692 3.9405794046052098 0.0000000000000000
5.9048686720347270 2.6342424677538809 0.0000000000000000
6.0343202553054054 5.7104964096893100 0.0000000000000000
4.1860215640043767 4.8715733215966592 0.0000000000000000
4.2050962070010351 5.5924312535045608 0.0000000000000000
4.3454929175520904 5.4499926222753761 0.0000000000000000
2.6948030841085471 6.6312155870404368 0.0000000000000000
2.6075793559300449 6.9664537877765627 0.0000000000000000
6.3832786261126930 4.3695161505342277 0.0000000000000000
6.7212957732074923 6.2472123566968527 0.0000000000000000
6.2278740837056734 5.7608642120197624 0.0000000000000000
2.2353659427612009 5.6168348481729442 0.0000000000000000
4.5922038638015961 5.6931668581653447 0.0000000000000000
4.5240389140963968 6.7492698548620451 0.0000000000000000
3.5221872972424029 7.0254823415584031 0.0000000000000000
3.3286334688421899 6.9751145392279934 0.0000000000000000
4.0456248534533232 5.0140119528258484 0.0000000000000000
4.9111465708969728 6.8500054595227997 0.0000000000000000
5.3964348411146101 3.3968192069744041 0.0000000000000000
2.7288857083635012 6.1031574145017453 0.0000000000000000
4.3645675605487213 6.1708505541832910 0.0000000000000000
7.0020892670469426 5.9623350312076129 0.0000000000000000
3.2945653778754558 7.5031736926811359 0.0000000000000000
3.1010066733252479 7.4527975507393309 0.0000000000000000
6.0493280871613608 4.4615869794330223 0.0000000000000000
3.6966664826461728 6.3549922119808446 0.0000000000000000
5.2028810127143341 3.3464514046440161 0.0000000000000000
3.1269459706777010 2.9852121951333812 0.0000000000000000
5.5790476487996452 6.6658638017251741 0.0000000000000000
6.3780452529948093 2.4017792535893232 0.0000000000000000
3.0056239506060050 3.8485085757064201 0.0000000000000000
6.9489322577476154 5.7695289227593953 0.0000000000000000
6.9639401113135406 4.5206195575253831 0.0000000000000000
2.5544078918401611 6.7736766920839857 0.0000000000000000
6.8767005186117292 4.8558646223141668 0.0000000000000000
6.6258120243221450 2.6429863161835532 0.0000000000000000
4.4708817962471707 6.5564634213024604 0.0000000000000000
6.1747169658564554 5.5680577784601333 0.0000000000000000
3.6012922730737800 2.7507008230426790 0.0000000000000000
5.2982542276975364 6.9507410641835676 0.0000000000000000
5.6963029052133614 3.8327998764239339 0.0000000000000000
6.9680057368342432 6.4903850120997832 0.0000000000000000
6.7744526932434246 6.4400184723977851 0.0000000000000000
4.5390467459523691 5.5003604246057680 0.0000000000000000
6.4364357439619262 4.5623225840938026 0.0000000000000000
3.0737889003111980 2.7924055790097539 0.0000000000000000
5.7385858935422913 7.2443515859312146 0.0000000000000000
5.8790981193881793 7.1020283396641597 0.0000000000000000
5.5749808376589671 4.6960964395609874 0.0000000000000000
5.3814270092586849 4.6457286372306079 0.0000000000000000
5.2410302987076163 4.7881672684598353 0.0000000000000000
6.0002377804527463 6.2385479080379387 0.0000000000000000
4.5008974599590701 4.0586445607899559 0.0000000000000000
5.4106054982257579 2.1464895658842540 0.0000000000000000
4.7966112730315107 2.5253318884721310 0.0000000000000000
5.2941874165568459 4.9809737020194103 0.0000000000000000
5.0965969749666584 2.9608683025747049 0.0000000000000000
7.5977638053102483 4.8645340568757378 0.0000000000000000
3.9052281429022782 5.1564505840550270 0.0000000000000000
4.3073436315587870 4.0082767584595693 0.0000000000000000
7.1615473571430233 6.5407367473580962 0.0000000000000000
5.4195762952519626 6.0874445010464662 0.0000000000000000
3.4608963111273519 2.8931411209894451 0.0000000000000000
5.9239392084662157 3.3551161804059979 0.0000000000000000
2.9715414950851211 4.3765600687249702 0.0000000000000000
3.3204998465607130 3.0355798148997208 0.0000000000000000
5.8707820906169790 3.1623097468464181 0.0000000000000000
6.0111784576122993 3.0198724358361888 0.0000000000000000
2.5352240267647330 6.0528212976734732 0.0000000000000000
5.2260224668516750 6.0370766987160822 0.0000000000000000
2.8843020611506511 4.7118050897412509 0.0000000000000000
5.9580213768283663 2.8270658598418041 0.0000000000000000
5.1497289278568958 3.1536499319260809 0.0000000000000000
6.1897247977124126 4.3191483482038464 0.0000000000000000
7.9126416535669346 4.0516065425797159 0.0000000000000000
4.6560821299500077 2.6674624594352929 0.0000000000000000
6.9789479431694854 3.2717101272691549 0.0000000000000000
6.4855042027383547 2.7853852381132178 0.0000000000000000
3.0778557520587988 4.7621729299784956 0.0000000000000000
2.7779877496755319 4.3261922435138747 0.0000000000000000
7.0170972291627756 4.7134259910849732 0.0000000000000000
4.4858896281031404 5.3075539910461913 0.0000000000000000
4.7516752173492884 6.2715861588440562 0.0000000000000000
2.8652272400549532 3.9909472069356058 0.0000000000000000
3.1610210845900322 2.4571784756196182 0.0000000000000000
6.7661710515796374 2.5005313139214520 0.0000000000000000
4.0606326853092636 3.7651025225696082 0.0000000000000000
3.3436413007488710 5.7262051089577390 0.0000000000000000
2.6225696837766042 5.7175441249927719 0.0000000000000000
6.2047323732710868 3.0702399028487828 0.0000000000000000
5.0624843021632788 3.4888900358732071 0.0000000000000000
4.7816908810611771 3.7737672983315820 0.0000000000000000
7.2143569982561786 6.7337288268106281 0.0000000000000000
4.6412941705101209 3.9162059295607690 0.0000000000000000
5.5408983628063746 5.2241479379093194 0.0000000000000000
5.7494600230626016 4.0256063099835000 0.0000000000000000
4.9220875916122271 3.6313286671023950 0.0000000000000000
4.4327325102539081 5.1147475574866199 0.0000000000000000
5.4386509382485846 6.8083024329543678 0.0000000000000000
4.3795753924046741 4.9219411239270414 0.0000000000000000
6.4705182188145134 4.0342710857454680 0.0000000000000000
7.9916034944260268 4.9664055785149701 0.0000000000000000
4.9452290457495636 6.3219539611744517 0.0000000000000000
6.3301215082634670 4.1767097169746554 0.0000000000000000
6.8917083504676757 3.6069551920579030 0.0000000000000000
7.7924946409496272 4.9150966991143568 0.0000000000000000
6.6981545220673500 3.5565873897275342 0.0000000000000000
7.8594487294887534 3.8589222453287690 0.0000000000000000
5.4155094841112561 4.1176771388822964 0.0000000000000000
5.6090633125115490 4.1680449412126768 0.0000000000000000
5.0856257563006171 6.1795153299452714 0.0000000000000000
6.5577578115163186 3.6990260209567141 0.0000000000000000
5.5107663068574881 7.7221143048571967 0.0000000000000000
3.7648314323512300 5.2988892152841967 0.0000000000000000
4.6112785067982287 6.4140247900732543 0.0000000000000000
5.8598410699016563 6.3809865392672132 0.0000000000000000
2.4289659554416758 5.6671901149431898 0.0000000000000000
5.7726067359902320 6.7162368429066213 0.0000000000000000
7.8062318305269232 3.6662826413698082 0.0000000000000000
6.6004111965641563 7.1098884236447333 0.0000000000000000
3.4349472964768588 7.3607430132122094 0.0000000000000000
6.1365676798631750 4.1263419146442759 0.0000000000000000
5.3282698914094464 4.4529222036710472 0.0000000000000000
6.1597265284556091 6.8169845372420479 0.0000000000000000
3.1310128480752240 4.9549793695574138 0.0000000000000000
7.7531024909201509 3.4734182084427840 0.0000000000000000
3.5712776039672232 5.2485214129493141 0.0000000000000000
3.5181204861207021 5.0557149793890046 0.0000000000000000
5.9430138514628874 4.0759741123138884 0.0000000000000000
7.3128964530929856 3.1796480167124250 0.0000000000000000
7.3660554280662636 3.3724478356995200 0.0000000000000000
7.1193430420358981 3.1292778429650689 0.0000000000000000
7.5596065500534504 3.4228615804000762 0.0000000000000000
3.6815882607078319 7.6041186311506737 0.0000000000000000
4.9301875170369014 7.5710447043040867 0.0000000000000000
3.3245666609665041 5.0053471761636628 0.0000000000000000
4.0156007636019364 7.5118579399267533 0.0000000000000000
6.4064200802500810 7.0601414446062760 0.0000000000000000
4.2091600556005604 7.5622133524912627 0.0000000000000000
4.8770552712756077 7.3781041016796003 0.0000000000000000
3.8220347223280391 7.4615270993809091 0.0000000000000000
5.1237406178451694 7.6214351028016774 0.0000000000000000
4.6835069252006889 7.3277068571819077 0.0000000000000000
5.3172647277192251 7.6717517586805979 0.0000000000000000
4.5431135570930996 7.4701277867698694 0.0000000000000000
4.4027116121775398 7.6125974609586784 0.0000000000000000
7.3398155088035839 7.8403524736667736 0.0000000000000000
2.2164384472397489 4.8959121033602786 0.0000000000000000
2.3036382053917981 4.5606778759169124 0.0000000000000000
1.9658290015858930 2.6877199871612021 0.0000000000000000
3.0554190404281099 2.0709755372344132 0.0000000000000000
2.2780597762853172 1.8661028915518290 0.0000000000000000
1.8853408906641520 6.9626146175483399 0.0000000000000000
3.4417491489952732 2.1727084419367779 0.0000000000000000
3.2483307575766931 2.1221844845408291 0.0000000000000000
2.0793938353101109 7.0099607004781186 0.0000000000000000
2.0189379093180779 2.8790474803533721 0.0000000000000000
7.9644799967211490 2.2684908726409598 0.0000000000000000
2.1260130314966701 3.2621141363171922 0.0000000000000000
2.0461308311353612 8.2630980414447635 0.0000000000000000
8.1042088597516422 2.1296373492317549 0.0000000000000000
7.3467058780945136 2.6526448755277769 0.0000000000000000
7.2934063104487148 2.4587522802774480 0.0000000000000000
7.6810979391220284 2.5598377113535040 0.0000000000000000
5.5636747792774086 7.9157064087991387 0.0000000000000000
2.3001076772029898 2.5915689885227162 0.0000000000000000
1.3419682401548960 6.8503116515232367 0.0000000000000000
1.2894406273553860 7.0195359329129063 0.0000000000000000
4.6312932437452874 1.9469381919600319 0.0000000000000000
4.3362285109449781 1.5235129167927861 0.0000000000000000
8.0082712901047834 7.6564124317335907 0.0000000000000000
8.4754588681781016 8.1449526352760131 0.0000000000000000
1.5686232535535209 7.7566658303558524 0.0000000000000000
5.6157005860210036 8.1085435697240573 0.0000000000000000
2.5287096686233750 2.1128371817056331 0.0000000000000000
4.1635107029535412 8.6154902086374641 0.0000000000000000
8.3541989874522944 6.3373959037951577 0.0000000000000000
7.6852507244656127 6.5065532263858286 0.0000000000000000
1.3472104861527820 7.5357857405581168 0.0000000000000000
5.9512336806950152 8.0227594039098857 0.0000000000000000
8.2777612036705808 3.4392620243731682 0.0000000000000000
1.5478380978805100 8.1159063364752502 0.0000000000000000
8.1194577650009805 1.4374432045800281 0.0000000000000000
4.8242342537755398 1.9948048249784469 0.0000000000000000
1.9285587282636130 8.5568148347421875 0.0000000000000000
2.1592697062877120 2.7359161168748911 0.0000000000000000
1.5633167095968150 1.8587230082508679 0.0000000000000000
4.7068148347421914 8.7285587282636072 0.0000000000000000
6.6746878435686838 8.0261146894958877 0.0000000000000000
1.7195293067093680 6.3655714842904274 0.0000000000000000
2.2452851923375499 2.4020652323524891 0.0000000000000000
5.8825409684096108 1.9128329696060471 0.0000000000000000
2.3871453025847060 2.2579213333074262 0.0000000000000000
5.1054773279547474 1.6787827340813120 0.0000000000000000
1.7823120229644309 1.4161020114397280 0.0000000000000000
8.1584152900737674 1.6184596188025111 0.0000000000000000
5.1392183096919846 8.3325594611379046 0.0000000000000000
5.1995512464120912 8.5242207118669455 0.0000000000000000
5.3975348567216699 8.5675130017412364 0.0000000000000000
8.3093521406795663 2.9001651886850301 0.0000000000000000
1.0720675346956690 7.3561897643315390 0.0000000000000000
8.3442429332748063 4.8530032044454678 0.0000000000000000
3.3428814597943970 8.4185535623706595 0.0000000000000000
1.6117769657574661 1.3566058616158609 0.0000000000000000
1.4296499685623081 1.2413673243393579 0.0000000000000000
1.2410004426250980 1.4374726657951871 0.0000000000000000
4.7374123317649106 2.3337412846193750 0.0000000000000000
1.4431851652578149 3.4035587282636199 0.0000000000000000
6.3428852559884099 1.6844099560236281 0.0000000000000000
8.5235678862395723 5.6309267336815001 0.0000000000000000
4.9352119990046432 2.3834855958749199 0.0000000000000000
1.4113275312268270 3.7962900947819831 0.0000000000000000
2.3716013160977631 8.6875931592316746 0.0000000000000000
8.2550994426807573 2.7057292015689312 0.0000000000000000
8.5455239428415535 3.7022114288227912 0.0000000000000000
8.0144959872978099 6.4231224864595262 0.0000000000000000
8.6017003715361753 6.7400811991748064 0.0000000000000000
6.3229510852125346 2.2083061950274430 0.0000000000000000
6.4317890195969607 7.7848576094232023 0.0000000000000000
7.0785600476168860 1.6966449898772560 0.0000000000000000
1.2710087286922129 3.2305268894198038 0.0000000000000000
7.2757674411503377 1.7451619386031270 0.0000000000000000
6.5713155133115571 7.6370513830314168 0.0000000000000000
6.5166759645305250 7.4443211903463187 0.0000000000000000
2.6471630406580902 1.2438656014600740 0.0000000000000000
2.6378465913926550 1.0374782679843060 0.0000000000000000
8.7073895099861662 3.8117933737530829 0.0000000000000000
8.5386111387914791 6.3298684314274789 0.0000000000000000
8.7163538064563522 4.4657212151054928 0.0000000000000000
2.8892138068932018 8.6405120480904465 0.0000000000000000
2.7595425439807331 8.7998931423812863 0.0000000000000000
8.6750350122683990 6.9034100840888444 0.0000000000000000
7.6616194752868907 8.7282370095289679 0.0000000000000000
8.1838819274004688 6.9950574771441687 0.0000000000000000
4.8293362440690002 1.4587671972330609 0.0000000000000000
8.1239570557009948 0.8842443853488213 0.0000000000000000
9.1437648697614442 7.7897107443885014 0.0000000000000000
2.1808265150749579 8.5495771585837179 0.0000000000000000
8.5568148347421893 1.9285587282636121 0.0000000000000000
3.3830225609005842 9.1424620297054915 0.0000000000000000
8.5622447497655525 3.3998887077237501 0.0000000000000000
5.3222903105086141 1.2896678049913890 0.0000000000000000
6.1818148347421831 1.2714412717363761 0.0000000000000000
0.9799183868818195 6.2025209666705132 0.0000000000000000
7.6568148347421836 1.2714412717363801 0.0000000000000000
0.9783394484684511 7.6724048226448058 0.0000000000000000
5.2900544993659544 8.9683474910129029 0.0000000000000000
5.2988219260151173 9.1278514354476883 0.0000000000000000
6.2025126236887056 9.0201197364878585 0.0000000000000000
8.7285587282636126 6.1818148347421884 0.0000000000000000
7.6831069373042364 9.0235960543602580 0.0000000000000000
1.8760429442984170 9.1157556146513166 0.0000000000000000
2.2036894826061451 9.1350462438716455 0.0000000000000000
2.3426586053583889 8.9864568251051757 0.0000000000000000
9.0111556936947466 2.3286575440768091 0.0000000000000000
9.0192948440203509 3.7964558697890110 0.0000000000000000
8.7126615488252277 3.2168156730518209 0.0000000000000000
3.6834087829382320 9.1347782870644707 0.0000000000000000
3.6933788044715090 9.3923095677612096 0.0000000000000000
9.1424620297050652 3.3830225608992102 0.0000000000000000
8.7285587282635966 8.2431851652578061 0.0000000000000000
1.7487706510213199 8.7279632346935436 0.0000000000000000
5.1306538141971778 1.4733265185634150 0.0000000000000000
1.4434703376006579 4.8818930263721958 0.0000000000000000
6.5992640687119444 1.4500000000000000 0.0000000000000000
1.4310645337402090 6.3659651227701950 0.0000000000000000
4.8640621704376912 0.8687888590152109 0.0000000000000000
4.7143985078039368 0.9058966870246041 0.0000000000000000
4.7603910523509754 0.7097272742297303 0.0000000000000000
5.1383874553254216 0.8682713536314657 0.0000000000000000
5.2883084426441673 0.9082598936843995 0.0000000000000000
5.2522362769427042 0.7132362074462745 0.0000000000000000
0.8687888590151414 5.1359378295623426 0.0000000000000000
0.9058966870242885 5.2856014921956929 0.0000000000000000
0.7097272742296612 5.2396089476482679 0.0000000000000000
0.8682713536315323 4.8616125446746183 0.0000000000000000
0.9077423677477392 4.7120041309890270 0.0000000000000000
0.7131142066165171 4.7478374087217761 0.0000000000000000
6.3147666470479269 0.8657859929432321 0.0000000000000000
6.6120236912086927 0.8551254244007207 0.0000000000000000
0.8575379702945036 6.6169774390994114 0.0000000000000000
0.8577919858091747 6.3214882190272732 0.0000000000000000
0.6066587948207529 6.3077524836220658 0.0000000000000000
7.7963105173927971 0.8649537561280802 0.0000000000000000
0.8480262328375213 7.7943666193555652 0.0000000000000000
8.7285587282636055 1.7568148347421910 0.0000000000000000
8.6650111535757262 1.5948100934901821 0.0000000000000000
3.8503569306293830 8.7114334275264742 0.0000000000000000
1.4443621655862500 5.1150904559419592 0.0000000000000000
1.2813940236568671 4.7023219211836729 0.0000000000000000
1.1813181449168380 4.4211446834224120 0.0000000000000000
6.1824560723892343 1.0097612272532830 0.0000000000000000
1.2742640687119151 6.1750000000000087 0.0000000000000000
7.6573413946413016 1.0135431748950099 0.0000000000000000
2.3413665957524850 1.2722285275628500 0.0000000000000000
2.2088901357250310 0.8554056446355798 0.0000000000000000
0.9775215954065232 2.3198099238851362 0.0000000000000000
3.7958170233322659 0.9814717729617437 0.0000000000000000
3.8173902476959558 8.9903915248005291 0.0000000000000000
3.2253837000801591 8.7309277862972046 0.0000000000000000
3.8538607331626702 1.2884520589287141 0.0000000000000000
3.6776492232667932 0.8599593783878996 0.0000000000000000
0.8575379702945054 3.3830225609005851 0.0000000000000000
1.2714412717363841 1.7568148347421859 0.0000000000000000
3.6565535209256170 1.4637216634855010 0.0000000000000000
3.3879763087895931 0.8551254244012958 0.0000000000000000
0.8659229151841360 3.6819553991837739 0.0000000000000000
0.6080464717709193 3.6928115052989110 0.0000000000000000
1.8760429442979250 0.8842443853484966 0.0000000000000000
0.8842443853486848 1.8760429442984130 0.0000000000000000
4.7152250060089687 1.2953248716409700 0.0000000000000000
1.2741306277123210 5.2858742087039694 0.0000000000000000
6.7780459222458642 1.2917374432517079 0.0000000000000000
5.2970432313141584 8.6998385389350190 0.0000000000000000
4.7090552894336026 8.9674697669081489 0.0000000000000000
4.6996253204297851 9.1244348736129446 0.0000000000000000
8.9683474910123433 5.2900544993652971 0.0000000000000000
9.1278514354473828 5.2988219260126899 0.0000000000000000
8.7175311985812218 4.6770947077086849 0.0000000000000000
8.9674697669088488 4.7090552894327056 0.0000000000000000
9.1244348736132039 4.6996253204260476 0.0000000000000000
8.9742640687119248 6.1750000000000087 0.0000000000000000
9.0117827234388983 7.6614850377722910 0.0000000000000000
1.0118086129672930 3.8126221256708259 0.0000000000000000
2.3403135788382321 1.0004152771780250 0.0000000000000000
8.7285587282636055 2.3431851652578088 0.0000000000000000
2.1929574780744079 1.4646659495112431 0.0000000000000000
0.8570479679995963 2.1994671426123138 0.0000000000000000
3.4024132787943389 1.4417580497325351 0.0000000000000000
1.4408084743336180 3.6456705942152769 0.0000000000000000
0.8838657834185635 8.1241138777557858 0.0000000000000000
9.1157556146515031 1.8760429442979210 0.0000000000000000
9.1401683911091176 3.6777556976762482 0.0000000000000000
8.5434762935552477 5.1304990525463197 0.0000000000000000
8.5442594044667732 4.8710279094793316 0.0000000000000000
6.6169883207554792 9.1424399250867889 0.0000000000000000
6.3214784855485036 9.1422524914554444 0.0000000000000000
6.3077398609875832 9.3933994148041862 0.0000000000000000
9.1424620297058645 6.6169774390983820 0.0000000000000000
9.1500000000000128 6.3507359312880407 0.0000000000000000
9.3660276400756679 6.3001793940598736 0.0000000000000000
8.1239570557015739 9.1157556146513148 0.0000000000000000
7.8018283402778899 9.1432682414796975 0.0000000000000000
7.8207966666948261 8.5349769727919167 0.0000000000000000
9.1157556146511780 8.1239570557009912 0.0000000000000000
8.5702389119276958 7.7925011156759521 0.0000000000000000
9.1487803672268733 2.2048516949158099 0.0000000000000000
6.1818148347421884 8.7285587282636126 0.0000000000000000
0.8160036607995860 9.1843948832412714 0.0000000000000000
9.1741758545508887 9.1741758545492544 0.0000000000000000
0.7857648798016365 0.7857648798021712 0.0000000000000000
9.1741758545471672 0.8258241454499605 0.0000000000000000
7.8386656836456332 8.3357623411044059 0.0000000000000000
1.4054698640185430 7.6967709208000272 0.0000000000000000
8.5596887117152036 6.5967924486164664 0.0000000000000000
6.3053007514654063 0.6068185576592924 0.0000000000000000
3.6904536073169241 0.6081547847528679 0.0000000000000000
9.3918440601638835 3.6904842212066460 0.0000000000000000
4.5363827970091641 8.6898877532557144 0.0000000000000000
1.3444291394966981 8.7459433413556376 0.0000000000000000
8.8397113123526658 5.5743788540845873 0.0000000000000000
6.3533087709644098 8.5712213926650183 0.0000000000000000
1.9303355561566859 1.4400611251666460 0.0000000000000000
1.3902817354995629 5.7458563982399138 0.0000000000000000
4.4261573859327736 8.8383979491373399 0.0000000000000000
1.8938324889103610 8.3878224946465476 0.0000000000000000
7.3861815839524319 1.0006253557459230 0.0000000000000000
7.3826074726808821 9.0051933750001503 0.0000000000000000
2.6212550136956230 8.9519769612272349 0.0000000000000000
8.5490947335867844 1.2031598700513080 0.0000000000000000
8.7666763929997096 1.2531068721521070 0.0000000000000000
8.2388362833547077 8.7303600941290220 0.0000000000000000
3.0679958188398562 8.6824616254936515 0.0000000000000000
9.0471613168203699 2.4997297972673871 0.0000000000000000
3.5092104285026031 8.2697081731636111 0.0000000000000000
1.7605335264969180 1.2728258458585799 0.0000000000000000
9.0324362867837671 7.4534090193580624 0.0000000000000000
7.3941436809867476 8.7128181757297938 0.0000000000000000
8.4341172184169544 8.6452137245597562 0.0000000000000000
8.6433907683085636 8.6891339295577090 0.0000000000000000
8.7843537092268242 8.5436402999784953 0.0000000000000000
4.3491335986978568 8.6528113441911891 0.0000000000000000
7.9886797124119422 6.9522262204588827 0.0000000000000000
4.0754521380650406 1.2743345177719620 0.0000000000000000
6.7609127090882826 8.7094513721168756 0.0000000000000000
2.5746838766824438 8.7218599460935948 0.0000000000000000
2.9490883003221460 8.8318795321562718 0.0000000000000000
3.4039862924045949 8.5578470658901242 0.0000000000000000
6.6155323644942250 8.3464970370115825 0.0000000000000000
4.8799042034223588 8.5600630991182722 0.0000000000000000
7.5895873427698586 6.8439665681261603 0.0000000000000000
8.8119927355772880 1.4590137101462970 0.0000000000000000
4.9273705135090378 8.2872417686313842 0.0000000000000000
5.9650107690323972 8.7103926909984235 0.0000000000000000
1.4396158543116011 7.8300371852658586 0.0000000000000000
7.0820762054085620 1.1735581434707010 0.0000000000000000
8.3268039535830027 3.6512642901988901 0.0000000000000000
6.3745262360030113 8.3087581292149899 0.0000000000000000
1.6658347873145061 8.6027771381123799 0.0000000000000000
7.7902493682759522 6.9039892400294578 0.0000000000000000
0.9695304768863304 4.5335635546538429 0.0000000000000000
1.7049727701261741 4.9219110478798251 0.0000000000000000
1.4148062200782570 1.8151375997500190 0.0000000000000000
7.7933584877938697 0.6255447726423793 0.0000000000000000
7.7989082526003290 9.3928774857471087 0.0000000000000000
2.2066415122040199 9.3744552273572861 0.0000000000000000
0.6073474364002868 2.2021201570648699 0.0000000000000000
5.4593463375784390 9.0139883379044417 0.0000000000000000
9.0145780162382483 5.4574759057283631 0.0000000000000000
1.3446172063811810 4.3013787558114949 0.0000000000000000
4.8965742822907936 1.6904955596159030 0.0000000000000000
4.9117052364496603 0.5417398860711733 0.0000000000000000
5.1018309307994576 0.5442657163080167 0.0000000000000000
0.5417398860722852 5.0882947635500830 0.0000000000000000
0.5442482876185404 4.8981795957239180 0.0000000000000000
9.7311627433216987 6.3089572432915544 0.0000000000000000
6.3089572432915579 0.2688372566782986 0.0000000000000000
0.2688372566757640 6.3089572432948327 0.0000000000000000
0.2688372566757506 3.6910427567051620 0.0000000000000000
6.3089572432948442 9.7311627433242371 0.0000000000000000
3.6910427567051358 9.7311627433242407 0.0000000000000000
9.7311627433282073 3.6910427567011781 0.0000000000000000
3.6910427567012269 0.2688372566717552 0.0000000000000000
4.4243922641900433 1.1718560911188689 0.0000000000000000
5.5557949365945456 8.8378770085110077 0.0000000000000000
5.7165001179440598 1.3851565112250499 0.0000000000000000
9.7388356029542660 7.7996104942545177 0.0000000000000000
7.7996104942545283 0.2611643970457305 0.0000000000000000
0.2611643970438655 7.7996104942563704 0.0000000000000000
7.7996104942563411 9.7388356029561614 0.0000000000000000
0.2611643970438434 2.2003895057436300 0.0000000000000000
2.2003895057436509 9.7388356029561756 0.0000000000000000
9.7388356029585594 2.2003895057412821 0.0000000000000000
2.2003895057412830 0.2611643970414433 0.0000000000000000
1.3215264762926211 4.1099588061842214 0.0000000000000000
7.4971440839831613 1.3153933135500691 0.0000000000000000
1.3478282417350100 1.6245303621117999 0.0000000000000000
7.0559710913292637 8.8372797568861721 0.0000000000000000
9.0177229033834827 4.5398443487814717 0.0000000000000000
4.5415777409936027 9.0109630460553412 0.0000000000000000
9.4028095322952616 7.7848434228433598 0.0000000000000000
0.5962618795027395 7.7866468932980482 0.0000000000000000
2.2132554750741931 0.5968786047675388 0.0000000000000000
9.3956345337018696 2.2157288951928029 0.0000000000000000
1.2065894471662710 1.2119323643682320 0.0000000000000000
5.9402622888288281 1.2219512129333781 0.0000000000000000
3.2270047621305298 1.2650559247494060 0.0000000000000000
0.9227699671447788 7.4880432573778153 0.0000000000000000
2.4962449728560689 0.9226978118257347 0.0000000000000000
4.2973802028021186 1.3408327104425559 0.0000000000000000
8.8452654897521690 2.8775831516979111 0.0000000000000000
8.0459181731935789 8.3552815248118630 0.0000000000000000
8.7332946234096696 5.3013749128905179 0.0000000000000000
6.7891848021710359 1.0399833339180251 0.0000000000000000
8.9598814511069182 6.7891287942945473 0.0000000000000000
1.0401185488939650 6.7891287942959622 0.0000000000000000
1.0401185488939699 3.2108712057040312 0.0000000000000000
3.2108712057040321 8.9598814511060301 0.0000000000000000
6.7892260271582323 8.9596839356421167 0.0000000000000000
3.2108151978256392 1.0399833339200810 0.0000000000000000
8.9598814511048754 3.2108712057021349 0.0000000000000000
4.0617529759735671 8.7639370440199595 0.0000000000000000
6.9703095365709089 9.0014413838977063 0.0000000000000000
8.6928080657843356 2.4958887090426112 0.0000000000000000
8.7370628055134514 6.7619825279001926 0.0000000000000000
8.9703394886271983 1.7594747744671979 0.0000000000000000
1.7594747744672090 1.0296605113728150 0.0000000000000000
1.0296605113731701 1.7594747744680650 0.0000000000000000
1.0296605113731589 8.2405252255319450 0.0000000000000000
1.7594747744680710 8.9703394886268342 0.0000000000000000
8.2405252255319130 8.9703394886268359 0.0000000000000000
8.2405252255310053 1.0296605113735480 0.0000000000000000
8.9703394886264576 8.2405252255309964 0.0000000000000000
1.2688203412817269 7.6682270610241678 0.0000000000000000
8.7723515220921655 5.9280903688614739 0.0000000000000000
5.2118508335269036 9.3154451126453530 0.0000000000000000
5.0772709818997104 9.4832345399476825 0.0000000000000000
9.3154451126459445 5.2118508335239166 0.0000000000000000
9.4832345399502618 5.0772709818939266 0.0000000000000000
3.0337761413867321 0.9971908682039795 0.0000000000000000
9.0063185758660218 3.0319678895087661 0.0000000000000000
0.9976601662320330 3.0332015444707001 0.0000000000000000
0.9946493952602702 6.9569218492574052 0.0000000000000000
3.0333088911954631 9.0018921620039229 0.0000000000000000
6.9715583184146412 0.9990960926300856 0.0000000000000000
9.0000228741574322 6.9730449111681203 0.0000000000000000
7.8351569894435311 1.4209538617226081 0.0000000000000000
1.1226768406639760 5.5756808908181839 0.0000000000000000
9.3025222150880218 4.7265343604944867 0.0000000000000000
4.7265343604998504 9.3025222150886098 0.0000000000000000
3.6233385291833189 8.5812267264645818 0.0000000000000000
2.9512442106655681 1.1581650847064500 0.0000000000000000
1.1996038421908919 7.1853544543868892 0.0000000000000000
0.9304093503817192 2.4832803745018408 0.0000000000000000
1.2592211681866241 3.8090710448064771 0.0000000000000000
1.2565317602138679 8.2342170083996855 0.0000000000000000
1.2981984965367439 8.3471483010872092 0.0000000000000000
8.5762676384247190 2.1660403547660931 0.0000000000000000
1.3030348476553359 6.0138632991537513 0.0000000000000000
8.6836070610777956 5.6552911509309434 0.0000000000000000
5.7898864023896248 8.6320599754888558 0.0000000000000000
8.6344710251282049 4.2806694349637562 0.0000000000000000
5.2541761060470176 1.4098203730699219 0.0000000000000000
0.3721826185171389 4.9957846437244378 0.0000000000000000
5.0042174615771202 0.3721861042546596 0.0000000000000000
3.7868232318287611 1.4118232318287600 0.0000000000000000
8.7934684017182505 4.0666720255544409 0.0000000000000000
1.5503021488287210 6.2943293407790550 0.0000000000000000
5.5700741010349422 1.1222661864941270 0.0000000000000000
5.4727405554115487 0.9799681469881268 0.0000000000000000
8.7010463776314282 8.3969075446429908 0.0000000000000000
1.5568000911719140 8.7270161631293188 0.0000000000000000
1.1737153601051780 4.0757893151790681 0.0000000000000000
1.7010246585178330 3.4843886300378801 0.0000000000000000
1.1589213078762299 2.9521234851535878 0.0000000000000000
3.4630846163910198 1.6947154907431110 0.0000000000000000
1.1929543032816960 5.9220395458337176 0.0000000000000000
4.5343772336549124 0.9630728377553199 0.0000000000000000
0.9586327685652251 5.4654730642864067 0.0000000000000000
1.4500000000000000 1.9512209933412581 0.0000000000000000
6.0473467394398739 1.3022839471146681 0.0000000000000000
8.5160890121517063 8.8245658367681674 0.0000000000000000
5.4465544849071144 8.7175223355199787 0.0000000000000000
8.3635691064765787 5.1266367424150756 0.0000000000000000
7.2968306924988413 8.8548634478722725 0.0000000000000000
8.6104477388660392 8.1699513093046132 0.0000000000000000
8.5788970501613644 8.0612650601635867 0.0000000000000000
8.5962903783309450 4.7458337017159611 0.0000000000000000
1.2934389000885691 3.9496171450476689 0.0000000000000000
1.5338705020499410 1.0141648370749881 0.0000000000000000
8.9929030025363126 1.5447549813076620 0.0000000000000000
1.0136880472109591 1.5345527165091779 0.0000000000000000
1.5431509472946461 8.9578881215602646 0.0000000000000000
1.0149775575994691 8.4454773849211620 0.0000000000000000
8.4454006857479520 8.9929272248147250 0.0000000000000000
8.9891818979524540 8.4611451982365171 0.0000000000000000
8.4565555605371223 1.0085904099780010 0.0000000000000000
8.5960656652573100 3.2755066097032599 0.0000000000000000
1.4353783512783651 5.2605438356258336 0.0000000000000000
6.2419949704162274 8.6107639134663199 0.0000000000000000
0.9392120022446300 3.9627836792665949 0.0000000000000000
0.9371917515958103 6.0387227267671646 0.0000000000000000
6.0365592375620762 9.0642993473557372 0.0000000000000000
3.9621172761578540 0.9435925662001350 0.0000000000000000
2.3078290410653550 1.4006528743489550 0.0000000000000000
1.4386772860270840 6.5775905731367663 0.0000000000000000
8.6050102968260571 2.2739889410024130 0.0000000000000000
6.7019924849125108 1.4115066298419749 0.0000000000000000
7.7028076552622036 8.6096709604801962 0.0000000000000000
4.7005360339082767 1.0458831707527210 0.0000000000000000
1.0455595505493349 5.2994530548629291 0.0000000000000000
8.6313721313560219 1.8311076992463631 0.0000000000000000
1.0481463408060270 4.7002158647129102 0.0000000000000000
5.2999999999999989 1.0520089685955460 0.0000000000000000
6.0346151751956336 0.9391420038032574 0.0000000000000000
9.0509403802062245 6.0651269560187107 0.0000000000000000
3.9636822444148239 9.0648769599210155 0.0000000000000000
9.0600403195726287 3.9635044807223361 0.0000000000000000
1.4268624524574640 8.0657374547129379 0.0000000000000000
1.1261760846888900 7.0382067440432881 0.0000000000000000
8.9574769662269027 2.6670691597215059 0.0000000000000000
1.8152261715242020 8.6197003100942666 0.0000000000000000
9.4123001409454794 4.8819987052454934 0.0000000000000000
4.8819987052500107 9.4123001409451419 0.0000000000000000
6.3623415133784498 1.4176806341932540 0.0000000000000000
6.2525824838871173 1.3856922150355520 0.0000000000000000
1.3962500794743751 6.2537207264722063 0.0000000000000000
7.7236239630443722 1.3924779539134580 0.0000000000000000
7.5235824893519698 0.9238521402023645 0.0000000000000000
7.5236402898886672 9.0714915439060988 0.0000000000000000
2.4784737193970279 9.0668152998870433 0.0000000000000000
2.0192808924508969 1.6951913317985490 0.0000000000000000
6.9048123710318707 8.7192079389628177 0.0000000000000000
5.0979761049301509 8.5912326192342903 0.0000000000000000
8.8831991022359915 4.4343159152584271 0.0000000000000000
1.4315747396334659 6.9919085703368680 0.0000000000000000
5.0981735824369574 9.1500000000000128 0.0000000000000000
9.1500000000000128 5.0981735824369494 0.0000000000000000
9.1829540836977177 4.8949872303379518 0.0000000000000000
4.8949872303398996 9.1829540836977142 0.0000000000000000
4.5682821924573780 1.2855933434867961 0.0000000000000000
8.8194406828965004 8.7905195979061492 0.0000000000000000
1.6766630928213910 8.0132220328230801 0.0000000000000000
4.7743026499399894 8.6206884770242116 0.0000000000000000
4.9125039491201701 9.6912559859114538 0.0000000000000000
9.6912559859120329 4.9125039491132352 0.0000000000000000
1.5595069266248081 6.6160265581021438 0.0000000000000000
2.2717253998762010 8.6151030447067996 0.0000000000000000
8.3245049138569982 6.5373710268661389 0.0000000000000000
1.5611652076361771 5.1502451513821681 0.0000000000000000
1.5559491861929400 3.7024042130300110 0.0000000000000000
1.5683414147869330 4.8610159371315298 0.0000000000000000
2.7823143941569848 1.1434238314889520 0.0000000000000000
1.2407281644290069 2.3094254549075970 0.0000000000000000
5.9139276657227722 8.8442654546091610 0.0000000000000000
1.3080559126786979 5.8687932695592044 0.0000000000000000
1.2677222174446960 6.7404258112839841 0.0000000000000000
8.6213634171385820 6.2131500585880142 0.0000000000000000
1.3264640776975971 5.4023954622373891 0.0000000000000000
8.7149884196109042 3.9563880978613950 0.0000000000000000
9.0765781260093270 6.2222124412932303 0.0000000000000000

SCALARS v:x_e double 3
LOOKUP_TABLE default
-0.0032768124453082 0.0006153465621676 0.0000000000000000
10.0025840179995296 0.0001122969253053 0.0000000000000000
10.0030791519756672 10.0002476751983949 0.0000000000000000
-0.0027084699415662 10.0007233231765014 0.0000000000000000
2.2475779275693699 1.1471819046644502 0.0000000000000000
2.1891503987691299 1.2890143923460573 0.0000000000000000
2.0476674866095155 1.3481004581311824 0.0000000000000000
1.9061785941030038 1.2889686457971470 0.0000000000000000
1.8477583412314740 1.1470338236126594 0.0000000000000000
1.9061219054876244 1.0043103510797633 0.0000000000000000
2.0476899351867863 0.9457317073170731 0.0000000000000000
2.1892637630422485 1.0043103510797633 0.0000000000000000
2.4478231523368907 1.1482646482197680 0.0000000000000000
2.0475984659432918 1.5480985527529163 0.0000000000000000
1.6476410359857978 1.1481806417636193 0.0000000000000000
2.0476367973182379 0.7457378437747114 0.0000000000000000
2.2481073098630548 8.8531596395765604 0.0000000000000000
2.1896390538580421 8.9956896489202354 0.0000000000000000
2.0480567014105673 9.0542682926829254 0.0000000000000000
1.9065194150460196 8.9956896489202354 0.0000000000000000
1.8479550957385467 8.8542682926829261 0.0000000000000000
1.9066419722878269 8.7123139009221724 0.0000000000000000
2.0481776419911815 8.6527043264266297 0.0000000000000000
2.1896948192102270 8.7114947455027405 0.0000000000000000
2.4482849096779589 8.8523842197945566 0.0000000000000000
2.0480490860677087 9.2542712768304867 0.0000000000000000
1.6479140029715866 8.8529727502738798 0.0000000000000000
2.0480113291321254 8.4527132556362812 0.0000000000000000
1.3471365827221686 2.0495286269683861 0.0000000000000000
1.2883757522346762 2.1911680195207577 0.0000000000000000
1.1465252098811114 2.2500540589841784 0.0000000000000000
1.0043103510797633 2.1916478289187871 0.0000000000000000
0.9457317073170731 2.0502601212848321 0.0000000000000000
1.0043103510797633 1.9087249690084462 0.0000000000000000
1.1457317073170732 1.8498510558683010 0.0000000000000000
1.2881451179319958 1.9081663038907855 0.0000000000000000
1.5472180730377314 2.0490317853924087 0.0000000000000000
1.1468298848946858 2.4500545291818847 0.0000000000000000
0.7459975265400092 2.0504372595653204 0.0000000000000000
1.1467594940071699 1.6498580923486301 0.0000000000000000
9.0542682926829254 2.0499341764132493 0.0000000000000000
8.9956896489202354 2.1913233587464296 0.0000000000000000
8.8542682926829261 2.2497300212188938 0.0000000000000000
8.7118540704506842 2.1908245436090175 0.0000000000000000
8.6525905430014571 2.0492084193816784 0.0000000000000000
8.7111318420580890 1.9078488107188634 0.0000000000000000
8.8530490020441981 1.8495627412869133 0.0000000000000000
8.9956896489202354 1.9084175307462174 0.0000000000000000
9.2539353618186269 2.0500708291757408 0.0000000000000000
8.8532753494904224 2.4497269453023969 0.0000000000000000
8.4525053808295461 2.0487151596557136 0.0000000000000000
8.8526679115701583 1.6495624568185754 0.0000000000000000
3.7236464330903205 1.1472878523038732 0.0000000000000000
3.6652589677837142 1.2889906706735634 0.0000000000000000
3.5237343598556965 1.3479938133676339 0.0000000000000000
3.3821689110129807 1.2887881879163836 0.0000000000000000
3.3236094709894837 1.1468555246179337 0.0000000000000000
3.3819759704158789 1.0043103510797633 0.0000000000000000
3.5236245809767710 0.9457317073170731 0.0000000000000000
3.6652663283035549 1.0043103510797633 0.0000000000000000
3.9238855749063384 1.1481645983192190 0.0000000000000000
3.5236915418002264 1.5479831075394341 0.0000000000000000
3.1234752083908215 1.1478575068417169 0.0000000000000000
3.5236639993109478 0.7457022231459846 0.0000000000000000
3.7241293590521112 8.8531560253203825 0.0000000000000000
3.6656285247448128 8.9956896489202354 0.0000000000000000
3.5239801361056435 9.0542682926829254 0.0000000000000000
3.3823958010001274 8.9956896489202354 0.0000000000000000
3.3238331393147438 8.8542682926829261 0.0000000000000000
3.3825632809628776 8.7122196861836034 0.0000000000000000
3.5241689326850807 8.6527297822097626 0.0000000000000000
3.6656999946971576 8.7115034078285163 0.0000000000000000
3.9243003346952632 8.8523809290406401 0.0000000000000000
3.5240034383145242 9.2542918751800993 0.0000000000000000
3.1237511741608497 8.8530307066327261 0.0000000000000000
3.5240502118467445 8.4527625781014066 0.0000000000000000
1.3470649534160202 3.5250400486322233 0.0000000000000000
1.2883580567709991 3.6666444563164711 0.0000000000000000
1.1465247662694449 3.7253953068524774 0.0000000000000000
1.0043103510797633 3.6668430630083710 0.0000000000000000
0.9457317073170731 3.5253920646104397 0.0000000000000000
1.0043103510797633 3.3838667494415628 0.0000000000000000
1.1457317073170732 3.3250713118276956 0.0000000000000000
1.2880607878332251 3.3835642672504136 0.0000000000000000
1.5471408440402012 3.5248172523017880 0.0000000000000000
1.1468034765336483 3.9253920609761312 0.0000000000000000
0.7459669586058325 3.5255024621424469 0.0000000000000000
1.1466083386360935 3.1250789866074600 0.0000000000000000
9.0542682926829254 3.5250397920245766 0.0000000000000000
8.9956896489202354 3.6664848062456272 0.0000000000000000
8.8542682926829261 3.7250155582613935 0.0000000000000000
8.7119315149722603 3.6662179319283723 0.0000000000000000
8.6528834452870811 3.5246344487953691 0.0000000000000000
8.7115014495467165 3.3831678616553411 0.0000000000000000
8.8533735275900494 3.3247545373527214 0.0000000000000000
8.9956896489202354 3.3835275065438135 0.0000000000000000
9.2540286856033482 3.5251226604349362 0.0000000000000000
8.8533583323224168 3.9250163922721679 0.0000000000000000
8.4527647061830784 3.5244505029457365 0.0000000000000000
8.8531046474783945 3.1247550910232351 0.0000000000000000
5.1998979363453310 1.1469101499708059 0.0000000000000000
5.1413673195918150 1.2887098423101411 0.0000000000000000
4.9998042727784551 1.3478247550198457 0.0000000000000000
4.8582546169607586 1.2888400322087212 0.0000000000000000
4.7997273497220467 1.1469040209155426 0.0000000000000000
4.8581256019936427 1.0043103510797633 0.0000000000000000
4.9997816949961562 0.9457317073170731 0.0000000000000000
5.1414543588016324 1.0043103510797633 0.0000000000000000
5.4000357678301496 1.1478578580397820 0.0000000000000000
4.9998215589894626 1.5478501638216855 0.0000000000000000
4.5995779001036912 1.1478990062002854 0.0000000000000000
4.9997781639578074 0.7456863977470137 0.0000000000000000
5.2002975751923772 8.8533804767185806 0.0000000000000000
5.1417641746649165 8.9956896489202354 0.0000000000000000
5.0000637643450965 9.0542682926829254 0.0000000000000000
4.8585028427781101 8.9956896489202354 0.0000000000000000
4.7999023191020340 8.8542682926829261 0.0000000000000000
4.8586229905000495 8.7122129891619657 0.0000000000000000
5.0002271287043047 8.6528060278139112 0.0000000000000000
5.1418033780359833 8.7116379575368317 0.0000000000000000
5.4004074254429035 8.8526993168752810 0.0000000000000000
5.0000468253165495 9.2542064573017679 0.0000000000000000
4.5998127835661622 8.8529678436909585 0.0000000000000000
5.0001665697348949 8.4528422981554545 0.0000000000000000
1.3470807433059699 5.0006204889708039 0.0000000000000000
1.2884131200727227 5.1421658940796888 0.0000000000000000
1.1465629777517117 5.2007803288229670 0.0000000000000000
1.0043103510797633 5.1420989365122844 0.0000000000000000
0.9457317073170731 5.0005981320179220 0.0000000000000000
1.0043103510797633 4.8590956860832071 0.0000000000000000
1.1457317073170732 4.8004234389499656 0.0000000000000000
1.2880280055559172 4.8590790572964631 0.0000000000000000
1.5471564001133429 5.0005997308484016 0.0000000000000000
1.1468354426667866 5.4007769658151750 0.0000000000000000
0.7459589297560755 5.0006101251634849 0.0000000000000000
1.1466082438317247 4.6004288020771957 0.0000000000000000
9.0542682926829254 5.0002044296041275 0.0000000000000000
8.9956896489202354 5.1416826205418067 0.0000000000000000
8.8542682926829261 5.2003361130836732 0.0000000000000000
8.7119721557990388 5.1416721749549446 0.0000000000000000
8.6529109711072696 5.0001472057810634 0.0000000000000000
8.7115902033767192 4.8586207193197035 0.0000000000000000
8.8534073183983253 4.8000404480900229 0.0000000000000000
8.9956896489202354 4.8587294964686008 0.0000000000000000
9.2540200874610470 5.0002065966431894 0.0000000000000000
8.8533931666514611 5.4003295000468929 0.0000000000000000
8.4528210257368617 5.0001689546544457 0.0000000000000000
8.8531737968712800 4.6000404574641358 0.0000000000000000
6.6759166846839504 1.1468571927686155 0.0000000000000000
6.6174108524363486 1.2887979021695137 0.0000000000000000
6.4758835715022274 1.3480093272978280 0.0000000000000000
6.3343382251399545 1.2890216044125673 0.0000000000000000
6.2759358711970137 1.1471571961384646 0.0000000000000000
6.3342860316642122 1.0043103510797633 0.0000000000000000
6.4759075946388700 0.9457317073170731 0.0000000000000000
6.6175532694332988 1.0043103510797633 0.0000000000000000
6.8760640426602215 1.1478624873419010 0.0000000000000000
6.4759163429161042 1.5479808523485521 0.0000000000000000
6.0756885907245719 1.1482324764352925 0.0000000000000000
6.4758549156513707 0.7456888336368210 0.0000000000000000
6.6764128156249551 8.8534376974261875 0.0000000000000000
6.6179018216984780 8.9956896489202354 0.0000000000000000
6.4762028385449062 9.0542682926829254 0.0000000000000000
6.3345931768473003 8.9956896489202354 0.0000000000000000
6.2759872313469858 8.8542682926829261 0.0000000000000000
6.3347136653055713 8.7122064401444419 0.0000000000000000
6.4763275525908277 8.6529408910698464 0.0000000000000000
6.6179010856800371 8.7116582509015217 0.0000000000000000
6.8765091491676298 8.8526300637536703 0.0000000000000000
6.4761957358309523 9.2543024707681294 0.0000000000000000
6.0758789663550932 8.8530230228132698 0.0000000000000000
6.4762696706871212 8.4529315915596364 0.0000000000000000
1.3471489475183960 6.4762001346614619 0.0000000000000000
1.2885155823910877 6.6176708562671971 0.0000000000000000
1.1466038513004646 6.6761378437554573 0.0000000000000000
1.0043103510797633 6.6173341345144854 0.0000000000000000
0.9457317073170731 6.4758094977609399 0.0000000000000000
1.0043103510797633 6.3343514083197787 0.0000000000000000
1.1457317073170732 6.2758000318787994 0.0000000000000000
1.2880249551902518 6.3346033998419848 0.0000000000000000
1.5472102108306880 6.4763956754302239 0.0000000000000000
1.1468907485125990 6.8761343925152785 0.0000000000000000
0.7459748035407380 6.4757262584206439 0.0000000000000000
1.1466339592551140 6.0758001931411831 0.0000000000000000
9.0542682926829254 6.4753686715822871 0.0000000000000000
8.9956896489202354 6.6168711231561517 0.0000000000000000
8.8542682926829261 6.6756161058750854 0.0000000000000000
8.7119203800234910 6.6171104258431415 0.0000000000000000
8.6529151315477488 6.4756480536883538 0.0000000000000000
8.7116276335677547 6.3340767504073634 0.0000000000000000
8.8534746094012515 6.2753624773054710 0.0000000000000000
8.9956896489202354 6.3339211600596297 0.0000000000000000
9.2540357924586214 6.4752919300953655 0.0000000000000000
8.8533815256426536 6.8756069206703616 0.0000000000000000
8.4528327509636849 6.4758606596097570 0.0000000000000000
8.8531851171803631 6.0753638285089195 0.0000000000000000
8.1516935281565477 1.1469386995843740 0.0000000000000000
8.0932933961469438 1.2888942168841058 0.0000000000000000
7.9518427290476863 1.3479889110567707 0.0000000000000000
7.8103396150605855 1.2890364170231250 0.0000000000000000
7.7519336465078448 1.1471738603452719 0.0000000000000000
7.8102501887304028 1.0043103510797633 0.0000000000000000
7.9517784801117894 0.9457317073170731 0.0000000000000000
8.0933324381312275 1.0043103510797633 0.0000000000000000
8.3518252137065669 1.1479784573687142 0.0000000000000000
7.9519218648542465 1.5480085998739694 0.0000000000000000
7.5516934487042127 1.1481994540724978 0.0000000000000000
7.9518278456144262 0.7457695483703191 0.0000000000000000
8.1523179200294908 8.8532442356077095 0.0000000000000000
8.0938132178138442 8.9956896489202354 0.0000000000000000
7.9521777733204964 9.0542682926829254 0.0000000000000000
7.8106404712310997 8.9956896489202354 0.0000000000000000
7.7520910243443026 8.8542682926829261 0.0000000000000000
7.8108333754160499 8.7122353352932542 0.0000000000000000
7.9524197299958699 8.6527921695867107 0.0000000000000000
8.0939154226786432 8.7114702746797636 0.0000000000000000
8.3524164373093726 8.8522487609113973 0.0000000000000000
7.9522453544393317 9.2542608193458928 0.0000000000000000
7.5519986017422696 8.8528549429178618 0.0000000000000000
7.9523712776249411 8.4527892002951308 0.0000000000000000
1.3473806936083963 7.9516828358331386 0.0000000000000000
1.2888218314026525 8.0930639653023224 0.0000000000000000
1.1469137075676488 8.1513856291862830 0.0000000000000000
1.0043103510797633 8.0925065681296608 0.0000000000000000
0.9457317073170731 7.9509682849231167 0.0000000000000000
1.0043103510797633 7.8095703408681754 0.0000000000000000
1.1457317073170732 7.7511366149888978 0.0000000000000000
1.2881593051414573 7.8100527306723002 0.0000000000000000
1.5474669888072135 7.9521763683654845 0.0000000000000000
1.1472832320556143 8.3513847802383019 0.0000000000000000
0.7460597667449660 7.9508116909350921 0.0000000000000000
1.1467190634145195 7.5511400264392474 0.0000000000000000
9.0542682926829254 7.9504751630022508 0.0000000000000000
8.9956896489202354 8.0919913649576500 0.0000000000000000
8.8542682926829261 8.1508129611283504 0.0000000000000000
8.7118688462838616 8.0924451764080754 0.0000000000000000
8.6528661271164093 7.9510723013100293 0.0000000000000000
8.7116234943076520 7.8094561646888554 0.0000000000000000
8.8534797703692725 7.7506421246894392 0.0000000000000000
8.9956896489202354 7.8090705322203515 0.0000000000000000
9.2540098460249833 7.9503417151046580 0.0000000000000000
8.8532602746456721 8.3508087280412227 0.0000000000000000
8.4527775197138517 7.9515182230012051 0.0000000000000000
8.8531821798606707 7.5506383206647083 0.0000000000000000
0.4966597989652787 0.0005657851284597 0.0000000000000000
0.9964621479461926 0.0002314285705836 0.0000000000000000
1.4963200510127468 -0.0012777380745661 0.0000000000000000
1.9971382452130682 -0.0042283343939150 0.0000000000000000
2.4980336544413317 -0.0016642154718822 0.0000000000000000
2.9979072310457613 -0.0018806121742529 0.0000000000000000
3.4985702727633385 -0.0042279611297306 0.0000000000000000
3.9992213375788346 -0.0015895377893528 0.0000000000000000
4.4990592279875017 -0.0020528807533166 0.0000000000000000
4.9997577818945231 -0.0040445846563478 0.0000000000000000
5.5004501178983798 -0.0020498852071107 0.0000000000000000
6.0002793482080925 -0.0015848305327103 0.0000000000000000
6.5009229060291069 -0.0042481913799639 0.0000000000000000
7.0015475127493065 -0.0018695418878777 0.0000000000000000
7.5013952991824251 -0.0017608404799039 0.0000000000000000
8.0021887271021779 -0.0042135167322078 0.0000000000000000
8.5029837575685825 -0.0015294970261561 0.0000000000000000
9.0028552792801655 -0.0000953874329585 0.0000000000000000
9.5026478237898893 0.0001552032438035 0.0000000000000000
10.0024319817233405 0.5001072033091215 0.0000000000000000
10.0024150361379984 1.0000948738464377 0.0000000000000000
10.0028540139339981 1.5000855153612314 0.0000000000000000
10.0035554306539236 2.0001005139705681 0.0000000000000000
10.0035145282552058 2.5001273242759847 0.0000000000000000
10.0034630142119791 3.0001344574157702 0.0000000000000000
10.0037573202510455 3.5001503507697636 0.0000000000000000
10.0035754999812312 4.0001675326358104 0.0000000000000000
10.0035089355108759 4.5001717092078524 0.0000000000000000
10.0037707923695116 5.0001846398421845 0.0000000000000000
10.0035830025008554 5.5001987113152575 0.0000000000000000
10.0035463957310000 6.0002006228700315 0.0000000000000000
10.0037875672883558 6.5002130697528031 0.0000000000000000
10.0035650895427022 7.0002279420862861 0.0000000000000000
10.0035513545132435 7.5002315773750592 0.0000000000000000
10.0037267573014841 8.0002504985086560 0.0000000000000000
10.0032802945249433 8.5002665385655760 0.0000000000000000
10.0029079041407787 9.0002617955259616 0.0000000000000000
10.0029190333069664 9.5002520461231423 0.0000000000000000
9.5031319877236253 10.0002489095343954 0.0000000000000000
9.0033079368303142 10.0004919017591654 0.0000000000000000
8.5034345207545332 10.0017801352290601 0.0000000000000000
8.0027691588931642 10.0042059822816487 0.0000000000000000
7.5018902394310674 10.0028872111362137 0.0000000000000000
7.0018489684283374 10.0024630050726184 0.0000000000000000
6.5013606746029415 10.0042481129432996 0.0000000000000000
6.0006681061311635 10.0028282622558589 0.0000000000000000
5.5006808823318050 10.0027015289747059 0.0000000000000000
5.0001805799108086 10.0041660773512149 0.0000000000000000
4.4994202869334199 10.0027760866114637 0.0000000000000000
3.9994993108885151 10.0022324860536678 0.0000000000000000
3.4990118381726272 10.0043269917322490 0.0000000000000000
2.9983807365762019 10.0027062935042395 0.0000000000000000
2.4984353029269895 10.0023332345581277 0.0000000000000000
1.9978269421923185 10.0043483904526891 0.0000000000000000
1.4970527772139979 10.0024631243994975 0.0000000000000000
0.9970625707693942 10.0010622659038368 0.0000000000000000
0.4972323796901368 10.0007109606723237 0.0000000000000000
-0.0025447903635176 9.5007283792727542 0.0000000000000000
-0.0025264525248089 9.0007393215997880 0.0000000000000000
-0.0029189863936361 8.5007475145516089 0.0000000000000000
-0.0035708415515793 8.0007327017892198 0.0000000000000000
-0.0035124921551175 7.5007075070604232 0.0000000000000000
-0.0034577533756761 7.0007018333830793 0.0000000000000000
-0.0037497815636135 6.5006872801108111 0.0000000000000000
-0.0035645339964727 6.0006720333420818 0.0000000000000000
-0.0035143661046295 5.5006692301805913 0.0000000000000000
-0.0037576072384838 5.0006581606772569 0.0000000000000000
-0.0035673431069237 4.5006450679270058 0.0000000000000000
-0.0035372579156171 4.0006441968311810 0.0000000000000000
-0.0037818893851888 3.5006336406651495 0.0000000000000000
-0.0035573975520082 3.0006204641217482 0.0000000000000000
-0.0035457173076487 2.5006195919959606 0.0000000000000000
-0.0037176988719268 2.0006047578197386 0.0000000000000000
-0.0032843088797888 1.5005907114138990 0.0000000000000000
-0.0029614738644975 1.0005982756541298 0.0000000000000000
-0.0030419119099283 0.5006098950946452 0.0000000000000000
1.2864218823096218 0.4034624856063360 0.0000000000000000
9.5986275959385381 1.2895022277593131 0.0000000000000000
0.4008761618625308 1.2899296803664999 0.0000000000000000
1.2869377514836400 9.5978178572164712 0.0000000000000000
8.7134411592341863 9.5971580257947853 0.0000000000000000
0.4012826329541878 8.7113516087477976 0.0000000000000000
9.5991094209708390 8.7108920014185731 0.0000000000000000
8.7129662316739509 0.4031654877413688 0.0000000000000000
5.7078218298779335 0.4026236240638333 0.0000000000000000
9.5992367356304396 5.7077393821643216 0.0000000000000000
5.7081368376868609 9.5982658476390625 0.0000000000000000
0.4008012412056220 5.7081816102132921 0.0000000000000000
0.4007740715465454 4.2930890246531552 0.0000000000000000
4.2920321622631779 9.5981416930422068 0.0000000000000000
4.2917008394947471 0.4026275569008390 0.0000000000000000
9.5992079569647721 4.2926563395531998 0.0000000000000000
7.2082708623611840 0.4033890241833237 0.0000000000000000
9.5985032079449617 7.2071490243118221 0.0000000000000000
9.5984208700502460 2.7932451400366833 0.0000000000000000
2.7911840056753237 0.4034087958138431 0.0000000000000000
7.2086823972715965 9.5974383220974389 0.0000000000000000
0.4015819931595401 7.2076036559685468 0.0000000000000000
2.7916071601955870 9.5973913784481670 0.0000000000000000
0.4015049202844517 2.7936729508768905 0.0000000000000000
1.6680385953655272 0.3841201914314094 0.0000000000000000
1.4859906987463598 0.7414385878719794 0.0000000000000000
1.1385487614912995 0.7720349557740250 0.0000000000000000
9.6167483938632028 1.6709834827252847 0.0000000000000000
9.2600791603107293 1.4886732843226935 0.0000000000000000
9.2302053191142424 1.1413610738949667 0.0000000000000000
1.6685585191059724 9.6167937829362380 0.0000000000000000
1.4863722981783909 9.2597471449574087 0.0000000000000000
1.1389598278493323 9.2292462889486568 0.0000000000000000
0.3828856484969557 1.6714151397758386 0.0000000000000000
0.7394279495918048 1.4890398999233474 0.0000000000000000
8.3318352091723273 9.6162224656259863 0.0000000000000000
8.5139325351408672 9.2590719366470715 0.0000000000000000
8.8613777347873164 9.2286439584327713 0.0000000000000000
0.3832066991568951 8.3298683418393633 0.0000000000000000
0.7398504004363489 8.5122184886479175 0.0000000000000000
8.3313637089874746 0.3839452217038019 0.0000000000000000
8.5134470229778962 0.7411844293197879 0.0000000000000000
9.6171184710872257 8.3294070889014176 0.0000000000000000
9.2605772662801353 8.5117415267487502 0.0000000000000000
3.1657552667588491 0.3835041041706136 0.0000000000000000
2.9846569220030292 0.7336255784563350 0.0000000000000000
2.6398765785039524 0.7702646356528967 0.0000000000000000
2.4400216815022291 0.4831459575424240 0.0000000000000000
9.6174617265986146 3.1675894564413190 0.0000000000000000
9.2678526174968354 2.9864962360437528 0.0000000000000000
9.2203684915449688 2.6573654917599030 0.0000000000000000
9.5172499422685579 2.4441198969193416 0.0000000000000000
0.3824363902608007 3.1680217335780889 0.0000000000000000
0.7320043198668916 2.9868673080244186 0.0000000000000000
0.7684099196608827 2.6422737443424982 0.0000000000000000
0.5008089516537046 2.4241661244762001 0.0000000000000000
3.1661663731281449 9.6171631481336792 0.0000000000000000
2.9849975726561628 9.2671965987976286 0.0000000000000000
2.6398175684447103 9.2363500498487046 0.0000000000000000
2.4218983456074783 9.4983816019366270 0.0000000000000000
6.8340943648522723 9.6168783288001514 0.0000000000000000
7.0152778089832317 9.2668677675273994 0.0000000000000000
7.3604265419596180 9.2366061488734417 0.0000000000000000
7.5783967223054622 9.4989899481233238 0.0000000000000000
0.3825437594815632 6.8332560811809184 0.0000000000000000
0.7321510914954379 7.0143636652513210 0.0000000000000000
0.7747354251245483 7.3500798481454312 0.0000000000000000
0.4821686700680703 7.5575179833591717 0.0000000000000000
6.8337161805460633 0.3835131471858007 0.0000000000000000
7.0148441114072897 0.7336242095611195 0.0000000000000000
7.3600431279773337 0.7643371051275069 0.0000000000000000
7.5779743791634040 0.5021400236140965 0.0000000000000000
9.6175700247382636 6.8328027818174517 0.0000000000000000
9.2680017632192939 7.0139260429151964 0.0000000000000000
9.2646648514052572 7.3449518740333399 0.0000000000000000
9.5225219563045211 7.5565050426038249 0.0000000000000000
9.5637978100927299 4.6400356043986788 0.0000000000000000
9.2673561243788640 4.4956516861670179 0.0000000000000000
9.2362993819282320 4.1385530182351697 0.0000000000000000
9.4985259226524672 3.9222463761264921 0.0000000000000000
4.7051509290927855 0.3837480627994411 0.0000000000000000
4.4952576597632765 0.7295263846786956 0.0000000000000000
4.1370306893509277 0.7655784713269589 0.0000000000000000
3.9210300975300436 0.5032753021096981 0.0000000000000000
0.3846345474669267 4.6987682604419154 0.0000000000000000
0.7337772411749375 4.4946969066956424 0.0000000000000000
0.7645611433845861 4.1381922444969392 0.0000000000000000
0.4982215159648401 3.9257565605109983 0.0000000000000000
4.6396317492283998 9.5634455918656567 0.0000000000000000
4.4951387602724013 9.2666883605891730 0.0000000000000000
4.1378451324585379 9.2351373620433570 0.0000000000000000
3.9245353145012900 9.5006670912436544 0.0000000000000000
5.2950428391407707 9.6073082690466141 0.0000000000000000
5.5026056642230863 9.2802187652193773 0.0000000000000000
5.8625106317722349 9.2367348018105488 0.0000000000000000
6.0756452310147084 9.5014041346853571 0.0000000000000000
0.3829841125638604 5.2949539491241806 0.0000000000000000
0.7281229597178753 5.5047640675480984 0.0000000000000000
0.7637144947764472 5.8627718725201001 0.0000000000000000
0.4981111505492318 6.0754873617570730 0.0000000000000000
5.3019305072855856 0.3854953646073666 0.0000000000000000
5.5069582462300950 0.7367698912797619 0.0000000000000000
5.8623469774089694 0.7659592125464303 0.0000000000000000
6.0781902349527019 0.5029773564020859 0.0000000000000000
9.6077371064978934 5.2949166536745587 0.0000000000000000
9.2810501457869048 5.5023696346004156 0.0000000000000000
9.2382144400911805 5.8615252126661836 0.0000000000000000
9.5074961294802396 6.0693176900197114 0.0000000000000000
9.2307128711642719 8.8590544439414014 0.0000000000000000
8.8608902961101652 0.7717173144529988 0.0000000000000000
0.7696772689507322 8.8595444849438110 0.0000000000000000
0.7692710439905120 1.1417205813200850 0.0000000000000000
9.1283484938616812 0.4357637736301601 0.0000000000000000
9.5666190128170960 0.8742052784607897 0.0000000000000000
9.5671147557677010 9.1261935404749330 0.0000000000000000
9.1288270635566420 9.5646451537202779 0.0000000000000000
0.4328144436176084 0.8746273086541773 0.0000000000000000
0.8710358861668334 0.4361029179411139 0.0000000000000000
0.8715446125962387 9.5651754036392838 0.0000000000000000
0.4332588893696687 9.1266533511379624 0.0000000000000000
9.0506439211415461 2.8408546412856257 0.0000000000000000
2.8328002275632467 0.9754967243063192 0.0000000000000000
0.9850531275891686 2.8187127978278084 0.0000000000000000
2.8272460874633767 9.0209435153261843 0.0000000000000000
0.9940686515504015 7.1551578339665083 0.0000000000000000
7.1825418846628049 9.0345832321296520 0.0000000000000000
7.1922771225810154 0.9843174259224626 0.0000000000000000
9.0277640116118221 7.2114157685597879 0.0000000000000000
1.3019928775066194 1.0157052619500127 0.0000000000000000
8.9980160194268866 1.3227945381540405 0.0000000000000000
1.0027560136243172 1.3126131135365418 0.0000000000000000
1.0344195222750630 8.6818655279180774 0.0000000000000000
1.3083897874876333 9.0344787757587959 0.0000000000000000
8.6822596394558609 8.9553962997293262 0.0000000000000000
8.6863846789045223 1.0058819978319467 0.0000000000000000
9.0055992624512378 8.6874542032793016 0.0000000000000000
9.0333844018282647 4.3248515718243681 0.0000000000000000
4.3186831695947721 0.9654077040478881 0.0000000000000000
4.3187138445756998 9.0238427982953908 0.0000000000000000
0.9801323861402353 4.3220630281345507 0.0000000000000000
5.6805015196469091 9.0287416691528346 0.0000000000000000
0.9607962502519403 5.6794722227946517 0.0000000000000000
5.6783086273940233 0.9706409844421460 0.0000000000000000
9.0272587704000156 5.6797675964173244 0.0000000000000000
6.1346599210652935 0.7895244997433867 0.0000000000000000
9.2102262480215789 6.1440671068798807 0.0000000000000000
0.7871443811430554 6.1373417206401326 0.0000000000000000
6.1374604585006258 9.2127192852230539 0.0000000000000000
3.8644974087303074 9.2129685541782678 0.0000000000000000
0.7874335759244186 3.8638307665606284 0.0000000000000000
9.2103634904870457 3.8563503037404137 0.0000000000000000
3.8551383108093549 0.7912632758178904 0.0000000000000000
7.6390649120408218 0.7850362541251401 0.0000000000000000
9.2197886490702725 7.6040617869062528 0.0000000000000000
7.6394479664753252 9.2161186927762504 0.0000000000000000
0.7782637491255601 7.6100443412098562 0.0000000000000000
2.3607816246747131 9.2154353091056294 0.0000000000000000
0.7844638256632175 2.3677868146360388 0.0000000000000000
2.3858025727160519 0.7767415118466748 0.0000000000000000
9.2130857371855992 2.3850772574807446 0.0000000000000000
0.4435155340434422 9.5546437463448957 0.0000000000000000
9.5636547749443821 9.5609771590271482 0.0000000000000000
0.4362157685914762 0.4398461855900930 0.0000000000000000
9.5631696933525383 0.4394229234163421 0.0000000000000000
1.7935339706031936 0.6860021481527149 0.0000000000000000
9.3143087829547966 1.7961669614747959 0.0000000000000000
0.6853614866769504 1.7965484331710382 0.0000000000000000
0.6845282846282619 8.2051835606222312 0.0000000000000000
1.7939950701729559 9.3146912602611440 0.0000000000000000
8.2063560709235386 9.3142192262618835 0.0000000000000000
9.3146426241917215 8.2042415371415611 0.0000000000000000
8.2058988162545567 0.6858817011803907 0.0000000000000000
1.9877164049063245 0.4468362090830720 0.0000000000000000
9.5526279439002497 1.9903596911019712 0.0000000000000000
1.9698866230151246 9.5207691881744942 0.0000000000000000
0.4797179344961273 1.9724421034009199 0.0000000000000000
8.0304871318804985 9.5205995338152878 0.0000000000000000
0.4471701429757025 8.0105742346350262 0.0000000000000000
9.5527983528470930 8.0100339642182590 0.0000000000000000
8.0300328883868186 0.4794002804778146 0.0000000000000000
1.0569618029438337 8.9511025432513058 0.0000000000000000
8.9631428612352266 8.9493525268014480 0.0000000000000000
1.0493659429371600 1.0521520225358505 0.0000000000000000
8.9534287473936693 1.0534336249475107 0.0000000000000000
9.3164113911902646 3.2849225186863089 0.0000000000000000
9.1116153596832525 3.1967585537754855 0.0000000000000000
3.2827689135271489 0.6828949477429865 0.0000000000000000
3.1947850225785333 0.8885301766529378 0.0000000000000000
0.6834588943549733 3.2853087984273910 0.0000000000000000
0.8881192868098347 3.1971095412425776 0.0000000000000000
3.2836383801683282 9.3164984042111936 0.0000000000000000
3.1954201488727847 9.1116318996454382 0.0000000000000000
0.6835913708831632 6.7159301974045107 0.0000000000000000
0.8883813068212991 6.8040999448478088 0.0000000000000000
6.7166261212496892 9.3161783017805533 0.0000000000000000
6.8048500833479144 9.1110907051913266 0.0000000000000000
9.3165448281251599 6.7154917766280775 0.0000000000000000
9.1118823455834477 6.8036537264654857 0.0000000000000000
6.7167394415876407 0.6829074968236263 0.0000000000000000
6.8047354782181912 0.8885388261522584 0.0000000000000000
3.4693710512195985 0.4675536808837673 0.0000000000000000
9.5319474488265215 3.4709761531548620 0.0000000000000000
0.4669523540555573 3.4709648045716239 0.0000000000000000
3.4693891172656794 9.5334818162689121 0.0000000000000000
0.4669947173362503 6.5303019842321364 0.0000000000000000
6.5308719391968406 9.5333879150415530 0.0000000000000000
6.5222407936199911 0.4557865635654235 0.0000000000000000
9.5464901740639281 6.5211499029648543 0.0000000000000000
1.6896135804436612 0.8759322273560937 0.0000000000000000
9.1248550793955143 1.6920838469800978 0.0000000000000000
1.6899493436148365 9.1251395889784259 0.0000000000000000
8.3103200374615067 9.1244315474137387 0.0000000000000000
0.8746224260965657 1.6924184588165432 0.0000000000000000
0.8739657174390297 8.3092933753597666 0.0000000000000000
9.1253852379867535 8.3083300965266513 0.0000000000000000
8.3098357440061701 0.8757554469864346 0.0000000000000000
8.9616232277105521 5.8924056441718928 0.0000000000000000
8.8017078710997456 5.7652739641917607 0.0000000000000000
5.8926216302723882 1.0409303779373311 0.0000000000000000
5.7670773585634407 1.2043510490937590 0.0000000000000000
1.0288809865638722 5.8919397874244277 0.0000000000000000
1.2027773064012022 5.7675274615886698 0.0000000000000000
5.8923669866798507 8.9990617983751910 0.0000000000000000
5.7700386077342642 8.8082928001554226 0.0000000000000000
1.0158616430869183 4.1091677935175586 0.0000000000000000
1.1746023646610535 4.2276469237591385 0.0000000000000000
4.1069128332325624 8.9589964549035503 0.0000000000000000
4.2325349416587219 8.8089200987842791 0.0000000000000000
4.1073302448928777 1.0516008431530366 0.0000000000000000
4.2423795412481500 1.1761229697380664 0.0000000000000000
8.9656286394055993 4.1092331494169789 0.0000000000000000
8.8047827040548405 4.2412823913013593 0.0000000000000000
8.6979269714138727 7.6711206553666438 0.0000000000000000
8.6760648985578861 7.4807300752785331 0.0000000000000000
8.5257607118515697 7.6208428839183480 0.0000000000000000
8.4861384873569001 7.4234788670242580 0.0000000000000000
8.3427196240460244 7.5664405263600933 0.0000000000000000
8.2913092648946396 7.3729146378327854 0.0000000000000000
8.1507452302871801 7.5153690071549786 0.0000000000000000
8.0976650775786698 7.3226873047154237 0.0000000000000000
7.9572706520302878 7.4650226214242972 0.0000000000000000
7.9040758576081664 7.2722929185834726 0.0000000000000000
7.7635731249255713 7.4149244611779670 0.0000000000000000
7.7103968216831618 7.2219372731226485 0.0000000000000000
7.5698876447704286 7.3644680856694258 0.0000000000000000
7.5167041609786223 7.1714282066189421 0.0000000000000000
7.3761898810326416 7.3138119521351577 0.0000000000000000
7.3229896492436177 7.1208410523941934 0.0000000000000000
7.1824642745048362 7.2632684452031917 0.0000000000000000
7.1292607237743324 7.0703569322668960 0.0000000000000000
6.9887380963914918 7.2129011812343817 0.0000000000000000
6.9355367268087376 7.0200147287750632 0.0000000000000000
7.0760570240351823 6.8774515133753686 0.0000000000000000
6.8823344110637930 6.8271251329560663 0.0000000000000000
6.7418242339400640 6.9697511555798934 0.0000000000000000
6.6886239769762312 6.7768533361077363 0.0000000000000000
6.8291305922282737 6.6342301607293361 0.0000000000000000
6.6354227446187730 6.5839467700858005 0.0000000000000000
6.4949239157037155 6.7265652046981605 0.0000000000000000
6.4417229651256580 6.5336358138115553 0.0000000000000000
6.5822200166264659 6.3910330680846927 0.0000000000000000
6.3885202869147690 6.3407010646522171 0.0000000000000000
6.2480248745890821 6.4832544784844490 0.0000000000000000
6.1948198117257025 6.2903010262749302 0.0000000000000000
6.3353173371226275 6.1477622878940936 0.0000000000000000
6.1416142229630477 6.0973488574659704 0.0000000000000000
6.2821134605131492 5.9548207724041777 0.0000000000000000
6.0884074588539461 5.9043983501812676 0.0000000000000000
5.9479026544557225 6.0468819431115222 0.0000000000000000
5.8946933597850251 5.8539336525290544 0.0000000000000000
5.7541823451949314 5.9964025545978519 0.0000000000000000
5.7009718821303306 5.8034652792185186 0.0000000000000000
5.8414833778944510 5.6609902562713978 0.0000000000000000
5.6477613235904727 5.6105308231794071 0.0000000000000000
5.5072500775601618 5.7530307151037290 0.0000000000000000
5.4540410222314035 5.5601022000489619 0.0000000000000000
5.7882731624508512 5.4680502623437555 0.0000000000000000
5.3135344525325969 5.7026386612242090 0.0000000000000000
5.2603281646301374 5.5097096013624673 0.0000000000000000
5.1198269109425008 5.6522718942028156 0.0000000000000000
5.0666222741320972 5.4593373508979468 0.0000000000000000
4.9261249694173257 5.6019037486643901 0.0000000000000000
4.8729199437547148 5.4089633436037037 0.0000000000000000
5.0134173510036453 5.2664006424229806 0.0000000000000000
4.8197147071780089 5.2160237192275041 0.0000000000000000
4.9602129956006893 5.0734620716706411 0.0000000000000000
4.7665096712397759 5.0230858148551389 0.0000000000000000
4.9070081914630492 4.8805239615587848 0.0000000000000000
4.7133038522795676 4.8301504135004052 0.0000000000000000
4.6792151578792041 5.3585693681680766 0.0000000000000000
4.8538038464680993 4.6875872447228204 0.0000000000000000
4.6600981798588297 4.6372195053056275 0.0000000000000000
4.8005989446559862 4.4946528257930609 0.0000000000000000
4.6068916435563034 4.4442928895434912 0.0000000000000000
4.4663844937465909 4.5868395959314112 0.0000000000000000
4.4131754893691895 4.3939178404457726 0.0000000000000000
4.7473938670340523 4.3017229443472385 0.0000000000000000
4.9410964940473781 4.3520817668942779 0.0000000000000000
4.2726624019597690 4.5364348531104506 0.0000000000000000
4.2194521004324725 4.3435124070399969 0.0000000000000000
4.9793294197725260 5.7948424846763356 0.0000000000000000
4.8878923032654678 4.1591442950702255 0.0000000000000000
5.0815932425452734 4.2095243537527356 0.0000000000000000
4.0789363742111044 4.4860076340906074 0.0000000000000000
4.0257261687994337 4.2930801770009923 0.0000000000000000
5.0283877645678681 4.0165783938586443 0.0000000000000000
5.2220903702590178 4.0669965646471073 0.0000000000000000
5.1688829903619729 3.8740420135013536 0.0000000000000000
5.3625901356704180 3.9245037220626697 0.0000000000000000
3.8852132280106453 4.4355729521811673 0.0000000000000000
3.8320047672083239 4.2426384367542642 0.0000000000000000
5.3093800673209941 3.7315441451158118 0.0000000000000000
5.5030937371575188 3.7820408742035436 0.0000000000000000
5.1156764773288401 3.6810865659490486 0.0000000000000000
5.4498811194508612 3.5890825044376564 0.0000000000000000
5.6436016427118387 3.6395910027134790 0.0000000000000000
3.6914976084086830 4.3851499925473396 0.0000000000000000
3.6382918338100025 4.1922115294518827 0.0000000000000000
3.7787968500965228 4.0496987249306224 0.0000000000000000
3.5850868290131381 3.9992700178935041 0.0000000000000000
3.7255893530912254 3.8567547500369463 0.0000000000000000
3.5318821597477528 3.8063268645578994 0.0000000000000000
3.7447040394664293 4.5780848390333437 0.0000000000000000
3.6723824044676694 3.6638061621755700 0.0000000000000000
3.4786780297020550 3.6133835803576537 0.0000000000000000
5.5903863705945422 3.4466426832529851 0.0000000000000000
5.7841134851404465 3.4971267140059457 0.0000000000000000
5.8373284313162808 3.6900513273645985 0.0000000000000000
5.9778399242930185 3.5475257744782636 0.0000000000000000
6.0310521491488620 3.7404354151249075 0.0000000000000000
6.1715572404663490 3.5978530720001514 0.0000000000000000
6.2247670204195629 3.7907643027410054 0.0000000000000000
6.3652656719790439 3.6481629620230707 0.0000000000000000
6.4184740453626734 3.8410874099233001 0.0000000000000000
3.4445867990075407 4.1418194251091247 0.0000000000000000
3.6191764532361175 3.4708539473138451 0.0000000000000000
3.4254750938147986 3.4204419982355314 0.0000000000000000
6.3120563346682230 3.4552440281195280 0.0000000000000000
6.5057597375792824 3.5055709474023322 0.0000000000000000
5.7308964220715994 3.3041972183295854 0.0000000000000000
5.5371699369730241 3.2536858405786293 0.0000000000000000
6.4525489833449852 3.3126378351441006 0.0000000000000000
6.6462516580960589 3.3630125298744415 0.0000000000000000
3.2849778199601900 3.5630288115845654 0.0000000000000000
3.2317757245509457 3.3701101833511347 0.0000000000000000
5.6776783509732942 3.1112605853355877 0.0000000000000000
3.5659719066602946 3.2778992155610225 0.0000000000000000
5.4839536539452727 3.0607194949018184 0.0000000000000000
6.5930379069402951 3.1700632992153777 0.0000000000000000
6.7867427176061677 3.2205012470417866 0.0000000000000000
6.8399599697269045 3.4134621196094845 0.0000000000000000
5.6244584997919409 2.9183136576310611 0.0000000000000000
6.7335257310811532 3.0275378775842352 0.0000000000000000
6.9272359717704015 3.0780391919139531 0.0000000000000000
3.0912718146103288 3.5127251233946639 0.0000000000000000
3.0380680401037639 3.3198265581619757 0.0000000000000000
6.8740151757147583 2.8850673977220707 0.0000000000000000
7.0677359076771422 2.9356167943381535 0.0000000000000000
7.0145102160230657 2.7426525967853426 0.0000000000000000
6.0842629300444200 3.9333478251682159 0.0000000000000000
3.7596785961865056 3.3283697555311571 0.0000000000000000
3.7064721583983640 3.1354101532628502 0.0000000000000000
3.9001859961268588 3.1859169052907221 0.0000000000000000
3.8469769227357689 2.9929612717159211 0.0000000000000000
3.6532676369616848 2.9424456888257140 0.0000000000000000
5.4307369902666922 2.8677425029696288 0.0000000000000000
5.5712375874814315 2.7253539589809619 0.0000000000000000
7.2082004057097588 2.7933717744910873 0.0000000000000000
4.0406983287798193 3.0434737769876792 0.0000000000000000
3.9874864276728341 2.8505301708722581 0.0000000000000000
7.1550177599142808 2.6002640717164636 0.0000000000000000
5.2752976506232985 4.2599487906602720 0.0000000000000000
2.8975530283486886 3.4624121930216232 0.0000000000000000
2.8443455975478069 3.2695139093171837 0.0000000000000000
7.2614635882698790 2.9861454221743569 0.0000000000000000
7.4019298237763440 2.8438065223516111 0.0000000000000000
7.4293857755186750 7.5068911936209082 0.0000000000000000
6.6803098215641876 2.8345742508476288 0.0000000000000000
5.3775214072913391 2.6747552440401101 0.0000000000000000
5.5180164817324719 2.5323789482156869 0.0000000000000000
4.1812162345984962 2.9010158142234781 0.0000000000000000
4.1280032124752211 2.7080988606767886 0.0000000000000000
2.7038231879333336 3.4120289877950607 0.0000000000000000
2.6506137616609191 3.2191091670990368 0.0000000000000000
2.7570360941121663 3.6049440002050059 0.0000000000000000
2.7911413243769072 3.0766155469454595 0.0000000000000000
2.5974013526532502 3.0262150690989311 0.0000000000000000
2.7379381272305370 2.8837199486445488 0.0000000000000000
2.5441997443015110 2.8332827251223076 0.0000000000000000
2.6847356183309339 2.6908137667325587 0.0000000000000000
4.0939101246990370 3.2364072241981190 0.0000000000000000
7.6545643396788545 7.0334808550813284 0.0000000000000000
7.4551934039616619 3.0365262570128690 0.0000000000000000
7.5956974625437788 2.8939156948014571 0.0000000000000000
2.4912133096213482 2.6402416981009673 0.0000000000000000
2.6315662964037068 2.4978802583218713 0.0000000000000000
2.3504091868001353 2.7833892138864411 0.0000000000000000
2.8252722924792097 2.5482993613552356 0.0000000000000000
2.7720700352417347 2.3554217127032149 0.0000000000000000
2.9657921728139973 2.4056800971289181 0.0000000000000000
5.7117480858272227 2.5829584098723442 0.0000000000000000
5.6585236910371037 2.3900206606538061 0.0000000000000000
5.8522619819461381 2.4404863688684690 0.0000000000000000
4.3217361643045464 2.7584983159006171 0.0000000000000000
4.2685248525050792 2.5656131770177724 0.0000000000000000
4.0747900540806796 2.5151702010598345 0.0000000000000000
4.2153445188171546 2.3725825640260352 0.0000000000000000
4.4090495234527625 2.4230052050792090 0.0000000000000000
5.7991829450150956 2.2470362637091199 0.0000000000000000
5.9929409769307709 2.2972521590499575 0.0000000000000000
5.3243065879705771 2.4817589474687702 0.0000000000000000
2.5633060888369350 3.5545077041915953 0.0000000000000000
2.6165216605152866 3.7474372657528821 0.0000000000000000
5.1007109656473384 4.9309022919152650 0.0000000000000000
5.2902437262931885 3.0101694668984731 0.0000000000000000
4.3558738596227826 2.2300028739814479 0.0000000000000000
2.4374475096395818 2.4486113906590434 0.0000000000000000
2.9125730705020123 2.2128353217304202 0.0000000000000000
3.1062652147032512 2.2630288067461843 0.0000000000000000
2.4227980326205922 3.6969803064163171 0.0000000000000000
2.4760116467233506 3.8899179483755186 0.0000000000000000
7.6489565609401113 3.0868150482672387 0.0000000000000000
7.7894569803652960 2.9441800861463614 0.0000000000000000
7.7363447718149416 2.7513679971040355 0.0000000000000000
7.5084261444700777 3.2293831013277337 0.0000000000000000
7.9299403029251057 2.8015450854590713 0.0000000000000000
4.0214915290895066 2.3219418992396657 0.0000000000000000
2.2822968489606885 3.8394723779439457 0.0000000000000000
2.3355048843158674 4.0324111903503548 0.0000000000000000
2.5292198859728532 4.0828502934958673 0.0000000000000000
2.3887061379882728 4.2253456074537636 0.0000000000000000
2.5824233537599546 4.2757788729418964 0.0000000000000000
2.4419056295300332 4.4182754821035921 0.0000000000000000
2.6356255913858520 4.4687038746807772 0.0000000000000000
2.4951055845494969 4.6112021388081432 0.0000000000000000
2.6888305812209241 4.6616272020217746 0.0000000000000000
2.5483105117316938 4.8041269517318970 0.0000000000000000
2.7420405233923644 4.8545509311131099 0.0000000000000000
2.6015257598436468 4.9970492579699082 0.0000000000000000
2.7952550976786879 5.0474756928632054 0.0000000000000000
2.6547433202908830 5.1899718548059930 0.0000000000000000
2.8484700258630511 5.2404038497700745 0.0000000000000000
2.7079584395846896 5.3828952106664669 0.0000000000000000
2.9016826549179711 5.4333356093276990 0.0000000000000000
2.7611698775212394 5.5758217785098028 0.0000000000000000
2.9548925992349284 5.6262728040871659 0.0000000000000000
2.8143788975923947 5.7687521329750435 0.0000000000000000
3.0081010289351702 5.8192150117707184 0.0000000000000000
2.8675883933833424 5.9616882410181695 0.0000000000000000
3.0613098811382913 6.0121628174959376 0.0000000000000000
2.9208007410908405 6.1546319359718566 0.0000000000000000
3.1145207805253143 6.2051162922134688 0.0000000000000000
2.9740173452572978 6.3475833430644943 0.0000000000000000
3.1677340093135702 6.3980734477941059 0.0000000000000000
3.0272369819243909 6.5405440099356564 0.0000000000000000
3.2209484775419193 6.5910334665289607 0.0000000000000000
3.0804572894510938 6.7335128648720168 0.0000000000000000
3.2741629574774249 6.7839928197560511 0.0000000000000000
3.4146504413602252 6.6414287767438607 0.0000000000000000
3.4678617336253281 6.8343587259259602 0.0000000000000000
3.1336765375439120 6.9264893172627104 0.0000000000000000
3.6083541902528560 6.6917352460738551 0.0000000000000000
3.6615662392134780 6.8846369377124130 0.0000000000000000
2.9399591857940592 6.8759305851108312 0.0000000000000000
2.9931839892880547 7.0689051643627758 0.0000000000000000
2.7994497960355793 7.0183261192119355 0.0000000000000000
3.8020672523098771 6.7420042481658946 0.0000000000000000
3.8552821479285728 6.9348908416063830 0.0000000000000000
3.9957925594459440 6.7923018238832382 0.0000000000000000
4.0490108885846388 6.9851944566971476 0.0000000000000000
4.1895269861872695 6.8426949948397331 0.0000000000000000
4.2427481040008468 7.0356191059330149 0.0000000000000000
4.3832613171037353 6.8932145414365262 0.0000000000000000
4.4364815888098326 7.0861840087057892 0.0000000000000000
4.5769795504679065 6.9437884207076248 0.0000000000000000
3.7488540635849703 6.5491113368934215 0.0000000000000000
3.2018136980804055 5.8696569712291256 0.0000000000000000
2.8526763938066062 7.2112703641371905 0.0000000000000000
4.6301928546177296 7.1367769514754009 0.0000000000000000
4.7706782068287907 6.9942965986769954 0.0000000000000000
4.4897017721310934 7.2791698070972499 0.0000000000000000
4.8238847665167777 7.1872641329947431 0.0000000000000000
2.6589327951482287 7.1607743598954103 0.0000000000000000
4.9643693818277512 7.0446920441923675 0.0000000000000000
5.0175744191679899 7.2376258376148010 0.0000000000000000
3.7147796115582512 7.0775281875963376 0.0000000000000000
2.5674448145541779 5.5253965362325532 0.0000000000000000
2.7121584147487745 7.3536796100607278 0.0000000000000000
5.1580652825140625 7.0950029258675213 0.0000000000000000
5.2112712231082279 7.2879105518109979 0.0000000000000000
2.7802858144849667 6.2970847997876271 0.0000000000000000
2.9059063182380913 7.4042317634894390 0.0000000000000000
2.7653913598360469 7.5465939830112339 0.0000000000000000
2.5184138647092151 7.3033134080087532 0.0000000000000000
5.3517702938615477 7.1452790163071480 0.0000000000000000
5.4049782605928360 7.3381718598562253 0.0000000000000000
4.3300417923582062 6.7002601351789313 0.0000000000000000
5.1048601175895305 6.9020865041355597 0.0000000000000000
2.4651956515091640 7.1104372774658140 0.0000000000000000
2.3246829548058003 7.2530663884244442 0.0000000000000000
3.0421900952820495 5.2908337642742751 0.0000000000000000
5.5454868612062178 7.1955795185566744 0.0000000000000000
5.5986972465009437 7.3884759418019419 0.0000000000000000
5.4581862998822217 7.5310589781010551 0.0000000000000000
5.6519089862520540 7.5813731078578908 0.0000000000000000
5.7924288994948734 7.4389219517188074 0.0000000000000000
5.8464372041693347 7.6332032219934947 0.0000000000000000
5.7054515236870804 7.7759891182889405 0.0000000000000000
2.9591424276083305 7.5972133009345031 0.0000000000000000
2.8186346404627933 7.7395222764729281 0.0000000000000000
2.2481897141217622 4.3678658438269489 0.0000000000000000
5.9885676287348035 7.4920153953476891 0.0000000000000000
2.2716200636431743 7.0603351794420730 0.0000000000000000
2.1311416329431596 7.2030201816012474 0.0000000000000000
2.1841992192754436 7.3957655128413933 0.0000000000000000
6.0443863655914631 7.6883019643575725 0.0000000000000000
7.8768699708487242 2.6087443078719974 0.0000000000000000
7.8173348263362179 7.6077388856545749 0.0000000000000000
7.0419505756665606 7.4058025390243492 0.0000000000000000
6.8482239919692312 7.3555243076854646 0.0000000000000000
6.9014354687904618 7.5484115875739244 0.0000000000000000
5.0707793608698664 7.4305498351383834 0.0000000000000000
4.1022314283021215 7.1780882122259566 0.0000000000000000
2.1418001810547582 3.9820021619331447 0.0000000000000000
4.3749462380499846 2.9513833709982364 0.0000000000000000
6.3993372469584466 3.1197103447174341 0.0000000000000000
4.8346876214881167 3.9662112721235920 0.0000000000000000
6.9612811318668708 2.5496732403469284 0.0000000000000000
7.1016514647566877 2.4071890729754828 0.0000000000000000
6.9080263293018982 2.3566553509150330 0.0000000000000000
7.0480057957210924 2.2138219674195470 0.0000000000000000
7.2420493459110160 2.2646783005106026 0.0000000000000000
7.1884025276288819 2.0713738475000705 0.0000000000000000
7.3829373307632089 2.1224956962915127 0.0000000000000000
2.4610164295084940 5.1395615964350840 0.0000000000000000
5.8073936708159977 6.1893433854529150 0.0000000000000000
5.6136698590373282 6.1388834728174038 0.0000000000000000
5.6053225206831261 2.1969728948695804 0.0000000000000000
2.3695952284091923 3.5040331601961103 0.0000000000000000
4.7856277398423179 5.7444570632540755 0.0000000000000000
4.8388336864962538 5.9374032354642816 0.0000000000000000
4.6451294807100902 5.8869823081942414 0.0000000000000000
6.4758147169336784 6.0051864957652690 0.0000000000000000
6.4226121343476059 5.8122567113583630 0.0000000000000000
6.6163147372375617 5.8625942411888365 0.0000000000000000
6.5631129289889962 5.6696719292904740 0.0000000000000000
6.7568191643082471 5.7200073294179923 0.0000000000000000
6.7036166390394625 5.5270884614613465 0.0000000000000000
6.8973293197724086 5.5774460426677486 0.0000000000000000
6.8441245893089233 5.3845246810854812 0.0000000000000000
7.0378436400924471 5.4349182070012638 0.0000000000000000
6.9846361863105821 5.2419922276716466 0.0000000000000000
7.0910484368747824 5.6278440431199419 0.0000000000000000
6.7909188893007295 5.1916008758726289 0.0000000000000000
6.9314268842936233 5.0490645442263569 0.0000000000000000
7.1251497165251942 5.0994879021030224 0.0000000000000000
7.0719362903316396 4.9065561687841868 0.0000000000000000
6.7377114444894444 4.9986740897633455 0.0000000000000000
7.2656611613955207 4.9569959321315915 0.0000000000000000
7.2124457564934064 4.7640642019416743 0.0000000000000000
7.4061686560846107 4.8144960569922830 0.0000000000000000
7.3529551677364200 4.6215673631362586 0.0000000000000000
7.4593857977414277 5.0074255174256148 0.0000000000000000
7.5466721609142757 4.6719693228670476 0.0000000000000000
7.4934637625862415 4.4790468720983716 0.0000000000000000
7.6871740721598849 4.5294098638866123 0.0000000000000000
7.6339728351346281 4.3364916574445997 0.0000000000000000
7.2997452140855295 4.4286395312836335 0.0000000000000000
7.8276762395991675 4.3868245212056234 0.0000000000000000
7.7744850288632605 4.1939078607494036 0.0000000000000000
6.5972087183599450 5.1412399209016240 0.0000000000000000
6.5440030455029570 4.9483122236815626 0.0000000000000000
5.6668811894481301 6.3318116849080992 0.0000000000000000
2.7191056850460549 2.1624721961421343 0.0000000000000000
2.8594100913550879 2.0199820332754261 0.0000000000000000
4.3258730134347756 4.7293581078387454 0.0000000000000000
7.5807758933655425 4.1435766757523274 0.0000000000000000
7.7212955501369933 4.0009935865352722 0.0000000000000000
3.5509935261184817 4.5276899682418987 0.0000000000000000
3.9193056551730185 3.9072126053755780 0.0000000000000000
3.6041984382157031 4.7206231875860292 0.0000000000000000
4.5154575239150265 2.8087674026834053 0.0000000000000000
4.5686628901235249 3.0016514915783592 0.0000000000000000
4.5485368079363901 2.2805959264534370 0.0000000000000000
6.8100226439954579 5.9129226857327204 0.0000000000000000
4.7174696845149500 6.8013262728328048 0.0000000000000000
2.6738587114438999 5.9112331217770260 0.0000000000000000
5.4731585093807631 6.2814018255192092 0.0000000000000000
6.6845037545257284 4.8057441551203119 0.0000000000000000
6.4907976008661219 4.7553829679110082 0.0000000000000000
6.3502974135298151 4.8979600820020543 0.0000000000000000
6.6312972514753721 4.6128126762090123 0.0000000000000000
6.2970918576718917 4.7050316977096109 0.0000000000000000
6.1565893707774082 4.8475933820261412 0.0000000000000000
6.1033815617669660 4.6546648303801668 0.0000000000000000
5.9628742585423717 4.7971930233184690 0.0000000000000000
7.5275765225073368 3.9506644211923492 0.0000000000000000
5.9333461611804115 7.2969671143111627 0.0000000000000000
1.9902630598162221 7.3453125749428061 0.0000000000000000
5.7458125072492781 2.0546908543660569 0.0000000000000000
7.9681847541872255 4.2442337559745393 0.0000000000000000
7.7021855257209682 3.2797091321045237 0.0000000000000000
2.3545850281327114 4.7537266235935505 0.0000000000000000
3.0126416169309107 7.7901500072642120 0.0000000000000000
2.8721864090903177 7.9323855484823120 0.0000000000000000
2.6781797657271591 7.8819350675058857 0.0000000000000000
3.1529080318408438 7.6479147189472947 0.0000000000000000
2.7322444924178568 8.0756352424652125 0.0000000000000000
7.3308735636379625 1.9308420667324993 0.0000000000000000
8.0692300048900414 2.6577793054100902 0.0000000000000000
7.7403824157266170 4.7223296287860324 0.0000000000000000
1.9372091905287732 7.1535209735543139 0.0000000000000000
4.4953063017181183 2.0877493527587552 0.0000000000000000
4.3026257342102037 2.0373170984697464 0.0000000000000000
4.4409262492866688 1.8968360252338312 0.0000000000000000
4.6861410433568302 2.1396258922211109 0.0000000000000000
8.0469253891660930 7.1339759549784221 0.0000000000000000
4.2493060622839849 1.8471012630387602 0.0000000000000000
8.1219166683194910 2.8505328366612552 0.0000000000000000
7.1345171039307473 1.8825477942871036 0.0000000000000000
2.6659458460379604 1.9695653968864055 0.0000000000000000
2.8072226002461464 1.8268669027828763 0.0000000000000000
5.9096641585117871 4.6042621427987385 0.0000000000000000
4.6983377118100362 6.0799350273302082 0.0000000000000000
4.5046275332697761 6.0294708700802158 0.0000000000000000
4.4514159055323725 5.8365219002121700 0.0000000000000000
4.3109057470263750 5.9789890009442850 0.0000000000000000
4.2576920501453142 5.7860549306778921 0.0000000000000000
4.1171766604641444 5.9285385226610625 0.0000000000000000
4.0639639567423380 5.7356208321473723 0.0000000000000000
2.8102483762199890 3.7978565367718899 0.0000000000000000
3.9234492477437204 5.8781464093314684 0.0000000000000000
3.8702387811326777 5.6852359587376649 0.0000000000000000
4.0107517959112693 5.5427035200843671 0.0000000000000000
3.8170293374147684 5.4923219535633372 0.0000000000000000
3.0189886518551226 2.5985413131026438 0.0000000000000000
2.4120018092985003 6.9175822423965707 0.0000000000000000
2.2179202690543116 6.8680004256501581 0.0000000000000000
2.8293506184192920 4.5191239885817600 0.0000000000000000
6.1293973085731812 7.3498775122504414 0.0000000000000000
6.0460181035610772 2.4906613988116044 0.0000000000000000
6.1861590398006499 2.3493391568272237 0.0000000000000000
3.9575406451684692 5.3497858996399827 0.0000000000000000
6.8542126438362585 2.1630664974587686 0.0000000000000000
2.0433960244818188 7.5381609509097265 0.0000000000000000
5.5520773475777379 2.0040738830785321 0.0000000000000000
8.0213732615333804 4.4371534078583208 0.0000000000000000
6.1332687387517382 2.1552173777681709 0.0000000000000000
3.2064018573564774 7.8408806704633598 0.0000000000000000
3.3466014540128945 7.6983832262824619 0.0000000000000000
1.7973227837039230 7.2942897514356844 0.0000000000000000
1.7447021827990188 7.1051500625701438 0.0000000000000000
2.9251593280885078 8.1271055597317332 0.0000000000000000
5.7691532672941594 4.7467558296737540 0.0000000000000000
5.4922767276349962 7.0026810437106306 0.0000000000000000
2.9357670164506571 4.9049713435559363 0.0000000000000000
5.1838235658991714 2.6242067831242895 0.0000000000000000
2.5395690401333293 8.0301634367954939 0.0000000000000000
2.7846511407228811 8.2677509336675019 0.0000000000000000
5.6916871565327600 1.8620172929715757 0.0000000000000000
8.0172264511820206 2.4660039695791363 0.0000000000000000
8.2079938490016850 2.5151040270222520 0.0000000000000000
7.5229003627890583 1.9802708750978557 0.0000000000000000
7.4711895499429515 1.7892631093980764 0.0000000000000000
6.7095689818821054 7.4963337222287505 0.0000000000000000
6.7626845650314094 7.6904047853120794 0.0000000000000000
6.9549280956876807 7.7411805735886272 0.0000000000000000
6.8149612228998606 7.8843143685095143 0.0000000000000000
7.0079582916708318 7.9341567227154153 0.0000000000000000
6.6250133830686684 7.8361285819546023 0.0000000000000000
6.0739696813414970 7.1546840379161765 0.0000000000000000
6.2097959220671166 5.0405238689463499 0.0000000000000000
7.2315670786260844 5.4853503049013463 0.0000000000000000
7.2847701413980461 5.6782847424631209 0.0000000000000000
7.4252881472438075 5.5357988663732902 0.0000000000000000
7.4784863523847154 5.7287392234299102 0.0000000000000000
7.6190003012170422 5.5862258109042315 0.0000000000000000
7.6721738483127089 5.7791679415866408 0.0000000000000000
7.5316830665828531 5.9216837455131826 0.0000000000000000
7.8127141434140768 5.6366846282263907 0.0000000000000000
7.7253664980965135 5.9721066127806344 0.0000000000000000
7.5848867944916689 6.1146311506413911 0.0000000000000000
7.7803420440640441 6.1653332811959523 0.0000000000000000
7.9225350798409480 6.0226162690323841 0.0000000000000000
7.6381701171766450 6.3074105049581988 0.0000000000000000
7.4444016471223327 6.2570855451673353 0.0000000000000000
7.8304441009744181 6.3614877436205317 0.0000000000000000
4.1703911141329391 6.1214594563985667 0.0000000000000000
7.7595207740326337 5.4436879870326926 0.0000000000000000
7.9532258689161797 5.4940042308676862 0.0000000000000000
7.4973968703847289 6.4498170280342828 0.0000000000000000
3.3082293371699358 6.2555481494183311 0.0000000000000000
7.9000408535834250 5.3010914754661096 0.0000000000000000
3.1785759855185636 3.1772005687366600 0.0000000000000000
5.8181907002519759 2.9687992105321857 0.0000000000000000
5.4008330134642009 5.3671716386531152 0.0000000000000000
6.3694098013280662 5.6193238555863081 0.0000000000000000
5.5563065921934838 3.9749928846311593 0.0000000000000000
4.8920388870122320 6.1303481887337918 0.0000000000000000
4.3599664178091029 4.2009999585500699 0.0000000000000000
3.1868943034070054 7.1194715439797616 0.0000000000000000
6.2438855029853570 4.5121059601183751 0.0000000000000000
3.8810513769690655 2.4645587246640486 0.0000000000000000
3.8277185048599889 2.2714488834338931 0.0000000000000000
3.6873363080012918 2.4140164543137232 0.0000000000000000
2.3587023977605184 6.7247946588015131 0.0000000000000000
2.1644569314950837 6.6750696742078519 0.0000000000000000
3.7979116330378031 4.7710161117660652 0.0000000000000000
3.6574047164801478 4.9135535835897590 0.0000000000000000
3.6341565734059156 2.2211244637391800 0.0000000000000000
3.7744251264596378 2.0786098478819355 0.0000000000000000
2.3054207736896091 6.5319154953545571 0.0000000000000000
2.1080243105787422 6.4826534280937196 0.0000000000000000
2.2516495754597594 6.3391041866422482 0.0000000000000000
2.0541660469830290 6.2898381584601726 0.0000000000000000
2.1982403088661497 6.1462331378920938 0.0000000000000000
2.0027265137867460 6.0964139475258232 0.0000000000000000
2.1453095494802574 5.9532470823971337 0.0000000000000000
1.9498895173352657 5.9033973514869631 0.0000000000000000
2.0922269883468165 5.7603065308282444 0.0000000000000000
1.8985413673288751 5.7099656682802893 0.0000000000000000
2.0395150679908509 5.5672591488753946 0.0000000000000000
8.1620617845279355 4.2947381771722632 0.0000000000000000
8.1087408383641986 4.1016870293868415 0.0000000000000000
2.6118432955514503 1.7741939106547044 0.0000000000000000
2.4719070825919469 1.9190127790956253 0.0000000000000000
3.0026657241471892 1.8740465236606112 0.0000000000000000
3.3988315803831055 7.8941086359159192 0.0000000000000000
3.5400869573066736 7.7491168209593431 0.0000000000000000
3.5922861672435915 7.9448677969581523 0.0000000000000000
3.7337180198431850 7.7994671354396852 0.0000000000000000
3.7869357981501834 7.9927070309888242 0.0000000000000000
3.9276153654293546 7.8491413515557058 0.0000000000000000
3.9808404482012589 8.0423910305028130 0.0000000000000000
4.1213756631942449 7.8993816154772949 0.0000000000000000
4.1746473749237047 8.0923178162215699 0.0000000000000000
4.3151350091957239 7.9497871686324064 0.0000000000000000
4.3684063397116004 8.1427853645162891 0.0000000000000000
4.5088804333151451 8.0005119248407155 0.0000000000000000
4.0344810620358524 8.2356311708365109 0.0000000000000000
2.9764017803145326 8.3195636882247470 0.0000000000000000
2.0885912573758345 3.7890694248531873 0.0000000000000000
1.9462886952477298 3.9321739981825177 0.0000000000000000
8.4354655581217362 7.2271890007671953 0.0000000000000000
1.8457329572137944 5.5169364779401890 0.0000000000000000
1.9862956821676392 5.3743436328999881 0.0000000000000000
1.7562587446928699 5.8530079161450468 0.0000000000000000
6.8688716662453526 8.0770048729389021 0.0000000000000000
7.0589438971805558 8.1274364544720576 0.0000000000000000
7.2010971313509389 7.9846166172910262 0.0000000000000000
7.2517887243008170 8.1780067473710858 0.0000000000000000
7.3945023827106020 8.0353541399079571 0.0000000000000000
6.9175683173372544 8.2667918103430047 0.0000000000000000
2.7547837008364984 1.6328418834188654 0.0000000000000000
8.2152857315197920 4.4876833771852906 0.0000000000000000
4.3849269646121920 1.7059134716453743 0.0000000000000000
1.6073841564662905 7.2459754291448260 0.0000000000000000
5.4993201413185115 1.8088112303451496 0.0000000000000000
5.3579964667910307 1.9486328046338381 0.0000000000000000
7.4473113619918951 8.2305762828167417 0.0000000000000000
7.5881370709959306 8.0887935708893597 0.0000000000000000
7.3045279558759146 8.3708405552794396 0.0000000000000000
4.1895799282652968 1.6550225412625090 0.0000000000000000
3.5809608319121007 2.0283800720910357 0.0000000000000000
1.6583440885898042 7.4374038019424979 0.0000000000000000
5.8223642515888079 4.9396914885013539 0.0000000000000000
3.6765220466817730 5.6348860583476554 0.0000000000000000
3.6233151367091536 5.4419661657600269 0.0000000000000000
4.5578385622665101 6.2224270008111180 0.0000000000000000
6.2676841702683301 7.2052019771595495 0.0000000000000000
2.2373442435126880 7.5885756204911283 0.0000000000000000
2.0968375779438690 7.7312036344370316 0.0000000000000000
7.4357404808996117 2.3158023027476102 0.0000000000000000
5.5263679093076021 6.4743169255962183 0.0000000000000000
5.7200927846521568 6.5247429179240637 0.0000000000000000
5.3326515934487100 6.4239644159097571 0.0000000000000000
3.4636961195232385 4.8631823536005871 0.0000000000000000
4.7091613806397215 2.8589975028657917 0.0000000000000000
4.7623648757568677 3.0519078062839236 0.0000000000000000
4.6218684255974614 3.1945456989748577 0.0000000000000000
5.6286420767728691 4.8892370250281889 0.0000000000000000
5.7159418959637724 4.5538195547628630 0.0000000000000000
6.7142457073540838 2.3060216406093828 0.0000000000000000
6.6580761004060456 2.1137045005825836 0.0000000000000000
7.3038511562412909 6.3995234496427313 0.0000000000000000
7.2506664923179960 6.2066190609380278 0.0000000000000000
3.4870005213926181 7.5558287665968491 0.0000000000000000
6.2396493136136337 2.5411681801231221 0.0000000000000000
4.8155691321505349 3.2448283087292751 0.0000000000000000
4.6750732523785619 3.3874496654998358 0.0000000000000000
5.1314151147936231 2.4320146129259608 0.0000000000000000
7.6680939828276360 3.8080836062557242 0.0000000000000000
7.4743666098835169 3.7577547326242056 0.0000000000000000
7.3338488872234020 3.9002859744566889 0.0000000000000000
7.2806339466445520 3.7073642550622510 0.0000000000000000
7.1401181483287930 3.8498448577757070 0.0000000000000000
4.1512668076874339 5.4002007341732936 0.0000000000000000
4.0980550849604276 5.2072776217453258 0.0000000000000000
3.8743888922969099 7.6562740822582169 0.0000000000000000
5.8564538320600663 4.4113315750322544 0.0000000000000000
4.2619027778756724 7.7568351853078505 0.0000000000000000
8.0949416796176372 5.3525702906753727 0.0000000000000000
8.1466035539241304 5.5436318478890350 0.0000000000000000
8.2865810027989326 5.4041879411801261 0.0000000000000000
8.0414972812447250 5.1593344859363688 0.0000000000000000
8.3026273367827326 4.1522381453910775 0.0000000000000000
8.3372928442663810 5.5922894397541505 0.0000000000000000
2.5600081714380725 1.5793359713145565 0.0000000000000000
4.5614842649212761 8.1959070321927499 0.0000000000000000
4.7021642610894068 8.0531109474792952 0.0000000000000000
4.6492919820412366 7.8585477167321232 0.0000000000000000
4.8425476600789761 7.9113006076588412 0.0000000000000000
2.8380292160711473 8.4574963386306816 0.0000000000000000
2.6478646759920883 8.4132412293525736 0.0000000000000000
4.4220417363925746 8.3350892392649047 0.0000000000000000
1.9630447465065017 6.6304781801403143 0.0000000000000000
4.5754612450708239 1.7546530258279991 0.0000000000000000
8.2493110420388067 3.9591630807301579 0.0000000000000000
5.6390478402161737 1.6694116655595979 0.0000000000000000
5.8312242718730989 1.7190233384484048 0.0000000000000000
5.4501080142420326 1.6168081819494788 0.0000000000000000
7.4979118908168143 8.4235800655576991 0.0000000000000000
1.5647067299394051 7.0547403295941038 0.0000000000000000
4.6111562451449304 8.3881332039498222 0.0000000000000000
1.6914462280222049 6.9182820724239820 0.0000000000000000
7.6605143812794454 1.8378876582376864 0.0000000000000000
7.7164333151519742 2.0287156470127008 0.0000000000000000
7.6075922521142010 1.6517529770648434 0.0000000000000000
7.4207868792679257 1.6063212360765089 0.0000000000000000
3.7212705552418859 1.8861372829305587 0.0000000000000000
8.1565494121366342 2.3280733705709649 0.0000000000000000
4.5219795796270725 1.5678309039572236 0.0000000000000000
3.2562658584170028 8.0405734659819430 0.0000000000000000
1.9029035590017660 7.6806049533672986 0.0000000000000000
1.9563460833221040 7.8736409562763265 0.0000000000000000
8.2039308147693557 7.7098547897608283 0.0000000000000000
8.2004734955065786 5.7351049294297702 0.0000000000000000
8.3930373891519476 5.7822945325112265 0.0000000000000000
8.2571310468006178 5.9264126567376492 0.0000000000000000
8.4501810526948695 5.9731768739503845 0.0000000000000000
7.5354422810176480 7.8936369495356029 0.0000000000000000
7.7296417616406607 7.9443661782000099 0.0000000000000000
2.1500495696460220 7.9240986572098047 0.0000000000000000
6.3265343249391481 7.3979779929934608 0.0000000000000000
3.4828136723527248 5.5845418628581802 0.0000000000000000
6.2139377532867623 7.0116930252214331 0.0000000000000000
6.0203240865953864 6.9612661907971622 0.0000000000000000
3.4296077461722825 5.3916125980123226 0.0000000000000000
6.8005390999476418 1.9705011455338424 0.0000000000000000
5.6818524427755905 5.0821749869070363 0.0000000000000000
5.8755742302988319 5.1326282753951213 0.0000000000000000
7.8234992339191880 2.4156675037648760 0.0000000000000000
4.4813631639754545 3.3371635115843037 0.0000000000000000
4.5345702988969547 3.5300619907194855 0.0000000000000000
4.3408501488816444 3.4797337174349283 0.0000000000000000
4.3940602478949780 3.6726380717784339 0.0000000000000000
4.9910662742653873 2.5746769980875124 0.0000000000000000
7.3570580505053051 6.5924665011412786 0.0000000000000000
7.5451180209493289 6.6521036883795217 0.0000000000000000
2.0010019331119051 4.1246603732353835 0.0000000000000000
1.8054474702179666 4.0748929315319691 0.0000000000000000
1.8603875741018527 4.2672947342747003 0.0000000000000000
1.6675089874425433 4.2164707281263842 0.0000000000000000
1.7203845818441263 4.4092568989271532 0.0000000000000000
1.6132203826947757 4.0270755268352181 0.0000000000000000
1.9139180761946075 4.4600226202073552 0.0000000000000000
1.7718349313640125 4.6015861033089340 0.0000000000000000
1.5777824122076654 4.5497608084844110 0.0000000000000000
1.9668648903306190 4.6528232311203261 0.0000000000000000
3.1444764712483968 3.7056316305575763 0.0000000000000000
8.0746137093123611 4.6301009428040203 0.0000000000000000
2.4568859793758380 3.1686788397364634 0.0000000000000000
3.4936466387674687 2.3635784262378308 0.0000000000000000
7.1933301008098987 4.0427796552350390 0.0000000000000000
6.9996051126586396 3.9923172153499800 0.0000000000000000
4.2003341294598906 3.6222525288335392 0.0000000000000000
5.3858590908362745 6.6168748861792928 0.0000000000000000
5.1921500314731617 6.5665586969179817 0.0000000000000000
4.5728007062406419 4.9726956630218169 0.0000000000000000
7.8469838574283548 5.1083122275700701 0.0000000000000000
4.3982047023125324 5.6435790223288658 0.0000000000000000
5.9819924321762175 5.5185074768228572 0.0000000000000000
6.0992026085006579 2.6836598100336340 0.0000000000000000
6.2929039069039003 2.7339129139793843 0.0000000000000000
6.1524186855019876 2.8765401905802790 0.0000000000000000
2.9316667308831765 2.9340535588792429 0.0000000000000000
5.2794443487228424 6.2310491395245373 0.0000000000000000
2.7229418615124805 4.1332833586867919 0.0000000000000000
2.7462236563656273 6.8253949945504528 0.0000000000000000
2.1800111723845830 5.4246714312312641 0.0000000000000000
2.1267981966461624 5.2317552483048226 0.0000000000000000
1.9330907013988778 5.1814237964994589 0.0000000000000000
3.5468639074991266 2.5565046831720299 0.0000000000000000
2.4992314734536270 6.5821284162497991 0.0000000000000000
4.6015645855031497 2.4735347250213970 0.0000000000000000
2.0735751088373169 5.0388450796320194 0.0000000000000000
4.9028540967341536 2.9092883016999003 0.0000000000000000
3.5360192471112963 5.7774675000775471 0.0000000000000000
7.1101509305161343 6.3491053489219382 0.0000000000000000
7.0528148061241955 4.1852588335872500 0.0000000000000000
6.8590965322206499 4.1348068006708107 0.0000000000000000
6.8058876619040625 3.9418610717542699 0.0000000000000000
6.9123041321067031 4.3277487728819111 0.0000000000000000
6.7185924634444136 4.2773270545019315 0.0000000000000000
4.2535457504037026 3.8151687749169008 0.0000000000000000
2.3925625741881915 6.1963719019743531 0.0000000000000000
7.1442534193406706 5.8207701443826414 0.0000000000000000
2.2862350771286626 5.8105410255627437 0.0000000000000000
4.2917816714245172 5.2577111914648347 0.0000000000000000
6.8250069707654060 4.6632010599904561 0.0000000000000000
4.4472695011215135 3.8655448957527447 0.0000000000000000
4.7282783698480504 3.5803624241839560 0.0000000000000000
6.4333863304661207 2.5912789189760597 0.0000000000000000
5.4881323278404643 5.0317260850095851 0.0000000000000000
5.4349229270449584 4.8387871408370140 0.0000000000000000
5.6627306648330702 4.3608808332779923 0.0000000000000000
8.0555523691601945 3.9087457965798262 0.0000000000000000
6.4623409525564410 7.2536807308647315 0.0000000000000000
4.7897294143206341 7.7162362655418617 0.0000000000000000
5.8032422241297752 4.2184010739133306 0.0000000000000000
5.9969641721369014 4.2688161208794746 0.0000000000000000
5.5222209785403686 4.5033556072073004 0.0000000000000000
4.5961155461940688 7.6653294910774896 0.0000000000000000
4.9834030527531912 7.7666123738717232 0.0000000000000000
5.0363167590030828 7.9617223577469014 0.0000000000000000
5.1771103042938398 7.8169015287445829 0.0000000000000000
5.2304217131731185 8.0097733097786623 0.0000000000000000
8.4430391559969511 4.0096097263227000 0.0000000000000000
2.7021641160593228 1.4390538808666817 0.0000000000000000
2.9003772264486432 1.4897429215480100 0.0000000000000000
7.8600521692687932 1.8832503762946060 0.0000000000000000
8.3432371682315463 2.3768615583494297 0.0000000000000000
8.3930857568798842 2.5627041971307256 0.0000000000000000
1.8927746128474723 3.7393470712129595 0.0000000000000000
2.0350355453471343 3.5962353638016733 0.0000000000000000
8.3146933004096031 6.1164461250732929 0.0000000000000000
6.6052846919032158 1.9215050033361045 0.0000000000000000
6.7442064603380860 1.7808027316278590 0.0000000000000000
1.8582125927139497 6.2363675094695701 0.0000000000000000
7.3592320260664552 8.5597805922012693 0.0000000000000000
7.1620360581114326 8.5118829433022736 0.0000000000000000
2.0089844384324977 8.0661238179012393 0.0000000000000000
2.2070789114016733 8.1252249911024439 0.0000000000000000
1.4129460572415322 7.1712804515654431 0.0000000000000000
8.4739885860068203 5.4539203222298882 0.0000000000000000
4.4763460397554971 8.5227400896941141 0.0000000000000000
4.2833772816693125 8.4737471644889713 0.0000000000000000
1.5169039774917157 6.8692944157552542 0.0000000000000000
2.7029890288838896 8.5974366002273062 0.0000000000000000
8.2688642270859685 4.6783939660812335 0.0000000000000000
8.4076959992685989 4.5386085939787488 0.0000000000000000
3.0243895221382244 8.5049163602763436 0.0000000000000000
3.1628812111464630 8.3713751183814793 0.0000000000000000
1.8288829821774164 4.7932304432046156 0.0000000000000000
8.1949170874867772 3.7707033955032894 0.0000000000000000
8.0021395981423264 3.7165625638847501 0.0000000000000000
8.1411462237293346 3.5778442238488406 0.0000000000000000
6.7322817604644820 8.2180282227331691 0.0000000000000000
6.7822311924147565 8.4053987953045546 0.0000000000000000
8.5470725658173823 2.4188398811240650 0.0000000000000000
8.5838132350994947 2.6143288203992134 0.0000000000000000
8.4463553139979108 2.7555028185689117 0.0000000000000000
7.7821312178127027 8.1370372995094655 0.0000000000000000
7.9238157783860181 7.9947998271527130 0.0000000000000000
2.5149265176988336 8.5509577667873966 0.0000000000000000
2.4610308013298949 8.3712835334250144 0.0000000000000000
3.9148656378482989 1.9363359358536987 0.0000000000000000
3.8603551368092583 1.7444018437084177 0.0000000000000000
7.9114373777186699 2.0752503782975795 0.0000000000000000
8.0599896219881160 1.9328477976612719 0.0000000000000000
7.4091093347571118 6.7861246506344850 0.0000000000000000
3.2891083270903461 5.5341753880637450 0.0000000000000000
6.0543205063265582 6.4327935735001329 0.0000000000000000
5.3707351214248096 7.8666122023151495 0.0000000000000000
5.4236332757082355 8.0594819586842110 0.0000000000000000
5.2854750734533162 8.2014671424709924 0.0000000000000000
5.4763668524959650 8.2515593226098840 0.0000000000000000
5.3363093517597520 8.3888753975451280 0.0000000000000000
5.5241331202079476 8.4400556542517986 0.0000000000000000
5.6669399284030497 8.3025096560176479 0.0000000000000000
7.3720854297426381 5.3428624040829753 0.0000000000000000
7.0569462416600732 6.1561977608836562 0.0000000000000000
2.4846842137784138 7.8326180126499727 0.0000000000000000
3.8511204036164162 4.9639427961902243 0.0000000000000000
7.0869013589305441 3.6569046607478950 0.0000000000000000
7.2274116081396196 3.5144390261565581 0.0000000000000000
8.1287385058307891 4.8222486902918842 0.0000000000000000
3.9916324957208054 4.8214302303778238 0.0000000000000000
5.6860020938396900 7.0530643794448338 0.0000000000000000
6.9164333295799167 6.2987393671211915 0.0000000000000000
5.6327897193492529 6.8601464214382517 0.0000000000000000
5.2696109001160529 2.2871848835599753 0.0000000000000000
5.0738416144249054 2.2400290189973471 0.0000000000000000
7.9487794572765713 3.5237731316522591 0.0000000000000000
8.0895585521660642 3.3803208505580904 0.0000000000000000
6.5168388472073335 2.2578316922322856 0.0000000000000000
3.3531742300651763 2.5060981470628474 0.0000000000000000
3.4063720642611619 2.6990378880707682 0.0000000000000000
5.3667418426129565 5.8955632084363385 0.0000000000000000
4.2385699033250104 5.0647830817554729 0.0000000000000000
6.1075282627596668 6.6257567531009842 0.0000000000000000
7.6148764605045720 3.6151776417689447 0.0000000000000000
3.7106121350402574 5.1064807849647895 0.0000000000000000
4.7365945870640003 7.5228683285532583 0.0000000000000000
5.5858651596025162 1.4857532852058128 0.0000000000000000
5.3994781156728537 1.4320794789132316 0.0000000000000000
3.6490766224626259 8.1381624079270320 0.0000000000000000
8.6355703945284930 2.8046200906565484 0.0000000000000000
8.4992657330687038 2.9500571265799560 0.0000000000000000
7.5738842847235963 1.4505482375051799 0.0000000000000000
7.3706765266721073 1.4203555216213288 0.0000000000000000
7.2265219905862415 1.5587547810846780 0.0000000000000000
7.1691513103712809 1.3728277665056998 0.0000000000000000
7.0217468672924994 1.5108775962378804 0.0000000000000000
8.4591685056756969 4.7195232504079625 0.0000000000000000
5.7193362713479701 8.4854084215431254 0.0000000000000000
5.8598120420880138 8.3543436749562012 0.0000000000000000
5.8088809375580093 8.1629928807485399 0.0000000000000000
6.0010927402699510 8.2174844916143819 0.0000000000000000
6.0506304390279757 8.4067841768278981 0.0000000000000000
6.1889627050089668 8.2729079205100948 0.0000000000000000
6.1448606510117685 8.0800742534478864 0.0000000000000000
6.3328356756340503 8.1346279279221303 0.0000000000000000
6.2906082863854875 7.9367130737000835 0.0000000000000000
8.4881553594752557 4.2058170927134952 0.0000000000000000
1.8496427822228656 3.5436362906636787 0.0000000000000000
1.9835338474815598 3.4032376371194459 0.0000000000000000
1.7994700653819078 3.3499127940677762 0.0000000000000000
1.9313050710864175 3.2113144633233865 0.0000000000000000
1.7392495681744413 3.1604770555189021 0.0000000000000000
1.8770271464686215 3.0201681286839706 0.0000000000000000
1.6842756439342523 2.9707192653099792 0.0000000000000000
1.8236393411605343 2.8290967535320628 0.0000000000000000
1.6311159458482358 2.7791928986616052 0.0000000000000000
1.7709093497536328 2.6370812484874349 0.0000000000000000
1.5791047574268691 2.5868282679752492 0.0000000000000000
1.7181716575910475 2.4447362085476039 0.0000000000000000
1.9111342661818935 2.4948797798695130 0.0000000000000000
1.8582154981927681 2.3023283730428346 0.0000000000000000
1.5505313147611184 3.1133099008183787 0.0000000000000000
2.0701985393289153 3.0692334829265402 0.0000000000000000
2.0510841219921421 2.3522768275909125 0.0000000000000000
1.9984515500858198 2.1598513364875633 0.0000000000000000
2.1919778655955779 2.2105180711645684 0.0000000000000000
2.1393433130559369 2.0150779876110296 0.0000000000000000
1.9454594985467184 1.9666367317465197 0.0000000000000000
1.4380582584497874 2.7295195216669574 0.0000000000000000
1.5279546451457398 2.4010800980695617 0.0000000000000000
2.1035885906752414 2.5434177224548833 0.0000000000000000
3.5257056378596383 1.8440329621139269 0.0000000000000000
3.3869614807217170 1.9793609739144655 0.0000000000000000
3.3327749222911307 1.7889319911391799 0.0000000000000000
8.4912660874679506 6.1645200221105085 0.0000000000000000
2.3412907271542127 8.5171792930173105 0.0000000000000000
4.7078915032047925 1.6197317305890186 0.0000000000000000
4.7641953930927237 1.8024949133684995 0.0000000000000000
4.6347797902005166 1.4340368542114870 0.0000000000000000
4.4625423762043726 1.3841624474809786 0.0000000000000000
1.6366928542341144 6.7437217020654021 0.0000000000000000
1.4847483016591037 4.1683429418780564 0.0000000000000000
1.4419535634692069 3.9817429330611649 0.0000000000000000
1.5752277017539540 3.8494066996003751 0.0000000000000000
5.5829914245773233 8.6347437569374215 0.0000000000000000
7.9825806170836753 8.1828456302280621 0.0000000000000000
8.1163767853076560 8.0448512254951901 0.0000000000000000
8.1768271260199352 8.2303720321420535 0.0000000000000000
5.2770299602278161 1.5583422168762440 0.0000000000000000
4.6502112157215159 8.5670453393946140 0.0000000000000000
2.0840113821264041 1.8281677589603131 0.0000000000000000
1.8892913990463474 1.7849085013351027 0.0000000000000000
1.8250669485037254 8.0243247162598941 0.0000000000000000
1.8668291930403598 8.2069436793000481 0.0000000000000000
1.6938297083710427 8.1669868797042859 0.0000000000000000
1.7315313089702704 8.3384159111113263 0.0000000000000000
1.5588932404906821 8.2921178859641582 0.0000000000000000
1.6043419350227761 8.4614128022598667 0.0000000000000000
1.4351788150100895 8.4169206672816959 0.0000000000000000
1.4802823091593251 8.5858408039083702 0.0000000000000000
1.7729240898287093 8.5020407117482808 0.0000000000000000
1.2494743326845048 8.5168543201963836 0.0000000000000000
8.4236392791422610 5.2734601205059217 0.0000000000000000
3.2296130200791735 8.5696643741586342 0.0000000000000000
8.5868589993954210 4.5924178190833933 0.0000000000000000
7.2192453500217608 8.6939419789880699 0.0000000000000000
7.3235513338098004 1.2039824044100422 0.0000000000000000
2.8389326646068618 1.2990755360106245 0.0000000000000000
8.6397139682427113 4.0886896458363902 0.0000000000000000
8.5751724818412658 3.8970526364244531 0.0000000000000000
7.5504385238997260 8.6121098010833190 0.0000000000000000
7.6771018055551847 8.4704481638597429 0.0000000000000000
2.4818910357738528 1.3737717340063642 0.0000000000000000
2.3597657093895767 1.5283643271679885 0.0000000000000000
6.2389570048858616 8.4599899457612153 0.0000000000000000
6.1045955192818404 8.5918919985926472 0.0000000000000000
1.7410156703100637 1.9152205531251489 0.0000000000000000
1.6978195188443885 1.7243231533590531 0.0000000000000000
8.5944579025199594 5.2942227174397329 0.0000000000000000
8.6697944227773611 5.4718086001328308 0.0000000000000000
2.2417959607082545 8.3530966707490961 0.0000000000000000
7.0218879311274751 8.6359809173070925 0.0000000000000000
8.6456200929511091 6.0571486480851355 0.0000000000000000
7.7472252464383713 1.5240948387405744 0.0000000000000000
8.8337751702116485 7.3503104079553792 0.0000000000000000
6.9691736065386243 8.4573698755731339 0.0000000000000000
6.8499823567254419 8.5818076836614399 0.0000000000000000
2.3995866184850745 8.1839544211903466 0.0000000000000000
8.2934141094036740 2.1889804042813577 0.0000000000000000
6.6548308315416103 8.5555154264324091 0.0000000000000000
6.4815994572250855 7.9842651210560591 0.0000000000000000
4.7993513328964648 8.4493974802493650 0.0000000000000000
4.7492607570989671 8.2487772927795753 0.0000000000000000
2.4161544516864426 1.7134654676849277 0.0000000000000000
5.3099690316781754 1.7490895850196291 0.0000000000000000
5.1653214779363177 1.8922442772130816 0.0000000000000000
4.8913634293618049 8.1028156283574191 0.0000000000000000
5.9149640052013233 8.5308513211735608 0.0000000000000000
1.3925145624501083 8.2232172265012977 0.0000000000000000
2.1964653212715133 1.6587800705254312 0.0000000000000000
3.1149610723247085 8.1799160693248467 0.0000000000000000
3.3073967437493299 8.2307995942165171 0.0000000000000000
1.8582514520370572 1.5906486486080795 0.0000000000000000
1.6513653465625504 1.5403948506660916 0.0000000000000000
1.5060474606620582 1.6738561971887627 0.0000000000000000
1.4605931762115800 1.4839234338505485 0.0000000000000000
8.6296879619168205 7.2785744326155868 0.0000000000000000
8.5678842793741730 7.0763650078501374 0.0000000000000000
8.3770130700059546 7.0372196419327100 0.0000000000000000
8.5012677995444950 6.8906860366286766 0.0000000000000000
8.3168166130438941 6.8540712665395365 0.0000000000000000
8.4319703405707553 6.6834296833639861 0.0000000000000000
8.2422692029034881 6.6684721702318583 0.0000000000000000
8.1262115363199552 6.8194349138452894 0.0000000000000000
8.0599819060253264 6.6317129483339734 0.0000000000000000
7.9305265618090521 6.7790655723484425 0.0000000000000000
8.1968067571229533 6.4754918541650426 0.0000000000000000
7.8651343839327517 6.5926930837162265 0.0000000000000000
1.6959032317768896 3.6754168078362714 0.0000000000000000
1.7548127656602339 3.8830433373394158 0.0000000000000000
8.3048190964146915 8.0943672521750845 0.0000000000000000
8.3539584741039796 8.2774656376444913 0.0000000000000000
8.2356201714862785 8.4098744088156625 0.0000000000000000
8.4079078541026977 8.4530666047964225 0.0000000000000000
8.5546685300702219 8.3130313263555156 0.0000000000000000
8.5897200282537831 8.5018977285035504 0.0000000000000000
8.2588099054886914 8.5794328289381294 0.0000000000000000
7.1106711153165865 8.3186523862765984 0.0000000000000000
8.3862761300982882 3.8300319582350313 0.0000000000000000
7.6372420050125021 8.2822189690139822 0.0000000000000000
5.5330567416028336 1.3015587988394652 0.0000000000000000
1.4279117187664514 6.7108878580435478 0.0000000000000000
1.8235999422954232 6.7777477330901927 0.0000000000000000
1.7361316348783706 6.5775306358957852 0.0000000000000000
8.2335775214673035 5.2230044836223239 0.0000000000000000
1.6537701686663917 2.2554471559863636 0.0000000000000000
8.2192905048828759 5.0225909279747363 0.0000000000000000
1.4948079942965813 2.9241646663249439 0.0000000000000000
1.3379960204550034 2.8725898319154202 0.0000000000000000
1.2183092189944178 2.7015564480345136 0.0000000000000000
6.0988287737390277 7.8844292870194730 0.0000000000000000
6.2437357307418937 7.7398974062562527 0.0000000000000000
7.7343932076856738 6.7353515772876644 0.0000000000000000
5.9004894619265595 7.8292872223561583 0.0000000000000000
8.7633277970243899 2.6509641552902141 0.0000000000000000
6.9361065413131406 1.8319916066511408 0.0000000000000000
1.5990764688589192 3.3263339570388264 0.0000000000000000
1.4190609043555520 3.2507278363119618 0.0000000000000000
1.3382160864081032 3.0680493985806834 0.0000000000000000
6.5338710600366481 8.1717422344956336 0.0000000000000000
8.2569320858280459 7.9022065465087508 0.0000000000000000
8.1192109388320439 6.0709435041220798 0.0000000000000000
8.1773946208732848 6.2632335501607335 0.0000000000000000
3.4541744540296282 8.0862537451971619 0.0000000000000000
8.4703633359643735 2.2483837472502120 0.0000000000000000
8.2559923880791324 1.9910359907952169 0.0000000000000000
8.3954098071775967 1.8613510041757393 0.0000000000000000
8.2151529557443297 1.8013731751338928 0.0000000000000000
8.3504330438749950 1.6745266871698126 0.0000000000000000
8.5339132358512924 1.7293145152515141 0.0000000000000000
8.4819286752646796 1.5478224110496737 0.0000000000000000
8.3075223709840866 1.4977130878751512 0.0000000000000000
8.4287226921888028 1.3570857503280731 0.0000000000000000
8.6125061825194802 1.4054237579304321 0.0000000000000000
8.0163190749088553 1.7419449004057672 0.0000000000000000
7.9721601777284095 6.2217863630880714 0.0000000000000000
2.0217489633808734 6.8211165534393121 0.0000000000000000
6.5496276955064365 1.7317342619990983 0.0000000000000000
6.4023274631701090 1.8690502241423506 0.0000000000000000
6.6815421311688681 1.5699467861298084 0.0000000000000000
6.8756764583380727 1.6415809872057487 0.0000000000000000
6.8367645181076133 1.4499564236490972 0.0000000000000000
6.9618300739589714 1.3237987309292734 0.0000000000000000
5.7794153506952135 1.5362318908495420 0.0000000000000000
5.9722102676944706 1.5823633106397019 0.0000000000000000
6.0225530101802658 1.7653241118173795 0.0000000000000000
6.1569307952461267 1.6308507012910958 0.0000000000000000
6.1183490684966824 1.4394479039450514 0.0000000000000000
5.9187444254850750 1.3904487998737927 0.0000000000000000
6.2093276069651191 1.8161535181544548 0.0000000000000000
6.0745316541080721 1.9588486152962359 0.0000000000000000
6.2656841426529635 2.0132461833920212 0.0000000000000000
2.3323838998654054 2.0623985107342682 0.0000000000000000
6.9932295671719453 2.0211183952918477 0.0000000000000000
1.3763841368355068 2.5383415660390591 0.0000000000000000
1.3479131775689257 2.3609375862194146 0.0000000000000000
1.4520485531388967 2.2178541955593203 0.0000000000000000
3.0546988309337331 1.3259598958247696 0.0000000000000000
3.0950983831066496 1.5321889555285082 0.0000000000000000
3.2437498910134575 1.4036248619751888 0.0000000000000000
3.3155880945947955 1.5887017636081719 0.0000000000000000
8.0646628027811023 7.8523502927356841 0.0000000000000000
4.1083735709578857 1.9871250724595864 0.0000000000000000
5.9377828705976690 2.1045036316920567 0.0000000000000000
1.7906981673302105 2.1079932323458999 0.0000000000000000
1.9062098316746896 6.4300499400177928 0.0000000000000000
1.0185616091673442 2.6254492386294355 0.0000000000000000
6.4621713982097351 2.0648049181140729 0.0000000000000000
7.8072423533045603 1.6977447703319246 0.0000000000000000
8.2466352261308895 1.3138591968695319 0.0000000000000000
1.5321551388363410 4.3605176021334602 0.0000000000000000
1.3615210864568399 4.5219625865676685 0.0000000000000000
1.4477599102181762 4.7319937453754113 0.0000000000000000
1.6380609804705035 4.7426246865605064 0.0000000000000000
8.6811719682131603 3.0183051339500522 0.0000000000000000
8.5567705769572768 3.1403488429070552 0.0000000000000000
8.3694594569504090 3.0923656694946193 0.0000000000000000
8.4328746173998361 3.2919428004694162 0.0000000000000000
8.2334415415386406 3.2362951175353505 0.0000000000000000
8.1776671827924279 3.0443629572427544 0.0000000000000000
3.0646167326291636 7.9851862700783185 0.0000000000000000
5.7578659831745993 7.9699118628923431 0.0000000000000000
8.0615964231416495 5.8789911329043436 0.0000000000000000
1.8502542745236201 7.4877936270369272 0.0000000000000000
1.7100464438636420 7.6278149147755014 0.0000000000000000
1.5219816386182128 7.5697368545275214 0.0000000000000000
1.4698991425941750 7.3875773833003562 0.0000000000000000
1.2802629457099068 7.3532113775706192 0.0000000000000000
3.1490985096477746 1.7278363540518715 0.0000000000000000
5.0875711760615685 8.1512694826857359 0.0000000000000000
8.5349690488253280 4.4013351698758525 0.0000000000000000
6.1873432305861105 7.5422224777664866 0.0000000000000000
6.3812560415015955 7.5883738812427941 0.0000000000000000
5.2149169854481459 2.0938892705342771 0.0000000000000000
5.0206733741976688 2.0442921733679391 0.0000000000000000
4.9649422943477379 1.8530565052907710 0.0000000000000000
3.9681873757905395 2.1290878090504997 0.0000000000000000
4.8804743845065000 2.1886128727828660 0.0000000000000000
7.7714729728108534 2.2211613631267091 0.0000000000000000
6.2843413206687524 1.5138311508141298 0.0000000000000000
8.0067269541947397 5.6863383977928450 0.0000000000000000
1.7406875566147997 7.8481170818642090 0.0000000000000000
7.8703989689844569 7.8012205618918680 0.0000000000000000
8.3531805419203167 4.3464885024740667 0.0000000000000000
8.3978863410170472 7.7581476754589103 0.0000000000000000
7.6764095747749801 7.7508877344908607 0.0000000000000000
8.1019686583568831 8.5330052698220946 0.0000000000000000
4.1619817761876030 2.1797321588564142 0.0000000000000000
8.6038677265919770 5.8291723849322929 0.0000000000000000
7.4825341086860746 7.7001273430976731 0.0000000000000000
3.1952125149379520 1.9267707961385818 0.0000000000000000
2.9518480308149257 1.6812774972343265 0.0000000000000000
3.6495038952125802 1.6725134890674376 0.0000000000000000
3.8084985439122869 1.5519257224957184 0.0000000000000000
3.9974868257793377 1.6054943882723323 0.0000000000000000
3.9408928729310415 1.4274851097144046 0.0000000000000000
4.1402506193968653 1.4733820781537377 0.0000000000000000
4.0533219166408037 1.7959674670759096 0.0000000000000000
2.5941545879511381 8.2236074397674592 0.0000000000000000
7.5764620520611956 2.1726794859050873 0.0000000000000000
8.2400521314978690 7.1818324479220710 0.0000000000000000
7.1483459718977267 7.7916556898456006 0.0000000000000000
7.0952006660020626 7.5987097605121212 0.0000000000000000
7.8668492269604346 5.8293351599295207 0.0000000000000000
2.3441728944077593 7.9758125564106788 0.0000000000000000
7.6296946515517714 2.3655150909636697 0.0000000000000000
7.4885907750057976 2.5084819942753609 0.0000000000000000
7.2888556764519832 7.6492542568370840 0.0000000000000000
7.6231942823816006 7.5575612570239974 0.0000000000000000
8.7996085390816514 7.0973112079450686 0.0000000000000000
7.2356740534211559 7.4562400445820378 0.0000000000000000
7.8530908111166777 7.0868771694461987 0.0000000000000000
4.2285813813883566 8.2846426200683290 0.0000000000000000
4.0882271518748254 8.4273534644243533 0.0000000000000000
3.8952754811813013 8.3795769180531767 0.0000000000000000
3.9607399038203903 8.5750316208490194 0.0000000000000000
3.7542032105277721 8.5217938652937786 0.0000000000000000
3.6974012908283962 8.3246968048217056 0.0000000000000000
3.8404294086932151 8.1866462313253319 0.0000000000000000
7.4592203229193057 6.9803051288757647 0.0000000000000000
6.6554711272643958 7.3032646553806693 0.0000000000000000
6.7951820187340530 7.1623019153405281 0.0000000000000000
2.2906130022037834 7.7814806108112595 0.0000000000000000
7.2688721868332653 6.9283147196782844 0.0000000000000000
7.8958439979656845 3.3301520691581707 0.0000000000000000
8.0370770048047682 3.1871143092290617 0.0000000000000000
7.8427721253759159 3.1370529687008419 0.0000000000000000
7.9831358393538903 2.9941056728449920 0.0000000000000000
5.7350631580272529 5.2751119660364161 0.0000000000000000
5.9287839812186611 5.3255663356515672 0.0000000000000000
6.1224983795231172 5.3759980890385259 0.0000000000000000
6.0692915558331260 5.1830608674618741 0.0000000000000000
6.2630019215370067 5.2334567514513957 0.0000000000000000
7.0228506867851506 6.6845483231376868 0.0000000000000000
2.2672954255030802 5.0891881587699386 0.0000000000000000
7.0336801181366626 3.4639578240214743 0.0000000000000000
7.1741861709748607 3.3215075473292788 0.0000000000000000
6.3012284532114551 6.6762064407554380 0.0000000000000000
5.2453564243029600 6.7594723811539144 0.0000000000000000
5.0516546701546474 6.7091612859240684 0.0000000000000000
4.9984497770121852 6.5162291817430349 0.0000000000000000
4.8579584154123552 6.6587995627257870 0.0000000000000000
4.8047522493738439 6.4658459386803786 0.0000000000000000
4.6642599388998409 6.6083557826314703 0.0000000000000000
7.4211464477973808 3.5648466511618149 0.0000000000000000
7.9342510956560153 4.7725428224913280 0.0000000000000000
3.9766611586648435 6.0710547856714978 0.0000000000000000
3.7829383524895088 6.0207104436263306 0.0000000000000000
4.0298750703912587 6.2639615319089588 0.0000000000000000
4.2236065034539036 6.3143848183462916 0.0000000000000000
4.0830903929445528 6.4568693840330296 0.0000000000000000
4.2768237644119003 6.5073174053331870 0.0000000000000000
4.1363080465611910 6.6497795405423386 0.0000000000000000
3.8893616051837041 6.4065138270536934 0.0000000000000000
3.2359017331565667 5.3412389561023996 0.0000000000000000
3.3764015376367138 5.1986807611215289 0.0000000000000000
3.1826938142902907 5.1483036779767524 0.0000000000000000
6.5099104269754804 5.4767465222743317 0.0000000000000000
7.1592333084831079 4.5711312548171055 0.0000000000000000
1.7925895044681539 5.3240061287175608 0.0000000000000000
1.6522150042987058 5.4664771947859716 0.0000000000000000
1.6084459235585009 5.2856307087919578 0.0000000000000000
1.4638160733889913 5.4208486694810372 0.0000000000000000
1.5153060988655767 5.6089198349702736 0.0000000000000000
1.3118321878501220 5.5629158923420894 0.0000000000000000
1.7215845746504479 5.1210746711318649 0.0000000000000000
1.8798549216701650 4.9885068028037809 0.0000000000000000
2.0206774014667293 4.8455044542474184 0.0000000000000000
2.1608776318276397 4.7032512061735749 0.0000000000000000
2.1076207954587294 4.5103632041227231 0.0000000000000000
1.7054844557138711 5.6595657052530788 0.0000000000000000
1.5681852970369761 5.8011827932204207 0.0000000000000000
1.6153571191599503 5.9930998896545615 0.0000000000000000
1.4411889177025592 5.9274518669538327 0.0000000000000000
1.4627245099652466 6.1208713126041125 0.0000000000000000
1.6725808026340869 6.1776389837908861 0.0000000000000000
1.8091670986022990 6.0433410319082554 0.0000000000000000
6.8632272047581067 6.1058335644323147 0.0000000000000000
6.6695176267278411 6.0555115093100733 0.0000000000000000
7.1974594471886002 6.0136966453874114 0.0000000000000000
4.2876397295825832 3.2868302287041620 0.0000000000000000
3.5551433073336263 6.4988245560851201 0.0000000000000000
3.7297295861153987 5.8278007525182902 0.0000000000000000
3.5892254834227328 5.9703886070752104 0.0000000000000000
3.6424331383298401 6.1633030978426246 0.0000000000000000
3.4487256448892842 6.1129787821544763 0.0000000000000000
5.4690103879003704 4.3104091909438216 0.0000000000000000
3.5019335416807271 6.3059054139649744 0.0000000000000000
5.0325343953886392 5.9877790174901477 0.0000000000000000
7.5424906892676438 2.7011037461993186 0.0000000000000000
7.3379732577558725 5.8712224045696182 0.0000000000000000
4.2959704108669525 7.2285541753334988 0.0000000000000000
4.1554535733344444 7.3709867002903140 0.0000000000000000
3.9617179377810117 7.3206473960376446 0.0000000000000000
4.3491947674696609 7.4215043222258057 0.0000000000000000
2.3392984021988039 6.0034841389182629 0.0000000000000000
2.4800497489385309 5.8608574612359448 0.0000000000000000
7.7063477228486814 5.2507730424725825 0.0000000000000000
7.5658105354823029 5.3932971703847352 0.0000000000000000
4.8687731959180613 3.4377573507301471 0.0000000000000000
5.0092643713532929 3.2951793325356049 0.0000000000000000
3.3614394352528754 6.4484907454426610 0.0000000000000000
6.0160831322273918 4.9901255884139060 0.0000000000000000
4.8498059075145150 2.7165067556592257 0.0000000000000000
5.2644770321918646 7.4808098051098462 0.0000000000000000
3.4104914796185182 4.6702509847351950 0.0000000000000000
3.3572880182635298 4.4773201444272903 0.0000000000000000
3.2167844786926798 4.6198891657578320 0.0000000000000000
3.1635813585158101 4.4269643682092550 0.0000000000000000
3.0230714985307223 4.5695189514512595 0.0000000000000000
6.2588453363957584 3.2623318668268415 0.0000000000000000
6.1183462126927406 3.4049475662822193 0.0000000000000000
6.0651330560182526 3.2120477829116054 0.0000000000000000
3.1486068925145574 5.6767128904370825 0.0000000000000000
6.3544296445512884 6.8691551727639490 0.0000000000000000
2.8335085828461737 6.4900223726751101 0.0000000000000000
7.3188756028445487 5.1499281230720486 0.0000000000000000
3.3040857749191908 4.2843909111200542 0.0000000000000000
3.1103787904364624 4.2340436188959227 0.0000000000000000
3.2508835931902103 4.0914657857742007 0.0000000000000000
3.0571753207942005 4.0411284563989183 0.0000000000000000
3.3913838711900706 3.9488853881137320 0.0000000000000000
5.2370327302788757 2.8171888237570508 0.0000000000000000
3.2550207781256146 6.0626025067138407 0.0000000000000000
6.5732206455149189 2.4490001433781456 0.0000000000000000
4.5877772658324192 3.7229669835742407 0.0000000000000000
4.2344280954398839 3.0939252277616944 0.0000000000000000
4.1471224794727126 3.4293326976600436 0.0000000000000000
4.0066069746930886 3.5718044637902282 0.0000000000000000
3.9533961692930610 3.3788644878733622 0.0000000000000000
2.0543933268336092 4.3175061907722290 0.0000000000000000
6.7717988338053132 4.4702649710770217 0.0000000000000000
6.5780912457479657 4.4198796343895390 0.0000000000000000
6.5248862416425508 4.2269471383583159 0.0000000000000000
6.6653858865351419 4.0843875887369911 0.0000000000000000
6.6121784689429779 3.8914471524930754 0.0000000000000000
6.7526774022237923 3.7489130648913940 0.0000000000000000
3.2126858449545215 2.6487422373170064 0.0000000000000000
3.2658801652446683 2.8416506933052887 0.0000000000000000
4.9943012578196733 4.5450212363899167 0.0000000000000000
3.2699890746845024 4.8128175762135834 0.0000000000000000
4.7324219077646390 5.5515122834090516 0.0000000000000000
3.0464088853858065 7.2618956179323506 0.0000000000000000
3.2401110776646633 7.3124546985681178 0.0000000000000000
3.3805885726988492 7.1698974042323416 0.0000000000000000
2.4458591441205160 6.3892691135298634 0.0000000000000000
3.1976805967667987 3.8985455167433094 0.0000000000000000
5.9138162713536921 6.5752443187875320 0.0000000000000000
4.1662410790614217 4.1505901526397819 0.0000000000000000
2.1949332944254909 4.1749511790214804 0.0000000000000000
5.2071218940609265 5.3167771363003800 0.0000000000000000
5.3476250146817863 5.1742374640375068 0.0000000000000000
5.1539160208173938 5.1238407906682903 0.0000000000000000
6.9463931165091184 3.7993705291486553 0.0000000000000000
3.0953994504220148 5.4837711868401291 0.0000000000000000
4.9560589207157166 3.1022308268993828 0.0000000000000000
6.2779746029674746 3.9836806364958730 0.0000000000000000
6.6504130138011766 5.3341659427943773 0.0000000000000000
6.4567074873360317 5.2838186814502297 0.0000000000000000
3.9084988793175013 7.1277711165452153 0.0000000000000000
5.1389445919864896 6.3736377151916637 0.0000000000000000
5.2561708234318978 3.5385807771840048 0.0000000000000000
2.9166635559436966 4.1836822572337775 0.0000000000000000
7.8809098643914552 4.5797282354377078 0.0000000000000000
2.8784681730575166 2.7411761719220178 0.0000000000000000
7.2465377040184826 4.2357104461034751 0.0000000000000000
7.1060231429603720 4.3781968330165535 0.0000000000000000
3.4977898208429821 4.3347545926700013 0.0000000000000000
5.5604598161866656 5.9459572033141646 0.0000000000000000
2.4077991843581446 4.9466458309662249 0.0000000000000000
4.4173345684981076 6.3648801585504842 0.0000000000000000
6.5481237270978072 6.9194865808499015 0.0000000000000000
5.0475057401826717 4.7379621893744748 0.0000000000000000
5.1880047269284368 4.5954163434784876 0.0000000000000000
3.5127697903268982 3.0849434194274989 0.0000000000000000
3.3722742046645102 3.2275042590512140 0.0000000000000000
4.9751825318681231 3.8236339849725471 0.0000000000000000
6.8207939168423790 2.6920887784211689 0.0000000000000000
2.3778945852882782 7.4459330199381411 0.0000000000000000
2.4311254075050672 7.6387948627430999 0.0000000000000000
4.6260084061285216 5.1656303962442136 0.0000000000000000
4.0681544862005090 7.7064279133667304 0.0000000000000000
7.6531370953269633 5.0578481614059223 0.0000000000000000
3.9425761217910260 6.5994090432557524 0.0000000000000000
3.8128866678365090 3.5213235592639154 0.0000000000000000
2.8867339331421022 6.6829699540706580 0.0000000000000000
5.1347985533503282 4.4024710885860099 0.0000000000000000
2.9507618125903123 3.6553132249190754 0.0000000000000000
3.9725159506536980 4.1001486411846475 0.0000000000000000
2.5100942412831033 3.3615796616439124 0.0000000000000000
2.3165573411552853 3.3112639383244113 0.0000000000000000
2.2634992533762799 3.1186654988288245 0.0000000000000000
2.4037505791080429 2.9759409117657643 0.0000000000000000
2.2097494259907218 2.9270198758104580 0.0000000000000000
2.1762318125734152 3.4537949389495437 0.0000000000000000
2.5142332995949914 5.3324792993022552 0.0000000000000000
2.3737241095035011 5.4750153601768874 0.0000000000000000
4.6941889636568410 4.1087977691005522 0.0000000000000000
5.7649701723752758 2.7758832516797791 0.0000000000000000
2.3205125045741020 5.2821020996866412 0.0000000000000000
7.4402594173652226 4.2861256488749415 0.0000000000000000
7.3870565107736477 4.0932059702407626 0.0000000000000000
2.6249372668701731 7.6892252249607225 0.0000000000000000
6.5290170193841854 6.1981127270922087 0.0000000000000000
3.3381807668406016 3.7559545383151760 0.0000000000000000
5.8905421246355543 3.8829732637507055 0.0000000000000000
5.4645520632096263 2.3391092490379028 0.0000000000000000
3.7679947487114669 7.2704100361845114 0.0000000000000000
3.5742856845551025 7.2201872809585836 0.0000000000000000
3.6274975548798714 7.4130949855598391 0.0000000000000000
5.1730323546786785 5.8452022375242345 0.0000000000000000
3.9384224342854459 4.6285031438394686 0.0000000000000000
2.5782563963348992 2.3057712841443818 0.0000000000000000
3.3955193075303658 5.9200473256158874 0.0000000000000000
5.3434557702195713 3.2031463205349358 0.0000000000000000
6.5398242871208447 2.9771171964039076 0.0000000000000000
7.5126031411033551 5.2003596055308305 0.0000000000000000
3.2999589515338172 2.3132371308987087 0.0000000000000000
7.3911798384641356 6.0641582595032508 0.0000000000000000
2.9848664465069885 3.1269361404938816 0.0000000000000000
4.5536850937866769 4.2513719411741020 0.0000000000000000
4.5195930471545545 4.7797650811920098 0.0000000000000000
5.5945515559877732 5.4175971222247785 0.0000000000000000
6.4035029143767064 5.0908891433745334 0.0000000000000000
4.4556323913075939 7.8075555788606925 0.0000000000000000
5.8265328612789187 6.9106405080688242 0.0000000000000000
5.9670439596991356 6.7682240362268145 0.0000000000000000
6.3162062091779250 5.4263902744797132 0.0000000000000000
2.2290901711545317 3.6465808404028826 0.0000000000000000
4.4281548581866748 3.1442710808632310 0.0000000000000000
3.7405600299056294 2.6070180775683713 0.0000000000000000
6.3461235971828707 2.9267972829232347 0.0000000000000000
7.1783602986419854 5.2924186676379099 0.0000000000000000
3.7937690569804894 2.7999964351091422 0.0000000000000000
3.9342720860700324 2.6575648255073188 0.0000000000000000
4.1321473831962727 4.6789328485062054 0.0000000000000000
4.1130302245119896 3.9576656962722216 0.0000000000000000
2.5716485696304630 7.4962149706908345 0.0000000000000000
2.5864772287648905 6.2466745608867420 0.0000000000000000
2.6397248305386412 6.4395830978890718 0.0000000000000000
2.9889788051651687 5.0979001567815887 0.0000000000000000
3.8361488597882536 6.2136143010597378 0.0000000000000000
4.4620536273118292 2.6159428991080649 0.0000000000000000
3.8660958608972513 3.7142712300820770 0.0000000000000000
5.0435211005673004 2.7668957145192876 0.0000000000000000
2.6697337754531034 3.9403619971569253 0.0000000000000000
5.9054872264298046 2.6333592182626542 0.0000000000000000
6.0352005422656534 5.7114512766106653 0.0000000000000000
4.1853582680858397 4.8718577966144432 0.0000000000000000
4.2044794261479508 5.5931257683152573 0.0000000000000000
4.3449929720827072 5.4506425993724026 0.0000000000000000
2.6929845460324384 6.6324843003619600 0.0000000000000000
2.6057136897591597 6.9678797144124882 0.0000000000000000
6.3843869208536486 4.3695270239723918 0.0000000000000000
6.7227211503684998 6.2484234355784096 0.0000000000000000
6.2289095851059724 5.7618790645736837 0.0000000000000000
2.2331070071311392 5.6176135161734546 0.0000000000000000
4.5919212959028251 5.6940328031972998 0.0000000000000000
4.5237647124997258 6.7508091163312773 0.0000000000000000
3.5210732721512872 7.0272786879308207 0.0000000000000000
3.3273761722205366 6.9769486325255849 0.0000000000000000
4.0448433560364636 5.0143543040756997 0.0000000000000000
4.9111644248972857 6.8517494006201076 0.0000000000000000
5.3966680361708814 3.3961174840460915 0.0000000000000000
2.7270572275227045 6.1041602542842579 0.0000000000000000
4.3641201014270399 6.1719305797091142 0.0000000000000000
7.0037386723589901 5.9632811329909483 0.0000000000000000
3.2933420167921357 7.5054414502354172 0.0000000000000000
3.0996452478574881 7.4549022480200051 0.0000000000000000
6.0501730540710961 4.4617393140184047 0.0000000000000000
3.6956426471215047 6.3562111265098977 0.0000000000000000
5.2029616277959017 3.3456149386976026 0.0000000000000000
3.1253786785722242 2.9843019363550973 0.0000000000000000
5.5795786429145080 6.6672315163065523 0.0000000000000000
6.3790124680050662 2.4003472949694293 0.0000000000000000
3.0039698073297876 3.8482183480571726 0.0000000000000000
6.9505331500816006 5.7703644370879736 0.0000000000000000
6.9655129885671068 4.5206873495016167 0.0000000000000000
2.5524747339247260 6.7750143916450867 0.0000000000000000
6.8782162583179378 4.8561339496290934 0.0000000000000000
6.6269824821377386 2.6416765488894320 0.0000000000000000
4.4705498782779465 6.5578393186836141 0.0000000000000000
6.1757044976652962 5.5689380044202075 0.0000000000000000
3.6000640292331503 2.7494749066673423 0.0000000000000000
5.2985628543212879 6.9523794545973203 0.0000000000000000
5.6968164341705325 3.8325323580171511 0.0000000000000000
6.9696414002002394 6.4916437213476366 0.0000000000000000
6.7759256209650438 6.4413295352234554 0.0000000000000000
4.5387122018807133 5.5010883885732484 0.0000000000000000
6.4375919117728797 4.5624543096918790 0.0000000000000000
3.0721829947890922 2.7914151838873718 0.0000000000000000
5.7392821135547933 7.2460569538656179 0.0000000000000000
5.8799137520277780 7.1037677395934891 0.0000000000000000
5.5754312372425439 4.6962977631353793 0.0000000000000000
5.3817139142777224 4.6458443905034645 0.0000000000000000
5.2412108665682755 4.7883600154672639 0.0000000000000000
6.0011121211907215 6.2398348581927729 0.0000000000000000
4.5004774383942809 4.0584562270156201 0.0000000000000000
5.4107369767267324 2.1449532549740522 0.0000000000000000
4.7963597744546034 2.5239032321096802 0.0000000000000000
5.2944179491267533 4.9813003799263456 0.0000000000000000
5.0965765307873001 2.9597108228111986 0.0000000000000000
7.5998924995051986 4.8648984237756601 0.0000000000000000
3.9043301516870912 5.1568661546837902 0.0000000000000000
4.3067562094512546 4.0080842795627429 0.0000000000000000
7.1633557266601127 6.5420172492207938 0.0000000000000000
5.4199495123097901 6.0884839165986602 0.0000000000000000
3.4595698148998153 2.8919883541500684 0.0000000000000000
5.9246252834686306 3.3546177324802082 0.0000000000000000
2.9698674978408590 4.3765990040623155 0.0000000000000000
3.3190759236104790 3.0345730535990807 0.0000000000000000
5.8714087266251314 3.1617095691129142 0.0000000000000000
6.0119182066068904 3.0191546670192380 0.0000000000000000
2.5332144878437610 6.0537778369462245 0.0000000000000000
5.2262378047189237 6.0381280139043962 0.0000000000000000
2.8825573621160823 4.7120459305821152 0.0000000000000000
5.9587014452075246 2.8262642643085156 0.0000000000000000
5.1497583911886124 3.1526526649144859 0.0000000000000000
6.1906791692243912 4.3191831930266913 0.0000000000000000
7.9150129016901456 4.0513198287906489 0.0000000000000000
4.6557378016751452 2.6662652095604793 0.0000000000000000
6.9804580292841054 3.2710027638646650 0.0000000000000000
6.4865888992084928 2.7841996816194854 0.0000000000000000
3.0762775037094130 4.7624430309307231 0.0000000000000000
2.7761465028353198 4.3262037905344952 0.0000000000000000
7.0187233561131945 4.7136232671198952 0.0000000000000000
4.4855026758952947 5.3081485509078039 0.0000000000000000
4.7515450051877073 6.2728900314546312 0.0000000000000000
2.8634575964440607 3.9907687807276209 0.0000000000000000
3.1594860907763094 2.4558642898411529 0.0000000000000000
6.7674233838003550 2.4991530850491857 0.0000000000000000
4.0598186223625321 3.7647378237047113 0.0000000000000000
3.3423138793476146 5.7271119291229393 0.0000000000000000
2.6206388470724398 5.7183174443406513 0.0000000000000000
6.2056333031768371 3.0694287766233339 0.0000000000000000
5.0624699283260854 3.4881316957344923 0.0000000000000000
4.7814833125911305 3.7732834454355100 0.0000000000000000
7.2162188333718857 6.7351284407041536 0.0000000000000000
4.6409831474779510 3.9158791518843570 0.0000000000000000
5.5413415712381822 5.2246622853762377 0.0000000000000000
5.7500301193206829 4.0254682305677134 0.0000000000000000
4.9219779911204586 3.6306929909016841 0.0000000000000000
4.4322932306544214 5.1152142284949376 0.0000000000000000
5.4390677896649890 6.8097800189499376 0.0000000000000000
4.3790829923922709 4.9222845089659044 0.0000000000000000
6.4716804515099691 4.0340160150500370 0.0000000000000000
7.9940575616423475 4.9667149675888167 0.0000000000000000
4.9452443836868083 6.3232906109627978 0.0000000000000000
6.3311812108726242 4.1766018559863491 0.0000000000000000
6.8931774948169764 3.6064189180511996 0.0000000000000000
7.7947840996729463 4.9154499602754171 0.0000000000000000
6.6994647999182968 3.5559630166333687 0.0000000000000000
7.8617879564263378 3.8585238671891218 0.0000000000000000
5.4158004219608991 4.1174588779360768 0.0000000000000000
5.6095185918410007 4.1679392666739430 0.0000000000000000
5.0857390922257233 6.1807110027823153 0.0000000000000000
6.5589700492683916 3.6985080089778712 0.0000000000000000
5.5112790361678607 7.7240876128535376 0.0000000000000000
3.7638205686386144 5.2994033136035430 0.0000000000000000
4.6110497732122200 6.4153888676924744 0.0000000000000000
5.8606047659476044 6.3822904275939667 0.0000000000000000
2.4268659679575459 5.6679438212493123 0.0000000000000000
5.7733107020127523 6.7176857522782480 0.0000000000000000
7.8085132643406654 3.6657756696247343 0.0000000000000000
6.6017595560739508 7.1117778831121772 0.0000000000000000
3.4338006478206813 7.3628496726576333 0.0000000000000000
6.1374714910954449 4.1262634383106391 0.0000000000000000
5.3285058075101741 4.4528985497969940 0.0000000000000000
6.1607515083877340 6.8187414085876750 0.0000000000000000
3.1294852566018387 4.9553717351632338 0.0000000000000000
7.7553099640392746 3.4728064852549441 0.0000000000000000
3.5701084432614429 5.2490412477590889 0.0000000000000000
3.5169019621080868 5.0561132237107786 0.0000000000000000
5.9437536514165235 4.0758941362152079 0.0000000000000000
7.3146931854137609 3.1790381541063844 0.0000000000000000
7.3679206895835554 3.3719409395254423 0.0000000000000000
7.1209591940215322 3.1285740766485901 0.0000000000000000
7.5616470871000816 3.4223243150322049 0.0000000000000000
3.6806464767149598 7.6061828934051290 0.0000000000000000
4.9302602308918733 7.5733534024437281 0.0000000000000000
3.3231950417370815 5.0057488924192794 0.0000000000000000
4.0149304449347269 7.5135476865783177 0.0000000000000000
6.4076292721876245 7.0620987153685890 0.0000000000000000
4.2086749234602960 7.5639068745635027 0.0000000000000000
4.8770811261387639 7.3802709835928137 0.0000000000000000
3.8211915549042454 7.4633460587060521 0.0000000000000000
5.1239497503081415 7.6236670160964364 0.0000000000000000
4.6834015140708898 7.3297887355530547 0.0000000000000000
5.3176191839087901 7.6738530781896479 0.0000000000000000
4.5429222785897334 7.4721742165270078 0.0000000000000000
4.4024146935215329 7.6145050605957749 0.0000000000000000
7.3417988121933755 7.8423810476829914 0.0000000000000000
2.2141067891765398 4.8962299819657318 0.0000000000000000
2.3013774164185072 4.5607706025685593 0.0000000000000000
1.9633232899988649 2.6865347779969810 0.0000000000000000
3.0538158199537717 2.0695448395767473 0.0000000000000000
2.2757593173901642 1.8643497441771482 0.0000000000000000
1.8828946189171940 6.9644741750995820 0.0000000000000000
3.4403921954571577 2.1709770711916319 0.0000000000000000
3.2468572706508607 2.1205007994856930 0.0000000000000000
2.0770886660391432 7.0117623652803571 0.0000000000000000
2.0164493649630373 2.8779923505543290 0.0000000000000000
7.9667446843021441 2.2669115525628971 0.0000000000000000
2.1235676159243013 3.2613314721768361 0.0000000000000000
2.0440552545802855 8.2657421242412870 0.0000000000000000
8.1065356433499609 2.1279583207391255 0.0000000000000000
7.3484871764709849 2.6517641134320895 0.0000000000000000
7.2951145743953791 2.4577857317740914 0.0000000000000000
7.6831673155992419 2.5586507020780376 0.0000000000000000
5.5642398978109879 7.9177512556176586 0.0000000000000000
2.2978379953600538 2.5903844867240453 0.0000000000000000
1.3390507641793186 6.8516537022971216 0.0000000000000000
1.2865527220124193 7.0208530001242897 0.0000000000000000
4.6309056587961743 1.9452435104784267 0.0000000000000000
4.3355835789833090 1.5220785592278112 0.0000000000000000
8.0107202564248770 7.6586294983469978 0.0000000000000000
8.4783988125671588 8.1464833922139803 0.0000000000000000
1.5658309035775282 7.7587835147548629 0.0000000000000000
5.6163181813091514 8.1106565645388677 0.0000000000000000
2.5266163432655757 2.1115833993108697 0.0000000000000000
4.1630690555264369 8.6175511533119558 0.0000000000000000
8.3569371556993435 6.3382955611647462 0.0000000000000000
7.6874998783713995 6.5080362379018428 0.0000000000000000
1.3441520969283420 7.5373411860422017 0.0000000000000000
5.9521637221034878 8.0250808589984004 0.0000000000000000
8.2803638337641878 3.4385521280845497 0.0000000000000000
1.5454214379498559 8.1181603547441235 0.0000000000000000
8.1214053854863515 1.4350474888180393 0.0000000000000000
4.8239695309711266 1.9929204165894283 0.0000000000000000
1.9265643408630504 8.5602347681480637 0.0000000000000000
2.1568925510569006 2.7347618600653947 0.0000000000000000
1.5604333073094876 1.8576179550283032 0.0000000000000000
4.7069040628423089 8.7321211226536715 0.0000000000000000
6.6760986057833378 8.0286049237862738 0.0000000000000000
1.7168054580967580 6.3669992140603036 0.0000000000000000
2.2429744569951016 2.4007175077191758 0.0000000000000000
5.8830764578880714 1.9116203592998098 0.0000000000000000
2.3849349535247404 2.2565730957752201 0.0000000000000000
5.1053927632053275 1.6765857151146888 0.0000000000000000
1.7798478964885032 1.4138912705416187 0.0000000000000000
8.1604462893331338 1.6162634207677227 0.0000000000000000
5.1394945047263612 8.3352936408246023 0.0000000000000000
5.1998857686614892 8.5270867635643146 0.0000000000000000
5.3979656307033439 8.5701142739406428 0.0000000000000000
8.3118975300310165 2.8991387225702567 0.0000000000000000
1.0689427679110510 7.3572168009860883 0.0000000000000000
8.3469516921607170 4.8531178884539266 0.0000000000000000
3.3418422465442972 8.4218105855600260 0.0000000000000000
1.6093115815083341 1.3550460710946188 0.0000000000000000
1.4271176249776683 1.2405090538821293 0.0000000000000000
1.2381844612956303 1.4371330856562348 0.0000000000000000
4.7371115613182013 2.3322117832928826 0.0000000000000000
1.4400903583153430 3.4034472842104573 0.0000000000000000
6.3437155054800600 1.6824305189839799 0.0000000000000000
8.5264429003125493 5.6313454215888967 0.0000000000000000
4.9350449078951906 2.3818720218531930 0.0000000000000000
1.4083458049375830 3.7963884434516606 0.0000000000000000
2.3698311570261263 8.6901709266073883 0.0000000000000000
8.2576171080707592 2.7045290963363899 0.0000000000000000
8.5486347417915169 3.7018128760768270 0.0000000000000000
8.0169825961700720 6.4244191607314338 0.0000000000000000
8.6049607781745099 6.7408771291708200 0.0000000000000000
6.3238565708080934 2.2067634859899221 0.0000000000000000
6.4330277011965284 7.7873748589007485 0.0000000000000000
7.0798930525202683 1.6952166285521939 0.0000000000000000
1.2674650803865555 3.2305114424130004 0.0000000000000000
7.2772963423314732 1.7439042768178314 0.0000000000000000
6.5726480151241278 7.6393562824125807 0.0000000000000000
6.5179678072620622 7.4465214416557766 0.0000000000000000
2.6451937120566038 1.2424759482835448 0.0000000000000000
2.6358859165124513 1.0360459660467365 0.0000000000000000
8.7108754734528215 3.8116102781351717 0.0000000000000000
8.5415116304654664 6.3305749442546997 0.0000000000000000
8.7193222382245246 4.4656965467453196 0.0000000000000000
2.8878957068253270 8.6427989327031760 0.0000000000000000
2.7580725219188995 8.8020889139536660 0.0000000000000000
8.6782072030635096 6.9041705321644189 0.0000000000000000
7.6638948439161263 8.7317797446658947 0.0000000000000000
8.1865089419813017 6.9965618513145484 0.0000000000000000
4.8290186951347387 1.4563321033464973 0.0000000000000000
8.1259514591943773 0.8804300424086501 0.0000000000000000
9.1477359804784282 7.7900996321315175 0.0000000000000000
2.1789983984965788 8.5523495864381687 0.0000000000000000
8.5592907310098081 1.9275160815159325 0.0000000000000000
3.3818881498802527 9.1466036812734082 0.0000000000000000
8.5650635033503928 3.3993914025810286 0.0000000000000000
5.3222100970380515 1.2872748178823012 0.0000000000000000
6.1826587605785921 1.2691813458520660 0.0000000000000000
0.9760408552748141 6.2032701880191148 0.0000000000000000
7.6586577521759169 1.2691823025104392 0.0000000000000000
0.9745281567859916 7.6733564659351776 0.0000000000000000
5.2903681996414393 8.9714424336334986 0.0000000000000000
5.2992548785805669 9.1310244894651440 0.0000000000000000
6.2033794743302133 9.0238376129668953 0.0000000000000000
8.7317098274148730 6.1822760112183506 0.0000000000000000
7.6850263412603219 9.0272895643092710 0.0000000000000000
1.8739678737783048 9.1198501804258800 0.0000000000000000
2.2018782345356662 9.1390873885812063 0.0000000000000000
2.3408630645806818 8.9891777215092485 0.0000000000000000
9.0149680862031651 2.3285883373987328 0.0000000000000000
9.0231723573606111 3.7965426138757081 0.0000000000000000
8.7156831625588627 3.2163940206726918 0.0000000000000000
3.6825732745010260 9.1387852519287591 0.0000000000000000
3.6925808689870103 9.3960706720567693 0.0000000000000000
9.1464833049721737 3.3830851942646887 0.0000000000000000
8.7320393514466534 8.2441737442929437 0.0000000000000000
1.7468891727361808 8.7314538146958824 0.0000000000000000
5.1305719066487541 1.4708701825571502 0.0000000000000000
1.4403648122397292 4.8824553916314297 0.0000000000000000
6.6002637568089710 1.4476459851680081 0.0000000000000000
1.4279995569839667 6.3671954855639328 0.0000000000000000
4.8636939388313376 0.8647798769618263 0.0000000000000000
4.7138463073808650 0.9030900266406553 0.0000000000000000
4.7598963238573200 0.7065332250786199 0.0000000000000000
5.1383247881164014 0.8642831600355896 0.0000000000000000
5.2884269373866113 0.9054590205132014 0.0000000000000000
5.2522891511806726 0.7101025214962710 0.0000000000000000
0.8647560012396363 5.1365615100126325 0.0000000000000000
0.9023235734329151 5.2862549922053201 0.0000000000000000
0.7060198459562044 5.2402452517331630 0.0000000000000000
0.8642007609298692 4.8621928278303512 0.0000000000000000
0.9039375403836328 4.7125478320778145 0.0000000000000000
0.7093003347517585 4.7484267193758578 0.0000000000000000
6.3154689951287146 0.8618797644588603 0.0000000000000000
6.6130236840017558 0.8511068068992919 0.0000000000000000
0.8535186531509223 6.6177667731418346 0.0000000000000000
0.8537505631817878 6.3222308693417055 0.0000000000000000
0.6028146257907800 6.3084388184567350 0.0000000000000000
7.7979671687462204 0.8609893295815817 0.0000000000000000
0.8440334499170198 7.7952227914690209 0.0000000000000000
8.7312344527724530 1.7561260588388083 0.0000000000000000
8.6674020874777309 1.5939600435323253 0.0000000000000000
3.8496200967129992 8.7139995885401742 0.0000000000000000
1.4414672717216208 5.1157528551875240 0.0000000000000000
1.2778838384290931 4.7027931141334056 0.0000000000000000
1.1781586347602115 4.4215522466320580 0.0000000000000000
6.1832096915253141 1.0074864872974871 0.0000000000000000
1.2707505015895904 6.1759833932087620 0.0000000000000000
7.6590631775354883 1.0112884772711559 0.0000000000000000
2.3390355974894845 1.2699981562366049 0.0000000000000000
2.2067232713875500 0.8515224781165629 0.0000000000000000
0.9739532880029838 2.3200683348696360 0.0000000000000000
3.7946280974878199 0.9790746902684381 0.0000000000000000
3.8165834445930686 8.9931358182517815 0.0000000000000000
3.2243907801505372 8.7344935049039147 0.0000000000000000
3.8526762819190625 1.2864114930950421 0.0000000000000000
3.6764733362204711 0.8560455783858010 0.0000000000000000
0.8534689380907233 3.3834471562832262 0.0000000000000000
1.2679872232770433 1.7564369109215376 0.0000000000000000
3.6553654027940574 1.4614912494349406 0.0000000000000000
3.3864952788515161 0.8511053905160273 0.0000000000000000
0.8619276736801399 3.6824234531456574 0.0000000000000000
0.6042379962522142 3.6933724480099133 0.0000000000000000
1.8735047344413962 0.8804748647166383 0.0000000000000000
0.8802452740639883 1.8763444823145587 0.0000000000000000
4.7149292744822606 1.2927989076016484 0.0000000000000000
1.2710008586109962 5.2866478011982121 0.0000000000000000
6.7789822701263889 1.2892262162679742 0.0000000000000000
5.2974049645421184 8.7027634639873330 0.0000000000000000
4.7088083753968046 8.9711209271490198 0.0000000000000000
4.6993838546133269 9.1279912324919810 0.0000000000000000
8.9721975960232498 5.2903417723364248 0.0000000000000000
9.1316366303865752 5.2990731119207286 0.0000000000000000
8.7206133329067406 4.6771115068598714 0.0000000000000000
8.9709159844042112 4.7091896520195524 0.0000000000000000
9.1279886789129900 4.6997906714486835 0.0000000000000000
8.9777232044149180 6.1753431795163864 0.0000000000000000
9.0152951090581883 7.6619611111555965 0.0000000000000000
1.0083006188565806 3.8130501356733211 0.0000000000000000
2.3381050739749845 0.9981548343688529 0.0000000000000000
8.7320223958676024 2.3426375543973630 0.0000000000000000
2.1906899239145869 1.4624467263001300 0.0000000000000000
0.8530607844735028 2.1998366263393345 0.0000000000000000
3.4010290197497755 1.4393555434274110 0.0000000000000000
1.4378752944482340 3.6456620373307382 0.0000000000000000
0.8800468119566560 8.1250572420442015 0.0000000000000000
9.1195629905780997 1.8760012415458949 0.0000000000000000
9.1442152223854585 3.6778584067010338 0.0000000000000000
8.5465651149507025 5.1307042584624520 0.0000000000000000
8.5471345453733694 4.8711311517050531 0.0000000000000000
6.6183284881098414 9.1465017360380028 0.0000000000000000
6.3225395976561218 9.1464016992990658 0.0000000000000000
6.3087596321955548 9.3973662762075119 0.0000000000000000
9.1465330965534228 6.6173267785617034 0.0000000000000000
9.1540287788921830 6.3510489567021793 0.0000000000000000
9.3698380646709030 6.3004334613129869 0.0000000000000000
8.1263779749690475 9.1196207814115233 0.0000000000000000
7.8039225917757546 9.1474174004255921 0.0000000000000000
7.8230714293126553 8.5383311350753424 0.0000000000000000
9.1197588433496932 8.1244037294261489 0.0000000000000000
8.5731465119519772 7.7936951097357037 0.0000000000000000
9.1527793045362262 2.2048824028327418 0.0000000000000000
6.1829867849420888 8.7321268458207779 0.0000000000000000
0.8135950148696195 9.1852558816867447 0.0000000000000000
9.1769421085686727 9.1745358192266391 0.0000000000000000
0.7829056698227318 0.7862014122334179 0.0000000000000000
9.1764471254517872 0.8258781138229143 0.0000000000000000
7.8409889509833191 8.3387992464692733 0.0000000000000000
1.4023381010944094 7.6985007337893636 0.0000000000000000
8.5627639387784420 6.5975782105791296 0.0000000000000000
6.3059445786381012 0.6032452952884071 0.0000000000000000
3.6893320092473600 0.6045849863112953 0.0000000000000000
9.3956953169671298 3.6906423333331939 0.0000000000000000
4.5362792265128276 8.6925583225908465 0.0000000000000000
1.3422150231643499 8.7477864109811048 0.0000000000000000
8.8428904066969487 5.5747202123634310 0.0000000000000000
6.3544922306835288 8.5745550810995042 0.0000000000000000
1.9278928367285053 1.4378227324896173 0.0000000000000000
1.3873936852331539 5.7467989773036550 0.0000000000000000
4.4258558295189321 8.8408545571823467 0.0000000000000000
1.8917588461478092 8.3910578423810449 0.0000000000000000
7.3876824466626738 0.9991015307523546 0.0000000000000000
7.3844245888240145 9.0077040873989489 0.0000000000000000
2.6196478695378000 8.9541421459147887 0.0000000000000000
8.5510786323873713 1.2019302190686447 0.0000000000000000
8.7688326193121107 1.2524641640423246 0.0000000000000000
8.2412262459139551 8.7330842995265296 0.0000000000000000
3.0668490505916739 8.6852043916974644 0.0000000000000000
9.0505261594575384 2.4996941733198983 0.0000000000000000
3.5082160971960303 8.2724066833587386 0.0000000000000000
1.7582301263369224 1.2704767539418764 0.0000000000000000
9.0356958517615436 7.4538649899206177 0.0000000000000000
7.3961187062211380 8.7152915315127757 0.0000000000000000
8.4366766841884733 8.6470321192777426 0.0000000000000000
8.6460529954517114 8.6903498533435926 0.0000000000000000
8.7872364004796779 8.5445635579191155 0.0000000000000000
4.3488562486795139 8.6550598229019116 0.0000000000000000
7.9911616490708619 6.9539291809012811 0.0000000000000000
4.0745118851077384 1.2728920831688337 0.0000000000000000
6.7623659718952034 8.7124220857912267 0.0000000000000000
2.5730803222998215 8.7239946723498960 0.0000000000000000
2.9477341913709205 8.8343447583850594 0.0000000000000000
3.4029872672327137 8.5611956468536814 0.0000000000000000
6.6169133308629302 8.3492890394486228 0.0000000000000000
4.8799867619768804 8.5633767571034909 0.0000000000000000
7.5917740237670328 6.8456665473073954 0.0000000000000000
8.8143536493229426 1.4584859946064730 0.0000000000000000
4.9274581292363528 8.2901107021116207 0.0000000000000000
5.9659220680166127 8.7129455802981344 0.0000000000000000
1.4367238824696065 7.8318953563710094 0.0000000000000000
7.0833372630613027 1.1719438980431811 0.0000000000000000
8.3295681699498232 3.6507031969057882 0.0000000000000000
6.3757142646286544 8.3117285710325479 0.0000000000000000
1.6638403664300014 8.6057401892559842 0.0000000000000000
7.7925870911790529 6.9057653225099340 0.0000000000000000
0.9660970675721753 4.5340656324702664 0.0000000000000000
1.7022027864766627 4.9224249716448814 0.0000000000000000
1.4116761414013281 1.8144366204314308 0.0000000000000000
7.7949917557664303 0.6218876909873566 0.0000000000000000
7.8010213865766129 9.3968630753381763 0.0000000000000000
2.2048577159870808 9.3782721213933566 0.0000000000000000
0.6035473386561782 2.2026386566004104 0.0000000000000000
5.4597872686622200 9.0166268137803911 0.0000000000000000
9.0180102045101211 5.4577609720759321 0.0000000000000000
1.3416573114408037 4.3017346669912122 0.0000000000000000
4.8963143765433337 1.6883494805113894 0.0000000000000000
4.9113620479255617 0.5378395878058096 0.0000000000000000
5.1017241951245618 0.5404212606478827 0.0000000000000000
0.5379205436082108 5.0889282639949700 0.0000000000000000
0.5404019805760873 4.8987981460639283 0.0000000000000000
9.7348888249830203 6.3091781417595074 0.0000000000000000
6.3096319101753062 0.2654719467851318 0.0000000000000000
0.2651099326747361 6.3096356717806206 0.0000000000000000
0.2651170878327606 3.6916529079167582 0.0000000000000000
6.3100352317308959 9.7349788168538947 0.0000000000000000
3.6902323326401074 9.7347808921221333 0.0000000000000000
9.7348988891118147 3.6912053205631787 0.0000000000000000
3.6898611469166416 0.2654863946414563 0.0000000000000000
4.4238018152218812 1.1701537096756705 0.0000000000000000
5.5563253169826243 8.8403473807972972 0.0000000000000000
5.7168243345531264 1.3837184574316712 0.0000000000000000
9.7425366803026225 7.7998582588715788 0.0000000000000000
7.8014062799365798 0.2577661805211410 0.0000000000000000
0.2575472145526064 7.8003259857371363 0.0000000000000000
7.8019099606003364 9.7426404026950912 0.0000000000000000
0.2574725415457817 2.2009717299795226 0.0000000000000000
2.1985121368124898 9.7424842979628377 0.0000000000000000
9.7424463524260556 2.2005198989106058 0.0000000000000000
2.1980053607992511 0.2577940671662561 0.0000000000000000
1.3185712015006146 4.1102642249265111 0.0000000000000000
7.4988072857998889 1.3137482337455457 0.0000000000000000
1.3448259031778416 1.6239649260892288 0.0000000000000000
7.0576289078794980 8.8395993321654771 0.0000000000000000
9.0209877658085542 4.5399837566018730 0.0000000000000000
4.5412616095231453 9.0137452026365423 0.0000000000000000
9.4066036373764561 7.7851257547406085 0.0000000000000000
0.5924989207106711 7.7873873184449183 0.0000000000000000
2.2110506136756123 0.5933152696102945 0.0000000000000000
9.3993989295991192 2.2158519055169483 0.0000000000000000
1.2039087465463774 1.2116505520574228 0.0000000000000000
5.9408302260713137 1.2204944721220055 0.0000000000000000
3.2256352554666825 1.2624947072410153 0.0000000000000000
0.9194029627512008 7.4889405093772199 0.0000000000000000
2.4941960253858793 0.9209907423870315 0.0000000000000000
4.2966749259193495 1.3393609205833978 0.0000000000000000
8.8482417683585020 2.8773189507015910 0.0000000000000000
8.0484111250314978 8.3579042584125300 0.0000000000000000
8.7368351173592682 5.3016541655991887 0.0000000000000000
6.7901960535488870 1.0374069528586389 0.0000000000000000
8.9636374627388520 6.7896253566638149 0.0000000000000000
1.0367664714873648 6.7900847235027006 0.0000000000000000
1.0363575743938545 3.2110993859182519 0.0000000000000000
3.2095319184671451 8.9634290264527223 0.0000000000000000
6.7906674283796384 8.9626652757460974 0.0000000000000000
3.2093355104581724 1.0373995294903022 0.0000000000000000
8.9632233645575816 3.2107852045428649 0.0000000000000000
4.0611884512343028 8.7660621201631557 0.0000000000000000
6.9718801311343750 9.0038943688983473 0.0000000000000000
8.6958556075179416 2.4952977813675026 0.0000000000000000
8.7406433087344109 6.7626618953420206 0.0000000000000000
8.9733905863255679 1.7592868319037247 0.0000000000000000
1.7571127653984688 1.0271638796346472 0.0000000000000000
1.0259209602440766 1.7595714802230396 0.0000000000000000
1.0265680284543885 8.2416447338551766 0.0000000000000000
1.7573048948116430 8.9739910741678024 0.0000000000000000
8.2428817049976377 8.9731744162514424 0.0000000000000000
8.2423453838815668 1.0270166078152059 0.0000000000000000
8.9740884619095276 8.2411373506624823 0.0000000000000000
1.2653166209425861 7.6696409908101630 0.0000000000000000
8.7753871315795742 5.9284835500523823 0.0000000000000000
5.2121682570953496 9.3190032271173528 0.0000000000000000
5.0774323006916031 9.4871111013744827 0.0000000000000000
9.3192969804564054 5.2120721803967260 0.0000000000000000
9.4870679387532721 5.0774741294894410 0.0000000000000000
3.0321289549069141 0.9952962306665362 0.0000000000000000
9.0094937237329162 3.0319168057669090 0.0000000000000000
0.9942894939151952 3.0334714918105630 0.0000000000000000
0.9914660969109089 6.9578398167963407 0.0000000000000000
3.0319231868263845 9.0046100998772047 0.0000000000000000
6.9727403989659686 0.9972182050195286 0.0000000000000000
9.0033835993387736 6.9735110364977873 0.0000000000000000
7.8369469492552541 1.4187563962232566 0.0000000000000000
1.1195676298227133 5.5764563432495180 0.0000000000000000
9.3061658706499788 4.7267202895540299 0.0000000000000000
4.7263740904508094 9.3061411851136597 0.0000000000000000
3.6225665095187440 8.5840189123773225 0.0000000000000000
2.9495605163586580 1.1564857351992404 0.0000000000000000
1.1966559908576959 7.1865704087944327 0.0000000000000000
0.9270653523144575 2.4835898397830394 0.0000000000000000
1.2560341348390680 3.8093558625418740 0.0000000000000000
1.2537791516790573 8.2358010755356599 0.0000000000000000
1.2956475518978028 8.3488265299631248 0.0000000000000000
8.5791619295433055 2.1651100408781372 0.0000000000000000
1.2999033891285503 6.0148314575990041 0.0000000000000000
8.6866057707934843 5.6556544811253930 0.0000000000000000
5.7906600878432375 8.6343881644565563 0.0000000000000000
8.6373674444223756 4.2805523840323891 0.0000000000000000
5.2541243721934157 1.4074160031135869 0.0000000000000000
0.3683787105689713 4.9964225077703146 0.0000000000000000
5.0039812745530945 0.3680828698098944 0.0000000000000000
3.7856717846515164 1.4097424940966639 0.0000000000000000
8.7965965850405112 4.0666398142178375 0.0000000000000000
1.5473333989628735 6.2956280559657340 0.0000000000000000
5.5702658735352593 1.1205383180848398 0.0000000000000000
5.4728664366083235 0.9779880238700409 0.0000000000000000
8.7040800439493111 8.3979716450453008 0.0000000000000000
1.5547233103672764 8.7294795170131465 0.0000000000000000
1.1706308013404940 4.0761732516468028 0.0000000000000000
1.6982638287905283 3.4840161258030418 0.0000000000000000
1.1557509446962060 2.9521811538214560 0.0000000000000000
3.4617217719239783 1.6927095444146516 0.0000000000000000
1.1898226026189156 5.9228695361924331 0.0000000000000000
4.5338317013624172 0.9610830186776969 0.0000000000000000
0.9553510121748788 5.4661515422044831 0.0000000000000000
1.4470389638937020 1.9504724037643852 0.0000000000000000
6.0480428037434395 1.3006127341422975 0.0000000000000000
8.5186104582240407 8.8261732373701545 0.0000000000000000
5.4470250002549898 8.7200912540826447 0.0000000000000000
8.3664185286884880 5.1268947386624113 0.0000000000000000
7.2986474425705010 8.8572122053280733 0.0000000000000000
8.6136258148948297 8.1711694724833190 0.0000000000000000
8.5819191014811231 8.0625246086963500 0.0000000000000000
8.5992177099852647 4.7458745043440569 0.0000000000000000
1.2904039550402890 3.9498979931829896 0.0000000000000000
1.5314033640292679 1.0128608268078709 0.0000000000000000
8.9955096488629493 1.5445912005521309 0.0000000000000000
1.0105860218172988 1.5346770212396770 0.0000000000000000
1.5409871619421438 8.9603516450579921 0.0000000000000000
1.0122937927457734 8.4465868713936167 0.0000000000000000
8.4478433646320550 8.9948051679085950 0.0000000000000000
8.9923066324945289 8.4617302717735008 0.0000000000000000
8.4584760887264565 1.0069970887899664 0.0000000000000000
8.5989222831945753 3.2749842851692050 0.0000000000000000
1.4324579644435071 5.2612797228373349 0.0000000000000000
6.2431472822589891 8.6142703729094769 0.0000000000000000
0.9358674095279065 3.9632496258563270 0.0000000000000000
0.9337218040035382 6.0394484559588966 0.0000000000000000
6.0373245113667755 9.0672408206515236 0.0000000000000000
3.9611132544187115 0.9418145887744102 0.0000000000000000
2.3055855638205958 1.3984959338224754 0.0000000000000000
1.4358606708942645 6.5789241665640272 0.0000000000000000
8.6081233268293627 2.2731599876265678 0.0000000000000000
6.7030041163089589 1.4090522481038115 0.0000000000000000
7.7050640227289895 8.6131309485122802 0.0000000000000000
4.7001684849359906 1.0432917357929739 0.0000000000000000
1.0421511385746161 5.3001578145210200 0.0000000000000000
8.6338861689742377 1.8301996760186166 0.0000000000000000
1.0443355791807412 4.7006913070425957 0.0000000000000000
5.2999491390246831 1.0494066214960847 0.0000000000000000
6.0351822369533066 0.9374050240298554 0.0000000000000000
9.0542957685153329 6.0654406514111008 0.0000000000000000
3.9630213256494886 9.0672380058209399 0.0000000000000000
9.0635040165410370 3.9636135092930038 0.0000000000000000
1.4243413983588664 8.0676340651978702 0.0000000000000000
1.1231385463650481 7.0393164357612648 0.0000000000000000
8.9605950341921066 2.6669512019652788 0.0000000000000000
1.8132751668972646 8.6231907471130231 0.0000000000000000
9.4161473150858335 4.8821924686498601 0.0000000000000000
4.8819630904121212 9.4164948531699082 0.0000000000000000
6.3631302012603053 1.4154665449113122 0.0000000000000000
6.2533414258185323 1.3834646169169309 0.0000000000000000
1.3930189169240457 6.2548624652582818 0.0000000000000000
7.7253902842645692 1.3902552492699622 0.0000000000000000
7.5251515017297654 0.9220029140548055 0.0000000000000000
7.5254939758841228 9.0743844259866684 0.0000000000000000
2.4767919798826235 9.0692333780972110 0.0000000000000000
2.0168082366812650 1.6933346775379621 0.0000000000000000
6.9063764631416635 8.7217334673901146 0.0000000000000000
5.0982958729989223 8.5941591562981152 0.0000000000000000
8.8863135281556733 4.4343649784652905 0.0000000000000000
1.4288010515973213 6.9934168812991171 0.0000000000000000
5.0983415600083051 9.1541611974271682 0.0000000000000000
9.1541114505797587 5.0983952548734681 0.0000000000000000
9.1870132307967243 4.8951852499796598 0.0000000000000000
4.8949513543535366 9.1872389404834198 0.0000000000000000
4.5678354850504146 1.2836219396767536 0.0000000000000000
8.8221462187238817 8.7914005118958229 0.0000000000000000
1.6742602022418318 8.0157895528802801 0.0000000000000000
4.7743526740161366 8.6241862557854247 0.0000000000000000
4.9125489243223344 9.6954146733274555 0.0000000000000000
9.6950350886812036 4.9126954072374813 0.0000000000000000
1.5567772709004546 6.6175107104229260 0.0000000000000000
2.2699384048758726 8.6178007400561256 0.0000000000000000
8.3272655763113281 6.5384151619815478 0.0000000000000000
1.5583604171603374 5.1509260817955420 0.0000000000000000
1.5531074064311081 3.7023108360431016 0.0000000000000000
1.5653852788475093 4.8615358791041832 0.0000000000000000
2.7804815367735163 1.1419491688605918 0.0000000000000000
1.2375100367909833 2.3092850004331051 0.0000000000000000
5.9147329083301372 8.8467682510578260 0.0000000000000000
1.3050547332353288 5.8697203287357498 0.0000000000000000
1.2646285960576051 6.7416708331155677 0.0000000000000000
8.6243654005055355 6.2137181207650007 0.0000000000000000
1.3234725815615349 5.4031940916573094 0.0000000000000000
8.7181733820872296 3.9562488112619487 0.0000000000000000
9.0802837356805952 6.2225250057504828 0.0000000000000000

CELL_DATA 4666
SCALARS f:C2d double 3
LOOKUP_TABLE default
0.9973127813035598 1.0001292695839270 0.0049028168033875
0.9974250174048220 1.0002824832256463 -0.0025065271826856
1.0024526542978518 0.9990772568875657 0.0045008045035056
0.9995636757255755 0.9984070319826021 -0.0131099768898764
0.9974470429014997 1.0002572290099327 -0.0024689402311340
1.0023238899637921 1.0007676830214551 0.0022921593848316
0.9996081380831640 1.0016219721452617 -0.0003593012875260
0.9995256924718212 0.9980494509284843 -0.0132016322549019
0.9999172673983601 0.9985970992191632 -0.0104401954981367
1.0024293700481322 0.9988247426579450 0.0046890424173077
0.9997277387965868 0.9973743150737359 0.0142896736226838
0.9968312967911391 1.0000663637652307 0.0041185787725644
0.9973366920464471 1.0000572793049920 0.0042713870529481
0.9994966902834396 0.9980354906361387 0.0134404383406729
1.0033729853300453 1.0003021010402757 0.0021608419664628
0.9971076451766218 1.0002272750122274 -0.0021935216108848
0.9971094778381229 1.0001938918261848 -0.0022997999978403
1.0011618220190521 1.0015750034678406 0.0025518084861061
1.0006876833846157 1.0000126855475204 -0.0006940773810087
1.0013423562890855 1.0014691591380209 -0.0013202246790896
1.0009950332996365 1.0000245661372980 0.0005615586160752
1.0011731848714336 1.0010248281093390 0.0024016325560432
1.0006772051749238 1.0000173166716353 -0.0007871290653664
1.0010017143711643 1.0000108834619705 0.0005319937201232
1.0012619506416665 1.0015543026733873 -0.0025194393968285
1.0015758473115746 1.0018919570193050 0.0003125866893863
1.0001530900625790 0.9999139992377617 -0.0002032144078975
1.0000260223225241 0.9999724355615833 0.0001846163390916
1.0000321551210813 0.9999594275850094 0.0002318200356633
1.0001797747882781 0.9999043148043645 -0.0000297600764076
1.0008277950479569 1.0001977698221889 -0.0019252776880542
1.0005447356585848 0.9999694084919403 -0.0013090195320426
1.0006843821887925 1.0012335142456537 0.0035869199962084
1.0009524080722165 0.9999567928599559 0.0015228205811418
1.0006957941038532 1.0011496903104360 -0.0032153957873568
1.0007476073696848 1.0007950823389598 0.0032263594152878
1.0006039365604322 0.9999588925034867 -0.0013760952822152
1.0007702533320442 1.0013538793528569 -0.0037834183425209
1.0009740412913120 0.9999543588268437 0.0015280678976879
1.0022061858839173 0.9999865446366696 -0.0003531223304022
1.0014108211228079 1.0001399521173944 -0.0017517881167835
1.0011422038720030 1.0014868655902003 -0.0028975418275468
1.0009295285512296 1.0000449319636391 0.0004278598782725
1.0005832708426281 1.0000517221292415 -0.0006840552298692
1.0013312822048750 1.0010503612142527 0.0025470358080873
1.0013639876657974 1.0014081891224904 -0.0018702079287345
1.0008907133025466 1.0000490318773443 0.0004259737122570
1.0005999643454029 1.0000428382562494 -0.0006461662907845
1.0011179410820159 1.0014038710897983 0.0029560582113994
1.0000282428458858 0.9999775968329768 -0.0002186241620839
1.0001830577328650 0.9999279727875493 0.0001809970919204
1.0001509885652342 0.9999184450720489 0.0001859477935826
1.0000238407763242 0.9999679879030948 -0.0003008934050138
0.9991706013727660 1.0002886067499956 -0.0004067406731229
1.0002853161321834 0.9999610032643597 0.0000385002269774
1.0002884149511357 0.9999535486591009 0.0000850876955100
0.9993213733187706 1.0002972013177831 -0.0001693781523317
1.0016482578611394 1.0011545224230098 -0.0022547413115153
0.9970419149184306 1.0001949294203272 0.0092411679696519
1.0011925537605397 1.0019425179328967 -0.0022104345808226
1.0012996020080869 1.0011370367416914 -0.0023308780075977
0.9990977002564979 0.9982611989821004 -0.0112030353730372
0.9969721794051992 1.0001552477332751 0.0093359559778421
0.9976172273308765 1.0003151567196795 -0.0049985343717588
1.0014839236102513 0.9993913270098668 0.0042416901248312
0.9996975285475573 0.9985976139662900 -0.0094184224199838
0.9991250896068066 0.9984578113500047 0.0101940984765816
0.9976472265750023 1.0002847039338254 -0.0046711849052554
1.0002598704512751 0.9999562325159083 -0.0000928852177037
0.9992965635864824 1.0002382842727753 0.0003807677082337
0.9992099993645882 1.0002486575251228 0.0003975193899553
1.0003052513897985 0.9999506839059388 -0.0001444160657545
1.0017960722624424 1.0018982961810536 0.0010150139377288
1.0018412493902071 1.0005316743430230 -0.0014254740569924
1.0016400578976732 1.0000949885508876 0.0003797023153755
1.0013724205576324 1.0005640498004316 -0.0019364265221398
1.0022321103331218 1.0011858848706761 0.0029120695706279
1.0008724858863240 1.0021388958922304 0.0012920228182056
1.0012612592353680 1.0008162203470170 -0.0008965688474984
1.0015164630082629 0.9999170154256728 0.0006028643127198
1.0013765441238509 0.9999815392019874 -0.0011118616679055
1.0014610721801116 0.9999749687925316 0.0006490473513621
1.0010721604749186 1.0008940062448435 0.0012490805883689
1.0012157829126653 1.0008758453481725 0.0001899665051373
1.0011816515791561 1.0009042748869965 0.0008611468177655
1.0014072471351601 1.0000334076710284 -0.0008857091280074
1.0013234913243425 1.0000717446931586 0.0025403333040948
1.0014451161415587 1.0007626105469554 -0.0001046860375781
1.0019273691880923 1.0003051979234618 -0.0014929858384617
1.0001994176303590 1.0000944430916818 0.0011648772676800
1.0015467421645456 0.9995654983136379 0.0040179796861459
1.0007875633865357 1.0029680190637367 -0.0026010411289941
1.0025433251010838 0.9960830843002011 -0.0024156092805137
0.9973986985899984 1.0001796860171506 -0.0004529758278751
1.0004083919087545 1.0038797736287899 -0.0000746535835449
1.0022176821760567 0.9998035473586909 0.0027548015144132
0.9997629331246468 1.0015746403197048 -0.0005983609160463
1.0011958078307988 1.0003365317940023 0.0028132604959877
1.0013912208351754 1.0004759222409814 -0.0049567128987941
1.0017890165535741 1.0000632672748770 -0.0008580411828422
1.0010819060951626 0.9998383881866405 -0.0031952393081343
0.9997156109617441 1.0001179245625609 -0.0013182949623327
1.0006511016347825 1.0027239917136299 0.0008323332644138
1.0009974851964132 1.0017469781251860 0.0001207929740821
1.0043822999761491 1.0004439408416341 -0.0015638877160526
1.0016339676074584 1.0014157873307266 -0.0020497935610088
0.9992783565886089 1.0047763622984467 -0.0026282537734319
1.0000852005288972 1.0000387498925358 0.0001604441785476
1.0009474027876215 0.9994964296988325 -0.0006897650301151
1.0000055887412989 1.0000697588384344 -0.0004157661446600
1.0010892222000471 0.9997370796063925 0.0016984348279982
1.0010232015657665 0.9994850531637247 -0.0000766732484543
1.0000651916968417 1.0000600587426107 0.0001037875101789
1.0000084797869717 1.0000524404997986 -0.0004508843290975
1.0010498374872359 0.9995581582481423 0.0004117483762924
0.9988780002521955 1.0075771760852303 0.0010388297925588
1.0021013538813237 0.9995872771288410 0.0043118455891614
0.9997420582780217 1.0000782156967274 -0.0004610947132190
1.0013366768264149 1.0016457392289677 0.0055387492810785
0.9996641934796183 1.0000345429485200 -0.0006330171832949
1.0017074595700601 0.9997068373595068 0.0050694175494506
0.9996536125751800 1.0000416369646998 0.0008118172491303
1.0018053655813739 0.9997587626494679 0.0033281052031006
1.0016828216754072 0.9997348851634109 -0.0037261814362269
0.9996373435050167 1.0000329890033113 -0.0007102376601998
0.9996590715883774 1.0000303346600283 0.0007979572087501
1.0018685583006719 0.9995688175808874 -0.0050480795474625
1.0011208486789496 0.9992797416789042 0.0000231956744230
1.0000143006527387 1.0000504164814481 -0.0004392723701674
1.0000733395227068 1.0000497946345110 0.0001325508314314
1.0010596095300848 0.9992937642050700 0.0000482610679372
1.0000692074739066 1.0000673641494466 0.0000951795582765
1.0000054926354625 1.0000654317818856 -0.0004388987394754
1.0011167067219229 0.9995992985982998 0.0011120269974566
1.0011214787535672 0.9994123273031433 0.0003694309106773
1.0003961719398873 1.0017925572140318 -0.0014853173066795
1.0022000615260338 1.0014066983696954 0.0033454351443907
1.0017340168474369 0.9995019559625244 -0.0022221669529642
1.0006594363756685 1.0035984110915817 -0.0021417319263271
0.9988659555159911 1.0022822914144214 -0.0022477161765613
1.0017152470664845 0.9995181530958855 -0.0023919259934045
0.9997899632344073 1.0024977563646418 0.0009005892738250
1.0021960261805283 1.0009630107636325 -0.0033988628568792
1.0010323481656260 1.0011386211832716 -0.0009659079573142
0.9998311850819211 1.0013308481938643 -0.0017567971425057
1.0051132867015349 1.0007073807036873 0.0007383356634181
1.0015027696009700 1.0011518134580668 -0.0000632711927975
1.0015072030075098 1.0013848317283005 0.0004779493842063
0.9996277275812721 1.0012631983454685 -0.0005821534477652
1.0012413508220577 1.0003550948697590 0.0025941875658065
1.0014234932303376 1.0000560980356976 0.0001743062572018
1.0013964764733423 1.0008620764728025 -0.0011231414493102
1.0011866810533165 1.0009242283597912 0.0013717780319779
1.0012461628493776 1.0009182133369110 -0.0003325703752655
1.0013278005995858 1.0001054533391920 -0.0006632883558281
1.0013861518010059 1.0001003623871421 0.0001597918891974
1.0013220365312789 1.0009195024913393 0.0012592306040111
1.0013693923557050 1.0000708076911065 -0.0005614948246415
1.0016681964764800 1.0025681041293739 0.0025278977769333
1.0015615964788107 0.9998060641555485 0.0050146962217488
0.9996732951519338 0.9999913409617600 -0.0009921186595302
0.9996582378023022 0.9999746600130797 0.0014672380217590
0.9996044524276623 0.9999681295359910 -0.0011125451286276
1.0015028739402736 0.9998398109654404 -0.0042045381451747
1.0016541566873132 0.9998808830158316 0.0033328925575060
1.0016080463492669 1.0000581563297102 -0.0052323524091095
0.9996422706224950 0.9999781955207603 0.0015188521302955
1.0016070594178266 1.0010072215627548 0.0004744630117170
1.0014798724170166 1.0014539710949597 -0.0007276237347019
1.0012302303744345 0.9986757386881168 0.0019466325650331
0.9999428337308338 1.0000291851231862 -0.0005492607946593
0.9999419637486395 1.0000363633311002 -0.0006168172705623
1.0012407532991585 0.9992509032805699 0.0017764035563223
1.0013801502978654 0.9987093333590451 -0.0010150740520454
0.9999124194697780 1.0000413434587114 0.0004225062518123
1.0013216521358117 0.9987513380016878 -0.0019981650528060
0.9999155164220129 1.0000266773134301 0.0004027812183096
1.0022217264805124 1.0008404705705880 -0.0000842320270976
1.0012665566839363 1.0005431982224033 -0.0020471753885384
1.0007927872383717 0.9992493163747360 0.0024573666300923
0.9999817129820578 0.9999932718931506 -0.0010632807085741
0.9999483659730689 0.9999898467457489 0.0011876087817799
1.0008521265145967 0.9996823514195153 0.0021188437042731
0.9999788845723130 0.9999852514104434 -0.0011047296949195
1.0008022057355919 0.9993178513264983 -0.0021039455011901
1.0008891090411867 0.9991379573002971 -0.0025459025564198
0.9999504955082251 0.9999816845563761 0.0012554100868415
1.0014585685920616 1.0008900085934298 -0.0017037878905795
1.0013893040103392 1.0012882632696471 0.0010777542774207
1.0015165083834188 1.0012817027719909 -0.0006720494526831
1.0015955493063247 1.0001455628395548 0.0001215798256007
1.0020305069737565 1.0004316660320773 0.0002445936848028
1.0027606615376621 1.0007027178124277 -0.0022815501510189
0.9999460808903239 1.0000331171734265 0.0003198098496726
1.0011959108552988 0.9990675540180488 -0.0023199013774712
0.9999480165307796 1.0000586445605082 -0.0006083223873274
1.0011830481650401 0.9995086165587173 0.0017435924776887
1.0013853841667706 0.9990376006868917 -0.0013598826648828
0.9999201995401901 1.0000526274200261 0.0004045543932243
0.9999522955181627 1.0000452881818163 -0.0005915017036948
1.0011713152112505 0.9990715965795384 0.0023217894561121
1.0036042465543542 1.0009087863714219 0.0009434494196171
1.0022834081624570 1.0004140463698821 0.0017349622004960
1.0040529558219491 1.0012004379769401 0.0038083704604108
1.0008028009400753 1.0028304483488431 -0.0010697610342769
1.0015520702818130 1.0012615423939542 -0.0009199722998486
1.0017111750644403 1.0020080658136310 -0.0010588650514388
1.0008219563047243 1.0008662586021628 -0.0028933429644355
1.0016692104992491 0.9999036852074040 -0.0042899600230393
1.0015789669785513 1.0021021600741411 -0.0016480834692271
1.0036446571816504 1.0003598162369993 0.0007501465670182
1.0014857630765168 1.0000806123745813 0.0034581340171359
0.9967651448251552 1.0001529899053863 0.0041360195534491
0.9973799538783801 1.0002085877393259 -0.0030626061126907
1.0018325485408488 0.9983597211258949 0.0041195303130253
0.9967312924503836 1.0001967581913809 0.0041729571149675
1.0018471810386336 0.9973180027066572 -0.0068142050853497
0.9974143644195548 1.0001794301383764 -0.0028246669921321
1.0017004473749656 1.0011025193421641 -0.0009013139571980
1.0011704359490319 1.0030111542186961 0.0018598076556130
1.0023887653148997 1.0001591765764468 0.0058979088755647
0.9991498629680637 1.0023861890113024 -0.0082213552658708
1.0017410212404017 0.9996566244141631 0.0044514702157562
0.9998495253147670 1.0017866431338101 -0.0066087689692999
0.9998923027002263 1.0003375557490517 -0.0039507191542949
1.0022840269541502 1.0002226174118034 0.0059284434642159
0.9999878165078043 1.0002787687153194 -0.0037081581596609
0.9991500089038954 1.0023779702987239 0.0083409334986500
1.0017424065089804 0.9963306598670607 -0.0083870638912634
1.0017351501456893 0.9963101213444550 0.0084968836597206
1.0015206160610688 1.0005509752188542 0.0005343764704363
1.0014620602099427 1.0010089842242067 0.0012502488733959
1.0010356308404307 1.0016012484977761 -0.0051191522190061
1.0043305086083871 1.0005600961927159 -0.0012599607398467
1.0010683659612987 0.9994834720592538 -0.0045666824736284
0.9998894552867840 1.0001360179697278 0.0012224969389780
1.0015623085870977 1.0012385834729702 -0.0007946768645672
1.0021363979026749 1.0003882790877892 0.0006595573720354
1.0013323645538201 1.0000901349611155 -0.0016039874437276
1.0020450239695196 1.0002541348707699 -0.0010732983694737
1.0015262193516274 1.0013457077552936 -0.0003253431528064
1.0000532317638000 0.9999797180991619 -0.0004079979974663
0.9997886681807270 1.0000117515848592 0.0004567215738528
0.9997448004870855 1.0000160471501809 -0.0005440489582768
1.0000666611663909 0.9999826189293823 0.0003322914087593
0.9997464715401434 1.0000228374763314 0.0005355246218297
1.0000763090263101 0.9999784149618305 0.0003928171359969
0.9997634131332023 1.0000249173348632 -0.0005032860048419
1.0000659179893006 0.9999798828812624 -0.0003745507107162
1.0009074180812561 1.0000372425058084 -0.0004441099626731
1.0026674807534885 0.9998249190076129 0.0043731037547236
1.0008961910544427 1.0034830541965307 0.0105807097003273
1.0011392178015748 1.0002721043765765 0.0006005000759336
0.9996201835042319 1.0001587866641957 -0.0014763650056416
1.0010811898577874 0.9994943661671218 0.0045995347311256
1.0021527629541600 1.0006918820335011 0.0015421023699520
1.0030786946426542 1.0003320835795684 0.0054630692364842
1.0021496807467545 1.0001009324640984 0.0019647967596400
1.0004794718191103 1.0000405570854847 -0.0005242298266037
1.0012033575018480 0.9995110542247769 0.0007995006583760
1.0005161006221102 1.0001098874754029 0.0001770736799560
1.0012459080234066 0.9996019122017659 0.0003053944230462
1.0010807095351795 0.9997125075882295 0.0012527000457075
1.0004676172562650 1.0000930930240073 -0.0006301138444218
1.0012829583255902 0.9996030063024757 -0.0008574366661434
1.0005497805473531 1.0000644749734002 0.0001613121472558
1.0016764353341165 1.0010711240684027 0.0008769139867270
1.0001510115269139 1.0000509195245768 -0.0000759857048397
1.0004987377872969 0.9999544922994514 -0.0000696971424654
1.0004672165857738 0.9999677445797631 -0.0001020531014039
1.0001695310570891 1.0001094628238612 0.0001799906555693
1.0013627398406451 0.9994915633500430 -0.0013610024525705
1.0004765996133207 1.0000815702349821 0.0000689412242845
1.0004132274471809 1.0001287652778459 -0.0005669762312565
1.0011761570985118 0.9998039201603884 0.0014810041828445
1.0012438976664120 0.9995887168157667 -0.0004220543453044
1.0004193687098437 1.0001275102631320 0.0000712002994547
1.0013009031261317 0.9995257961767450 0.0014462943808524
1.0004329410768664 1.0000909633573976 -0.0005323189666851
1.0019486631932206 1.0010718625403412 0.0038348947980055
1.0015012232594862 1.0001084274795247 0.0017751839145377
1.0012382609214168 1.0000806967027762 -0.0021196787969793
1.0015991212731732 0.9963289458576305 -0.0045223480722831
0.9971561344025412 1.0002180391230160 0.0025335710304070
0.9977769840052393 1.0001882970222460 -0.0017669930996054
1.0011519369468891 0.9980708538996765 0.0019426079593329
1.0016400880809155 0.9969667292373938 -0.0036978101829892
1.0013782373133759 0.9966433744285265 0.0040406204842689
0.9977952828511482 1.0001686742459610 -0.0015653317996451
1.0019967889759505 1.0003864455417550 0.0008244766474453
0.9990965047911528 1.0002847052477619 -0.0016475102578656
1.0014987541112557 1.0002062140519883 0.0025315980044533
1.0023836682507032 0.9986507501229798 0.0047533344787305
1.0013766193699043 1.0000316592351253 -0.0002340795861851
1.0008202933627646 1.0023942003457149 -0.0103632356736224
0.9991286169669905 1.0002151889998030 -0.0016334020076041
0.9972554178718654 1.0002596638829764 0.0025644052205283
1.0006214610776580 1.0020932645822189 0.0012188732490375
1.0015930270083235 1.0014231523782284 -0.0008283156849638
1.0004693677726360 0.9999624319432380 0.0000389486430314
1.0001481353063344 1.0001428089815518 0.0000114457569657
1.0001803251987860 1.0000238203436018 0.0000133547101702
1.0004003583154528 0.9999562550725062 0.0002190072692495
1.0036333548006275 1.0005980523227376 0.0006612647617587
0.9998371479747911 1.0000205666249298 -0.0019874834703185
1.0006649914157366 0.9996227671410720 0.0051661177441801
1.0000269614312665 1.0000395714482038 0.0024061162918197
0.9998434353885596 1.0000387823776287 -0.0020989226344555
1.0008461678293326 0.9996405509015255 -0.0046518650041248
1.0010758839628442 0.9997422280140784 0.0041713774650533
1.0000260990576613 1.0000045770257397 0.0024416785218113
1.0006739751945775 0.9996224955684435 -0.0055001849385416
1.0010613055428934 1.0018493671889943 -0.0081788906534384
0.9998904536081124 1.0000959580110689 -0.0014416759205193
1.0011435110165490 0.9993343431081236 0.0047183710625320
1.0000680545448937 1.0001060317689641 0.0014348104359706
1.0015758930474845 0.9995028244091122 0.0037657313296805
1.0013163877156190 0.9993483468309632 -0.0033731788989004
0.9998761331256243 1.0001188916822914 -0.0015336948380097
1.0000860788695118 1.0000694569899702 0.0014002325147527
1.0012316760534048 0.9993466013331107 -0.0046573054586912
1.0008334565198416 1.0033947828657137 -0.0019107560131771
1.0013010751401894 1.0014302526824237 -0.0022215999004630
1.0015973341772286 1.0005632017866810 -0.0007747397011853
1.0013779832508019 1.0001209762482186 0.0015068174586469
1.0009667453181863 1.0010546496248536 0.0045257802380203
1.0012594787816562 1.0009734660023175 -0.0045622431470626
1.0007900261568119 1.0002955040620742 0.0022474427237976
1.0003835936201000 1.0025293424562012 -0.0003458578323603
1.0022552340286635 0.9987209701685453 0.0033430225875870
0.9993185507377378 1.0000292902241077 -0.0000273037546338
1.0015734241631493 1.0013786048385644 0.0003380311489535
1.0010303675909422 1.0019543325323836 0.0003196839839755
1.0014315253338779 1.0009785747195263 -0.0005518120577461
1.0015823446735865 1.0005826189580127 0.0047760131721166
1.0017894027556793 1.0010957296688168 -0.0024170762797584
0.9991838061630455 1.0000941433854553 -0.0011466602365285
0.9991411359011609 1.0000301770470439 -0.0012442262918693
1.0017913408959613 1.0013591709958265 -0.0039694082680507
1.0020021244842867 1.0010064092404729 -0.0000819794533578
1.0018573005609543 1.0000299042072267 -0.0013341618028353
1.0010315365908058 1.0024546999880570 -0.0017431358318972
1.0017496668212047 1.0005694560290668 -0.0005333106351198
1.0015377850698530 1.0000605804365297 0.0014986707013722
1.0008834831378657 0.9994167501521348 0.0051717345384345
1.0022460167800862 1.0000165857175509 0.0030344985669918
1.0019000034893213 1.0009942713257758 0.0012312840010909
1.0012325595680198 0.9999987540535992 0.0019493219762198
1.0016187431347050 0.9999875841378183 0.0021014931942550
1.0006036337837365 1.0024719469175600 0.0104912794666363
0.9993737844374507 0.9999358972437080 -0.0000789119315863
1.0016115879618190 0.9990028138907464 -0.0024863290969289
1.0017551493459445 0.9989542684822555 0.0013307588383567
1.0019825487010197 0.9984990427574678 -0.0027807713550444
1.0015400414092965 1.0002548270667819 0.0016902086298111
1.0010985169810309 1.0015862224956951 0.0015369799819791
1.0021072813395631 1.0004523831539580 0.0010506873331218
1.0020011340443309 1.0003877734487905 -0.0019361202616404
1.0007812454907845 1.0030653914000256 -0.0018621292330841
1.0011904990347058 1.0007164321447322 0.0025540978379195
1.0012571577973022 1.0014743296150790 -0.0004738981831486
1.0015836856851310 1.0015747674970754 -0.0001386262503924
1.0002723995227305 1.0011400111702440 -0.0028128040174276
1.0010967020146035 1.0001695507226673 -0.0020140329204884
1.0006428516935080 1.0015059209199551 -0.0108313420851630
1.0009653042490918 1.0011020338425931 -0.0086109339491332
1.0021564354212720 0.9985810806223560 0.0049472321632035
1.0008223143004848 1.0028278070869390 -0.0021329489603331
1.0020778123101641 1.0001405945673125 -0.0022602273117147
1.0008357622029278 1.0004900007959256 -0.0026559947847660
1.0013306722709285 0.9998528139697567 0.0018780587846254
1.0012381873615059 0.9998517314119523 -0.0020384256069067
1.0012486556164093 0.9998999658634382 0.0019535017499190
1.0006308760231770 1.0004672971696484 0.0025802211808268
1.0008152643424926 1.0005167910977772 -0.0024063405935334
1.0008312773260806 1.0004331570390093 0.0025611085016518
1.0011270135636388 0.9998646799505904 -0.0018335773157546
1.0013921398996348 1.0016071376633424 -0.0011753203717083
1.0017226695770594 1.0011072395811689 -0.0021375118317673
1.0002077138281349 1.0000328439444990 0.0006137710818385
1.0019667852532192 1.0010958780357804 -0.0058787271768208
1.0000400429327396 1.0000601191012055 -0.0005543442009653
1.0002144926006193 1.0000368266402979 0.0005799691173607
1.0023597953664083 1.0001617375972240 0.0030906149167782
1.0016274085311481 1.0008961180927445 -0.0046451608236307
1.0000491918610304 1.0000528479686563 -0.0005525352008970
1.0020769100073352 1.0010501679545887 0.0058329996191573
1.0000320051343479 1.0032482568079637 0.0001126135920713
0.9997652479985643 1.0000753142680860 0.0005626514040109
1.0020751654240427 0.9997796043716872 -0.0041740059771503
1.0001695922416221 1.0000119706877397 0.0005197364613552
1.0024126074647679 1.0009904053977454 -0.0057293965218347
0.9999858602578211 1.0000276891639901 -0.0003289598206150
1.0027464474510177 1.0001308239636746 0.0031229707418050
1.0018942276899325 1.0008477278040790 -0.0046381171361973
1.0001626728848654 1.0000122260364221 0.0004219946575517
0.9999838340264924 1.0000283920933963 -0.0003425294219291
1.0025407707562208 1.0008467646421082 0.0059009722346728
1.0012626572487697 1.0018888884682349 0.0034215110798138
1.0021284036918092 0.9986969825430229 -0.0034435299231052
1.0023710140516469 1.0001656536770425 0.0029655454149320
1.0001862698193744 1.0000619421849672 0.0007020437720844
1.0005494525995335 0.9994385161436028 0.0008645701805602
0.9999856014131586 0.9999906453819157 -0.0004756950741147
0.9999859372099358 0.9999830315735130 -0.0004339115953034
1.0005970497944863 0.9995045939724436 0.0010174092138449
1.0017959572269208 0.9998661213679690 0.0010262616904798
0.9996942340224743 1.0039161141374675 -0.0074367527226182
1.0033576248428320 1.0000626179040213 0.0053902318764690
0.9995092382457477 1.0001671389502744 -0.0038777418322815
1.0011109588674316 0.9991337492388571 0.0045518389281294
1.0002550149047365 1.0029395674308470 -0.0064867392194086
0.9996054233812179 1.0036634686774670 0.0067546184784319
0.9994677825967638 1.0001479824804647 -0.0035904360307399
1.0017354526879665 1.0014228950553807 -0.0006800781837240
1.0020525075319933 1.0001269012437932 -0.0019256990192797
1.0017589465705115 1.0010205959027263 -0.0008556011053430
1.0017159893944954 1.0010528598158810 -0.0021357653321702
1.0019699239715063 1.0000073088672083 -0.0014836945567076
1.0010589521478854 0.9987354582474472 0.0075142719322723
0.9993214187281121 1.0001056895144635 -0.0008987899374202
1.0013419720710013 1.0001224043761348 -0.0011492527054979
1.0032299246828218 1.0001411846389756 0.0053876584584345
0.9999761188585365 0.9999979713341022 0.0003919466536668
1.0005573015514384 0.9995007350016929 -0.0007129279268673
1.0005948118142463 0.9994367724907138 -0.0008068432051063
0.9999792987221887 0.9999857122572149 0.0004143919745247
0.9993078315281358 1.0000483506507112 -0.0000230711413048
0.9994757279519052 1.0000235853126940 0.0002015923418566
1.0017596172791738 0.9991164835608299 -0.0026447573868121
1.0019375133552761 0.9990953535797978 0.0014599154639326
1.0015268330469937 1.0003010852668717 -0.0007469054774164
1.0013970665890681 1.0011860310232181 -0.0011187944133674
1.0008013623471359 1.0021647473671227 0.0005011138651825
0.9977746361259757 1.0002049840079639 -0.0008681755576393
1.0022149435360153 0.9953545193276485 0.0043886125041139
1.0025226193086427 1.0004583525504043 0.0042821065475418
0.9998877790141393 1.0000596882040662 -0.0004924005447081
0.9998868285180029 1.0000529084544230 -0.0005568376501796
1.0000439866368347 1.0000585550581138 0.0005779265347946
1.0019668754654629 1.0004728234514482 -0.0031754867752360
1.0025365061935863 0.9999723980761064 0.0028892082076565
1.0026759655560611 1.0004145568398646 -0.0042094121492311
1.0000446106933325 1.0000639208905466 0.0005596942687238
0.9998074086626720 1.0000649585728572 -0.0008820493740887
1.0032114660065186 1.0002079364779055 0.0040760420324552
0.9998242377502947 1.0000569377201054 -0.0009457247351165
0.9999814798845854 1.0000609515878160 0.0012407716674839
1.0031132741513025 0.9998040740961849 0.0027564281405647
1.0026867572067926 1.0001829919663991 -0.0034988262209814
1.0033102786428423 1.0002826388988550 -0.0043755026302074
0.9999674462639454 1.0000619632788401 0.0012923260573465
1.0024940773903739 1.0002825029161637 -0.0003581082835489
1.0017352067652101 1.0001533095852997 -0.0012077610093054
1.0020002273760713 1.0002376890765987 -0.0007039708726775
1.0028120350760792 1.0000768329839269 -0.0036983102271720
1.0020107905018238 1.0001225125927751 -0.0025683111756318
0.9997828084379261 1.0000525164884437 -0.0004448720291033
0.9999641716992225 1.0000445151684700 0.0004437195047273
0.9997608771770189 1.0000564277444564 -0.0004097820914960
1.0027871766355667 1.0000838101918432 0.0037259073980894
1.0020558198089191 1.0016369338910025 0.0040534286113230
1.0018153700391872 0.9998295581896882 0.0004892574072472
1.0006778421421785 1.0014282696476360 -0.0006492599004839
1.0003512015618228 1.0000956198403781 0.0006199312010700
1.0012295552796266 0.9992717752691737 -0.0018006708195331
1.0012882821992095 0.9993274805421000 -0.0012130953025224
0.9999687656689448 1.0001740115705964 -0.0010482894626965
1.0003686942191741 1.0001382297213546 0.0004831189156019
1.0012738821323710 0.9993305354957022 0.0029011233028060
0.9999819264945078 1.0001324446279527 -0.0010557572408037
1.0014188699831432 0.9991453281497076 0.0019539532419374
1.0016578510737590 1.0010066215730802 -0.0000424494953363
1.0030048640319653 1.0009203230848920 0.0002013314451289
0.9993649014045665 1.0001154434350616 0.0008091854808002
1.0010932852471117 0.9988797523424310 -0.0060770279496525
1.0015864805223136 0.9989422016210381 0.0043026956906995
1.0011114531690961 0.9983278734894417 -0.0077760761478115
1.0020165782401542 1.0003295104801135 0.0020017120914965
1.0004401412410826 1.0000167240812579 -0.0001571782590336
0.9993525254995559 1.0012312532980630 -0.0006857093833470
0.9993912856723384 1.0012131952037580 -0.0000668808024507
1.0004343364070210 1.0000145419625579 -0.0000719925244839
1.0003417888022057 0.9999815826299210 -0.0007210643777986
0.9994943795543155 1.0007227570028583 0.0013830621146073
0.9993179029914000 1.0011934183598210 0.0007309582531630
1.0004523528795775 1.0000076515939347 -0.0001141255913216
0.9995003665789751 1.0006677909786652 -0.0011489579401744
1.0004502563367699 0.9999678447925667 0.0007120998279636
0.9996851111650269 1.0008369677014246 0.0008343249065628
1.0004432155950067 1.0000034880068094 -0.0001401755243748
0.9997823031987053 1.0009499003709013 0.0004862475977647
1.0004418801424522 1.0000034890519052 -0.0001359724242533
1.0003918869833262 0.9999701601577368 -0.0007126507773754
1.0001658106272402 1.0011459388612587 0.0010593011179579
0.9999489600956576 1.0012304990263561 0.0004072102731057
0.9999686757801690 1.0005471011369351 0.0015200039563564
1.0004661371177419 1.0000227068234742 -0.0001146282080186
1.0004803324852019 1.0000112227446623 -0.0001303654310976
0.9994408033682222 1.0007908292296082 -0.0013386307646822
1.0004779528446357 0.9999633372155221 0.0007544337352841
0.9994945576593491 1.0011453992190491 -0.0001219581722291
1.0004702125923535 1.0000285433774572 -0.0001405486911260
1.0013918050923074 1.0016259937600875 -0.0007979269563744
1.0025963467361905 1.0010518086140476 -0.0004645968548329
1.0009667476012669 1.0015456451740854 -0.0011547086800616
0.9973489704799452 1.0002122099497692 0.0014716067548678
1.0015172815710842 0.9978831810060236 0.0021385768869501
0.9977764190158972 1.0002357595936477 -0.0011561808694312
1.0018867650316217 0.9966061550251950 -0.0030802466822722
0.9973370580818590 1.0002475867163696 0.0014742398071607
0.9977908002975944 1.0002010200526807 -0.0009889281516300
1.0015180957244418 1.0014604183776525 -0.0020516093141145
1.0026260759734160 1.0009132164840004 -0.0003782371379223
1.0019027152500977 1.0006909375504438 0.0011713173674821
1.0018493984088095 1.0002725065286280 0.0013183872580370
0.9997616325477153 1.0000782041325920 0.0004336288814743
1.0022347389369175 1.0005803642827107 -0.0043501041509465
1.0017726034908883 1.0005963717981989 -0.0033291180619505
0.9997890472320133 1.0000904659360583 -0.0002663038266267
1.0021555679226459 1.0004801586723164 0.0022127868609098
0.9997727910020794 1.0000791616487950 0.0003679019424094
0.9997915655196374 1.0000838780238610 -0.0002749515106133
1.0022030744233033 1.0007181452015428 0.0042344859326181
1.0033437985930165 1.0005411250592491 -0.0010885851742733
1.0014725836342606 1.0012269052837468 0.0003874214234344
1.0015167017418158 1.0011913114959614 0.0003362266836153
1.0017704778023437 1.0014696310145288 0.0031074562087676
1.0019402155855004 0.9954979871724955 -0.0038724950813990
1.0018765305103088 0.9954985148781316 0.0040203206418835
1.0003735905986417 1.0000804263954270 0.0004142333236130
1.0009318419721525 0.9993516798961468 -0.0024716201781783
1.0010159695653524 0.9993703688646309 -0.0016185832988113
1.0010169474646131 0.9994806598802537 0.0033153597058048
0.9999345725883352 1.0001370635313880 -0.0009656973196899
1.0003103894670859 1.0000976503859664 0.0004001670362761
1.0011164302315239 0.9994029618855926 0.0023222490592061
0.9999558534056986 1.0000880046887459 -0.0010282460195323
1.0012576016707284 1.0000754685645310 -0.0003509007577266
1.0015815326568018 1.0000459567968696 -0.0014090840416451
1.0010933302038925 1.0000036468506011 0.0008894157464190
1.0008245677435925 1.0000959118238046 -0.0014893637192580
1.0010428140047805 1.0001710290913279 0.0009856646358713
1.0010247688673217 1.0001066640006637 0.0018784385900611
1.0015330619338880 1.0000591293171623 0.0013335857847075
1.0008859632011811 1.0000329974490716 -0.0012028628194249
1.0010877220822436 1.0001653885997364 -0.0010097920059750
1.0015239381283652 1.0013946055683911 -0.0000330204160018
1.0023559028890932 1.0001520202198331 -0.0038768509979474
1.0017209306412156 1.0004720935336500 0.0033465360522898
1.0012462419425634 1.0002195309279431 0.0006418302788262
1.0017365842237107 1.0000169433456203 0.0030417055200362
1.0014932264031542 1.0011704297145909 0.0010121238202864
1.0016598536292114 1.0013156597309354 -0.0002576934165908
1.0016061870049757 1.0012692699077739 -0.0019484917333382
1.0000472847812469 1.0000630202776424 -0.0002149212211200
0.9994683311253828 1.0001174794675061 0.0009105947345925
0.9993016600927448 1.0001260683017612 -0.0008883789075574
1.0011119250441216 0.9990728600878482 -0.0058109072155290
1.0016758598904749 0.9990772368240539 0.0039736770390463
1.0010658355140025 0.9986074021100707 -0.0075894997757934
1.0013678293535127 1.0010882554426801 -0.0009740388596753
1.0010917684847715 1.0022809497156313 0.0006465793014520
1.0015083391984698 1.0006173458402574 -0.0019642935648333
1.0008867226081086 0.9996140574322313 0.0022700646858512
1.0003429051151294 0.9999878613546708 -0.0011429118129319
1.0003852071708521 1.0000001548397417 -0.0012023352345228
1.0006732085086836 0.9998011561820357 0.0023597389641099
1.0004227029002548 1.0000510943957841 0.0011003638787352
1.0008905850230880 0.9996526807044481 -0.0020003863272647
1.0009007840188935 0.9995781294062730 -0.0023126094485655
1.0004649496394424 0.9999904331089260 0.0011060033019724
1.0002284495937328 1.0002869092269275 0.0026473044791870
1.0019363165890249 0.9995466126517073 0.0041072831028417
1.0014874775026621 1.0015272664639741 -0.0004727577588698
1.0008652740426278 1.0017765828555281 -0.0013672211447187
1.0011240608749512 1.0012961384244436 -0.0021570947045906
0.9994522932143712 1.0001015974252800 -0.0026486470722129
1.0016113277938283 1.0005565598326918 0.0005998187175652
1.0018182905442474 1.0004711909935231 0.0008488000206404
1.0023789954501090 1.0003509353789675 -0.0009044508591214
1.0018546510741813 1.0012927346638851 0.0007900135001578
1.0020001290824585 1.0006162087790453 -0.0027789543171254
1.0012427445684160 1.0015012567432542 0.0001476633485568
1.0024047970620493 1.0002290372820073 -0.0008540240475270
1.0014711674835741 1.0015153013618647 -0.0019368919052194
1.0016402896930363 1.0027811667468376 -0.0043675587795714
1.0005590832078088 1.0023531424140095 0.0018969747852906
1.0007474193892254 1.0013482652712380 -0.0017576074102228
1.0017272254815659 1.0014054903953276 0.0004205099435062
1.0014967762097411 1.0022760025905533 -0.0018658582982549
1.0018487209726401 1.0003919486386039 0.0013961534969990
0.9997561396306033 0.9997355752896860 -0.0083022447970097
0.9991941200901483 1.0000402996860576 0.0049842997303157
0.9991280614997230 1.0001362594440955 -0.0034051817474351
1.0011081225115046 1.0001955487409320 0.0045265905745145
1.0002873240561911 0.9998367579768989 -0.0069232274418258
0.9996718806226017 0.9999251934414898 0.0076961610391787
0.9991177368853216 1.0001204800187045 -0.0031693601938686
1.0002999623702613 1.0016983565020510 -0.0005711594423067
1.0019290857377228 1.0008646524459843 -0.0014635221385795
1.0041477462488868 1.0003302344508695 0.0006851159900283
1.0014941550446321 1.0013302496411094 -0.0004493444571574
1.0014548338201139 1.0004718785071904 -0.0032598132613678
1.0021556373971334 1.0004694198038302 -0.0002576911528537
1.0010153713610128 1.0013674865775180 0.0007129048840787
1.0018081377048951 1.0002796556920448 0.0032441324362189
1.0019962051102840 1.0006568526877639 0.0026051082556053
1.0026672459714892 0.9995144015307673 -0.0049551484392930
0.9991606781876112 1.0002764731615021 -0.0017684178099993
0.9987031535865235 0.9999837234174087 0.0022308987899394
1.0012967428218114 1.0012274128894694 -0.0044799315513287
1.0010383552066311 1.0012681082438510 0.0020895054960795
0.9989695247025268 0.9999590481564345 -0.0014323547491632
0.9987206976529653 1.0000118729591025 0.0022353065946210
1.0013739458503141 1.0011291627170065 -0.0036425924458885
1.0011109078401541 1.0015515045775780 0.0040723970022020
0.9989480289649716 0.9999759073182027 -0.0013019371414939
1.0010715714940774 1.0028721988736278 -0.0017106250943807
0.9995191697758300 1.0000192567632280 0.0002926611092157
1.0014549020242010 1.0013797329777734 0.0010409003381671
1.0035276906225885 1.0007241249847230 0.0007043184916448
1.0019977955145645 1.0006307656124489 -0.0006142289267816
1.0014585813344765 1.0008691917486534 -0.0017460873942954
1.0014032190769271 1.0015971292848194 -0.0009681524033314
1.0015133075515106 0.9999891988102880 -0.0008769110504386
1.0012602628321421 1.0025498248525639 -0.0037255828068554
1.0007652427778531 1.0006070521085038 0.0047109917856825
1.0030451486727872 1.0006508852106777 -0.0004690405584064
1.0016670567113444 1.0014403841654063 -0.0000299874461192
0.9981111907187699 1.0002236985266497 -0.0000068347036677
1.0020081467518751 0.9986282293413730 -0.0022719643369646
1.0021238614979910 0.9982363641789438 0.0011825519660275
1.0024988091013018 0.9974854374165744 -0.0026608222548775
1.0013601273600963 1.0016431496764777 -0.0000303389633138
1.0023447283242699 1.0008652191050025 -0.0041180840373833
0.9997285671950246 1.0000798358982153 0.0002839963732666
0.9997213423930744 1.0001016774911542 0.0000222941070231
1.0024147993139949 1.0006135424580236 0.0024769982669216
0.9997538457928680 1.0000709886258770 0.0001754142288795
1.0019193098109660 1.0006691833135635 -0.0034551831370000
1.0026695587132397 1.0004914369395703 0.0047748049819328
0.9997075783069954 1.0000992209935042 0.0000109119623399
1.0017730297475624 1.0010957666073430 -0.0018137550154103
1.0010949546413201 1.0002883293325291 0.0009105749029829
1.0011391659646134 1.0000327615281013 0.0007024458763153
1.0015098738938453 1.0000482174675314 0.0004245967424396
1.0029063477795626 1.0009146698195155 0.0000267211975050
1.0025893177600884 1.0008487236289458 0.0003138173876737
1.0014456978804598 1.0014139075716069 0.0030317991828990
1.0055993033470365 1.0005046760713598 0.0022151404776146
1.0008084374372255 1.0013914668202724 0.0001028007693086
1.0016226486375324 1.0007729390357967 -0.0020412365408497
1.0014277699341771 1.0013644569960252 -0.0010393519207328
1.0019555787997450 1.0010937166594753 -0.0016925230797456
1.0018153112483852 1.0002321720195468 -0.0015873680296718
1.0012836398864602 1.0017484612072889 0.0020897124601268
1.0017541497564098 1.0010584937839710 -0.0008369898891746
1.0015237529286103 1.0016515679855573 0.0001001802454007
1.0016688597925929 1.0011372238548488 -0.0004234685543014
1.0011515139408620 1.0024011588547488 0.0008444014813328
1.0008270144617173 1.0008260936977851 -0.0012750394554526
1.0000307178710923 1.0029354486848252 -0.0027548740314702
1.0007409682266040 1.0031122496008651 -0.0000391913803333
1.0008848632533178 1.0022606618626444 0.0020047838660519
1.0025201251696298 0.9991085147943541 -0.0028453675626118
0.9988038015596794 1.0001676935849675 -0.0006505979419568
1.0013728214976563 1.0001726575628318 -0.0008524054250261
1.0017909847118196 1.0009241270286784 0.0008040463682187
1.0017256845610432 1.0000924817716628 -0.0003799921214360
1.0014109836900957 1.0009807561104951 0.0005321370748684
1.0016908348668800 1.0001409488860658 -0.0005325851699421
1.0017579644641252 1.0000615216472042 0.0001466810170716
1.0011732014363575 1.0010132870295467 -0.0001548805366144
1.0019240962561078 1.0008327421956087 -0.0005910690604771
1.0017742393863991 1.0000218198521189 0.0002076111538351
1.0022790279943674 0.9953384434038081 -0.0042108679628729
0.9974451630903243 1.0002184449754021 0.0011671331620905
0.9992152072722866 1.0001124024812942 0.0049258643198752
1.0012761727887489 1.0019044077406154 0.0009389061129707
1.0013463133440164 1.0019093149852716 0.0004493518372923
1.0012596002349692 1.0018443709515319 0.0003359923406368
1.0009177290483051 1.0012122393776393 -0.0026150474171705
1.0019479146742596 1.0010742629952960 0.0003140291924723
1.0023564826027964 0.9981290709283601 -0.0034686919619565
1.0012011459559751 1.0024384585683446 -0.0000848638507761
1.0016517177702717 1.0014784218618367 -0.0001103003401967
1.0011346219075481 1.0011019783246375 -0.0042473322652695
1.0013090136093987 1.0017644937464414 -0.0006188090510027
1.0010448779366252 1.0000565854096641 -0.0029079420970730
1.0010245585217745 1.0000620652310555 0.0020537192508803
1.0008785478068485 1.0000044073001615 -0.0022558668864380
1.0009667911205284 1.0001963288931339 0.0021131902584503
1.0006064550787801 1.0002596435477702 0.0027210029305279
1.0010745756624448 0.9999526435132178 -0.0028425093365597
1.0010806062937490 0.9999707359704603 0.0028326549299922
1.0008014337811721 0.9999742242857479 -0.0020321024150790
1.0022873477523437 1.0001759566090496 0.0031337063801388
1.0017119278910867 1.0008445428446719 0.0016556432519969
1.0013661832405389 1.0009575098310743 0.0043060289659269
1.0015115274070920 1.0006607764641042 0.0003472707779212
1.0013743136264048 1.0017565361850560 -0.0010893298517083
1.0025855284412055 1.0011975210281789 0.0017164682073475
1.0010957057655958 1.0015589128149700 0.0019009662650171
1.0023934093255531 1.0012710962033329 -0.0005996456771258
1.0019446444043882 1.0006867858905113 -0.0013074109326399
1.0025331759241221 0.9977944304166829 0.0034069104860184
0.9983207761740742 1.0001874276214300 -0.0002093961001950
1.0013638949509232 1.0014250042378341 0.0012165889331271
1.0017420216451900 1.0009589578856941 -0.0022786254110794
1.0003975915337060 1.0029362246737992 0.0013438130247909
1.0033642156510916 1.0010277501245111 -0.0017159027176535
1.0009509179782838 0.9999680384864815 -0.0003794626631433
1.0012433046634175 1.0011571429601878 0.0010183957932903
1.0012499167568123 1.0011876823585335 0.0021925042348781
1.0009199991736020 0.9999802221178279 -0.0003272403831027
1.0011243706682225 1.0011710213175316 -0.0004913817643958
1.0010299715300353 0.9999458376463835 0.0000212349377175
1.0009950766020588 0.9999624782184079 0.0000843088606521
1.0011226894035758 1.0012496647182587 -0.0012516262103159
1.0014146067840464 1.0015784562803549 -0.0009383239582929
1.0013300675062331 1.0012235177128321 0.0001301577207317
1.0017795756376562 1.0006187071169723 -0.0023221337959266
1.0028060397180993 1.0010382783501446 0.0001110345399657
1.0017602783874127 1.0001871761944261 0.0004858547147867
1.0045717635537570 1.0008336402565805 0.0010807706730159
1.0019225263993710 1.0009034850870797 -0.0004619114963710
1.0016369170330213 1.0008768797752725 0.0000795452329321
1.0016208422997455 1.0015357918799688 -0.0002117426356876
1.0008394172703226 1.0028756142617126 -0.0002176506567224
1.0017872960442993 1.0014597446838169 -0.0001221815180294
1.0014646267942944 1.0015952059117601 0.0000693027710140
1.0011672105893759 1.0013332621799524 0.0028447783448865
1.0009297579535792 1.0026815771267783 -0.0019284702346677
1.0013453382745394 1.0012544160545704 0.0007042944463236
1.0009748550317110 1.0000141165962178 -0.0005033568932871
1.0010216188805170 1.0000151927469951 0.0001233519047866
1.0009274850464389 1.0000359352273356 -0.0005056533492091
1.0012507534022452 1.0011357009840089 -0.0001028085992520
1.0012777996317703 1.0013491824052954 0.0016477913858341
1.0010624732756874 1.0000154277750601 0.0001904525079597
1.0012564704613169 1.0012572963164081 -0.0005807926435400
1.0036159229117834 1.0004306661591766 -0.0001887744890095
1.0016964908251738 1.0014862839499505 -0.0000677304238919
1.0007661224580451 1.0029256136475633 -0.0003920007346894
1.0015539547725310 1.0013997025781178 0.0038925274973145
1.0014781844852410 1.0014727463393149 -0.0005771046091616
1.0019834534630485 1.0009888970397380 -0.0012988055216071
1.0013650029675378 1.0013129444055811 0.0031849762185973
1.0017177615203912 1.0004329501787612 0.0026128800415765
1.0018195057986055 1.0013129375613501 -0.0004293771915850
1.0016651460227268 1.0004321051889129 0.0000948298704685
1.0015329065884939 1.0011905359450288 -0.0020677624721080
1.0012943097672926 1.0014011970824550 -0.0007049590845450
1.0017396499476350 1.0011451592937630 -0.0014905337151866
1.0019685564659802 1.0009814547969424 -0.0004457935293719
1.0019296718193609 1.0011942143461483 0.0016980063509424
1.0011825201659421 0.9999543522156510 -0.0003201210952677
1.0014150528660797 1.0009988925662863 0.0013753941196529
1.0002851558697683 1.0011385088617402 0.0039916996989207
1.0012560071546517 1.0019327204978643 -0.0002342616535544
1.0007637884414913 1.0029044882376941 -0.0005682217500912
1.0009323086944393 1.0017568690937675 0.0019592134833056
1.0014257510924469 1.0013055444213053 -0.0001020122930091
1.0016860080821102 1.0014193347166886 -0.0020368283846797
1.0012379668299638 1.0019586597103562 0.0010012634273750
1.0019003223959468 1.0013253782553579 0.0026612273416396
1.0015277223414711 1.0013648905712369 -0.0010259969317972
1.0017249897839635 1.0014553171045357 0.0026330174737059
1.0017026704144136 1.0003732105998722 0.0007193717320977
1.0017704571019659 1.0008656781042369 -0.0022938441090223
1.0018247375090865 1.0001106057095528 -0.0016277778783403
1.0008318973133963 1.0014955178697367 -0.0007094349423820
1.0020284492228480 1.0008964238704838 -0.0004952660553973
1.0017400099273877 1.0002704586781193 -0.0005674677723436
1.0017497709071304 1.0013029572928522 0.0024381261422799
1.0020282042078821 1.0011017514233214 0.0010989514697307
1.0012753275484880 1.0019218865460908 0.0000928053881522
1.0013687631302060 1.0013434117637590 -0.0021813218778612
1.0013549031842270 1.0014106347058971 -0.0005107343421849
1.0017742070610263 1.0005946871728708 -0.0017278865012223
1.0012811698540478 1.0018762384126003 -0.0008310227805718
1.0018041023622732 1.0013613360765607 0.0027714668800985
1.0019752857335820 1.0010381093530916 -0.0007734689495250
1.0015509173671304 1.0011670506502288 -0.0000350201491471
1.0010296260710547 1.0021084040845560 0.0014001831839507
1.0010993892019853 1.0013665772816613 0.0007694323513645
1.0013103237972505 1.0014397781364650 0.0009326129076707
1.0020238294486434 1.0000737177383570 0.0012395240223037
1.0011664166008525 1.0002830662580613 0.0019074096830427
1.0006562769293177 1.0004338574175935 0.0028264720186825
1.0011710960432789 1.0011598659765466 -0.0019363181028265
1.0014386984443562 1.0009535351565861 -0.0005856086733121
1.0013502117314996 1.0014465908243373 0.0000140571862196
1.0012346879577159 1.0018798779825504 -0.0006623147287618
1.0011841732876352 1.0013880376848250 0.0005350329219122
1.0023924356524139 1.0009723046258452 0.0036162424257848
1.0014100822479139 1.0013963013213181 -0.0009075935792355
1.0022581488957596 1.0012547470291415 -0.0000820444050479
1.0014261674263136 1.0015677648196288 -0.0012865056645980
1.0019498250851779 1.0004170337772200 0.0003988798748978
1.0014285848567561 1.0015892232827579 0.0010668486940442
1.0013403927153672 1.0018044403125412 0.0003533658284914
1.0019616573142462 1.0015559203057709 0.0038633844613430
1.0015523497975762 1.0004104215627931 -0.0013661301644453
1.0009516780680419 1.0001989513868368 0.0004119518076691
1.0016961209638167 1.0010650032947641 0.0000407376817356
1.0017126251646939 1.0005909932730204 -0.0021879661962552
1.0017575472946523 1.0009357622067612 -0.0007406123425909
1.0014871750790493 1.0014315602358808 0.0020660079403084
1.0008195240761193 1.0030824248884000 -0.0021130134402655
1.0020278279982855 1.0010907838552194 0.0002741457697632
1.0012638303282901 1.0016233143155933 0.0023316736176766
1.0015170012605477 0.9991578060562435 -0.0004355413777075
0.9981740884053715 1.0001780662563373 0.0001953003336986
1.0016645084276727 1.0010930115544390 -0.0010704189561219
1.0018860884592375 1.0012879012540570 -0.0013841568292572
1.0007746567341793 1.0000687753996278 0.0006189995010121
1.0014669130501228 1.0015685440628013 -0.0017061673379792
1.0021682871852240 0.9998501697293387 0.0002492006129982
1.0015860414543174 1.0013150658544350 0.0014539701056813
1.0016260849840151 1.0010323173777038 -0.0022094147749777
1.0013214281427218 1.0014862205386266 -0.0001613314884031
1.0019231374527082 1.0005140330120732 0.0000222200482593
1.0012820905894311 1.0018736444178933 0.0000106226919638
1.0029215556953841 1.0010586064143847 -0.0009156958547737
1.0016386207312664 1.0013041092172317 -0.0002065714080528
1.0016332507125574 1.0015461312783194 0.0039268898479958
1.0014382819508392 1.0015528243712255 -0.0003680609475021
1.0042887882020193 1.0009334734226256 0.0020468848995620
1.0011646416143751 1.0020701599412003 -0.0009735329653465
1.0024905339811465 1.0007914780434179 -0.0032009473414992
1.0016126905824354 1.0014193690094999 -0.0022047877513721
1.0014878206253068 1.0012943645458749 0.0003224164043960
1.0007499086036851 1.0014745915794725 -0.0016209463549319
1.0017687046739889 1.0023089878137348 -0.0031424172040884
1.0015368164506615 1.0004170948920668 0.0015230421125450
1.0015171669279230 1.0012403742716474 -0.0006793072163233
1.0013558617237084 1.0016862567299856 -0.0015657804627834
1.0008727591489848 1.0015305691118945 -0.0001043434580400
1.0018267135197525 1.0009930885187595 -0.0003924871610962
1.0015914913060291 1.0010586083782413 -0.0017909595089818
1.0015225420327289 1.0014530042835834 -0.0023581900192058
1.0013984571477041 1.0014439119193039 -0.0001108976734715
1.0012757883686723 1.0011007275013000 0.0012719731816741
1.0006434577806280 1.0001682167808064 -0.0011293799799349
1.0009922710178238 1.0001417793215650 0.0004382524371897
1.0010963496543388 1.0001155982813876 0.0019606451538551
1.0008015825508298 1.0030446858575255 -0.0008234060435909
1.0020395184577222 0.9997012431286022 -0.0009736687174462
1.0015754811196715 1.0011116786863214 -0.0000087340869296
1.0020089731402135 1.0000315459164024 -0.0037091237858728
0.9984984530461976 1.0001815914456880 0.0005995629526248
1.0013943696916492 1.0014525824313969 -0.0007265912926915
1.0018821920202923 1.0011877610159738 0.0009019485513824
1.0018194832766514 1.0002054490042804 0.0003908830135876
1.0021910339951445 1.0015097036478149 -0.0037729297049754
1.0014566690647870 1.0013399321658798 -0.0003678778058790
1.0020837517587560 1.0012204579622965 -0.0000103488071906
1.0014750505441348 1.0014911083814519 -0.0012656030718422
0.9997249420368939 1.0002694278513067 0.0035473303662762
0.9993776791944646 1.0003226134099434 -0.0025690205196282
1.0018160632902899 0.9999519747498757 0.0040177545103301
1.0021272393497345 0.9997044034412639 -0.0058348390932129
0.9996873278784828 1.0003313394595974 0.0035353345051670
0.9993971490988054 1.0002683840132212 -0.0024005546555385
1.0017629546811617 1.0010184143097072 -0.0006933409908883
1.0016985349813257 1.0013599312835193 0.0018608143046605
1.0020885199213676 1.0013696991556624 -0.0018126741961683
1.0017849529783254 1.0002285387149974 0.0003380165813508
1.0027032865534913 1.0010830245001576 0.0000348464662612
1.0028631264698853 1.0010369594486901 0.0019236316492061
1.0018784180738336 1.0012188182181221 -0.0001191513973525
1.0016336062895643 1.0012844178631153 -0.0007734847237301
1.0019896180567733 1.0013891402161044 0.0003209546131175
1.0012992656385136 1.0018044441559342 -0.0015483907005900
1.0010669628160302 1.0010607860330629 -0.0017868949522590
0.9994889705001599 1.0000978913858749 0.0009198372560563
1.0019171427351110 1.0003241597808359 0.0018525851241685
1.0016192633205032 1.0009575045743495 -0.0019376884706522
1.0008753015012337 1.0014069086027828 -0.0016340160588085
1.0018985551482338 1.0005299476504643 -0.0006334653628923
1.0019002968397770 1.0006522237982283 -0.0021427154304358
1.0012435108857936 1.0004231285348988 -0.0006833868417641
1.0007498387816853 1.0001171837020630 -0.0009881735112141
1.0020331759707621 1.0009732633169555 -0.0018282667609006
1.0019512780445665 1.0005548163943168 0.0005295223055104
1.0012043632882115 1.0016814253064505 0.0027310371059644
1.0013326423693956 1.0020026835943761 -0.0023985160355299
1.0015923982105621 1.0013611642455837 0.0014361159855660
1.0018350870098216 1.0013972284758397 0.0030499787855573
1.0017438431546295 1.0017824619941722 -0.0021206313859714
0.9994662565173571 1.0000917542810241 -0.0018251627992389
1.0013020166544924 1.0018029687752705 0.0005574954440076
1.0021185369191379 1.0010592407689058 -0.0003983809777200
1.0012364196363210 1.0016522965318453 0.0013468732890697
1.0013497122861605 1.0012889203561883 -0.0013511349472851
1.0010066561684732 1.0002633340662843 -0.0022071549846707
1.0018678805500827 1.0008826494031173 -0.0044505101372264
0.9989495143567549 1.0000615886468718 0.0013921444329976
0.9989788282253649 1.0000858902239202 -0.0010261795599329
1.0014436682410501 1.0008218555128234 0.0023812771137110
1.0018121776865734 1.0005788577236026 -0.0034558301477770
0.9989321326435491 1.0001020427232348 0.0014037859112649
0.9989794739990425 1.0000871595988370 -0.0009260866173277
1.0018174199104304 1.0007229788212835 0.0046020061331227
1.0018089142126894 1.0000884183550984 -0.0008840472411001
1.0009968637500632 1.0002186064598095 0.0000168416237243
1.0012178530789930 1.0002082487481616 0.0009663270986849
1.0010220492715529 1.0001671353896664 -0.0005105011283629
1.0012574548200048 1.0001759184864663 0.0000868493952927
1.0009518181231609 1.0002429975084002 -0.0000071276549421
1.0017488432191513 1.0001123033238923 0.0010012945474799
1.0010857130049158 1.0001277313600567 -0.0004214969508934
1.0030863987354139 1.0003482826665631 0.0022198157359787
1.0015444484737304 1.0009513652525581 -0.0024769071854220
1.0020403765447650 1.0013090616551266 0.0025787492748612
1.0019222562324894 1.0004826572285623 -0.0015495919186210
1.0016901082143630 0.9999874443669795 0.0000546842536227
1.0008230040993875 1.0010175695549357 0.0000180030554391
1.0018119956629865 1.0003594975951149 -0.0007276700928899
1.0010237029644147 1.0024515426812417 0.0003078272836166
1.0016785630813383 1.0006354622372020 0.0028296059032857
1.0018410548306631 1.0012547743277345 0.0020954395278070
1.0017729383439506 1.0014274727871759 -0.0003602842987661
1.0015950247833540 1.0014155464439423 -0.0004912001469374
1.0019189761293301 1.0010174208135547 -0.0022193859746201
1.0010362799525505 1.0008736545522408 -0.0033778513409657
1.0014172114945470 1.0013169744187249 0.0002033354500941
1.0018544521255510 1.0003680822932408 0.0010918346139945
1.0014769486320667 1.0012720235701160 -0.0005488844675672
1.0032965750755434 1.0008313823369868 -0.0009890067278509
1.0022958970570564 1.0012372153492535 0.0007712499165408
1.0018144907469502 1.0015288157498365 0.0005127817827071
1.0013397780424660 1.0017087164201084 0.0012262019757962
1.0009636665506685 1.0013010850148749 -0.0014618169930476
1.0019779919852443 1.0012743989681092 -0.0008038027770958
1.0014737209052702 1.0011866192412660 -0.0007154394142411
1.0019326804354989 1.0003823382383343 -0.0008222933468081
1.0011783531592224 1.0013714316915678 0.0000761727443959
1.0015223722325302 1.0001541530114508 0.0009746154809932
1.0015991577837084 1.0004975999789494 0.0041449882528675
1.0017592337757950 1.0009215215660348 -0.0011244099300703
1.0018862830860149 1.0011996047630096 0.0017265537686251
1.0018321185404868 0.9998798981819869 0.0003907453808444
1.0014641039677756 1.0011650179322704 -0.0019138286757902
1.0013256898490310 1.0014248388726172 -0.0005518909519509
1.0018020983519962 1.0016915864524376 -0.0002201975945844
1.0016631076365858 1.0012654876861322 0.0020072289628109
1.0015995350888938 1.0008826187187363 -0.0007630589701043
1.0019426065587862 1.0009495111079603 0.0012655311389142
0.9983015015788572 1.0002121830228923 -0.0001974115997480
0.9984245320244690 1.0002048336701110 0.0003790357662227
1.0021290364462867 0.9986516483887979 0.0014392359861093
1.0020387677644662 0.9988951876848187 -0.0024853120872472
1.0014562421178053 1.0014823627452945 -0.0006537529220909
1.0017446606543856 1.0008064915687098 0.0016126481843138
1.0020852557149975 1.0017710162029629 -0.0042743965130521
1.0014456466064359 1.0013185505694200 0.0001676035202787
1.0021256775671625 1.0013028852985537 -0.0005053765893059
1.0016949382727813 1.0015642271117384 -0.0001801090986403
1.0018912952558676 1.0010855767714888 -0.0008225965844844
1.0022547253199938 0.9996393278175187 0.0014240804480750
1.0020058261631608 1.0010490998935475 -0.0016079065732884
1.0023469444564106 1.0009965586255352 0.0021359337162836
1.0027116474628908 1.0001055833194374 0.0036378036084323
1.0015835591753375 1.0013367411824077 0.0012674260852897
1.0016470264388060 1.0013304602959747 -0.0002267548002769
1.0036702336980976 1.0000065458138521 -0.0006180267150313
1.0026531731714010 1.0008460053367005 0.0003959629048570
1.0018542929020997 1.0011261424035724 0.0016899076167974
1.0018007211271678 1.0007732006097241 -0.0007220794823852
1.0015922815585860 0.9999133085783051 -0.0050209086707222
1.0018080014880737 1.0013181822083752 0.0001641360737161
1.0019634919644718 1.0009268822809947 -0.0020804866243588
1.0021324878394149 0.9999168896184545 -0.0002904197041435
1.0019147989324235 1.0007423073576469 -0.0022379871319647
1.0011019332053082 1.0011687632909736 -0.0033837320543715
1.0017872789619404 1.0004741526313912 0.0029242995064840
1.0017858064328062 1.0009854463573422 0.0014111282028313
1.0015545855790728 1.0012697723597768 -0.0015162499221763
1.0011245396392288 1.0015373346022012 0.0018901624653035
1.0014682640740640 1.0015337904113657 0.0000960247296186
1.0018502194537187 1.0004154382902664 0.0021949245800870
1.0019159569610503 1.0011551631056399 0.0018593157774185
1.0015570678505004 1.0010766736867125 -0.0025828765948895
1.0013622588662419 1.0014334843939345 0.0019719016927421
1.0012870448883704 1.0028731551284582 -0.0023935474250970
1.0021539278604306 1.0014013265759489 0.0035072683294870
1.0019988823760977 1.0011147203277564 -0.0001458877196493
1.0024282668110192 1.0011470347677129 0.0000968315679307
1.0018029597420905 1.0027640751879976 0.0050969969589908
1.0017166602437240 1.0008680212899781 -0.0018061000542126
1.0017658834189711 1.0007603501728484 -0.0008350399204233
1.0013231837371703 1.0016098242327254 0.0020222692312351
1.0013503381081643 1.0017728376581752 -0.0000965496093651
1.0021954534933704 1.0002599680402660 0.0016000800580716
1.0019358113984400 1.0005199535310116 0.0000933755046028
1.0015001520551210 1.0014770623254634 0.0002749186671868
1.0018211530977614 1.0008903239643907 -0.0000314284223930
0.9996314788309782 1.0015930896836265 -0.0012976976324559
1.0017521916634793 1.0009144771290961 -0.0011136350797338
1.0017693836862500 1.0008075275348318 -0.0010264821308511
1.0019898542456804 1.0010825907657890 0.0005108156842865
1.0018874896661687 1.0011929587130541 -0.0026432850032593
1.0009455094098292 1.0022635702217346 0.0023536058324276
1.0013072841040445 1.0028948052691349 0.0042041557272787
1.0014673022867169 1.0012907476902870 -0.0006525848221932
1.0015372143225594 1.0011030608042768 -0.0018643247034034
1.0013296945244301 1.0009440102607730 0.0004397616969350
1.0019632334385991 1.0003212512912130 0.0001423792218613
1.0018885777753428 1.0005132896107714 0.0009821329161828
1.0021152817788397 1.0010615793495319 -0.0018243478179829
1.0014091894557280 1.0012311192901076 -0.0008936706659452
1.0014319512480159 1.0012105492930008 -0.0018007207674653
1.0018381013104181 1.0001078835908233 0.0026206058061538
1.0015241913724366 1.0013250784506946 0.0001482777688606
1.0019258818399606 1.0013396705168760 0.0023871021099913
1.0006143985526241 1.0009120088733492 0.0010487553500069
1.0021132238743538 1.0008390478036755 -0.0020374479432596
1.0010680092124915 1.0015811933513403 0.0041205874233671
1.0010936944169071 1.0012881282139197 0.0024874557986592
1.0013243577011723 1.0012871734928637 0.0007795220942031
1.0018731212248371 1.0011227510760969 -0.0021327984460627
1.0008951031029429 1.0030621491515661 -0.0008950479969001
1.0016571654597213 1.0005841882562874 0.0035645135687116
1.0012892740041497 1.0016071068267769 0.0027322696148838
1.0018695471424945 1.0011235123293598 0.0009682308686428
1.0018340938785846 1.0012485371280428 0.0019647751452346
1.0031802895836979 1.0004904426807255 0.0014703022730765
1.0017832077306159 1.0004391974173157 0.0034685673973585
1.0015294362223333 1.0015136176493109 -0.0004560404219629
1.0015228907550726 1.0002704856977507 -0.0003234171990553
1.0020670594799252 1.0012466269719471 0.0023184084820801
1.0020685676884549 0.9998116993180008 0.0027309354471564
1.0015069984630329 1.0012946300695929 -0.0005789853023649
1.0018096836963257 1.0009761549004965 0.0001808597131206
1.0012197185869276 1.0017801418306869 0.0023887515447168
1.0020216673151581 1.0010415080610693 0.0004901837896097
1.0015712339314160 1.0011760823125475 0.0011580572604741
1.0020050936132181 1.0000949885509018 -0.0029661968004432
1.0016109181215329 0.9997160126794346 -0.0026454655685014
1.0019093738854310 1.0012072296376073 0.0014938520363830
1.0015297875544968 1.0009191067997940 0.0016360858985214
1.0009762877175712 1.0016590580400464 0.0052232222556212
1.0016046883507737 1.0011524569329424 0.0008787494500688
1.0001739095416253 1.0013141815380833 -0.0039704516894837
1.0013387545796604 1.0002061307037626 0.0015502896838877
1.0033468755187143 1.0007731551764460 -0.0000870898619481
1.0013662922515107 1.0014727569412964 -0.0002779603027909
1.0009817834545913 1.0017079701121527 -0.0040344186888984
1.0013229561584993 1.0020750982020745 -0.0018159695559403
1.0013541706071767 1.0011813341838247 -0.0006890893476382
1.0019164070887476 1.0011762752855493 -0.0006765053075596
1.0012525936529626 1.0014655539932829 -0.0001688353017334
1.0017512100155064 1.0013587299029827 -0.0002596526446094
1.0014066794156671 1.0012151893396832 0.0022283341288931
1.0015018698478850 1.0011743752188631 -0.0014069717033679
1.0008699433965598 1.0004089299405294 0.0030305298371845
1.0033499681105496 0.9999872949347383 0.0037191798744950
1.0006799982455414 1.0028834659743369 0.0003699678349345
1.0015503554158038 1.0010629717776807 -0.0014139918800236
1.0014928583418683 1.0013916701856738 0.0004818572697733
1.0018773492371988 1.0010856030625794 -0.0023556211363611
1.0009801054507348 1.0019467295955298 0.0020116415072725
1.0019793541165665 0.9998435532413039 -0.0074268636004230
1.0019764204605994 0.9997669566649565 0.0075304673702435
1.0016241618263495 1.0016278900101141 -0.0007463852592416
1.0007519400375062 1.0027938165356038 -0.0000126347084442
1.0017269779751632 1.0009265467359558 0.0011773727684996
1.0018245835524024 1.0005270316852997 0.0015644202564400
1.0019891096605336 1.0011232522029476 0.0037981408261110
0.9983251487042905 1.0001802830374895 0.0002355407770491
0.9979083766862679 1.0002539251791795 0.0002291974823467
0.9978589396895677 1.0002172271300163 0.0001427517974035
1.0024169012676838 0.9979641877165542 0.0035698454399360
1.0013696560904020 1.0014986551665095 0.0024178023024073
1.0019147884233137 1.0013010350769203 0.0009568827220260
1.0018441431162330 1.0011797633755877 0.0012538081456352
1.0018869626464608 1.0009561793582868 -0.0037938611087276
1.0008597946505715 1.0003507409961478 0.0030892994579460
0.9990146913024806 1.0016118277195096 0.0011007976885085
1.0019244640866571 1.0011405678282070 -0.0008907998976962
1.0029174322528764 1.0010390437766081 0.0015108408330910
1.0013398577388535 1.0013419288032717 0.0013084463023325
1.0013417737080306 1.0017016832006762 -0.0005240562960678
1.0011277426517633 1.0022561318200367 -0.0001778112827608
1.0018173856341339 1.0007688561176931 -0.0003264943094924
1.0014254149952706 1.0016557012024894 -0.0015765712023561
1.0015380057585948 1.0013820024317706 0.0003913484359250
1.0014324078506938 1.0013286625556728 -0.0006503719788494
1.0014451090043746 1.0011619398084972 -0.0021734368198614
1.0053447707921690 0.9999297161702274 -0.0050428849681262
1.0015854911685682 1.0012521970823627 -0.0003018916060483
1.0019909985502338 1.0002148927607468 0.0006216628308030
1.0018513346597442 1.0003959626108714 0.0014686909566862
1.0021217524137433 1.0010919374837521 0.0012714524872448
1.0015333750734607 1.0011957335715513 0.0044836178669732
1.0040086383093747 1.0002692539253324 -0.0000162603077061
1.0017380656611721 1.0002527731424296 -0.0003610141195653
1.0018254701707889 1.0010805969119139 -0.0010124398374894
1.0053335529257892 1.0004097005604700 -0.0022255038531400
1.0015855139012300 1.0020421343269190 0.0002987439900121
1.0018320497056827 1.0006118689022721 0.0013511526306040
1.0009349712635696 1.0016414679770309 0.0046230820374058
1.0054419753865276 1.0000285639707358 -0.0031664362901868
1.0019728387296305 0.9996393278175187 -0.0037825897291657
1.0015815159576078 1.0009783710452762 -0.0006971755043313
1.0012194751026340 1.0018826583225025 0.0028184507501025
1.0009335659096281 1.0013245416365484 -0.0019801332608477
1.0016076374827212 1.0014750662385610 0.0000998057005619
1.0013229636499772 1.0016919049563955 -0.0001911485755265
1.0018201743788593 1.0010812812547381 -0.0009954891382641
1.0016269275805123 1.0012755250984664 -0.0009241942722688
1.0016759141603155 1.0008874389099847 0.0019670199732866
1.0008270144617173 1.0006897608190826 0.0005559558446925
1.0018134193802763 1.0008006349561267 -0.0013648161945233
1.0016858241026643 0.9996804973407541 -0.0002134763837375
1.0018924587099880 1.0010308525965346 -0.0009488466880152
1.0015957791820989 1.0020022718321944 0.0013315257392905
1.0014234648044416 1.0014542626155107 0.0009135535868484
1.0017598166712935 1.0009128544891193 -0.0006874325092045
1.0020358203365862 0.9996743270653069 0.0011146529797378
1.0035482661067721 0.9999694529357128 0.0023600343405021
1.0018322215786597 1.0006811034916261 -0.0009664384069241
1.0008105987810165 1.0014665656289929 -0.0002958188174466
1.0018669581076294 1.0005103521266216 0.0023681899221378
1.0017072520841386 1.0011351068847860 -0.0010090695403777
1.0016159201059345 1.0011103749772188 -0.0010800977412450
1.0048679399621123 0.9999501559823852 -0.0039274009241014
1.0015188285033454 1.0013969267854494 -0.0016969096712884
1.0008699433965598 1.0007726015509626 0.0050649701806196
1.0015965374048397 1.0014834549120029 0.0022121692973469
1.0019138749733953 1.0003823824238247 0.0004099795263792
1.0013100292580102 1.0012269739824107 -0.0016900192874323
1.0010025526289792 1.0012945886286548 -0.0052166917744785
1.0017516535581825 1.0011361194282118 0.0016046494211074
1.0016577395273774 1.0017621804346064 -0.0005503007763267
1.0011487144029181 1.0014562669948239 -0.0001144010796057
1.0060894904480220 0.9999921649218212 -0.0026301334727011
1.0026228598961515 1.0011864539017110 -0.0029304763681648
1.0034378799448000 1.0002310169190582 -0.0047085135556134
1.0014584356534542 1.0015692524008499 -0.0012399236146508
1.0009311761908324 1.0017662119025781 -0.0020629426538362
1.0018855596050009 0.9997160126794346 0.0020612273859492
1.0018946721784669 0.9996743270653069 -0.0043915374329975
1.0013407839305186 1.0013758621383335 -0.0010621108980001
1.0019648628087277 1.0013585331776225 0.0001470857165426
1.0017821274168879 1.0010387190997689 -0.0007871529887645
1.0017300282743076 0.9999986022707034 0.0001855264051194
1.0014238076113331 0.9998693773176450 0.0015924441273922
1.0016536296598588 1.0010709441413739 0.0017700780889763
1.0014585980036821 1.0012070616274125 -0.0016425993953680
1.0019310784291093 1.0003651202693673 0.0014371452252353
1.0018504552084597 1.0002938961217835 0.0031754347185757
1.0018895339255254 1.0004966944433331 0.0016236155385916
1.0027014499032199 1.0009404926603471 0.0020498150539185
1.0029891982489980 1.0014805462063170 0.0027089220960209
1.0021035152001438 1.0008711132014523 -0.0024006598864338
1.0012253586134605 1.0021308452500266 -0.0041615112066409
1.0014925362268523 1.0012124083423419 -0.0008298575861747
1.0009842689088699 1.0026080351347804 -0.0000644788741851
1.0024636014598047 1.0009381613177573 -0.0006292437825286
1.0014008033687485 1.0016574824024764 0.0003027861752268
1.0019200608613761 1.0012022521642949 0.0013382746770058
1.0016415210159042 1.0011662458587303 -0.0011728006162384
1.0014867573591282 1.0014462212123418 -0.0006661123507977
1.0018321160050272 1.0010479376591139 -0.0008923567169454
1.0011451360226831 1.0020622144916274 -0.0011686865214247
1.0017704536599297 1.0011316685859319 0.0013016390612589
1.0014488170375206 1.0013553114115028 -0.0007574061681247
1.0014324117035405 1.0013077540453794 0.0026608066982216
1.0018600819997454 1.0006027166514742 0.0009690514203396
1.0014101981406844 1.0006529917077334 -0.0015644666602396
1.0019057004463494 1.0008635177777843 0.0007205152870223
1.0031345476983917 0.9999690066627833 0.0003957675615003
1.0018217917399206 1.0011599128148418 0.0014432801645294
1.0018870342453277 1.0012786175085202 0.0022266817885821
1.0018371668594288 1.0010181328509671 0.0007122576136309
1.0014831502649482 1.0013462864248535 -0.0000268924552282
1.0018787300200134 1.0005861234336175 -0.0011342465779113
1.0018502996711474 1.0015796126042360 -0.0006934396230217
1.0015475482163019 1.0010160398213639 -0.0020217482490070
1.0016939965266654 1.0013183124760967 -0.0003864190375362
1.0018656227899592 1.0011533967912671 0.0008866724297523
1.0018588830928987 1.0011239060897672 -0.0001237481075321
1.0016448855956182 1.0011943663589074 -0.0010459835719402
1.0013197337157254 1.0011920772981180 -0.0014320304244894
1.0021141731895835 1.0001521264393349 -0.0010367693613629
1.0011121863024131 1.0014586796714429 -0.0005906048927771
1.0016702712526868 1.0010862864315642 0.0013771468812437
1.0012383430697482 1.0013994993491289 -0.0022560172451482
1.0015551475152324 1.0009161919786385 0.0022481078313615
1.0015300213575120 1.0014779646858012 -0.0006489782576077
1.0014051856009785 1.0013192746805157 -0.0003573807865123
1.0015926040603989 1.0009853032174034 0.0000519608643263
1.0017256843063955 1.0012327403685159 -0.0008769062418058
1.0018422946831280 1.0011048713641673 0.0010050475486085
1.0017657720704709 1.0015849887023183 0.0002119152418935
1.0022595187087133 1.0010404071304275 -0.0019834538828952
1.0009634338113413 1.0030658264528594 -0.0026469878670669
1.0009521077603327 1.0021474676419275 0.0025887904161980
1.0016396007366954 1.0013358294893751 -0.0002167141324126
1.0014426917648509 1.0016342719965092 -0.0001766834625795
1.0015978135045158 1.0010899527402395 0.0000261189055283
1.0014043366600978 1.0011443568917349 -0.0018142287584588
1.0051394809763450 0.9999419889270996 -0.0051413758682729
1.0013358982889471 1.0015411189158769 0.0020284917083287
1.0014907884656457 1.0010669284079539 0.0013214448913916
1.0013676983677904 1.0016059355631457 -0.0042587656569783
1.0014402339525978 1.0012361254929620 -0.0012718575638638
1.0011188461518035 1.0019711194325505 0.0042939568805156
1.0008597946505715 1.0007495953920358 0.0053573453951160
1.0013434336300091 1.0015332200897513 -0.0013859819253060
1.0008420786272270 1.0013536044739451 -0.0032925890329564
1.0018893272014620 1.0010319083043426 -0.0012107597690231
1.0014167527677569 1.0014966093137518 -0.0005708263655300
1.0007610069815278 1.0007865470172799 0.0004933396967437
1.0020520499383923 1.0006420979605883 -0.0017877096386693
1.0018807165219537 1.0006031900645196 -0.0003255652923795
1.0020906507657210 1.0002127389329116 0.0038605957876896
1.0012851701246734 1.0013449031365793 0.0000868994421892
1.0015504737727117 1.0012168011305789 -0.0002071239570153
1.0009128487625871 1.0021000625568359 0.0008073409860215
1.0012856155322964 1.0013212999754229 -0.0007243709880072
1.0014508527452053 1.0011683184726519 0.0041177666033104
1.0012409695232434 1.0014869247367046 0.0010649061636715
1.0018041519222622 1.0011535053089664 -0.0008443786028643
1.0013706567831562 1.0012919483761769 -0.0009698824653386
1.0016433872459392 1.0011631455378562 -0.0017612410511715
1.0014625014434688 1.0013622693139173 -0.0008444244399032
1.0018288979923407 1.0015510369543035 0.0007037498267816
1.0014670415079394 1.0013494893137975 0.0004476467245041
1.0017506369824687 1.0010427416698464 -0.0012059184107680
1.0012337603519652 1.0020279771070284 -0.0007092580609513
1.0014511988914370 1.0014345748890374 -0.0008390593543553
1.0014710034342036 1.0013123478010979 -0.0019305269867474
1.0016998952844598 1.0013522780676465 -0.0005773822659180
1.0020285014408445 1.0010857225507419 -0.0009609114101171
1.0017697289776757 1.0011609695370631 0.0020757410488642
1.0012625583178385 1.0014885173180814 0.0003755650099811
1.0014569953659518 1.0013889269548448 -0.0007556258952425
1.0017137427966545 1.0013238831424227 -0.0008656382048950
1.0015430974736910 1.0013967614685959 0.0007598649088738
1.0015874021796058 1.0012733254894997 -0.0021920592507626
1.0014405576587584 1.0015947237312484 -0.0008931369092025
1.0019125411679992 1.0007257909344844 0.0004067059972477
1.0017109212298150 1.0007393605933750 0.0017637745089656
1.0014575475005896 1.0013159313138040 -0.0006275610500576
1.0016023617409524 1.0012185637618685 -0.0000748833960505
1.0025587416328219 1.0008776104019212 0.0013026855959474
1.0017005154678595 1.0015958481449052 -0.0003675187459123
1.0015551746069489 1.0011283847609200 -0.0006675091357598
1.0008931505125134 1.0005168749165791 -0.0005515964448286
1.0019457970072922 1.0003996302988540 -0.0000850503034239
1.0016751379110338 1.0008676651260029 0.0014290097632286
1.0013197280469237 1.0017998529515735 -0.0005871938110427
1.0013278528305405 1.0011990250553469 -0.0015151725890794
1.0009015768510106 1.0008608334190181 -0.0002001444261065
1.0015862072751169 1.0012314270008789 -0.0000375087085490
1.0016758887061612 1.0010281532632932 0.0011395092448978
1.0014731338749481 1.0015058948213547 0.0004437976740383
1.0016280570264922 1.0013429296053344 -0.0008783156171564
1.0018681942522991 1.0006337590322214 0.0006246380506467
1.0014827003969711 1.0014784230584983 -0.0010496514346090
1.0017419149191551 1.0012329016274264 -0.0009271663232241
1.0014603976491303 1.0011938237841813 -0.0000377202531969
1.0016032312243401 1.0013284483987224 0.0001271613646239
1.0012805844530810 1.0014453289213776 0.0001384349257937
1.0014432536259994 1.0014851098636008 -0.0007933678562584
1.0019485034598132 0.9998073011967998 0.0023748455595809
1.0015243018773992 1.0013269044987487 -0.0005873695198166
1.0016884077214141 1.0021039959928169 0.0005501877033474
1.0016814388177384 1.0012710797502817 0.0013317052254182
1.0015028883462422 1.0013235849499378 0.0013237515015470
1.0008229789884364 1.0012715948723871 -0.0018157127335476
1.0016312369741724 1.0014030623622308 -0.0007391014929884
1.0022435305239608 0.9999819099345020 0.0037007739112657
1.0014787934964533 1.0010874277307473 0.0000506399794111
1.0013983785249532 1.0016809079259954 0.0042943362831422
1.0016581079827767 1.0010900938663096 -0.0012037949015993
1.0019054781253711 1.0009844962412877 -0.0004227523532826
1.0020875157179372 1.0007836719072472 -0.0014758413542977
1.0014654082197261 1.0012416175638301 -0.0011081769448186
1.0017473396680974 1.0014456303554511 0.0033955902265544
1.0018960641471308 1.0004440671048274 0.0007194901638083
1.0016893253919796 1.0011538026372575 -0.0007760733827539
1.0022431622225167 1.0006010999521024 -0.0020103269901401
1.0013581805950413 1.0028101125149698 0.0004256833114985
1.0014850276207004 1.0014798091556074 -0.0005303823204891
1.0014888825747517 1.0012218310848564 -0.0016160785491483
1.0018781522844979 1.0010985560663919 -0.0002171134293769
1.0012107631231726 1.0020237193518826 0.0002042621791951
1.0019246620883688 1.0010265639499309 -0.0001225132032797
1.0023187721156235 1.0009746264147792 -0.0024168721305559
1.0011898213317845 0.9999133085783051 0.0013191834471658
1.0020225374725145 1.0013402803984235 0.0002203936005622
1.0015056942489180 1.0015090229566990 -0.0000753839875038
1.0017073601059241 1.0010592035686048 -0.0005055265966467
1.0014799038069668 1.0015430700593886 -0.0002390337467960
1.0014385482713857 1.0015467848699919 0.0007754393881395
1.0014883040089892 1.0014006433428473 0.0013420703155703
1.0016831139285440 1.0011100394328960 -0.0011499939625584
1.0018387025396442 1.0013396024664398 -0.0006750774753208
1.0014535574410195 1.0012314430315423 -0.0011906126964736
1.0016204372385844 1.0011100793224688 0.0002092523768048
1.0013005681042424 1.0018010900929268 0.0004468937243540
1.0018161401866341 1.0012534254345227 0.0013495689762296
1.0017995915223967 1.0006322754557824 -0.0012531259490761
1.0015390516897127 1.0014679622649210 -0.0005868443943063
1.0014568926272056 1.0013442147579821 -0.0003515468854159
1.0014470835300648 1.0012174956967750 -0.0018304985066041
1.0015981173177442 1.0013173231808059 0.0004641709789795
1.0017043739807499 1.0012590525451650 0.0004664269493642
1.0019283271317063 1.0004335668259738 0.0009351614544120
1.0014822733430191 1.0014101947329073 0.0020335689097091
1.0014133116030797 1.0001977698221889 0.0020799132905655
1.0016110574154782 1.0012795216043748 0.0012351119941319
1.0013262251081410 1.0017113004723996 -0.0000431939533247
1.0013942865511389 1.0015542209611989 -0.0015434978054010
1.0013332799966672 1.0014654411334418 -0.0007242802323148
1.0015158906597350 1.0013161536392414 0.0012768283717590
1.0017526707523621 1.0012207139534475 0.0016212616609956
1.0015883170358899 1.0011781543298741 0.0012920970309880
1.0016768126547746 1.0012330073764286 0.0006054278628938
1.0017404191861565 1.0011221644908479 -0.0011158524029107
1.0014690262550090 1.0013295477030286 -0.0001159903158100
1.0013441424589664 1.0017122236535225 0.0006421502461923
1.0022817358548970 1.0014036456147595 -0.0012815955668937
1.0014574501286941 1.0014278505683651 0.0000894115084300
1.0018020366318672 1.0011485605672692 -0.0008385614522051
1.0015453731785946 1.0013584032738418 0.0012146899571304
1.0012366270930202 1.0014361990493481 0.0002300318991655
1.0018105949901974 1.0007031744517012 0.0010676846989219
1.0015204417035393 1.0013148333499629 -0.0005311421396459
1.0016166439092247 1.0012885384677668 0.0004309900292232
1.0015263427077157 1.0013264567404141 -0.0002158562358592
1.0017649099990089 1.0012145715654233 -0.0008326649148246
1.0014426814780772 1.0014093489535143 0.0012880449976121
1.0017674016883404 1.0010976348190084 -0.0008814934796364
1.0014399804910072 1.0013400469336515 -0.0000178559974755
1.0014811965295398 1.0015628074862384 -0.0004268285901692
1.0014381491191029 1.0012463543581485 -0.0018399341042942
1.0017660502065948 1.0011781917114979 0.0004556454850209
1.0017452208995352 1.0012333965151832 0.0004885951577362
1.0016255146379218 0.9998937055975992 0.0029784395968790
1.0015067473132839 1.0013106872701083 -0.0003824141766006
1.0017461681315727 1.0011595332422061 -0.0006164567805455
1.0017970740774202 1.0011257330249859 -0.0001390920825711
1.0013420158082840 1.0017283324334658 -0.0011110177771752
1.0014903811693725 1.0011832041210900 -0.0000274482193316
1.0017441466627846 1.0010588836821885 0.0005500303486918
1.0014630058785099 1.0013430478693381 -0.0001804824880636
1.0013632183383261 1.0013717471102614 0.0006494166963864
1.0025003709295175 1.0013493433353466 -0.0051871339787904
1.0018477192231343 1.0011445025431991 0.0002614443068250
1.0016183403514121 1.0013339055972441 0.0000327484394650
1.0017206258962619 1.0017342780295153 -0.0005012153624195
1.0020081787175288 1.0009715086269366 -0.0020715598480893
1.0018230957575371 1.0012317765131487 -0.0001926451182689
1.0018180244759991 1.0007798129943790 0.0000617694361730
1.0014745304787607 1.0013677697837855 -0.0003482607834263
1.0008931505125134 1.0007138916917766 -0.0027153820709624
1.0016497106585758 1.0012195337142031 -0.0009465941181613
1.0014605430132222 1.0013384740748599 -0.0003026569103464
1.0014982692585972 1.0013330922669763 -0.0002712040198770
1.0018799730258949 1.0011431344633548 0.0005623101601665
1.0015842517053117 1.0002548270667819 -0.0021856286318783
1.0017555975013055 1.0009384083085011 -0.0006057928919785
1.0014435076285435 1.0012069128760415 -0.0000379290902513
1.0016187346804379 1.0013483640943510 -0.0001707530049742
1.0015376228833401 1.0014637647059763 0.0000582278213295
1.0018106861602258 1.0006692653287323 0.0014363548283208
1.0016101600024050 1.0014177826484487 -0.0004842173778804
1.0013943247124264 1.0012994609242583 -0.0001858328810295
1.0016865175204079 1.0013318916849887 0.0003176159492100
1.0018026774667950 1.0013179704391888 -0.0001372217449055
1.0018335537656160 1.0010994378326705 0.0000596760323241
1.0018859490406637 1.0006024357774790 0.0006216642351471
1.0017749532801685 1.0013005359428755 -0.0001396759815094
1.0018986944499484 1.0011523330787389 -0.0003672276281375
1.0017339393912006 1.0013158126511583 -0.0002857408323042
1.0019487164064054 1.0013693904860104 -0.0004116779307798
1.0016792914532837 1.0012829791890627 -0.0001957390496204
1.0015756350418670 1.0013033258062538 -0.0002721451936222
1.0016301090814939 1.0013141815862674 -0.0005090591335314
1.0018036762614955 1.0011297434053825 -0.0004849699499108
1.0018135663418783 1.0007512722255119 0.0007460628739442
1.0018526464646542 1.0011359089465690 -0.0009324640030007
1.0019032388927456 1.0011514250060947 0.0009080352944637
1.0016309844481901 1.0013673129005480 -0.0001967518195146
1.0017964702008739 1.0011927487126315 -0.0008911521972723
1.0018506644755274 1.0006853461872780 0.0003156834383661
1.0018180571008741 1.0012128247753891 -0.0009104985319839
1.0018158833520718 1.0011528559801366 0.0000173045290829
1.0018175461139598 1.0012217791422104 0.0009867792588528
1.0014651456445867 1.0014848127367217 -0.0002265574614928
1.0018157445379647 1.0006490971639239 0.0018397960715920
1.0014413115512362 1.0012621240862287 0.0005681357670121
1.0014715475249925 1.0013652027911233 0.0006463207050315
1.0013951034877169 1.0017423253838784 -0.0001048629626708
1.0013177451395956 1.0013954063316957 -0.0003098839655792
1.0017777662390792 1.0013553667469779 -0.0002440768314276
1.0017865285602294 1.0013852803352783 -0.0003958037492385
1.0015516938017266 1.0014445611487199 0.0006288448682579
1.0017563438505250 1.0012542156479365 0.0007425199954300
1.0017523144867961 1.0009955825068730 0.0007851469905957
1.0014293398577421 1.0013782274517393 -0.0006867660149277
1.0015282840323987 1.0014595746961412 -0.0008456828301000
1.0015433893051526 1.0012853620519269 -0.0009260077846163
1.0018201685863919 1.0011928617177264 0.0004246424133343
1.0016717193487492 1.0011617161348709 -0.0007183135109766
1.0018963641189835 1.0005736989207956 0.0011293102488467
1.0016647417521192 1.0012210956330105 -0.0007127915398657
1.0016800774842851 1.0012551358950825 0.0001763151428659
1.0017956292230581 1.0009804109324825 0.0006229258288030
1.0014037962952003 1.0016896141159088 0.0000113272793645
1.0016105799434447 1.0012162773320525 -0.0010249151376887
1.0015512049787876 1.0013692768275506 -0.0000248014108298
1.0017041065549179 1.0012051132167443 0.0003314271245417
1.0016217951257587 1.0013154455973519 0.0006098263380154
1.0015299232289565 1.0013722872363098 0.0006545344960463
1.0016362007154269 1.0013088371437078 0.0000698478272717
1.0015850989704937 1.0014016212942591 -0.0002607107349733
1.0015654075833684 1.0013708940569417 0.0001675075195065
1.0014572458233397 1.0015976504098676 0.0002558462765061
1.0017062331113353 1.0012078069365871 0.0003269906617622
1.0018827810810509 1.0012353107482219 0.0019029992388975
1.0016042741124473 1.0013517027396139 0.0000672642376555
1.0017181463056724 1.0012088882533037 0.0003226454726243
1.0016084543387551 1.0013223865274721 0.0000630467589224
1.0016205133348945 1.0013436218980443 0.0000242719310915
1.0015526437091253 1.0013949672433740 0.0006482876601086
1.0017140484122680 1.0011808286210611 0.0003063920014967
1.0015914566157096 1.0012992360974664 -0.0005255664795204
1.0016615792747039 1.0012683047274131 0.0006055201151871
1.0017460469663777 1.0010385280970977 -0.0007209758110777
1.0015304919798487 1.0013586816150670 -0.0002968689947826
1.0016710745767416 1.0012382501399797 0.0002083987206648
1.0017366395606164 1.0011787963820435 -0.0000303124852738
1.0014856042524121 1.0013672479840587 -0.0003061521225438
1.0016672098698811 1.0012746850501222 0.0002110837225758
1.0014365515054087 1.0013781339187620 -0.0004933325997241
1.0015815486072748 1.0013436666755633 0.0000519878879142
1.0014514265951839 1.0016472750081662 -0.0007356432886003
1.0016974138335852 1.0012106503732665 0.0002794142133739
1.0017056136979328 1.0012098396460607 -0.0004570780620831
1.0016800765877780 1.0012503450472594 -0.0004491163997691
1.0016005623670703 1.0013241823575771 0.0000045783161313
1.0015790801481956 1.0013972811840761 0.0000497548414289
1.0014264747335626 1.0014301186254193 0.0001556969286631
1.0017355744204031 1.0010566283778113 0.0004806514615773
1.0015446074545855 1.0014411864396076 -0.0001968692419444
1.0016518045848062 1.0013948282324514 -0.0004887732365309
1.0015909722697027 1.0013460588703744 0.0001725436290325
1.0016163085005723 1.0013172387148983 0.0001704514860036
1.0015064708827845 1.0014988787780612 -0.0004464099131664
1.0015930408260971 1.0014099754380694 0.0003645873932129
1.0015646934549522 1.0011507890848499 0.0021000499477906
1.0016637311167134 1.0012497640108879 0.0001655341330282
1.0015961686199590 1.0013641789453573 -0.0000957664150909
1.0015917115485387 1.0012735295379580 -0.0002246305763666
1.0017824163770785 1.0008477771137392 0.0012727939911561
1.0015401938327140 1.0013983650313427 -0.0002207665687055
1.0016724074525802 1.0011191428612527 0.0008724452033708
1.0016353869183827 1.0013057193500667 0.0001740105062160
1.0016820052763400 1.0012237151790924 -0.0001797232346796
1.0018083711504375 1.0011941109496156 -0.0002760695975421
1.0015220253691794 1.0015567563733494 -0.0001920244007011
1.0015459157963218 1.0014761037801059 -0.0002178089515543
1.0014388266738503 1.0014190011183552 -0.0002922231108982
1.0015091253498234 1.0013937432855153 0.0003309449213517
1.0017769663378702 1.0012488167573244 -0.0002693970473597
1.0016106902673656 1.0013385833924653 0.0001784691588470
1.0014641649605411 1.0013655334356011 -0.0006831231541350
1.0017830179444969 1.0010321939265552 -0.0001455786600072
1.0017041639440476 1.0012311157481009 0.0004597804277266
1.0017943194600298 1.0009840336107056 0.0004869376351632
1.0017642207217368 1.0012044302135235 -0.0000007152143647
1.0014532100847418 1.0013991367348256 -0.0002005034163867
1.0017709880832955 1.0010350800729630 0.0002303931126009
1.0015113287895567 1.0015326874000170 -0.0005628174904527
1.0014433928697304 1.0016187147503459 -0.0001886633546168
1.0017264290301637 1.0011897398001499 -0.0000072839175722
1.0015871449133886 1.0013830726025919 -0.0000289166065345
1.0016346411062247 1.0012711684433819 -0.0004045947242972
1.0015640253258931 1.0013392886336996 0.0006336636990465
1.0018085634249103 1.0010335680405105 0.0000152912477850
1.0016427563737444 1.0012543814346311 -0.0003823179315322
1.0016987864080020 1.0011450774435890 0.0004813075660741
1.0018759864336531 1.0011387697752054 0.0004401652350440
1.0014091504774882 1.0014132721546296 0.0000369954618224
1.0015953327677458 1.0013961946080268 0.0001314392822613
1.0015631780870560 1.0013614217673670 -0.0006893153499076
1.0017551313395330 1.0011063376024223 -0.0001911891337699
1.0015370001484660 1.0015021384124296 -0.0007320686083301
1.0013414431878134 1.0013635102366309 -0.0008189155208316
1.0015758208739964 1.0014527989064974 -0.0004553742309176
1.0015526002039656 1.0013601941788708 -0.0002733124090247
1.0015885878667179 1.0013538683800454 -0.0002860076839096
1.0016073730955748 1.0013344871622873 0.0003468713304656
1.0015378623600761 1.0013385429987027 -0.0003743992259784
1.0018550011999185 1.0011484158979000 0.0000538347864507
1.0016702890780116 1.0012074727262723 0.0005763630954063
1.0015605741726539 1.0014435905178749 0.0000175133692271
1.0016588533114381 1.0012772839380717 0.0001638855435953
1.0017761508675322 1.0010108040744696 0.0000015430581050
1.0015284199441818 1.0013728905014996 -0.0001803875463556
1.0017539798367932 1.0011928669465306 0.0002677724134677
1.0017461890726405 1.0011693763439611 0.0001149487139405
1.0017255017036186 1.0012275503508246 -0.0002433886941638
1.0017448808451228 1.0011077123795873 0.0007646689648392
1.0018928048567441 1.0005076418736361 0.0015388767429132
1.0015421681291758 1.0013700612417724 -0.0002890581152117
1.0015559180966316 1.0013742350241870 -0.0000810239603126
1.0016016674347641 1.0013848520532678 -0.0003247947976687
1.0016986020113883 1.0012442944269835 0.0000439108445084
1.0018619376497873 1.0009127548412373 0.0004799704256957
1.0015173847113845 1.0013665048365927 -0.0002908206703941
1.0016087559008686 1.0012286097883165 -0.0007723061266763
1.0017254833888052 1.0011877067972190 -0.0000087812451474
1.0015185631649701 1.0013516947372909 -0.0005151129961605
1.0017351136329300 1.0011030338075082 0.0002011743255970
1.0015294063420901 1.0014761432702985 -0.0003087659189913
1.0016090513092237 1.0012749939174708 0.0003591720647579
1.0015206991305976 1.0013293134156218 -0.0003840146666230
1.0018068541836660 1.0011533650902189 -0.0000723646930084
1.0018301489861963 1.0011741560112730 0.0004953168300853
1.0018542740859475 1.0009194766292688 0.0000850005837615
1.0015911435127274 1.0012900710711399 0.0003916118738456
1.0017644663771084 1.0011435520587697 0.0002047921988201
1.0017023344074485 1.0012306297168005 -0.0003869412620662
1.0017131274281039 1.0012349625428960 0.0001644798278708
1.0015561862154978 1.0013338745312164 -0.0005075009119922
1.0018101114728704 1.0008349749708352 0.0010001961194762
1.0015585660301134 1.0013713648949776 0.0000666859945364
1.0016299518922753 1.0012613973890154 -0.0004585541021069
1.0016924738556634 1.0011698926254040 -0.0000505712945258
1.0016952540015902 1.0012380123550202 -0.0000178483802233
1.0016978200690707 1.0012069402934343 -0.0000187365505651
1.0016407951302901 1.0012849198657148 0.0001663254323521
1.0017493184542485 1.0012363199335734 0.0006954286706513
1.0017154601926790 1.0011389570378528 -0.0004002333768470
1.0017282984016351 1.0011036656069487 0.0002948559341890
1.0017655598180717 1.0009796828519297 -0.0001326053589668
1.0015852462466504 1.0013756471540123 0.0001796957713465
1.0017488614749088 1.0012392904556582 0.0001842867316862
1.0015634793163339 1.0014035714219167 -0.0003587368485500
1.0016092878357188 1.0013065874269098 -0.0004458144021347
1.0016932275046626 1.0012519269662448 -0.0002953805796238
1.0015630194590561 1.0014181888939266 -0.0001607316948863
1.0017908581481205 1.0012238940274385 0.0006665383185450
1.0017276415704683 1.0010527202613082 0.0006024810727001
1.0014461439419351 1.0016812032552393 0.0003697136601001
1.0015114126258278 1.0013712825213779 -0.0004281517045427
1.0015507290625176 1.0014409579730263 -0.0001857011900659
1.0018230434646458 1.0009138525289671 0.0003597700020330
1.0016955254379565 1.0013152613120759 0.0000319572257695
1.0015596084061156 1.0013451099794493 -0.0003436926615006
1.0015493475455444 1.0014211276656673 -0.0002297124030614
1.0017882483013014 1.0012363000110824 -0.0000915703917059
1.0013882582420961 1.0016469196709983 -0.0005654219884281
1.0016229610048517 1.0013225621234338 0.0009492179681034
1.0017490909577200 1.0011347633578918 0.0001138766254762
1.0016276907981989 1.0012768719444209 0.0006386524175395
1.0017984109799443 1.0013333343271000 -0.0003976319151732
1.0017553517160906 1.0010815329507607 -0.0000536367075529
1.0016802865408234 1.0012753969527475 0.0005483161174055
1.0017866093955081 1.0011370288691654 0.0001252451152341
1.0015053712692090 1.0013648231401242 -0.0003437838301484
1.0017629561887700 1.0011840599776232 0.0004017645069670
1.0017139123494601 1.0012589102000109 0.0007003177996499
1.0016091946426782 1.0013456329798660 0.0006301091823429
1.0016392503770830 1.0012980469168162 0.0002450265882681
1.0017288549331465 1.0011032688275374 0.0000322541509035
1.0015833733340582 1.0013532633294235 0.0001037674113625
1.0016891092961273 1.0012486961404226 0.0002785066578560
1.0014525234208758 1.0016207703035658 -0.0002280215796699
1.0017614871709430 1.0012486853980076 0.0007144190539623
1.0017211827399362 1.0012706540803218 0.0001443595476084
1.0016421253227352 1.0012870743152296 0.0002409303443535
1.0018764991753439 1.0007244554965706 0.0004930879334409
1.0013233643029538 1.0014238124452546 -0.0003125093166170
1.0014101014316859 1.0013484845980329 -0.0009236422336869
1.0016128461892275 1.0013254571264936 -0.0003610038813258
1.0017641186342994 1.0011682253107232 0.0002602690830525
1.0018116912369741 1.0010661443954219 0.0000571037458135
1.0014708767939888 1.0015861046029755 -0.0000969529069251
1.0013433138324015 1.0018924548129819 -0.0000649367830944
1.0016664043139141 1.0012673507075753 -0.0002255861169652
1.0015978687682743 1.0013184776951458 -0.0003088598438111
1.0015477821906535 1.0014906452803982 0.0000718861586082
1.0015238810534572 1.0014762693580224 -0.0000684964047296
1.0015005228051437 1.0015396146940216 0.0005724615243536
1.0016365668529663 1.0012786719084179 0.0001536061666483
1.0015371568926021 1.0013892808786378 -0.0001761808906190
1.0015463997479050 1.0014879962288643 -0.0000310156091324
1.0016913190202716 1.0012792786966815 0.0000116372633731
1.0017300601429302 1.0014268551035530 -0.0003459564517660
1.0017641949501821 1.0011162189140781 0.0002088701219348
1.0017512979140117 1.0012878506610703 0.0014806946110397
1.0014373105476611 1.0013988622460821 -0.0003480866361679
1.0016161440192877 1.0012593722650760 -0.0002697341221704
1.0015682366927428 1.0013770465688461 -0.0009966868676911
1.0015671578350869 1.0014182041173483 -0.0000531804349790
1.0015386076538764 1.0013877925049555 -0.0002119339412187
1.0015312772878042 1.0013725113991550 -0.0002291373567596
1.0017985353189280 1.0009318216388750 0.0001977792499061
1.0017964289833705 1.0011607186239289 0.0001720438578251
1.0017139173598386 1.0012674655002429 -0.0005035575392057
1.0014653358752938 1.0012728266321307 -0.0000760581439202
1.0019693329385737 1.0010885415796931 -0.0004893327417176
1.0016607357688261 1.0012961488405732 0.0003450828955272
1.0018051626151125 1.0012170155126532 0.0007574780431968
1.0019761263411557 1.0006778533797602 0.0002543439776386
1.0014114578928677 1.0014195083116668 0.0003528990899754
1.0017370110258579 1.0012280586412239 0.0004555857774734
1.0017643858281382 1.0011636558452814 0.0001466787283718
1.0015118393162676 1.0013544585386354 -0.0005406090672642
1.0017084918353591 1.0012013799883068 0.0002495823495781
1.0015041490747769 1.0015317771571020 -0.0005983473934958
1.0017782000058137 1.0009387111887871 0.0013414872003953
1.0017390070375791 1.0012120102774400 0.0001843240799466
1.0016020087194446 1.0013314919966032 0.0001270307432360
1.0017026777797433 1.0013305634515841 -0.0002338099924995
1.0016174929584507 1.0013389789632017 -0.0001696733160059
1.0018004268165097 1.0008273024476269 0.0008172842314311
1.0016319377204610 1.0013144470391071 0.0009517344551813
1.0015988386213086 1.0013717608060428 -0.0001326660339773
1.0015515138926327 1.0013045674890257 0.0012531193789872
1.0014265917399796 1.0016715634893070 -0.0006469449631768
1.0013675478230117 1.0017210564477841 -0.0001831223690868
1.0015556198938695 1.0013967890291107 -0.0002564178202101
1.0015512847624701 1.0013910602354539 -0.0001802765610991
1.0017864873645268 1.0012293204958056 0.0006074076174739
1.0015280975470109 1.0013798909790308 -0.0001035227696850
1.0016859288152147 1.0011436005064502 -0.0008389928842413
1.0015037607092225 1.0013667086537064 -0.0002518379924776
1.0017181944817291 1.0012100100304158 0.0000023217258591
1.0017655400971024 1.0010608988782526 0.0001578310588047
1.0013937398566741 1.0014400207103258 0.0000128093253732
1.0015118714872231 1.0015006090157332 -0.0010909957206391
1.0015834078088752 1.0013017704180811 -0.0001749496481825
1.0015402996934466 1.0013737929910418 -0.0000919539745865
1.0017335509451388 1.0011258411009973 -0.0005580784559565
1.0016021430519244 1.0013135150408334 -0.0001314672375182
1.0017808267615269 1.0011651416822998 0.0000587849787018
1.0015817697457337 1.0013506008966431 -0.0002476772634001
1.0016993914460797 1.0011992582125093 0.0002770966907479
1.0016905059963772 1.0012329324475129 -0.0002311673774857
1.0016000667510363 1.0013101980976153 -0.0003801907232926
1.0017182183978695 1.0012471524105300 0.0005282290245992
1.0017927333179468 1.0012688941017682 0.0012706016861146
1.0014967800596770 1.0013172588545327 -0.0002683238111720
1.0016878041767665 1.0012504813538115 0.0002228481541207
1.0017844102925360 1.0009824191481045 0.0000756742523113
1.0015635267876222 1.0013592756969425 0.0000228105142313
1.0015254786881511 1.0014450389336109 -0.0000919694908505
1.0017243123478228 1.0012133616236376 0.0001183833525498
1.0017304589427649 1.0010753028022286 -0.0002331041418193
1.0014426990909084 1.0016362154735292 0.0000529008427896
1.0017174081048053 1.0013517497115585 -0.0000479059874861
1.0018038473570461 1.0011625232911574 0.0003174257841979
1.0017107511064920 1.0013867266213572 -0.0004047788950215
1.0015644686333405 1.0013807943308466 -0.0001586506189667
1.0014191570286624 1.0016645837572327 0.0001392501940367
1.0017350618707184 1.0013115139117224 -0.0004308787381605
1.0015308647017642 1.0014620188851273 -0.0002479811371056
1.0017094749892079 1.0011840661225151 -0.0004611436881319
1.0014154196608351 1.0013528137956671 -0.0008133624137611
1.0015381722685157 1.0014539694452478 -0.0001844179960006
1.0014019382894097 1.0014098096920467 0.0002102572328733
1.0017145319138721 1.0011865585015742 0.0002756294405775
1.0018162045512935 1.0010793308913672 -0.0005608943487904
1.0017086377024129 1.0011063772637745 0.0003145664481220
1.0016732801035702 1.0013669052579248 0.0017541375387272
1.0015301856880372 1.0013927548580230 -0.0002599720471030
1.0015287185331927 1.0014686301175069 0.0003409936735899
1.0015236125111089 1.0014842187503779 -0.0001084796755397
1.0018322389832148 1.0011429753364305 0.0000518514748697
1.0017710365560233 1.0011650756874770 0.0002133859140901
1.0017781953041545 1.0011891958420296 -0.0003813339838009
1.0015668673927882 1.0014081239345720 -0.0001683396410103
1.0015596342181017 1.0014159282581536 0.0001727409445578
1.0015032520856892 1.0012708196258229 -0.0010445351820898
1.0015724490443949 1.0013100526651602 -0.0004768857798419
1.0015696064764552 1.0013583558874362 -0.0000500982213492
1.0016436582020964 1.0012509205945066 0.0003107945313586
1.0016577894773691 1.0012613996079631 0.0001084206020518
1.0017270677889345 1.0012213912870098 0.0002819027326971
1.0017030349731566 1.0011454748912809 0.0000482510571216
1.0016464476111351 1.0013087951997752 0.0003444563408868
1.0017298993185015 1.0011693465235587 -0.0003273355634884
1.0015208141214536 1.0014759681588625 -0.0001962986758434
1.0017957888840541 1.0010102967780616 0.0001050040882263
1.0016026801151707 1.0013364786770533 0.0002360109645675
1.0016029884561632 1.0012894939808654 -0.0002109746742542
1.0017833493947497 1.0009240007364857 -0.0006559138334961
1.0017495032584482 1.0011584915185301 0.0001711200932631
1.0016741504185562 1.0012182916474854 0.0004787246175255
1.0018036792400093 1.0008938130754479 0.0003527116302197
1.0015737118502448 1.0014432610640016 0.0001106211353634
1.0017170589233286 1.0012881054030145 -0.0005122888895321
1.0014366296757495 1.0014454769118859 -0.0004915362905434
1.0015455262271322 1.0013975016762051 -0.0001929506119966
1.0014943109366523 1.0013776384784692 0.0002778790125484
1.0017594033676576 1.0010975983974968 0.0002285927101762
1.0017547713097268 1.0011690050264941 0.0002625325649546
1.0016975385683335 1.0011595815455203 -0.0002916485192493
1.0015196366963359 1.0014782849513211 0.0003339918294021
1.0016920588839049 1.0009101185705034 0.0016704518801048
1.0017149767914979 1.0011764918836501 0.0003573804280565
1.0017505833006861 1.0012403016101576 0.0004339797962186
1.0015194345266056 1.0013322092250332 -0.0006605164350024
1.0015289464156114 1.0013743225819838 -0.0000649643653836
1.0015329141059717 1.0013723778684938 0.0001408544878797
1.0015759042266990 1.0013480386977927 -0.0000206569516040
1.0015291125405736 1.0014695005166330 -0.0002375975646981
1.0014223679029091 1.0016584749438244 -0.0003972006918827
1.0014504639239530 1.0013613910268264 -0.0006965982855424
1.0017269344339639 1.0011458156855282 -0.0000025398881953
1.0018158240251898 1.0009071245047352 0.0004658358878226
1.0017122874268021 1.0011183570750277 0.0000642639693695
1.0014510020414069 1.0014079832317515 0.0008221152265118
1.0018304246774667 1.0011734742586083 0.0001853450216726
1.0017400500518125 1.0010472806855495 0.0007378335148360
1.0016246650840972 1.0012393586978101 0.0003487911627760
1.0018142601922222 1.0011796105548048 0.0002950402252769
1.0017083010211980 1.0011610145574352 0.0000131175703486
1.0014830277252864 1.0013497945058654 -0.0004904167248526
1.0016245733009916 1.0012953702968128 0.0000227492644551
1.0016492820340863 1.0012650148343003 -0.0004075529701414
1.0016032225317304 1.0012618302433212 0.0000072823549976
1.0014363688368999 1.0014216756278904 -0.0002249732330285
1.0017698544050841 1.0010206806123185 0.0003222866090828
1.0018909981115696 1.0011472555716225 0.0007147086484048
1.0016622228950607 1.0012407540359398 -0.0005918247052438
1.0017732707434288 1.0011444557000611 0.0001410736909396
1.0016711120742552 1.0012109903111774 -0.0007241053666102
1.0016910222257533 1.0012086091124357 0.0002221131404184
1.0017942096237256 1.0011635918228936 0.0000880927802629
1.0018009268953689 1.0011677194637367 0.0000125368709256
1.0017180646107648 1.0011210880983263 -0.0001509657421352
1.0015338399422509 1.0015271008758644 -0.0000994895976276
1.0017242570518077 1.0011735129735866 -0.0001549574493957
1.0017034964124210 1.0012802505412726 0.0008317968925618
1.0012058699098971 1.0020682035434261 0.0008594796561389
1.0016719858751599 1.0012225952331075 -0.0003319992542583
1.0015297103138463 1.0013578211938423 -0.0002939547102716
1.0017475833940621 1.0011570382431478 0.0001885677625615
1.0017867228128645 1.0011749068740414 0.0001112632154023
1.0017510850996185 1.0010877395869862 0.0001479957435667
1.0014889635497013 1.0015547804085434 -0.0004736171833174
1.0015388473323568 1.0014318524945272 -0.0001067615369151
1.0017261845977976 1.0010274372122181 0.0016080205767823
1.0015544502755389 1.0014229184466781 0.0001586174152334
1.0014287046250401 1.0016490749491884 -0.0005493342563394
1.0017225957783424 1.0012223926924801 0.0001087167095566
1.0017719688562317 1.0012107910351133 0.0005563285418842
1.0015094647561118 1.0013937343427148 -0.0002608847098807
1.0015719667567675 1.0014141863313293 -0.0000216981592477
1.0017349613918292 1.0010753367218244 0.0003771039020518
1.0017610366858940 1.0012609963860928 0.0013029180262354
1.0015270402559153 1.0014674577814060 -0.0003870438191493
1.0015584587095863 1.0013496095090597 0.0010338654552121
1.0017712395441127 1.0011719432105988 0.0002999439399666
1.0010641202716790 1.0015069200624882 0.0005051236630252
1.0015497493752221 1.0012556894243423 -0.0001678090352146
1.0016886253966195 1.0012329564570046 0.0002888849927597
1.0015570201988069 1.0014054788177780 -0.0000068578215878
1.0016284392435293 1.0012838524559522 -0.0003943284782141
1.0015415348020882 1.0014833159928995 -0.0001263218183124
1.0018337440111023 1.0007681838979192 0.0002316812241979
1.0013726664136380 1.0014432119288257 -0.0001587360452949
1.0015816695451845 1.0014072398638492 -0.0002718168219460
1.0017667481072028 1.0010045637200751 0.0003614397572369
1.0015201930038558 1.0015618838160709 0.0001406396454553
1.0016965423030553 1.0011586270023110 0.0000635301175413
1.0017634542213210 1.0011661588761973 -0.0003496944058523
1.0019895079166159 1.0005821103674111 0.0006019467174773
1.0016764570842549 1.0012142337871328 -0.0000255651457688
1.0015413067427088 1.0014709516234239 -0.0003982453839783
1.0015038581939373 1.0014503164114192 0.0008696388911494
1.0017748051766910 1.0011226735310301 -0.0003661693187207
1.0016828343158681 1.0012351820719423 -0.0001003169827649
1.0016873470929788 1.0012373276597220 0.0001293420170652
1.0018262655197034 1.0009951827547801 0.0003522596683558
1.0017405925568250 1.0011614926742984 0.0001585598737504
1.0018364627892415 1.0011133524016715 -0.0002066825166891
1.0017929404889410 1.0011885251750556 -0.0003744136759164
1.0017598515646422 1.0010219066057451 0.0004288280350955
1.0014380268234784 1.0015276138864257 -0.0002830206379664
1.0016277766161470 1.0012797501277628 0.0003821094281199
1.0015915605598251 1.0014199255630414 0.0002465185849982
1.0015507662141132 1.0014100623351010 -0.0002346263648824
1.0020156446430157 1.0012793850612145 -0.0000782010151006
1.0017795387260930 1.0010491654958416 0.0005576548223055
1.0019183195358792 1.0005410454874240 0.0018678650187476
1.0015836017981781 1.0014004771892790 -0.0004910489525202
1.0019157380559252 1.0005199281429789 0.0005665449115314
1.0017536103311679 1.0012268610620099 -0.0002039656212365
1.0015275150558713 1.0014405075357289 -0.0000952925705799
1.0020170860613009 1.0010884622106164 0.0004831111375534
1.0016673503996700 1.0012140904774582 -0.0006346531524027
1.0017115986217489 1.0012453467649347 0.0004732935152737
1.0018154483363626 1.0012129914599730 0.0003772914331466
1.0017528280513943 1.0012228074981897 0.0003600444207214
1.0014985984731688 1.0013608177148983 -0.0005654383682526
1.0016821369782358 1.0010884685571544 0.0010075630786340
1.0015711376169487 1.0014422741933506 -0.0007319889458877
1.0016915202564434 1.0013295564746802 0.0016636643740303
1.0015267105503114 1.0013725627099423 -0.0003740632221721
1.0016379989997282 1.0012667924987135 -0.0006223841723353
1.0014239919995334 1.0014121851197939 -0.0003682756863542
1.0017983481700583 1.0011928418671294 0.0001048433150719
1.0016141076641447 1.0013354224955509 -0.0002781688287817
1.0016648155735446 1.0012470492157928 0.0003631829954028
1.0016644268870165 1.0012583865054763 0.0002282059093959
1.0015490394520350 1.0014108951995535 -0.0002300802103149
1.0015874615788678 1.0012313813901537 -0.0001814941070481
1.0017395242381029 1.0011349919569206 0.0003089415369555
1.0014522117272933 1.0014257736803578 -0.0001045691227786
1.0015401594255720 1.0014566309642898 -0.0002282815708177
1.0014414504270712 1.0013881813430414 -0.0007776999078964
1.0015121827886311 1.0013544923211593 -0.0004203730686972
1.0018096925648703 1.0009590887206261 -0.0000525404547467
1.0017846134668191 1.0010229301644211 0.0003445122707225
1.0017965311576869 1.0011869503784725 -0.0000122010380860
1.0016885949354799 1.0012299997496634 0.0003039964700248
1.0015527320990929 1.0014521768641622 -0.0000850436317937
1.0015499420662086 1.0013974322924346 -0.0001187540811175
1.0017759180276584 1.0009748274566015 0.0002079858323731
1.0016570714564854 1.0012575126333167 0.0000316307102112
1.0018256794074645 1.0012071531222961 0.0001355274038724
1.0018120966303026 1.0009601680477240 0.0002153068999006
1.0016826535476484 1.0012305751446449 0.0001392387957499
1.0018312182170532 1.0007653586132272 -0.0004092873165323
1.0017572589394192 1.0011633898259664 0.0001764560203577
1.0014890335592310 1.0015649216752733 -0.0009023542211765
1.0017023857434411 1.0011748062183847 0.0001950932471072
1.0016814897130562 1.0012555087438570 0.0000666923862538
1.0016392748497116 1.0012653071859110 -0.0002099489884654
1.0016913274179080 1.0012281866880970 0.0003368336647305
1.0016960209379040 1.0011619575568365 0.0004718804474873
1.0016502624798074 1.0012871080968162 -0.0000013863206098
1.0015110150944730 1.0013764677534551 -0.0001254637632683
1.0018101056231001 1.0008909280568505 -0.0003000613531703
1.0015742213206313 1.0013160697598786 0.0011042820210731
1.0017181134868187 1.0012010855650495 0.0003323822583763
1.0018574877127331 1.0013278412765092 -0.0001340067029423
1.0014978649790496 1.0013826713951453 0.0000192484715888
1.0015259580774925 1.0013668324135969 0.0000890088527889
1.0017474215229127 1.0011095638069807 -0.0004383874189648
1.0018552138243608 1.0006471505618140 0.0006145741767228
1.0016528867576537 1.0012780216209247 -0.0000171940916644
1.0017001059981969 1.0012369233254723 0.0000299495815464
1.0013967551399636 1.0017120197209302 0.0003436525395908
1.0017406950208960 1.0011084919829780 -0.0004474101940139
1.0015612958194595 1.0013792958380265 -0.0002883904708440
1.0019236857662226 1.0011028600447329 0.0012703729483509
1.0013709157365962 1.0014602537714845 0.0002943279907812
1.0014893511074703 1.0015106494023389 0.0006177877014611
1.0017114130972373 1.0012042134286494 0.0001148001381953
1.0013724741978871 1.0014467045634050 -0.0001568742683073
1.0014790025288132 1.0013985369418472 0.0001794165653537
1.0016682673679014 1.0011876667094848 0.0005469532455742
1.0015943398611531 1.0015680734398227 -0.0002676282930852
1.0016020070764067 1.0013547335385236 -0.0001865419697202
1.0015561473863892 1.0014203813437801 -0.0001761099524557
1.0017462600155187 1.0011438747639410 0.0003829344610158
1.0019023032092622 1.0012531090220111 -0.0008644613049894
1.0015100992777985 1.0015007190492446 0.0001164712159908
1.0016916691187090 1.0012346152705618 0.0002942085539210
1.0015385773889165 1.0013611740811705 0.0001378735771405
1.0014770652941203 1.0013875416092188 0.0012588085229133
1.0015714361961203 1.0013013361355447 0.0000632605149213
1.0017722414521548 1.0011712241406878 0.0000186048691315
1.0016980352650957 1.0012364865082646 0.0004740193322396
1.0014290290738055 1.0014206086175945 -0.0000632437657901
1.0015267591965697 1.0014168163658472 -0.0000067177757180
1.0013654401000034 1.0014273435851788 0.0007753202809523
1.0016044979253711 1.0013031167094615 0.0006352517594363
1.0014959824220477 1.0014267386429518 -0.0001035955104598
1.0016517787464141 1.0012698553586579 -0.0004016669173517
1.0018073880618887 1.0010565269921929 -0.0007181598176909
1.0018071898771310 1.0009332411714373 -0.0003124746024939
1.0019337448582655 1.0005552984393624 0.0011746570823300
1.0017405984457723 1.0011765825538903 0.0002698777612143
1.0018672114943714 1.0005271646068183 0.0012389094226613
1.0015749188088841 1.0013189219410130 -0.0002150544796293
1.0015740170565832 1.0013555949998822 0.0004105975023947
1.0017412069850782 1.0012119385016169 0.0004482150050552
1.0016154321382964 1.0013650639261755 -0.0006260715797341
1.0015930275368794 1.0014164232085967 -0.0005438324564284
1.0018275303287361 1.0008745350393942 0.0005393330497004
1.0015136996900800 1.0015029965561972 -0.0007387876351751
1.0017069365530789 1.0011804550813117 0.0003901289337646
1.0014874566725704 1.0014697736028844 -0.0009317166463416
1.0017652515511819 1.0010208026020160 0.0005939551984204
1.0017476309350868 1.0011838903008932 -0.0000223739200505
1.0017213383721468 1.0012084415986271 -0.0002315263255939
1.0016299330505696 1.0012469269633955 -0.0006043014561258
1.0017254203022561 1.0011632478593764 -0.0002334890620627
1.0015460352952927 1.0014349529983364 -0.0000257862819008
1.0015132531312279 1.0015412289544479 -0.0003410355010442
1.0014923516421257 1.0015747549473555 -0.0000824367044682
1.0016229126642187 1.0012654579809304 -0.0007959638242011
1.0017548615715042 1.0012099462830730 -0.0009891616005785
1.0017556844353952 1.0013027366663061 0.0015240311050661
1.0017070472461738 1.0011802719367957 0.0002434712051630
1.0013534855014505 1.0014164902924090 0.0003737579525313
1.0018048183685138 1.0012803917634048 -0.0005276682456592
1.0014703424802893 1.0016065490447836 -0.0001966290680264
1.0017694507682509 1.0011720639278732 -0.0003958261519548
1.0015110197962518 1.0015698683166907 -0.0004461614589211
1.0016609413836157 1.0012638770382398 -0.0001999964868107
1.0014662834025627 1.0014143675647247 0.0002623289474987
1.0017673363420694 1.0008358039700580 0.0009241886871765
1.0015476571760411 1.0014497109264799 0.0009764650704427
1.0018211128323504 1.0007709296492753 0.0003350483051326
1.0017390297867992 1.0010372505542688 0.0002437422034768
1.0014088758062407 1.0014212832718705 -0.0002047885450266
1.0015139049314685 1.0014754921803635 -0.0001213284250657
1.0015491663308553 1.0012934049424067 -0.0006704018378073
1.0014173959066057 1.0016493500006043 0.0005261353965569
1.0015037041221797 1.0013752326214551 -0.0004250058535480
1.0015149455157268 1.0014367036624006 -0.0001126323624908
1.0015221826925993 1.0013654917348616 0.0003574012489697
1.0018030068605590 1.0011854791798958 0.0004373368140815
1.0017238714310852 1.0010865151396187 0.0002215448894917
1.0017182835672773 1.0012547246359247 0.0004202795045807
1.0017735653156903 1.0010246361643687 -0.0004002658137602
1.0017138573513533 1.0012235220086552 0.0000475641661744
1.0015942310118700 1.0013686172861653 -0.0001734074654687
1.0011692119432882 1.0022686944838488 0.0004684309958464
1.0017825260928512 1.0010422992841175 0.0002510000415028
1.0016314129332828 1.0012915262043243 -0.0000084347731832
1.0015140812837844 1.0014257385963894 -0.0001444530750859
1.0015332747612185 1.0014610438661113 0.0001350676930113
1.0015044579038919 1.0015218466792708 0.0000676245730744
1.0017930553456058 1.0012463879857556 0.0012004877057295
1.0015241462425999 1.0014740894351080 -0.0003238253720311
1.0015524562880216 1.0014320950791937 -0.0001482360636558
1.0019430949201493 1.0010417025363887 0.0000163042172373
1.0013765705020745 1.0013980178731596 -0.0008913450171445
1.0014982405257820 1.0013119603773080 -0.0005930558187243
1.0015705089816413 1.0014112992140500 -0.0001919055876683
1.0015404340459160 1.0013822718116880 -0.0001794349775955
1.0017188389484259 1.0011628403190187 0.0003273060870498
1.0016857706395839 1.0012254471474547 -0.0004074416266807
1.0018269504690729 1.0012497854477282 0.0011120911628491
1.0018115641126328 1.0011724729892761 0.0003574465385151
1.0016398076099107 1.0013151536285836 0.0009148245507402
1.0019489966725388 1.0005868554659110 0.0014021892189623
1.0017171432507375 1.0011495163883268 0.0002397076218900
1.0015916043635300 1.0013138823956897 -0.0001479622197921
1.0015592259919890 1.0013901841362245 -0.0001780961191659
1.0017597060870156 1.0011752495822945 -0.0000222551278798
1.0018017875272476 1.0008622850675541 0.0005758697096798
1.0015173835950399 1.0013367814743115 -0.0005612637076829
1.0016200317587938 1.0013112553564165 0.0003663880729212
1.0018779254305972 1.0004494127297767 0.0020145392008255
1.0017004639439850 1.0012181642100961 0.0003038420319348
1.0017799850006464 1.0011681415303022 -0.0001574397527126
1.0016807658574929 1.0012599686261485 0.0005140804783196
1.0016563204358049 1.0012637444075507 -0.0000873544290768
1.0015092872750189 1.0015427084205908 -0.0004463728150779
1.0015942353638871 1.0013412811173301 0.0010625467119181
1.0016641778160413 1.0011747225377652 -0.0004675768872025
1.0018686672845614 1.0011834952632519 0.0011506877474830
1.0015292766307651 1.0012903585913997 -0.0008389758128028
1.0017076561596290 1.0012033752181424 0.0001221277872101
1.0013672255847386 1.0014329430386240 0.0001876328722666
1.0010666456452624 1.0014582226298092 0.0003467072612565
1.0015293417989124 1.0013328784518525 -0.0003020265399285
1.0015069277356072 1.0014271073368610 -0.0000555655070364
1.0017604978995742 1.0011475473919085 0.0001935108371214
1.0014970842997672 1.0015243641548555 -0.0000917376058022
1.0016332132010832 1.0013455249545227 0.0005564777567065
1.0018557215326833 1.0011377718717713 0.0002208507439735
1.0013921524556151 1.0014312942476122 0.0004968024993411
1.0015645673461147 1.0014115949474827 -0.0002988789355579
1.0010328456114388 1.0014847983476578 0.0000031507127796
1.0014414514260326 1.0013433716848152 -0.0002943925115523
1.0015092392312714 1.0012740952275190 -0.0011466623029925
1.0014176735017419 1.0014036203885357 0.0022955923722154
1.0014920409247510 1.0013400773148631 -0.0002258540114396
1.0016712231898450 1.0012827732995155 0.0003266726553306
1.0017825423798579 1.0009050582957570 0.0005007361490336
1.0015145474715410 1.0014787401109970 -0.0001173370700070
1.0017125974873304 1.0011280136933864 0.0005545305824977
1.0014624437440478 1.0013976936472031 0.0004817023143458
1.0017938041233905 1.0011520863190067 -0.0007044931093922
1.0017907275048039 1.0008074130829443 0.0009738933455874
1.0014561546403458 1.0014748358334404 -0.0002305600669193
1.0014758888720821 1.0013198492933895 -0.0002494569765990
1.0014939430656695 1.0015262412372106 -0.0001126236812885
1.0015534275626616 1.0014403179332509 -0.0001896485013368
1.0016894815428925 1.0011246923531756 0.0005050011193533
1.0016653337696571 1.0012430711779943 -0.0003218819882228
1.0015232267641603 1.0014702612098587 -0.0000068844238350
1.0015368747709112 1.0014409924699539 -0.0001234333282981
1.0015401352654882 1.0013913962886696 0.0001506868434136
1.0015529332992232 1.0014232067489093 0.0003597154589980
1.0016486806569820 1.0012542819281520 0.0005248852018648
1.0017553074725460 1.0011812154371376 -0.0001021103326015
1.0017261182598929 1.0012030641785046 0.0003098200429608
1.0018240154119000 1.0008463848635885 0.0007536657554277
1.0016475043310999 1.0011866595604808 0.0010103639217749
1.0016726484198928 1.0012281706931743 -0.0006901978287643
1.0017271487049642 1.0011877611994922 0.0002369465808542
1.0017402239339890 1.0010988317061902 -0.0000706211871974
1.0016423064318267 1.0013063766739676 0.0002017886604793
1.0015182604244817 1.0014641681383978 -0.0000970667185012
1.0018153335653153 1.0009815913936828 -0.0000373178232056
1.0018093354906881 1.0009297737479304 -0.0000351107266055
1.0017770449779220 1.0007862263541927 0.0012777938439263
1.0015685500529676 1.0013853191720148 -0.0001272139863038
1.0017752429960349 1.0010617467717762 0.0000270821631667
1.0017272326940416 1.0011609383830491 -0.0000440697003802
1.0015894915129255 1.0012880786825447 0.0000815759918877
1.0015912274412373 1.0014021110494316 0.0020164496319238
1.0013982057297059 1.0014444635606861 -0.0000057504974831
1.0015764775397524 1.0009030884702319 0.0000661371863098
1.0017005344618199 1.0012400353366651 0.0004530491958854
1.0014983729707123 1.0015504112314968 -0.0002380172725281
1.0016291123831003 1.0013157417994567 0.0007806393376871
1.0015636175569300 1.0014505985853390 -0.0005036840728419
1.0018069749016780 1.0008801916682892 0.0011985612761286
1.0015091184983309 1.0015585661000455 0.0004913991328721
1.0018063333510356 1.0008941341893318 0.0010871994987732
1.0017344407796664 1.0012176500195573 0.0003969827401505
1.0017149229865541 1.0011915555398883 0.0003259755647414
1.0015532315753233 1.0013768009966895 -0.0007173722451209
1.0015199784287498 1.0015092300399244 -0.0006845938152182
1.0016757554558369 1.0011909237537884 -0.0008256023388704
1.0017441520380939 1.0011498944959312 0.0001960902798313
1.0015362189124621 1.0014422363412618 -0.0000078876958011
1.0015724957502350 1.0013934096592434 -0.0000042315449689
1.0015566119971546 1.0014560409676732 -0.0003704526219552
1.0019131000148089 1.0011491157253631 0.0006100594555929
1.0016095794517674 1.0012147220210481 -0.0010836805516165
1.0014548851478566 1.0014328080684818 -0.0002026117729052
1.0017284672572448 1.0011870120249906 0.0001664488540735
1.0016446527980769 1.0012786023263729 -0.0001624823848453
1.0014734909980914 1.0013936072032832 -0.0000769296859003
1.0015365662797326 1.0013545140175664 0.0003407629890852
1.0016674254514402 1.0012313527405732 -0.0003185333900755
1.0015549704506561 1.0014382044579420 0.0006204403001993
1.0016424204397101 1.0013120011068688 0.0011013814098319
1.0017947822387541 1.0011210847507721 -0.0007234330806139
1.0018482013392154 1.0011815169677671 0.0005566783452504
1.0016768136443486 1.0011736015244754 -0.0006475676660391
1.0019578575959749 1.0011801605155157 0.0010468739551202
1.0015707937797644 1.0013917285031424 -0.0003320789480167
1.0017191768557392 1.0011548762909728 0.0002766419083435
1.0015825519614492 1.0013744826822217 0.0003820905163407
1.0017165218858162 1.0012098906163416 0.0003500660621439
1.0013892011481393 1.0017996830854448 0.0001840027631759
1.0017097628513538 1.0012241919681482 0.0003790077265501
1.0015757269959613 1.0013666752486738 0.0006742612000822
1.0017527647692646 1.0011679231021418 0.0001019709511385
1.0015989434658719 1.0013218078626342 0.0001721150630068
1.0015477952316372 1.0014655726575901 -0.0003160072497891
1.0018252465168103 1.0008595077053926 0.0009132742534772
1.0016747744030077 1.0011131559528457 -0.0011395063853998
1.0017922420705374 1.0011404766370215 0.0001609780204452
1.0016962279447159 1.0012827471703440 0.0004808708045042
1.0015150875228871 1.0014761947646473 0.0006695201447370
1.0016286630081139 1.0013119036680707 0.0003497196007006
1.0017483513342691 1.0011341818774333 0.0001923746066288
1.0017270296005281 1.0011798009290624 0.0002654953279632
1.0016207916523197 1.0013243951187023 -0.0005222038925374
1.0016677942548766 1.0012721320609408 -0.0003408299672154
1.0015059149776373 1.0013421355151881 -0.0002930609062448
1.0018638707729237 1.0011728696212414 -0.0009932792434249
1.0017269385045835 1.0011344263752033 0.0003245588280028
1.0014406175378276 1.0012988480889451 -0.0005639090368348
1.0014703809413350 1.0012311255831607 -0.0008320742785311
1.0017993997373047 1.0011659668064088 -0.0000306922377983
1.0018559240360128 1.0011350163064487 0.0002770829600136
1.0017811595751240 1.0011964758923253 0.0008512433708689
1.0017280360533869 1.0011558106137366 -0.0008120473185341
1.0016433762106240 1.0012379043884667 0.0002785830106947
1.0017288133705065 1.0011319148792297 0.0003138991076206
1.0016936946581778 1.0011944043934624 -0.0000375355399973
1.0016027109076526 1.0013016746892260 -0.0008562101440963
1.0017128570489424 1.0012061694516061 0.0002392411699585
1.0015164287639704 1.0013191824463605 -0.0002726923347107
1.0018118944510286 1.0011612753704477 0.0001895285898446
1.0016830698947476 1.0013282944865265 -0.0002428191639492
1.0016923553214274 1.0012653130982467 -0.0004981963818667
1.0015235810355640 1.0014091696643941 -0.0005279590470153
1.0016435243412678 1.0012768760982578 0.0003678203118457
1.0016639459277110 1.0012775895712296 -0.0003178638709170
1.0014758087735234 1.0013984007373082 -0.0001800491889407
1.0018081417375875 1.0011461031017366 -0.0003576863138184
1.0018285938685714 1.0011904333636068 0.0007001034462780
1.0014630694503508 1.0014033602023065 0.0006069370358587
1.0017044708243892 1.0012337014341728 0.0002414696709856
1.0018262847465285 1.0004922712565680 0.0017068859463960
1.0015778432916407 1.0013968925903796 -0.0004985493230878
1.0014936204115665 1.0013949291516093 -0.0003334334800559
1.0015880569450637 1.0013656278179650 -0.0003161555777687
1.0018174640871744 1.0011880025393274 0.0002390164669870
1.0014963046448693 1.0013893712487039 -0.0002411919787169
1.0016436874337145 1.0013122273371600 0.0000407204336501
1.0014015801926039 1.0016431594611930 0.0004024213997502
1.0016316880790279 1.0014548915901258 -0.0004695137644102
1.0018973600092107 1.0006225214822093 0.0002567723478194
1.0015373092798903 1.0013601267678358 -0.0002684618695412
1.0014526224275395 1.0015895812938316 0.0002087287005260
1.0015669051487990 1.0013708570376452 -0.0001434139206733
1.0015182950879451 1.0014761336369722 -0.0000250937204259
1.0015478076329072 1.0013938756540828 -0.0001419461803911
1.0015617795568226 1.0014041951139283 0.0001711317106476
1.0015084524409645 1.0013747949535894 0.0000790828201735
1.0015554513139036 1.0013150534197568 -0.0004703572073500
1.0015912572040184 1.0014114175165714 -0.0006170928962634
1.0017304422550060 1.0011975166271936 -0.0004172069952795
1.0018332128379404 1.0012255025397780 0.0008502259780495
1.0016306056553179 1.0012407770723464 0.0006004460940393
1.0017385399108143 1.0010431716740076 0.0005428799753532
1.0018531655008884 1.0011756543186501 0.0001111216588195
1.0017969644568325 1.0008757897157508 0.0005362834813765
1.0017522944774659 1.0011650321115875 0.0001411737660913
1.0016796264445997 1.0012649663677491 0.0005150824761750
1.0014406869105252 1.0014064987932927 -0.0004253958470020
1.0017556527044300 1.0009779948833957 -0.0000151568576010
1.0015687040398173 1.0013585526383575 -0.0003237470951029
1.0014727939373747 1.0013693178310394 -0.0003575564553040
1.0016670316825664 1.0012847729340060 0.0000594703284812
1.0017175205506252 1.0012240245351873 0.0002708272421103
1.0016608615557270 1.0012596472117561 -0.0002139339120480
1.0014767996980642 1.0014102880178888 0.0006438988801753
1.0014872624002358 1.0013753548435835 -0.0004470029573231
1.0018007001205360 1.0010483003682291 0.0004270571975824
1.0016977673665219 1.0012154823529942 -0.0003229014833937
1.0015850602608665 1.0013595872023420 -0.0004078472880857
1.0017105916223321 1.0011683030657403 0.0002698958118708
1.0017204894892140 1.0010379947902679 0.0008478714551301
1.0016944572896331 1.0012818285337153 0.0009587321001696
1.0016554296628024 1.0012417328684429 -0.0005181256911404
1.0019106208651378 1.0011229245218525 0.0003868290217735
1.0017610615536572 1.0009409295912839 -0.0004852391081640
1.0017349194458780 1.0011802602245408 0.0002705676577457
1.0016913650266135 1.0012124561385802 0.0002181827328077
1.0018050724968672 1.0012213968580532 0.0005768051538786
1.0016481750195687 1.0012620127499099 0.0000386315469855
1.0016499193180077 1.0012968174905221 -0.0006027222894364
1.0016324604531637 1.0012413942455733 -0.0005616083393170
1.0016051684845717 1.0013404911916086 -0.0005690436664547
1.0016947699146315 1.0011847668985703 0.0000884598078820
1.0017141676995323 1.0011990385592409 0.0003264531369238
1.0014952233833485 1.0015246474627559 -0.0003533915322858
1.0016826938402801 1.0012572610590680 0.0003055042659556
1.0014923724766591 1.0013758566892661 -0.0004432659213687
1.0015167778693472 1.0014631426283411 -0.0001039463587622
1.0017846162086885 1.0008175645719855 0.0010895980212449
1.0016948117984441 1.0010943779261559 -0.0004399720403419
1.0015816081064772 1.0012629936051252 -0.0007301622437194
1.0016199091012026 1.0015478116727139 -0.0009212775907198
1.0017178516186331 1.0012269620819181 0.0001816477573982
1.0015737766526860 1.0013956921792249 -0.0001681310195871
1.0016138322641401 1.0012610855473558 -0.0001838014348229
1.0015538584722945 1.0013867149591347 -0.0001450256747528
1.0017787862708591 1.0012732840637331 -0.0003394635824621
1.0017749949483770 1.0010691207866187 0.0001819939191425
1.0015534483815951 1.0013807981096117 -0.0001089620108062
1.0016179374039720 1.0013064715218611 0.0001424533029754
1.0016977595283647 1.0012428633603196 0.0004172642653957
1.0017212190679343 1.0010762941541977 0.0001421606856984
1.0016615096104562 1.0012373895861388 -0.0001828875582056
1.0014212841765617 1.0016402575639309 0.0001049066917451
1.0018900291736927 1.0009525740864040 -0.0005973811920930
1.0016103435178012 1.0013398454654545 -0.0000525798112143
1.0017123022706402 1.0012231088464869 0.0006212262255200
1.0016169286287391 1.0011853756748661 -0.0013331601200734
1.0016450432583486 1.0011893199280790 0.0002547590270857
1.0019696858469302 1.0011874325345371 0.0012842939153344
1.0015370541384550 1.0013610569371154 0.0010721239140603
1.0017299001696245 1.0011160670844041 0.0002402268008662
1.0016713435673301 1.0011942133480096 0.0000580726488877
1.0017100955087146 1.0012775844384254 -0.0003711351133662
1.0016727694201484 1.0012030133292644 0.0003008396256114
1.0017552448024694 1.0012316446247604 -0.0002888130674996
1.0015967751613430 1.0013780396266425 0.0000048475285873
1.0015533087075494 1.0014153352303024 -0.0001275521679361
1.0016081704922026 1.0013290931849901 -0.0000028450331110
1.0015854862981681 1.0013699531075779 -0.0000298718286944
1.0016879974337005 1.0012037551586555 -0.0004411103781497
1.0016336781261672 1.0013147954652131 -0.0004165132299811
1.0017151013517123 1.0013003460579168 -0.0003837149790492
1.0017222652916618 1.0012013630298418 -0.0000397849700802
1.0015116714776140 1.0014198291684169 0.0001099253947793
1.0014796245373516 1.0013177148147772 -0.0002978601959232
1.0017746107998937 1.0010893051186565 0.0001768914989005
1.0016587188490422 1.0012777524789918 0.0001715230564587
1.0014944313349352 1.0015350033630870 -0.0002565413058641
1.0015053024628939 1.0015133526149842 -0.0001738651382184
1.0015275904360026 1.0013897109466621 0.0003302341921409
1.0015892215998481 1.0013426978608739 0.0005702951085259
1.0017551798626287 1.0010182999796515 0.0005361726850422
1.0014709465359823 1.0015945137194968 0.0001693962222597
1.0016001843734705 1.0013334841748640 0.0009915599795855
1.0017213039462891 1.0011758723827084 -0.0003855759270397
1.0015044315087742 1.0014114390231765 0.0000941311425501
1.0017397426010146 1.0014785916531954 -0.0009126588633173
1.0014844724367731 1.0014804967153965 0.0000763455170327
1.0015211957237036 1.0013935316206841 0.0008296682990128
1.0015595675195912 1.0014224652620296 -0.0002673436104887
1.0018482900728123 1.0011845274370301 0.0006111058308578
1.0015406225090149 1.0014107707417970 -0.0000122546954346
1.0014359036644691 1.0015674104340304 0.0008303817309373
1.0016802182704188 1.0012378581571182 0.0000845861644693
1.0016282298114922 1.0013278851463667 -0.0004463464133693
1.0017845248050365 1.0012448828519573 -0.0004341649993473
1.0015278053199714 1.0013137760549493 -0.0003489078552951
1.0013934431948610 1.0014646738010313 -0.0004925623175324
1.0014464564811614 1.0016383899693260 0.0004812161500422
1.0017029668022854 1.0011634127080165 -0.0000740228384488
1.0016243384550656 1.0012942123844504 0.0009472720365930
1.0017579493411022 1.0013046321271557 -0.0004577087747737
1.0016189822510067 1.0013242520784289 -0.0005216950323177
1.0018639556333155 1.0010496188199449 -0.0003863934781765
1.0018799275239221 1.0006050195659624 -0.0003599208139458
1.0013760850967073 1.0013654435923061 -0.0006713098609742
1.0014556862057764 1.0016002966233877 -0.0000734036583212
1.0015220297777083 1.0014218742164824 -0.0000252097032900
1.0017298130987164 1.0011031946037485 -0.0000106676153451
1.0015682368832746 1.0013488308568061 -0.0004191082441737
1.0015173600992788 1.0013826714101868 -0.0003282961503734
1.0014996770644977 1.0013944977770961 -0.0000730579683325
1.0017003480387523 1.0011978646651638 -0.0004318618577039
1.0016389505494065 1.0012426028512076 -0.0006766022118756
1.0017689314318508 1.0011574755092443 -0.0004086463993100
1.0015582750500280 1.0012950866571710 -0.0006712635622072
1.0019893778416835 1.0010938326666077 0.0008615313324929
1.0015920861615359 1.0013416649345066 0.0003680414860797
1.0015339559946388 1.0014295271101945 0.0019316988650195
1.0016333488444105 1.0011348211845510 -0.0011528892861282
1.0017307939562397 1.0012241741170891 0.0003719854013223
1.0015286676729931 1.0013925861380657 -0.0002347256752981
1.0016539088950540 1.0012646280170714 0.0001589670951461
1.0016398904604209 1.0012904870460335 -0.0003231766366795
1.0015681470409055 1.0014349697539804 -0.0004301434262865
1.0014895520725291 1.0013642163994816 -0.0003368160008032
1.0015871060560440 1.0012328398172294 -0.0009936822466651
1.0018138783317423 1.0011355535074795 0.0001691436681501
1.0016518664780207 1.0013115906333603 0.0005250526247199
1.0018639184163032 1.0012951475752958 0.0024369893496111
1.0016328632952114 1.0013098814347801 -0.0001464607537420
1.0015523162108164 1.0014812668807782 -0.0002885198973115
1.0014836176806285 1.0013035317134846 -0.0008579378510820
1.0017320153392173 1.0011497073183593 0.0002340432885338
1.0016632764512439 1.0012055962097519 0.0009097531165520
1.0016745636754683 1.0012184420431709 -0.0005518605271189
1.0018089068443568 1.0008283870358561 -0.0007124854047827
1.0017510088721269 1.0011316479224333 0.0004398331452420
1.0017362167393589 1.0011830081447033 -0.0004485011398072
1.0016825830130587 1.0012419331449340 -0.0000185320188627
1.0016976996757632 1.0012556236902383 0.0005754416204931
1.0015367865443530 1.0013101752862428 0.0008105471202778
1.0014616867602966 1.0015148937792619 -0.0002876687244807
1.0017641339114869 1.0010396198556930 -0.0000131155535878
1.0016208755471419 1.0012548362002944 -0.0008300130373714
1.0015113438859895 1.0013587840539404 -0.0002183971489136
1.0017147676184008 1.0012268617553128 0.0002276018028002
1.0016875815000961 1.0012206926223450 0.0003450061634769
1.0017611694682165 1.0011112603039651 0.0001969419106537
1.0015575151992000 1.0013679683684931 -0.0003607286323910
1.0018750213071770 1.0006459150686424 0.0001272766142329
1.0017282104803316 1.0011925117767180 0.0003606315369067
1.0015585195596137 1.0012862602489880 0.0000492476640075
1.0017383899884740 1.0011168750774169 0.0002721465856688
1.0017272563165243 1.0011482617726271 -0.0007392301764533
1.0016954535134606 1.0012191042684855 -0.0002388743290571
1.0013553961086683 1.0017395194855077 0.0000506959530868
1.0014725454305313 1.0013330820546309 0.0000113586324780
1.0013692160356658 1.0013794746002800 -0.0005495246701110
1.0016360023532584 1.0013031653499291 -0.0000773706180808
1.0015709069494325 1.0013476886210406 0.0012102468515127
1.0017908552201631 1.0011656154643289 0.0002588278481261
1.0018463704487139 1.0008558745067746 0.0002096905645715
1.0018227096637624 1.0008165206357058 0.0004130792513516
1.0017336244207766 1.0011228047110348 -0.0011057225354024
1.0016660670160888 1.0012124858480091 0.0002113493461699
1.0017889633771815 1.0011448956011064 0.0002056257589952
1.0017239840754031 1.0012280514509664 0.0003602863394215
1.0014822871331091 1.0016273126720057 0.0000224837919364
1.0016891228531233 1.0011829640844583 0.0008720725592105
1.0014580484682316 1.0013887870431424 -0.0001104590912925
1.0016433950051986 1.0013000050571805 -0.0006926105898043
1.0015091150419104 1.0013230038959244 -0.0007065592561891
1.0017941768653860 1.0012850133516693 -0.0005080036500107
1.0018212650613707 1.0012128136735685 -0.0004322614146398
1.0017867762995774 1.0013043848812300 -0.0005515304986973
1.0015523289805071 1.0014375196875440 -0.0001141914253635
1.0015696760783108 1.0013622833315845 -0.0002171804349046
1.0015722307178576 1.0014065503460776 -0.0002278486529211
1.0015408295393793 1.0013035166006694 0.0000684640571280
1.0015237084743833 1.0013673391537121 0.0004882470377479
1.0014433925220354 1.0012702570260965 -0.0013923479115710
1.0013999420461102 1.0013578941508932 -0.0002806423175346
1.0017518662879894 1.0011125044028275 -0.0000212234987219
1.0016870612812547 1.0012278124136516 0.0002701524965686
1.0015162237183313 1.0013112663691539 -0.0003629147124042
1.0015760500363406 1.0013920042826310 -0.0002706606756429
1.0017101156154582 1.0011506952382014 0.0004124514085120
1.0015607618027815 1.0013670035198741 0.0003519865204407
1.0015518051654406 1.0013666775594119 -0.0000279889755010
1.0015916892738264 1.0013520224530490 0.0001821220660231
1.0016854441444152 1.0011961791772959 0.0003111702876230
1.0014923890940226 1.0015779338600870 -0.0003700745235462
1.0015577590394464 1.0013963659690734 0.0003905960559981
1.0015147216208480 1.0013719497879372 0.0005669952744693
1.0017439374783441 1.0012012185437504 0.0005119450737206
1.0017040931863728 1.0010886275948931 0.0006544969749460
1.0015186107500755 1.0013763250108276 0.0008509205246640
1.0017654835606788 1.0010525795470184 -0.0001049254416000
1.0018317579762321 1.0011562598115031 0.0000593809908446
1.0018410786886207 1.0011538030248750 0.0001811288122155
1.0017637553784047 1.0010275371467106 0.0001754289535602
1.0018294570209085 1.0011596764534114 0.0003554889798200
1.0016591846307699 1.0011682265509780 -0.0011172243624429
1.0018121663252653 1.0012332909961252 0.0010318632281217
1.0017507914727595 1.0012867073414089 -0.0009913212956027
1.0015483172320092 1.0014017146502256 -0.0009508926300210
1.0016133482766900 1.0013280413404473 -0.0003791748355419
1.0016305756933350 1.0013108029643603 -0.0000104335997268
1.0016664869966090 1.0011969739610085 -0.0001840080607689
1.0019948284915245 1.0010449225201707 0.0000461440358019
1.0012261777430329 1.0020493959816961 0.0007231441305514
1.0014547283890753 1.0013419989555781 0.0007707816248234
1.0016510900005744 1.0012806988026246 -0.0000155944229605
1.0014953594272344 1.0013513757639494 -0.0005736463031934
1.0014337377536029 1.0016393468936315 -0.0002482397586342
1.0015984416046813 1.0012791312758991 -0.0005481348900271
1.0013107661155818 1.0014559860411383 0.0005809936395687
1.0016229103442720 1.0013052756843204 0.0001755403848820
1.0015778233065922 1.0013535468156878 -0.0000092812526745
1.0015684151623561 1.0013434225568330 0.0001662893410708
1.0016046777257195 1.0013349304953516 -0.0000045644861066
1.0017294428632344 1.0012577806273821 0.0008020713714785
1.0017986224055864 1.0010029415589561 0.0002650699644157
1.0018117858211755 1.0010115521138359 0.0004430598136599
1.0018706065715286 1.0010885155882054 -0.0005501080748460
1.0018190341289930 1.0011213258861160 -0.0004323646797293
1.0018702889381534 1.0005843515454163 0.0008477050488079
1.0015966708692918 1.0012937307919758 -0.0010195899177362
1.0017225202755484 1.0011021642161768 0.0003833201292143
1.0018029676760385 1.0011929885928172 0.0000642608384539
1.0016239224247161 1.0013132389354047 0.0002451789527702
1.0017871530509697 1.0010613843985261 0.0006320553812844
1.0015684294803038 1.0013523673538305 0.0009492188248986
1.0016547226533177 1.0012998393378951 -0.0001051334077376
1.0018051247019784 1.0011125017632982 -0.0002592221558608
1.0015649057467755 1.0013645051027704 -0.0001788124320381
1.0015144859506804 1.0014875552133693 -0.0001532737601961
1.0017008406812697 1.0012127469915650 0.0000758421389791
1.0014905489089601 1.0014194223226776 -0.0001481924711337
1.0018317598611040 1.0011397051161082 0.0000528648550501
1.0017755447620154 1.0008861823879196 0.0007394389712245
1.0018592370780151 1.0006669392392624 0.0005091882869998
1.0013777160408222 1.0014394723992222 0.0007368055784826
1.0014594085807420 1.0013911367365917 0.0003819684042638
1.0017031775299305 1.0011841810677997 -0.0006975309763854
1.0017340932582526 1.0012039442119296 0.0002207362106969
1.0019601453548586 1.0004784061566734 -0.0002572927201120
1.0017869797217649 1.0010780547982698 -0.0013440456624581
1.0016501252604995 1.0012144318350762 -0.0006444961543297
1.0019126102385703 1.0010880476206689 0.0006043947853225
1.0017184930083780 1.0012098325532903 0.0002821695392882
1.0015691532489335 1.0014063592338049 -0.0001924193743077
1.0017406423131834 1.0011324598177398 0.0000780070920495
1.0015489106494677 1.0014749229796849 0.0003306513835013
1.0017926961074990 1.0012341717804794 0.0010198671825219
1.0017394578062415 1.0009974948016038 -0.0008133934591361
1.0018712552102320 1.0011689994371487 0.0007705076458538
1.0016172692917502 1.0013548938175127 0.0002525424610637
1.0014424715714165 1.0016007729396692 -0.0004541025282912
1.0015415161289112 1.0014149903469491 -0.0006186991684645
1.0015292946175127 1.0014707153631992 -0.0002684036295488
1.0014795985260878 1.0013963757876643 -0.0003746309662535
1.0015514407454746 1.0014277995731369 -0.0001533408069093
1.0016301315979057 1.0012958602747890 -0.0000651400377903
1.0016643942763979 1.0012625061240976 0.0003344420760786
1.0015161505387404 1.0013804848348542 0.0002666002895535
1.0018347105280354 1.0008824854010947 0.0000809958590777
1.0015068870730610 1.0013873240811069 -0.0004254058428131
1.0019875744867168 1.0003560759043706 0.0012913064025334
1.0019115417520266 1.0012566068282338 -0.0002285599591078
1.0017628176907369 1.0012087214878302 0.0003424482278242
1.0018268904001988 1.0012186292553051 0.0000080597438485
1.0013460021350320 1.0014427916541875 -0.0003334825467599
1.0014946969543095 1.0015517299066898 -0.0003592277207747
1.0015632106394234 1.0013436487907901 -0.0003529603888665
1.0015625206010694 1.0014740824942783 -0.0003686056898617
1.0014961777643701 1.0015459660467343 -0.0004727108860127
1.0014918884381387 1.0015465855068659 -0.0003568985902982
1.0015794931707314 1.0012878598210915 -0.0005784129574470
1.0015652325713724 1.0013467126124469 0.0008588756872097
1.0018715406541079 1.0011237695256499 0.0000717696443577
1.0018582704485863 1.0011668494216257 0.0004460006706540
1.0014984257670081 1.0013379040201997 -0.0005324507977888
1.0018483462432708 1.0011237439653540 -0.0002146478510112
1.0014500247199840 1.0013885062880672 -0.0005580569349064
1.0015804521744796 1.0013183102857055 -0.0003936226209408
1.0017645244772337 1.0011550842284231 0.0002287478594023
1.0016169682224554 1.0013021584811617 0.0005634051324392
1.0016909988650065 1.0011536368473111 0.0006471223010946
1.0015335196591202 1.0013508591267009 0.0000888770749111
1.0018010894566625 1.0011345300510139 0.0001447527979957
1.0015906728122945 1.0013402640438662 0.0005328438155496
1.0015736665216770 1.0014444180161963 0.0005519679118940
1.0019517619578597 1.0011631691015281 0.0009104945708185
1.0014873393428729 1.0016140540397604 -0.0007557172444022
1.0017539974971099 1.0009456645814157 0.0014980909031466
1.0015677587538980 1.0014060125110549 -0.0001283860622655
1.0017815828158134 1.0011210512362609 -0.0000637679159156
1.0019492384148316 1.0006887246934693 -0.0001695436883536
1.0017309969893877 1.0012403947757071 0.0005716150295145
1.0017049991174742 1.0011497862533432 -0.0003282486715082
1.0013401105931818 1.0018388911746878 -0.0008781940788411
1.0015675205762269 1.0014087121106861 -0.0000878667698008
1.0015151748851647 1.0014650960400679 0.0003579062466965
1.0018021792340455 1.0011505559153111 -0.0003186076199630
1.0018347199129276 1.0011341266221812 -0.0001645610614888
1.0017559561558587 1.0011604500429971 0.0002387332845252
1.0017867549344130 1.0012756611674674 -0.0009762215667061
1.0015775489141991 1.0013306535741548 -0.0010400758943372
1.0017894346964238 1.0011156275198743 -0.0007445154969054
1.0014335015577280 1.0013747420175521 -0.0006217690679599
1.0016370694314383 1.0012251183390961 -0.0007777280724015
1.0017224570156502 1.0011725572196226 0.0000689008827279
1.0016375753727120 1.0012851550443467 0.0005812802911316
1.0018082568906859 1.0011740355151624 0.0005873452912656
1.0016388278966808 1.0012618444207932 0.0003343214613721
1.0016862440805361 1.0011612696182322 0.0001953126027096
1.0017855329420038 1.0012843468998420 0.0013934055325089
1.0019222027618442 1.0011102994563941 0.0005425731763675
1.0015369977881670 1.0013536101456686 -0.0003410074850311
1.0014955285225942 1.0013520931812259 0.0000177225796936
1.0015777786578874 1.0013430009100046 -0.0002559825194443
1.0013593961825606 1.0017368134377465 0.0001665912937763
1.0017272733808071 1.0013081726676283 0.0000729037090725
1.0015151854193844 1.0014801659607753 -0.0001529288105637
1.0015170854832736 1.0014097801420963 -0.0001914457108108
1.0014994382407889 1.0014241040166156 -0.0000832153127386
1.0015039640473542 1.0015049311175623 -0.0000599969634597
1.0015156359122790 1.0014073105682779 0.0001179867776998
1.0016369786185333 1.0013036746483155 -0.0003192976923826
1.0017155024314148 1.0012127950696661 -0.0005345489683889
1.0018884296721138 1.0006486396805745 -0.0005268601439940
1.0014477379749414 1.0016016208039684 0.0006105986796679
1.0019160095236785 1.0007078189931709 0.0006618877106966
1.0019323579176531 1.0007082724009895 -0.0000456951856711
1.0015254499407868 1.0014744338576369 0.0001364452024147
1.0017445585249913 1.0012186124920439 0.0001856451491393
1.0019663271585266 1.0005011434685860 0.0009828511411444
1.0016399958008664 1.0013073993652624 -0.0001999939840851
1.0017320178594458 1.0011904177466728 -0.0002943217635572
1.0017157039934295 1.0012069536970256 0.0002550439243666
1.0016257748676249 1.0013156527468794 0.0005447282260009
1.0017589785627399 1.0012287722195758 0.0005014886350153
1.0018234903461158 1.0008714925942370 0.0006660141960118
1.0016271406609989 1.0012274876843503 0.0003111334137407
1.0016120984815293 1.0012722165685715 -0.0006075856060651
1.0018248281522424 1.0008808730741225 0.0008593317852740
1.0018627336078025 1.0008740749229770 -0.0002098071299532
1.0017868048481733 1.0011751433911311 0.0003204967949325
1.0016031410182640 1.0013428749420648 0.0000050254308373
1.0014779720975935 1.0014036788813698 0.0006425009823940
1.0017385061167086 1.0013947832073826 -0.0004104315764832
1.0019138860635202 1.0010803682194871 0.0004972893670132
1.0015448797303932 1.0013793835277898 -0.0001473534818816
1.0016366025642720 1.0012851503661242 0.0003800432162642
1.0017176191326740 1.0011519576007000 0.0003630506488552
1.0016551085465029 1.0012480746699375 -0.0000056188101319
1.0016264047854850 1.0013136527333741 -0.0000016910809891
1.0017522083252495 1.0012246325115552 0.0000619713982254
1.0016518149424338 1.0011428252269465 0.0006656705148649
1.0017955205075169 1.0008055278232224 0.0006598160021076
1.0018584326722670 1.0006990900287258 0.0003289827605354
1.0018689211599066 1.0011388221835198 0.0005573817608233
1.0015230488809592 1.0014057524195139 0.0000893256024965
1.0017061495859432 1.0011864164485520 0.0001537941909039
1.0015796458606065 1.0013760071146323 -0.0001768468538205
1.0016135175817213 1.0010332137779914 0.0019322800947412
1.0013656627371537 1.0016923391239205 0.0002747691214229
1.0017824653554495 1.0014046925523103 -0.0003953517000488
1.0014963944556314 1.0014348253108731 -0.0011405250814304
1.0016256915744504 1.0011771897096660 -0.0010933328689933
1.0017266400128604 1.0012210083272541 0.0003138668983483
1.0016481161321806 1.0012610841596792 -0.0008036331896462
1.0013682169509912 1.0014206206688752 0.0000675432510104
1.0017186125665931 1.0012138791232839 0.0003530850547782
1.0017370619943324 1.0011781588930713 0.0000789402481094
1.0018467604675378 1.0009136750864516 0.0000621186853584
1.0018367416546461 1.0007840095781455 0.0000895732284152
1.0016043313232066 1.0012116953215817 -0.0010633050879196
1.0013640116968412 1.0016933259978984 0.0007307967202806
1.0017795786353190 1.0011153573901972 0.0002275009340593
1.0016565293068873 1.0012586893651156 0.0000781475603296
1.0018135237842216 1.0012389730025333 -0.0004894744359830
1.0016131217968980 1.0013175973515300 -0.0001584925185688
1.0016014246313738 1.0013000776732253 -0.0005331952021531
1.0014931053473475 1.0015414513841658 0.0000077342788928
1.0015195849630001 1.0014913038660314 0.0000850588053628
1.0015497278963581 1.0014397699724282 0.0001377226322518
1.0015639623426571 1.0013418997393111 0.0003857637776299
1.0018001907886367 1.0011711128744365 0.0004916589595268
1.0018009230967582 1.0011514165998749 -0.0001140883638172
1.0019154273703994 1.0005349094833464 0.0004526708676939
1.0017493895936362 1.0008425497839271 0.0013798784608016
1.0017081152563856 1.0012034257239253 0.0004464915880066
1.0019430822218176 1.0006427570590459 0.0009948843789414
1.0015911581145953 1.0012920969950490 -0.0001592332241580
1.0017285806603908 1.0011245027562752 0.0004203620840618
1.0017491339578379 1.0012011699263423 -0.0000316697247080
1.0014147797195561 1.0016692873072672 -0.0005672237610609
1.0015665109718095 1.0013841268559032 -0.0001806883130977
1.0014909442612359 1.0013854585219533 -0.0003341197009079
1.0018075043145529 1.0008790769074662 -0.0000912985603968
1.0018574186198412 1.0008037220870285 0.0002610542324842
1.0017828313092489 1.0012677392231875 0.0012021528003214
1.0017222431383455 1.0012290404727000 0.0001001080244401
1.0015321000118198 1.0013958831215097 0.0001338882141301
1.0015806432340124 1.0013353111345087 -0.0003558438566379
1.0017264751575754 1.0010877655523682 0.0001103583338363
1.0015770392420582 1.0013923572953665 -0.0001465898492214
1.0015945510171098 1.0013648669879265 -0.0001405073939130
1.0015987822652122 1.0013387343023423 -0.0001452371248816
1.0016905648269754 1.0012618930609340 0.0000865043061460
1.0019247478821147 1.0010842002986138 0.0008575235126745
1.0016664750451305 1.0012067718063589 -0.0002031986993835
1.0016470439824583 1.0012678824534644 0.0001976945510649
1.0016373990490750 1.0013179422496370 -0.0001461012830821
1.0015090617279898 1.0013875005172528 -0.0001647131895123
1.0016045615249776 1.0013308610864586 -0.0000403013045294
1.0016598161513133 1.0012683291487492 0.0001471353157774
1.0017501168138021 1.0012400939855299 0.0006461874428388
1.0018037144771090 1.0012085354374571 0.0005271155244469
1.0016161571489759 1.0012590806555359 -0.0010919803101036
1.0015230844540006 1.0015794662681079 -0.0006112872124725
1.0016915502091757 1.0012413507388160 0.0010816714454486
1.0017366146780318 1.0011618847626376 0.0001872533806784
1.0015250030862874 1.0013851876391100 -0.0003139044199047
1.0015823634801351 1.0013620252924753 -0.0003626250086484
1.0016721000866800 1.0012853004358315 -0.0000040328000211
1.0017170480113051 1.0011668838655803 0.0002363002098725
1.0014313620213289 1.0013982631718481 0.0005319856504670
1.0015869026235937 1.0012975127781325 0.0003932962116724
1.0015035801929983 1.0013995757753351 0.0006530335896201
1.0015122473817124 1.0013210891675801 -0.0003676127294991
1.0016833013623168 1.0011833862411328 -0.0001769662134475
1.0015235540775620 1.0014444882388776 -0.0001019945923257
1.0017483855418294 1.0011430278166815 0.0001525988980531
1.0016474863645164 1.0013589484076231 -0.0009664430605011
1.0016194646473431 1.0013099204008649 -0.0000188779471901
1.0015481221804938 1.0014179641932675 -0.0002269463720794
1.0015820353180054 1.0013774283381887 -0.0001245708035473
1.0015905103264853 1.0013368564921135 -0.0000293696002420
1.0016416278841349 1.0014050769163862 -0.0005732800155835
1.0017632699310617 1.0011045447281353 0.0002377342046144
1.0016143578167038 1.0013518232485596 0.0001434302481286
1.0015906884188335 1.0013753775574166 -0.0006045381846551
1.0017439963320596 1.0010167988165355 0.0006870010058005
1.0014529603912936 1.0015662541005559 -0.0005868248786086
1.0017348390107594 1.0011818836812520 0.0002802542170834
1.0015581069277251 1.0014129157172820 -0.0002496244333611
1.0015749216703724 1.0013377337169311 -0.0002614313068119
1.0019542019603103 1.0011114476421226 0.0001685942384839
1.0015252180150747 1.0013630602492427 -0.0004286801092854
1.0015355858198463 1.0013114909186378 0.0000780845334946
1.0016257675616687 1.0013512620247900 -0.0003753909188954
1.0016118534969636 1.0013031278304534 0.0003769655967679
1.0016066233227856 1.0012576421733062 -0.0006875259796803
1.0014672763595220 1.0015413315001989 0.0002950673540606
1.0017054881465499 1.0012388893040405 0.0000083896703935
1.0012673061550912 1.0014214485796560 0.0007200904866473
1.0017294216384678 1.0012077739776886 0.0002572595940648
1.0015335960412657 1.0013045874434561 -0.0007816772644656
1.0013927417282047 1.0016845600541655 -0.0000265097704306
1.0016298405119284 1.0012966465389046 0.0001633474974294
1.0016987077675010 1.0012660133648179 0.0006176887185232
1.0013890803230316 1.0017130538716199 -0.0000137631489793
1.0016351235625784 1.0012904327544130 -0.0002093635845478
1.0013321935102648 1.0018332304504067 -0.0006898808065697
1.0017562193898670 1.0010365058892403 0.0004025977405769
1.0015951483615286 1.0013143389662542 0.0006202875341566
1.0016627125851216 1.0012505042363664 0.0002325253604813
1.0017076296048608 1.0012981110860308 0.0015895889370245
1.0014362883508594 1.0017040648855280 -0.0003281262128410
1.0017603863144557 1.0011557712287302 0.0002191350739741
1.0017824689847243 1.0011869716084183 0.0006869933773350
1.0017116265033388 1.0011814415613336 -0.0006264337470711
1.0018444068183285 1.0012092167910172 0.0015753100959180
1.0016538533293211 1.0012782069224688 -0.0007670021394974
1.0016261267114643 1.0012408759876541 -0.0011023760725972
1.0015079438083974 1.0013406942063510 -0.0006934081797502
1.0015146403057704 1.0014279428776882 -0.0001450865015775
1.0017484826388392 1.0011399145959583 0.0002090095673987
1.0015067279312075 1.0015386022023858 0.0002641317737706
1.0016775075594033 1.0012905340697156 0.0008713579114472
1.0017833938085237 1.0010062905911690 -0.0004010470719867
1.0015759638972075 1.0013512530726931 -0.0002039570580035
1.0019236492273580 1.0011063653013208 -0.0000619514672512
1.0016195765417744 1.0012436270617666 -0.0008977162237351
1.0014670482482724 1.0013384142998247 -0.0004101603822953
1.0015490804604350 1.0013497013859074 -0.0004420288575202
1.0018241679746975 1.0011646395337592 0.0003249789582223
1.0017223567057618 1.0011150463384144 0.0004098675852696
1.0016145704089063 1.0013374332077072 -0.0003132163836319
1.0015674584177514 1.0013439862440885 0.0006087048994399
1.0017475906758251 1.0012104078012820 0.0008901158578792
1.0017984350893914 1.0011249814392684 0.0002001918390543
1.0017816648222484 1.0011729913773149 0.0001077988671267
1.0015131001240183 1.0015724070543923 -0.0003093788381623
1.0015344014800382 1.0014581401388962 0.0001530194596612
1.0017557230992507 1.0011615325363146 0.0001360930459113
1.0017554021531945 1.0011121034382435 0.0002460882779100
1.0017549991449264 1.0011156453888617 0.0001424028845003
1.0018173370309380 1.0012142211609776 0.0009369679753772
1.0015036586447712 1.0013276127219937 0.0000591936756884
1.0018336011786231 1.0014046390888824 -0.0006138537018650
1.0018256928096976 1.0007833500798866 -0.0005406511506354
1.0014443350463611 1.0016220208501272 0.0001602281474548
1.0015339732118027 1.0014209467246420 -0.0001152500449333
1.0018387193615881 1.0007684127693801 -0.0001246685806427
1.0017504608097054 1.0011634165807732 0.0001860769926463
1.0017215816938339 1.0011598476035843 0.0003737765046461
1.0019390880356904 1.0010602427979389 -0.0002928793770212
1.0015799348977714 1.0013635082681913 -0.0001483999126298
1.0014761824014766 1.0013170182570292 -0.0002936693861717
1.0017635360953228 1.0011006683921961 0.0001371407161300
1.0018001881900904 1.0010631290438261 0.0002937499049411
1.0015866750273741 1.0013111929049998 -0.0003064176504384
1.0017572235503878 1.0011316533808079 0.0001838345504903
1.0019466885220347 1.0012245184309585 0.0017245210884618
1.0013853298580260 1.0017517142899648 0.0009465605266513
1.0016779899178019 1.0012533021623928 0.0003150575874958
1.0013646055528849 1.0017854171556837 -0.0005934843289959
1.0017522291217207 1.0010925169934086 0.0002773692427987
1.0019177211812664 1.0013133503888367 -0.0003407869828766
1.0018123141253643 1.0012026285814644 0.0004341288129980
1.0016002572660494 1.0013531262874289 0.0000015615939955
1.0015597305998958 1.0014064168754908 0.0000165223838904
1.0015586927577744 1.0014904812138605 0.0002134694419229
1.0017427666216066 1.0013983213443778 -0.0004773530224627
1.0018624833570047 1.0013738040051854 -0.0006494972627156
1.0017286115865300 1.0011830393525862 0.0001125351074340
1.0015194857889109 1.0014418866931871 -0.0000965220292198
1.0015182825322491 1.0014893250741561 -0.0002040955695104
1.0016267477811063 1.0013152716230598 -0.0000036600646603
1.0016263838706227 1.0011750506680315 0.0011500131650803
1.0017365025455507 1.0009337934956275 0.0009474245857389
1.0018102657356116 1.0012093543100629 0.0002553610330803
1.0016732179933672 1.0010583611960280 -0.0002819886981641
1.0012997754708657 1.0014308704559722 -0.0001332612230585
1.0017177793193270 1.0011946564378607 0.0000750132283941
1.0014889520353178 1.0015440846633779 -0.0001613444446943
1.0014881994144720 1.0015574801613096 -0.0001400578632672
1.0014388839286585 1.0016192092087803 -0.0003183828312692
1.0017742836871788 1.0009753962249943 -0.0002165071407961
1.0016643846591355 1.0011719693251473 -0.0011219334723971
1.0017505453371720 1.0011555127401757 0.0002030167661340
1.0015505202073018 1.0013441746248957 0.0006411437329571
1.0016534898394389 1.0012581522227662 0.0003346884934327
1.0017177044736967 1.0011806674596224 0.0003358248024732
1.0016785381831634 1.0013541240318020 -0.0004817037132086
1.0014984382606085 1.0015362981321025 -0.0006036228233318
1.0016191770528553 1.0012964327899934 0.0001853455190457
1.0016011081653033 1.0013166061263836 0.0003876624000775
1.0019371228490233 1.0005519522313782 0.0002746333218495
1.0017611752347726 1.0011620757852708 0.0001336869569731
1.0014154949577705 1.0013970896920841 -0.0005331814355512
1.0014188649119393 1.0015525324017334 -0.0007042328572602
1.0015256174804659 1.0014467894622037 -0.0001062586774221
1.0018093919444642 1.0009649274994417 -0.0003144055703611
1.0017673633021469 1.0013531684253860 -0.0002918053350970
1.0015597893276582 1.0014021305838938 -0.0009219667946775
1.0010244850694436 1.0024725339518001 0.0004462962527451
1.0017349628477024 1.0012217649954016 0.0003580488568212
1.0015179529337961 1.0014460227410613 -0.0001039766095388
1.0018028991302230 1.0011339692239634 -0.0003303476658901
1.0019097547664573 1.0004574566650954 0.0013823767375648
1.0014559470336823 1.0013019413247448 -0.0012009721751666
1.0016800642596160 1.0012649132731686 0.0004612956639214
1.0017721746540664 1.0011482644870029 0.0001238307569961
1.0017827518424052 1.0011652314844319 0.0002345711478491
1.0017076296360043 1.0011841961332846 0.0002549149235985
1.0015142017956187 1.0014394896480028 -0.0001172144172152
1.0014727537425423 1.0015859409406038 -0.0000355814065418
1.0013268274182980 1.0019284149356138 0.0007842945462019
1.0016826959917673 1.0012158500543846 0.0002951029161288
1.0017917326862273 1.0012235478971505 0.0005115358483031
1.0017036727339068 1.0011573694502540 0.0004999693570590
1.0016209159875860 1.0012400766737541 -0.0011084115706824
1.0014466420677206 1.0013887691007586 -0.0004560781523782
1.0015759939767961 1.0013293361311151 0.0003710209425104
1.0016989210672447 1.0012381290603705 0.0001935111541783
1.0016356995698932 1.0012450395863957 -0.0004674694728458
1.0018645528309449 1.0003882161868436 0.0025595693863591
1.0015482702370451 1.0013170021493241 0.0000567586274406
1.0017132827671400 1.0012440404852732 0.0001276513530971
1.0016184817812148 1.0013185142649486 -0.0006684217396669
1.0017128980105807 1.0012244681603841 0.0003975064736872
1.0015444466421568 1.0014042917322985 0.0000079119259575
1.0018056808068323 1.0011822101519656 0.0003216278494490
1.0016632914439976 1.0013019860743695 0.0009650249982563
1.0017010147804870 1.0012025975001344 -0.0000122248061729
1.0015352395938510 1.0013632677829332 -0.0004129360908846
1.0015417874276755 1.0014459578403867 0.0003735288549337
1.0014508386529404 1.0013976130233830 0.0001769196999429
1.0016039850678518 1.0013353891753913 0.0003878864030868
1.0014666274605080 1.0015798308983299 -0.0000193156081268
1.0014983291007789 1.0013731004301145 -0.0002148624806174
1.0013255399992409 1.0014154483286593 -0.0006223007110774
1.0016471143162251 1.0013123751508901 0.0001222992444102
1.0015676967334937 1.0014190232704456 -0.0002223872361145
1.0016822822819935 1.0012836626569299 0.0008320628615723
1.0017395478307987 1.0010667774430630 -0.0002927026491205
1.0016082835462854 1.0012786501643907 0.0007865888504914
1.0015430800013991 1.0013568332729144 0.0006537922431538
1.0016165025053738 1.0013369405284793 -0.0001374139428058
1.0015944318380061 1.0012633629697938 0.0008151927975263
1.0014565029161921 1.0014799489162172 0.0022133848859593
1.0017254318240094 1.0012202946531130 -0.0000863641240243
1.0017356163201094 1.0011802825021414 0.0002231461181582
1.0016458654693567 1.0012865920269221 -0.0002060178897293
1.0016300958809559 1.0013129827233020 -0.0002026374242738
1.0016436289113710 1.0013152744056968 -0.0000042531054875
1.0015396456879599 1.0013948660246013 -0.0002145445144461
1.0014597639600227 1.0014253710307697 0.0002163729357809
1.0017877114165252 1.0008809430312517 0.0001305830461367
1.0015661756245826 1.0013416594803171 -0.0003955149622441
1.0015353862063199 1.0014690047409360 -0.0008065174629073
1.0015867798223919 1.0013435320893396 -0.0001693157495857
1.0014757745164069 1.0013869169407472 0.0002988304565250
1.0016306764528080 1.0012754503148549 0.0003482300481508
1.0016930890688289 1.0012595675402607 -0.0000044088637486
1.0017500910184167 1.0013306278835172 -0.0004728451491344
1.0016550249569933 1.0012811433845556 -0.0000232129105394
1.0017404971249346 1.0012083720979330 0.0002186620893066
1.0017366398511875 1.0011677456727397 0.0004702112388323
1.0017318490843701 1.0011697070529779 0.0001080492832763
1.0017548601431234 1.0011006129519913 -0.0002040774686663
1.0017669130574052 1.0011687268898042 -0.0002275000491366
1.0016439423684345 1.0012883520980984 -0.0005001546290610
1.0017752159066118 1.0011516778947587 0.0001452305223085
1.0015539683113439 1.0014253116225675 -0.0002427630210920
1.0015651160564241 1.0013628183235388 0.0001186758344220
1.0012398679614278 1.0014695685185659 0.0008730799326022
1.0014875990590633 1.0012719642766130 -0.0010324575435788
1.0016030863539018 1.0013219119376608 -0.0003875167152457
1.0015554982167136 1.0012715385384787 -0.0008966744741557
1.0016301945501362 1.0013481932097195 0.0018581953452728
1.0016984038538317 1.0011606087006335 0.0005864079891008
1.0016872026613959 1.0012886887471297 0.0006460433241239
1.0016441267145437 1.0012469273941598 -0.0007098766169521
1.0016081091379727 1.0012813409706285 -0.0006436549643616
1.0018846661056349 1.0007778344463554 0.0004077058475524
1.0016134267834020 1.0013483002750065 -0.0000122704976897
1.0014807657118816 1.0013904966966236 0.0009134610767020
1.0016986079359675 1.0012186213457313 0.0006391227459268
1.0016940511592258 1.0011400312934950 -0.0001425444377276
1.0016650810394434 1.0012620214231471 -0.0001897700751032
1.0015089357422344 1.0013754174981306 -0.0002990055340410
1.0015285750536711 1.0013614108395505 -0.0003391117115785
1.0012519507729307 1.0019340646010326 -0.0003090040414122
1.0015608798470743 1.0013587770804098 0.0003227659233154
1.0018529685822666 1.0009872111645179 0.0001436023931423
1.0016952613648982 1.0012277832545884 0.0002087020392214
1.0017185744295170 1.0012190335100681 -0.0001215802126666
1.0015194479329885 1.0014120881504216 -0.0001853620447743
1.0016762481500578 1.0012877341707578 0.0005748072504932
1.0012838688463785 1.0014691099740445 -0.0005320836717102
1.0017225395572253 1.0010579464219647 -0.0006313337892516
1.0014369900580338 1.0016525649221464 -0.0001775877752775
1.0016558654359922 1.0011615147218504 0.0007506128739382
1.0016225265764509 1.0012922560921682 -0.0003614862252627
1.0014763222251939 1.0013840074078266 -0.0000161636496024
1.0016743746667587 1.0012572285669694 0.0005261677418631
1.0013696683448523 1.0017514690070668 -0.0001773338817808
1.0018535163544771 1.0011431487961722 0.0001981091398832
1.0017514711453113 1.0011866794130104 -0.0002087641930796
1.0016620752138672 1.0012600531958962 -0.0000979314083353
1.0017808942346147 1.0011877851352451 0.0001037039442454
1.0017271160879366 1.0011755969037477 0.0002683326115896
1.0016865787686173 1.0013991894691734 -0.0002051861657896
1.0018273483776590 1.0012054386969018 0.0008122591032141
1.0016346224655410 1.0011772085524868 0.0018531192100612
1.0015626584451791 1.0014188903494270 -0.0005309983688418
1.0018073722350991 1.0010383228174451 0.0004850704374399
1.0014916988395499 1.0013835246640490 0.0000361201323312
1.0015612986129396 1.0013754135831963 0.0001516400476235
1.0015586215110093 1.0012536506466312 -0.0009621625536638
1.0018506452627876 1.0010510480713581 -0.0001433700492862
1.0019764177238417 1.0011171015236506 -0.0001030350945422
1.0016702629157710 1.0012515606163446 0.0003521294567666
1.0016394093725902 1.0012855547912125 -0.0001587836492002
1.0016138921011413 1.0013103735265201 0.0006162575435326
1.0015642418866941 1.0013855525418642 0.0000105691033832
1.0015355902934886 1.0013658242068182 -0.0003224798988038
1.0014986395409391 1.0014735847628062 -0.0010494078417123
1.0015723755181614 1.0013977767559519 -0.0002717240847813
1.0015703290282414 1.0012518281753038 -0.0010160883786415
1.0016341764693559 1.0012894094779081 -0.0002032889650199
1.0014873038351404 1.0015939141489987 -0.0005303960425266
1.0017598104451328 1.0011718245936803 0.0002701583006235
1.0018698934632546 1.0011735500388987 -0.0001963333240388
1.0013723433457067 1.0014207507412363 -0.0001414928274525
1.0015620135081265 1.0013935399934824 -0.0000148985610507
1.0014935130413738 1.0014093519810428 0.0002861494644017
1.0015875011181641 1.0012998225022318 0.0006368698074674
1.0015371408505735 1.0013552926883651 -0.0004389640800683
1.0015722880980127 1.0013563957579392 0.0002047935833078
1.0017521740384849 1.0011772395657965 -0.0004987998415176
1.0015371385611607 1.0013248127706535 -0.0005985548005965
1.0016578790587687 1.0012323551788631 -0.0004629731948202
1.0016844409411190 1.0012126642178578 0.0001734573036369
1.0014849928889296 1.0012919517538275 -0.0002088860392812
1.0017322533560529 1.0010774473947996 -0.0000808889756528
1.0018861451090864 1.0011625901274117 0.0002488982528810
1.0017439649340663 1.0012043806332465 0.0001916688710683
1.0015391396030688 1.0014590599167648 -0.0002219245921160
1.0015468313224061 1.0014503127110608 -0.0000585671202192
1.0019917597662635 1.0010937925743617 0.0001701979959531
1.0017437242624811 1.0011864298673583 0.0003208171035035
1.0017114266831997 1.0010790839517052 -0.0005686872243967
1.0014873093066063 1.0015418946692727 0.0000597923604870
1.0017736596855424 1.0011607965736706 0.0001726312707820
1.0014409635602952 1.0016489209449460 -0.0004790103921201
1.0014109261715063 1.0016737522515540 -0.0007587475981915
1.0017269306191630 1.0012406788542549 -0.0000230177197517
1.0015313042509444 1.0015098002321656 -0.0001806166954827
1.0017158415790655 1.0010878010545541 0.0003014188841010
1.0018759727326751 1.0011430005067088 0.0003768998540099
1.0016670567648993 1.0012492047230932 0.0007177004326953
1.0015845779994352 1.0012959629363853 -0.0004517092262654
1.0017361625225376 1.0012056097167057 -0.0003562195027978
1.0015452129875335 1.0014378720984238 -0.0003037316047270
1.0017642375648648 1.0011638869631239 0.0001567615706776
1.0015584731790592 1.0012645850978137 -0.0001864397240504
1.0017460982523978 1.0011064105855922 0.0003462993201361
1.0017326912780726 1.0011757030616972 0.0000154583309353
1.0015262147906829 1.0014826770758332 -0.0002678243103164
1.0016209965620930 1.0013262380748660 -0.0002003977645785
1.0017551324097076 1.0010944019819272 0.0001069878234974
1.0015080360911282 1.0015155209252156 -0.0001378325731751
1.0015385976933704 1.0014661409600407 -0.0003413108609334
1.0017550382208671 1.0011452538413901 0.0001862638525689
1.0016088026355510 1.0012832132238876 -0.0003477380948777
1.0015511810294213 1.0013666761930184 -0.0000560426344190
1.0015868574940157 1.0011431386307992 0.0000258241068900
1.0015360819949675 1.0014224591084857 -0.0001002260028401
1.0014553240853821 1.0014202642040972 0.0004993259173258
1.0016844073784152 1.0012335530753160 0.0003115802056482
1.0015622181623232 1.0014409104687600 -0.0008562303891292
1.0017749568949637 1.0009203132481594 -0.0005560655433793
1.0017137721114611 1.0011278001484012 -0.0000674464686849
1.0017266315489004 1.0011379582669206 0.0002612862434988
1.0016887495837841 1.0012211687241479 0.0002901801184094
1.0015707516048253 1.0013905457578669 -0.0001533662792367
1.0015596145160428 1.0012852041697378 -0.0008309682910414
1.0015090745056352 1.0013740918759630 0.0006457901689285
1.0014924244585892 1.0014184471505962 0.0000660262350831
1.0016594040077016 1.0011976513556744 0.0007356639847792
1.0016174314206143 1.0012618719150606 0.0008100924044236
1.0015026210690776 1.0013693003436042 0.0006106262169648
1.0016950919216943 1.0011397736739416 -0.0001733594229923
1.0017334263850557 1.0012315499294264 0.0001876945205796
1.0015888727438602 1.0013709266552711 -0.0009570996675088
1.0015116271209497 1.0014233315167202 -0.0000364072072269
1.0017247921370476 1.0010638330942216 -0.0001133332433791
1.0017353279107588 1.0011905576609559 -0.0000731487032097
1.0015403977338297 1.0014388723601695 0.0000111921199003
1.0016912407059022 1.0012397349648461 -0.0001501171825121
1.0017600505355440 1.0011337268926497 0.0001976319002155
1.0016061596987285 1.0014755647489206 -0.0002677098142734
1.0017188988634949 1.0012029647123948 0.0002676856622068
1.0014452412918220 1.0014257278018444 -0.0001671047755007
1.0016133778386080 1.0013452054538787 0.0001901421871591
1.0016994100144470 1.0012607036913959 -0.0000798476504139
1.0014845269229296 1.0015609637855796 -0.0003541969441967
1.0016948026632808 1.0012177251058070 0.0001656028467049
1.0017592843390193 1.0011381697393524 0.0001985259979707
1.0015886294426888 1.0013765230379663 -0.0000828867574463
1.0015086480435593 1.0014992434246193 -0.0000405603350511
1.0015605708698614 1.0013868129096581 -0.0012587690132477
1.0019009992019035 1.0011193460071479 -0.0006401585770148
1.0016624692784679 1.0014561832725213 0.0001672812633853
1.0017636272843258 1.0011501175129380 -0.0005643004461847
1.0015400731545336 1.0014493940096516 -0.0004568419804484
1.0017343355297006 1.0011962485724109 0.0001818269249794
1.0017016936429832 1.0011000485287687 0.0008815136725556
1.0016191156395025 1.0013495002465029 -0.0007234807569339
1.0016769017029294 1.0012373591266963 -0.0004413265234501
1.0014205550620014 1.0016592100151012 -0.0000780560951734
1.0014276281351477 1.0014372382175458 0.0001191357618268
1.0016883440933828 1.0012109431524687 -0.0001077496893663
1.0017053701626490 1.0012209390861391 0.0003710690546345
1.0014412138733377 1.0013884001438869 -0.0001513322617326
1.0017339308229432 1.0012104565049544 0.0002167251776637
1.0016441530773843 1.0012955565734050 0.0000562961031040
1.0014145530762562 1.0016291904284764 0.0001961812714276
1.0016609533822707 1.0012210984909691 -0.0001917917850040
1.0017121156961477 1.0012273464661072 0.0000081202035091
1.0016138852881327 1.0013253860814151 0.0001497955110938
1.0017628494814639 1.0011686401819055 0.0002538824626219
1.0017500820181346 1.0011929255871976 0.0003273881543405
1.0016610156717054 1.0012806684371169 0.0003172986718323
1.0015807879693719 1.0013740784146574 0.0000129031014406
1.0017740257968164 1.0011132756492929 0.0001248264924306
1.0014249343054242 1.0014055645422266 0.0002053282797487
1.0015567483223495 1.0013467046365230 0.0001363425830796
1.0014506171773458 1.0014120646265432 0.0000668261491524
1.0015485892488989 1.0013829823843181 -0.0003067867369070
1.0016577106153157 1.0012334388654627 0.0003510661553968
1.0015786776089419 1.0013451620505400 0.0008332440846365
1.0015949354528118 1.0013343741761884 0.0003972108006464
1.0013297512133252 1.0013374979179228 -0.0011375582428853
1.0017373835492169 1.0012102590049401 0.0003032613964679
1.0016355133302461 1.0012724547913807 -0.0002995612885010
1.0015222610632881 1.0014615691644417 -0.0005365142818920
1.0015647658604936 1.0013650779657217 -0.0002097368495311
1.0014539689637130 1.0016306164861728 -0.0003297814751059
1.0016561524827625 1.0012894525744407 0.0005059526402180
1.0017772804359737 1.0011114697091619 -0.0006685716771099
1.0017544868073094 1.0010393449777129 0.0000817018630260
1.0016742001056298 1.0012499747721200 -0.0000295737652220
1.0017531216678111 1.0013131771395949 0.0015190840540461
1.0017139695244672 1.0012591934850572 -0.0001463391913101
1.0016322280893288 1.0013491006366138 0.0003665336749473
1.0014514795930700 1.0016583013906488 0.0009348865153401
1.0016343078425118 1.0012900035190619 0.0003682262151207
1.0017270478344511 1.0012073365385736 0.0003888458599405
1.0014535246623437 1.0014834205655396 0.0012904772979622
1.0015557266439992 1.0014381290676377 -0.0004201574798753
1.0019739317122696 1.0010619735222352 -0.0002655497178531
1.0016354726249712 1.0012518121529121 -0.0006938841847274
1.0015852146289699 1.0013338993919365 -0.0002212606222567
1.0015241740044805 1.0013895798775041 -0.0002517899629761
1.0019392824034792 1.0008347240426099 -0.0003986382969573
1.0018959753411645 1.0011933633893062 0.0014434559045046
1.0014858034512830 1.0015346807738568 0.0002846557754603
1.0016087524212591 1.0013029605944599 -0.0002636554643125
1.0015800121704499 1.0013678184055288 -0.0000190760640701
1.0015020581830953 1.0013959114300572 0.0005531690705974
1.0015794342195372 1.0013611758842453 0.0005866963874152
1.0016691393699839 1.0012890902307845 0.0007050610166569
1.0016642775363673 1.0012570123369160 -0.0003971702080193
1.0015678499790546 1.0013972075074731 0.0003778378329505
1.0017744365687977 1.0012133432430279 0.0001797982668232
1.0016436317338726 1.0013950429862990 -0.0004426160286580
1.0017708841766171 1.0011653346721838 0.0001500234147372
1.0016630266210671 1.0013943245472110 -0.0001333818830239
1.0017794699650462 1.0010143842611465 0.0004603941048921
1.0017622299912849 1.0010628166294566 0.0001765530614681
1.0016716662947920 1.0012247910127421 0.0000583696454593
1.0018205859604521 1.0011991420047461 0.0004387561848267
1.0018616043023214 1.0008492046561659 0.0002207764304737
1.0017957621768991 1.0011891703208378 -0.0000427954450479
1.0016108433564739 1.0013029763486481 -0.0010366813356336
1.0014043210104724 1.0013872626199762 -0.0003282690700500
1.0015607283100232 1.0013965045277589 -0.0005012612790137
1.0016943063897337 1.0011080226220954 0.0004070195918467
1.0014992254078792 1.0015221823580760 0.0003332550951954
1.0017249929388077 1.0011181998690830 0.0004661536618945
1.0016205704226406 1.0013210402580059 0.0001375161147058
1.0017580426641131 1.0012236978273643 0.0003747383560437
1.0016141432717804 1.0013262993144392 0.0003590556553236
1.0016344718125221 1.0013118254164586 0.0001533178777808
1.0017251986197511 1.0011835769175683 0.0002010313514460
1.0017573683477692 1.0011005574325131 0.0002841233534275
1.0017145758711776 1.0011567084808195 -0.0001005467130694
1.0017838534969687 1.0011903668818631 0.0004290739104920
1.0014101240950917 1.0014419048369150 0.0004120797168029
1.0017829579979118 1.0010435720175370 0.0002401019210117
1.0017574573213950 1.0011507924969381 -0.0002878132956749
1.0014794493776216 1.0013296897629873 -0.0006683002824171
1.0017282082380181 1.0011625251620635 0.0002202596125165
1.0017067931508066 1.0012088737623754 0.0005498570856741
1.0014008623784987 1.0016704066260844 -0.0002200607027339
1.0019256798541398 1.0007771602514395 -0.0000230192069894
1.0016214390951486 1.0013061958928227 -0.0001428988446896
1.0017443963603887 1.0011672198460788 0.0000723540091298
1.0015325609549199 1.0013561363911312 -0.0003419125970362
1.0018611135491762 1.0013906442462785 0.0001811160637114
1.0017528850351387 1.0011841653508962 0.0002797795235954
1.0015856467196775 1.0013604839803496 0.0000053362934473
1.0015910399200481 1.0013503479729331 0.0001511991070019
1.0014853090435605 1.0014095723009488 -0.0002313742428775
1.0015910378329043 1.0013572753963869 -0.0001792852940487
1.0015900090425223 1.0013758295832351 -0.0002359282895681
1.0016424109521982 1.0013096524098763 -0.0001308098070725
1.0016162000610349 1.0012296033669019 -0.0007867364484913
1.0017336173441889 1.0012182917738484 0.0002205452804980
1.0017346075314597 1.0011225493055145 0.0000986282174292
1.0016643635094984 1.0012566677182613 0.0003263693367535
1.0015821165423791 1.0013260490171321 -0.0004785110898867
1.0013992485590892 1.0017202656872390 -0.0003618508074830
1.0017462625447464 1.0010958047481286 0.0001584875861873
1.0018606858903776 1.0011618998909102 0.0001060543302093
1.0017293212919420 1.0011213032436290 0.0003881998408343
1.0016207980858647 1.0013147673748535 0.0003477695251691
1.0015371110141638 1.0014292982230015 0.0005873804222024
1.0018742888776411 1.0011701714268730 0.0004227522792088
1.0016700930009770 1.0012472557390009 0.0001059503344606
1.0014745403748115 1.0015672463773977 0.0000210563484973
1.0016482726012483 1.0012472859217223 -0.0002055287206819
1.0017676788918974 1.0009654423531764 0.0003315533990752
1.0014840030768350 1.0015923708139698 -0.0007112280451983
1.0016197666562672 1.0013297215714165 -0.0003882724700513
1.0016757546373489 1.0012232498865221 -0.0007346207299167
1.0018029223249474 1.0010338885862489 0.0003462264656626
1.0017026593985132 1.0012057614538490 -0.0000472161586133
1.0016135702868871 1.0013406241188079 -0.0001880005495876
1.0017732760059619 1.0012126761166913 0.0001634039850057
1.0016284048556818 1.0012683986512678 -0.0004677211746161
1.0016521930823024 1.0013063216803133 -0.0004185208349863
1.0016175954296933 1.0012107179219805 0.0009927194363460
1.0016619973323808 1.0012487601672502 0.0001615559511657
1.0017841004668719 1.0012146421823853 0.0004765914133081
1.0016040716351611 1.0012902255219938 -0.0004336630732403
1.0018587656767002 1.0009867283044973 -0.0000263506979818
1.0016746464879887 1.0011889678467922 0.0005350763973183
1.0016693786004842 1.0012579766895864 0.0003165630056851
1.0017560036984465 1.0012404200893876 0.0006430741987877
1.0013544555960774 1.0014213761716944 -0.0000250250366378
1.0014361981583795 1.0016957804772257 -0.0005339837319741
1.0018010009162852 1.0008755891496908 0.0000197242309631
1.0017913995629755 1.0008500063812324 0.0007142804308683
1.0016790698931624 1.0011991869006094 0.0000114030570405
1.0015758571742934 1.0013231844369037 -0.0004385794279936
1.0014588848134522 1.0013965890119234 -0.0003087827114822
1.0015691695823952 1.0013762633668077 -0.0002627650110552
1.0015515939365478 1.0013391284690050 -0.0003993355961512
1.0017404023723397 1.0010626089180001 0.0000936393346109
1.0015341674380336 1.0013135322293938 -0.0007020856770163
1.0016891754169048 1.0012401934235728 -0.0001750573587448
1.0016520456158617 1.0013256716197292 -0.0001293584939158
1.0014455153515198 1.0015765648843975 0.0004978526939722
1.0013180677966600 1.0019248091430517 -0.0003676286386271
1.0017061029354639 1.0011780847673450 -0.0007425752074330
1.0017546454622910 1.0011522350642679 0.0001350382858183
1.0016604640677116 1.0012915478278588 -0.0004238080531220
1.0018704182679394 1.0009462409734968 0.0003072675497163
1.0016953026894768 1.0012176538270736 0.0000858444154853
1.0017138071255260 1.0012007082363399 -0.0001531450213986
1.0015454824637908 1.0013723041301603 -0.0002034706423789
1.0015893178365480 1.0013397717814700 0.0006516482709979
1.0016139804798481 1.0013154995809770 -0.0002000073616715
1.0014916914468450 1.0015029003718072 0.0005591696199012
1.0015270286719251 1.0013886595178820 -0.0002441751840438
1.0015461019675487 1.0012312867533968 -0.0012107354728298
1.0016508299172611 1.0013490163736860 -0.0004809394176390
1.0017326597185621 1.0011858593421739 0.0002086704349637
1.0017171584214222 1.0011377695590955 0.0002346000193685
1.0015920451193854 1.0013418151146551 0.0003560356258345
1.0016047019422514 1.0013503939043609 -0.0005460390456151
1.0017093567619979 1.0012106585835892 -0.0000975383142800
1.0016473014970699 1.0012658686264040 -0.0001345096731443
1.0014486141837868 1.0016127926071332 -0.0001219902665840
1.0015729189736959 1.0013431556900649 -0.0001308318719622
1.0012127053543962 1.0014594147963041 0.0004901295449969
1.0015452776014424 1.0014607512554328 -0.0001587049665416
1.0016408205923908 1.0012876540260387 0.0003438833587744
1.0016787201297890 1.0012460302540160 -0.0000377453246525
1.0016934499553649 1.0011939720453389 0.0004319061012160
1.0017096569757604 1.0011206037144569 0.0008010011783834
1.0014524695967746 1.0016780320486915 -0.0001373744706980
1.0017421459356737 1.0014243275778087 -0.0003010566374184
1.0017231411232634 1.0012622545145302 0.0005115003682931
1.0015817828624971 1.0013902290405219 0.0001707590825442
1.0017489594676590 1.0010662014520568 0.0002903682953413
1.0017484630244853 1.0010271971569979 0.0002030486850020
1.0013676988265017 1.0014391576742170 -0.0003445760078433
1.0015884973857299 1.0013229828390293 0.0001666073865943
1.0015462667301747 1.0013845063166364 -0.0001225573237140
1.0016744378081492 1.0012638185988636 0.0000118937288595
1.0017598569061199 1.0011754191298219 -0.0002269729155016
1.0016683730761300 1.0011927182153524 -0.0005973890675736
1.0017399278827064 1.0010978227401015 0.0003396404330062
1.0016970574410546 1.0013700481257632 -0.0003659793975203
1.0017145054767456 1.0011913839154696 0.0002750523870197
1.0016762105091488 1.0012515620150477 0.0000936358255705
1.0016108695044221 1.0013429930408764 -0.0000992684074532
1.0015842170848523 1.0013724517086544 0.0001614325436367
1.0017130279978903 1.0012167839294510 0.0002403023439284
1.0016597978855872 1.0012845363337226 0.0000707251026266
1.0016976400349673 1.0012234528857569 -0.0000398738357672
1.0015189044195625 1.0015464326929571 -0.0005914642124106
1.0016488224247513 1.0012822338311473 -0.0001709664295258
1.0017804212207879 1.0012150904106878 0.0004644632678350
1.0015917041385305 1.0013729155873525 -0.0002944735942173
1.0016200571812321 1.0013450425386705 -0.0001171882931507
1.0017920130940048 1.0011441615187295 -0.0003043173986541
1.0015429560681495 1.0013575865856563 0.0009755824717692
1.0016492038401188 1.0012879207202035 0.0001162836645203
1.0016296967628775 1.0013099136950203 -0.0001302574575965
1.0017770669741504 1.0010478663014342 -0.0003605388119628
1.0014898175124001 1.0014210474121281 -0.0001680185545662
1.0018430079477680 1.0008893818149389 0.0006596494065522
1.0016414970090695 1.0012844815372131 -0.0003126231675657
1.0015420593317654 1.0013933194753324 -0.0002594614662089
1.0015630047889474 1.0014021995057647 -0.0001601471716447
1.0015358629516482 1.0014520849676998 -0.0008726735298333
1.0017928158550402 1.0012413200988086 0.0009131582020693
1.0015103975137376 1.0015122473772229 0.0010181573375376
1.0016880836047415 1.0012488585157642 0.0001744620068638
1.0017605012391602 1.0012054761722196 -0.0001522654924039
1.0016523905688017 1.0012836457796124 0.0005721353779789
1.0016601358063693 1.0012497700966774 -0.0001818587928751
1.0017756200953711 1.0011703694712519 0.0002377073681378
1.0016327724879335 1.0012821408806787 -0.0005853456988364
1.0015474430420166 1.0013697449299850 0.0005752769584089
1.0014252509367989 1.0013945143240774 0.0009164791899386
1.0016427353749473 1.0012833284750600 0.0001293097119898
1.0014710805354263 1.0014246497257120 -0.0000076806493876
1.0017078113616673 1.0010705626465803 0.0007365489105361
1.0014796248436355 1.0014217767355340 0.0000302145462494
1.0018738012138089 1.0011582885029904 -0.0000775734859524
1.0014840809637036 1.0013948108133606 -0.0003317213851686
1.0015500410258140 1.0014192958559069 -0.0002330976744323
1.0014760321285368 1.0013374559699424 -0.0008807377182908
1.0017139224451865 1.0012668121609327 0.0008363190551203
1.0016296605830084 1.0012457192294939 -0.0002699908175069
1.0017923586719313 1.0012076592498920 0.0003341974596193
1.0014387639366391 1.0013872085457178 -0.0002916555719250
1.0014098675078273 1.0013760784562649 -0.0007180625587575
1.0015846834180935 1.0013719098628795 0.0003662647060206
1.0017041149081931 1.0012089263531807 -0.0005715517877972
1.0015193109147988 1.0015354369677678 0.0000081125765569
1.0016586559896885 1.0012190668416112 -0.0003222636007292
1.0014593183158174 1.0014266149295530 -0.0000577841326505
1.0018984557361734 1.0011647770425347 0.0010483599945325
1.0018120828482486 1.0009419914918833 0.0001113990416410
1.0016345848935135 1.0012880576706520 -0.0001870808348659
1.0017144461485941 1.0014548248473714 -0.0001905028232823
1.0016707458017271 1.0012701736622736 0.0000565258795540
1.0013815848580172 1.0014279311835605 -0.0005240993799367
1.0017478533946718 1.0010589427796885 -0.0003595990919644
1.0017489737880547 1.0012246924119763 0.0002697190176955
1.0014888851914754 1.0015377661468088 -0.0001814138346800
1.0016824918139049 1.0012636176818375 0.0000348100623282
1.0015418316755245 1.0014652529944801 -0.0002683835452631
1.0016279305694398 1.0012714272846091 -0.0005746483990778
1.0018257743042487 1.0008733481776169 0.0002647346106434
1.0017073182347858 1.0010595531348265 -0.0006863210959166
1.0017706107959223 1.0010238555391100 -0.0001390388165012
1.0016657731483261 1.0012271623833737 0.0000667104156872
1.0016093154622330 1.0013161665060228 -0.0001911307531683
1.0018157285521956 1.0010102703044887 0.0001802640368068
1.0015811853875405 1.0013089528210268 -0.0005776363110229
1.0018131082066468 1.0012018381409800 0.0002761484148412
1.0017917490517994 1.0013347211876757 -0.0003218397445585
1.0016396154937246 1.0013071360075014 0.0006118025045672
1.0014846451308554 1.0015568247595072 -0.0002492581338583
1.0017925104345464 1.0009138911345297 0.0003721288777299
1.0017106274116643 1.0012189159284801 -0.0002967119426912
1.0016117219059104 1.0013293755855370 -0.0003066948452224
1.0017187636871274 1.0012629333920164 0.0007649843978073
1.0017037321683411 1.0012038022188812 0.0002994311564750
1.0016746814046362 1.0012099849979690 -0.0004110419802009
1.0015962790792390 1.0013476361738809 -0.0001357031444168
1.0014892636457458 1.0015376080339400 -0.0002632034415304
1.0018229202274709 1.0012101282998904 0.0006230205848848
1.0016466606991501 1.0012865541352227 0.0003328052636459
1.0015213990909593 1.0015297193672994 -0.0002517122289600
1.0017644195560105 1.0012136856722478 0.0003055132029618
1.0017473553840046 1.0010710291976641 0.0006817311065981
1.0014870624272720 1.0015457516628954 0.0002699325880255
1.0015555255416464 1.0013956053600863 -0.0002424122418421
1.0015607614895017 1.0014211999792624 -0.0001832411802165
1.0015833033203316 1.0013773939562325 -0.0001270026719320
1.0015289333935073 1.0013853009269118 0.0000091585832785
1.0014889439518204 1.0014103315426823 -0.0002460288316244
1.0016447050153712 1.0012350370039420 0.0005932270745638
1.0012429858285532 1.0014745473149325 -0.0002319644831429
1.0017119202125919 1.0012101178286290 0.0003066702213581
1.0015518058085335 1.0013692131356371 0.0003642647168874
1.0017284975158762 1.0012330447688280 0.0004444771569802
1.0014983396417461 1.0015238393140891 0.0000912112573482
1.0017164494464894 1.0011434782602071 0.0001346513528404
1.0014981443239164 1.0013563181048115 -0.0002440952962433
1.0016293712311544 1.0013350529442557 -0.0002931389325779
1.0012634666243871 1.0019396823645279 0.0000144600850747
1.0017287335573757 1.0010023639171921 -0.0003772754749500
1.0014267922610847 1.0013920958629561 -0.0005126557847648
1.0016706944866898 1.0012839565492511 -0.0001138053627193
1.0015872802279600 1.0013012095019540 -0.0007460330732750
1.0017415011093789 1.0011446187003090 -0.0007260273459110
1.0016750062699020 1.0012180450665211 -0.0001135140884826
1.0015030015608315 1.0013836581703350 0.0011034682806619
1.0015990078431256 1.0013621710290013 -0.0001428373747393
1.0014767669340685 1.0015628484271852 -0.0009115637707252
1.0015619811352274 1.0013985809766746 -0.0001624872408653
1.0016548248247006 1.0013384947885806 -0.0004191496638456
1.0014126158762320 1.0014102333173267 -0.0006737078987122
1.0018126585611931 1.0009556921740519 0.0003090403793511
1.0014997601632418 1.0013076025196381 -0.0010298747722103
1.0013707269555006 1.0017109502347170 -0.0003857289937902
1.0015716605974632 1.0013759211595388 -0.0000915548739512
1.0015600806310176 1.0014150842815597 -0.0001609829016105
1.0017580896012210 1.0012067872906316 -0.0001387770157611
1.0017364741902823 1.0008948671282838 0.0015603093115206
1.0018945616407209 1.0010851618142125 0.0002019661942882
1.0015599659087850 1.0013838984073729 -0.0001768591221028
1.0014378696664739 1.0016414202018047 -0.0003807209156500
1.0013715621800818 1.0017318316510937 -0.0001941672198469
1.0015138416785154 1.0015043340914094 -0.0007260320772942
1.0015231684323112 1.0013155885767024 -0.0008170558821981
1.0014673141232444 1.0015236275511281 -0.0007097441318886
1.0018401908327477 1.0008348098645705 -0.0001776034870185
1.0014782017243560 1.0014985987978977 0.0011361404960686
1.0013121944882757 1.0018565053642936 0.0002857163316660
1.0013234758605349 1.0014540419674101 0.0003164516890278
1.0018901140625609 1.0006468787307787 0.0007815122841386
1.0013776832065964 1.0017340386375080 0.0004852127401211
1.0014868915208957 1.0013071198049452 -0.0009096604278326
1.0013559922132800 1.0017453400689897 0.0010702140571511
1.0018710285366765 1.0007300653089217 0.0000102199674529
1.0012678596482285 1.0014692111567811 0.0000673497325094
1.0015876339033443 1.0012524865298054 -0.0009392941861953
1.0017104509586920 1.0011363840940046 -0.0007455037102296
1.0013858311663222 1.0014273358923620 0.0010544666836909
1.0014806318759912 1.0014864056323138 -0.0008215568980162
1.0018677603173967 1.0010966399678878 -0.0000311819073718
1.0014785834244664 1.0013382314548127 -0.0007983547421234
1.0017631327546899 1.0011834026749122 -0.0002889339541132
1.0017002555057382 1.0011902688318428 -0.0006897659764850
1.0016669737792498 1.0009896590833025 0.0018446064342748
1.0016865868769349 1.0013396072883534 0.0017613723487658
1.0017909838137975 1.0008773124045387 -0.0001347653892165
1.0017698997057778 1.0009713421665642 -0.0002743436511963
1.0017878108120182 1.0011668470561477 -0.0001663423947440
1.0018186307898447 1.0008095027593391 0.0004774790867307
1.0017037514198324 1.0012666865254853 0.0009016315913204
1.0018190452162370 1.0012021435504488 0.0006768581871464
1.0016852372767546 1.0010534808682570 0.0009649442330927
1.0016037824811261 1.0011537862763877 0.0011396236228741
1.0014518536561643 1.0013577724182856 0.0005355389499426
1.0016301492486388 1.0013111648241344 0.0010685144925585
1.0014182597871677 1.0016029921687692 0.0005681932890363
1.0013354963970482 1.0014117153018482 0.0004303591697616
1.0013681458253436 1.0017229112321786 -0.0009121588574414
1.0012608040494959 1.0018682854586460 -0.0005480643943313
1.0012848545013477 1.0018191611379028 -0.0003018137120503
1.0013391156368845 1.0013291632243302 -0.0011176127482558
1.0012761545234385 1.0014027170637050 -0.0005173679530206
1.0012984757773491 1.0017174488279161 -0.0010905869588449
1.0019157820904669 1.0010735149127623 -0.0000371621810953
1.0020866676402924 1.0009619798254774 -0.0010537858046674
1.0015941093558709 1.0010331741965794 -0.0021192962735992
1.0013646591477012 1.0012992375432366 -0.0012696430780409
1.0015889517638579 1.0014839554641810 -0.0008685368372345
1.0013682383163138 1.0015174861262304 -0.0016664148001066
1.0015551482888256 1.0014710089491479 -0.0019123853244290
1.0017119555194689 1.0012417780470595 0.0004539750321755
1.0018498087543246 1.0012465547788827 -0.0009760327329486
1.0017148477307372 1.0013187956445773 -0.0001194714714596
1.0016784062659712 1.0013422100385547 -0.0002017489960587
1.0017406521345937 1.0012615505862503 -0.0000688215296170
1.0016352300079940 1.0013290565614457 -0.0001535032973331
1.0017586186517375 1.0012660038676455 -0.0000577076674977
1.0016768030418577 1.0012327666892431 -0.0000030628639983
1.0017484632124654 1.0012023060256201 0.0000421276341133
1.0016213928752964 1.0014834675899267 -0.0014118945541899
1.0008700712008607 1.0013194340424856 -0.0006411763652209
1.0016467318660123 1.0013068632483282 -0.0005638066920503
1.0014102267863645 1.0015616147182942 0.0013304851342315
1.0010254383828907 1.0025754466890788 -0.0009746136788445
1.0017540829542113 1.0012207458828526 0.0000289341366656
1.0017307839397902 1.0012375526014161 -0.0000005710762593
1.0010983416782413 1.0014440075947815 -0.0012670368064664
1.0013162443607106 1.0014643356554069 0.0012348230644304
1.0011271002886619 1.0024502916947298 -0.0007483270997713
1.0011493209063012 1.0015185386722043 0.0009581464390877
1.0018164560454064 1.0008003899570059 -0.0004663294574348
1.0018073364344262 1.0013601737434432 0.0021939635117544
1.0011124009405166 1.0014085241884294 -0.0018860874753662
1.0018145155619038 1.0012982688802936 0.0017567530724729
1.0012878883973264 1.0019186126403932 0.0012302917872251
1.0015834081870743 1.0009414721980012 -0.0019022763073471
1.0015207959001049 1.0011056666157827 -0.0017993373979499
1.0014914067038028 1.0013129341221987 -0.0001312466224796
1.0015605109776446 1.0016721627981360 -0.0008408112500129
1.0014400354041979 1.0024307182362826 -0.0012510399460545
1.0018907788424483 1.0011684962640210 0.0012706909694005
1.0018219040431420 1.0006346584444052 0.0022667199351334
1.0014791870543269 1.0014617905165493 0.0006991077894499
1.0019123152625604 1.0005460637278576 0.0009698498786292
1.0012747499626764 1.0018548491583565 -0.0005566200427230
1.0016632162109658 1.0012841737305214 0.0003686879669185
1.0018980553762578 1.0013534457182716 0.0004210300957947
1.0015966442615583 1.0013820535104889 0.0004188256044772
1.0017516373441526 1.0013954482428264 -0.0008071761351458
1.0017251003293213 1.0012169627313474 -0.0005700364093043
1.0016900117883101 1.0012226577655319 0.0002516194800387
1.0015572081627262 1.0014962784789303 0.0008455227615583
1.0017321272926425 1.0010013907674886 -0.0014100063675371
1.0016382306090457 1.0012149764881073 -0.0013778995208411
1.0013514005238926 1.0013590146521818 0.0005062687251083
1.0011460225060242 1.0015058602997928 0.0006748467927066
1.0018649482272024 1.0011018870082995 -0.0002894159963878
1.0014699602988055 1.0014201592405727 0.0003767911856905
1.0015078543367786 1.0013521959454079 -0.0002730392666004
1.0014966483734893 1.0012578638470082 -0.0007491001586763
1.0011819490679590 1.0021420777800738 -0.0004790886739050
1.0013510625625666 1.0012990603741085 -0.0014941443688771
1.0014396191809947 1.0013882466522954 0.0004338142254196
1.0017075880639399 1.0013980008273815 0.0002137892323769
1.0020348033604509 1.0000508983135055 0.0003277615779419
1.0027203229668118 1.0006943077373194 -0.0038293143053601
1.0017534497874958 1.0012060740179316 0.0005130089372570
1.0010672834654692 1.0014319371367653 -0.0008933801596820
1.0018804774716181 1.0006619813947528 -0.0002615360682319
1.0015866450093311 1.0013139372268121 -0.0008554214802650
1.0048936713408965 1.0000158777703891 -0.0030492665716873
1.0015237600680331 1.0011113423239659 -0.0018104240168597
1.0014652640053003 1.0014010537318119 0.0003882702509790
1.0013226927252061 1.0017319483835276 -0.0001922619049649
1.0017098114966370 1.0011342039454003 -0.0013835122551037
1.0016260737713765 1.0011124871494932 0.0012227844584082
1.0019226848811229 1.0011017338095922 0.0012718254480752
1.0015554827369109 1.0013399492715334 -0.0002796338691280
1.0014653032797267 1.0014328567121884 0.0006496803026507
1.0014221434701469 1.0011617589456654 -0.0017232435272819
1.0015390238511714 1.0014791441422759 -0.0004386693033117
1.0013728273981841 1.0017869016514245 -0.0015998894545973
1.0015713416190943 1.0011544880054770 -0.0008040494017328
1.0013026252906079 1.0012825659636269 -0.0012386925147682
1.0014461843182123 1.0009616259063707 0.0004610165779070
1.0013266220603163 1.0018595836264073 -0.0004309369955345
1.0013407542120432 1.0013815849113563 -0.0001838334878094
1.0011117413733690 1.0022520132593831 0.0006364248521366
1.0024825813740341 1.0015242452469473 0.0052469314222939
1.0012383037114945 1.0014016493207432 0.0004324876964316
1.0013900535181497 1.0011575664202710 0.0001643894651367
1.0017760298100555 1.0013243448903379 -0.0006814123670711
1.0013265154025537 1.0013816877715311 -0.0003687556547520
1.0012936734814915 1.0018468272679029 -0.0008462938172801
1.0016769197722906 1.0016224088586827 -0.0007035841986090
1.0015011616812088 1.0012265326823411 0.0006851461873533
1.0015231590950908 1.0012515252156240 -0.0008693629074745
1.0013119454883872 1.0019161364949927 -0.0013392664138522
1.0012774158804441 1.0013102440254202 -0.0010443059834299
1.0013349418094237 1.0015221887131460 -0.0016803333305212
1.0017396867901980 1.0011435252086924 -0.0010082192690481
1.0015538344207420 1.0011178120739423 -0.0007408126981720
1.0013374714246337 1.0013605136930863 0.0012476833877450
1.0015368467724644 1.0012723817836755 -0.0007504812195384
1.0014374670465984 1.0013173976221503 -0.0006203202372506
1.0012377383128543 1.0019591415984095 0.0003739152353664
1.0009598783247302 1.0015419567233788 0.0002100455336163
1.0014427430678003 1.0017162399122355 -0.0001805653811512
1.0020124451450201 1.0010141756140611 0.0002603184732485
1.0019877848096936 1.0001716076707881 0.0019991400145126
1.0011075394568090 1.0016623611547177 -0.0034800043073982
1.0012829922117501 1.0018953642405570 -0.0001613819616460
1.0012196033756517 1.0018350240217926 -0.0009999241891150
1.0012059214834312 1.0014347926931975 -0.0004325976365099
1.0021889512031670 1.0009278485032371 -0.0017958629840580
1.0011904990347058 1.0008153482382425 0.0010205159137794
1.0013365910274075 1.0018578884688349 -0.0012184351458728
1.0013856323405776 1.0011372149100850 -0.0017256875134591
1.0018793802212205 1.0011430790551861 0.0006294823206409
1.0014757468845981 1.0012269495945290 -0.0008252015495787
1.0012786996346850 1.0015877551829522 -0.0015496899394539
1.0018061159579221 1.0007859203791645 -0.0001100390164701
1.0016764326587084 1.0015245787823353 -0.0001029148209081
1.0016858470197370 1.0010191925471645 -0.0012494407866054
1.0013825950342821 1.0011895279137968 -0.0016971342820378
1.0018894083548493 1.0005961164061792 -0.0001735668176466
1.0030079228726689 0.9999957938801782 0.0026315918746174
1.0015923128960298 1.0010234656797945 -0.0008084748382886
1.0018347022726419 1.0012218972310711 -0.0008022242550458
1.0015537189728170 0.9998937055975992 -0.0018722497894516
1.0016172917008963 1.0018042881073970 0.0012038025384148
1.0018855360010148 1.0004428370955682 0.0018305111343038
1.0007360127217277 1.0008854199557380 -0.0030636159692914
1.0018480745283391 1.0008368424327563 -0.0017840314766989
1.0016637283060528 1.0012810827651137 -0.0009035166140757
1.0016128479121964 1.0010760715998084 0.0002290385294944
1.0052368083958638 0.9999754428640527 -0.0065163464340393
1.0018690764113498 1.0010819123648584 0.0003041328776634
1.0018124917709574 1.0010062761058098 -0.0004840509699915
1.0016843033068517 1.0013006913535771 -0.0008196475684962
1.0018056846990564 1.0011834744291244 -0.0004932949457686
1.0019164451843510 1.0011678337302550 0.0003405630959350
1.0018874440746868 1.0008665288741541 -0.0003082793412545
1.0019600011566909 1.0011685811061997 0.0006553519454476
1.0019546961523247 1.0011273072167148 -0.0001433339201581
1.0015953298097469 1.0015983906539137 -0.0007118116051482
1.0016360332767824 1.0013967121639629 -0.0008382524725648
1.0008442394712145 1.0013450530471595 -0.0008923674509357
1.0015114500756732 1.0016101124657855 -0.0014201788965017
1.0013694145657173 1.0013172141785587 -0.0008764946867886
1.0017655674444588 1.0008979725808542 -0.0002691188579474
1.0016539323755966 1.0011340087273704 -0.0008036100993705
1.0015234717222941 1.0013212566011831 0.0004296545215657
1.0015962155984921 1.0012648953926317 0.0007004586446740
1.0012090948462193 1.0013424764244943 -0.0009554722209138
1.0012342944011179 1.0004230350162286 -0.0033159357153023
1.0015965726035312 1.0011503743460242 0.0000065206118270
1.0014525503048042 1.0011900246628640 -0.0007861410012085
1.0014172902817817 1.0012606295786126 -0.0015086579807365
1.0016545927845888 1.0014973497579229 -0.0006427579586716
1.0012881706567507 1.0013942734234753 -0.0007761467423152
1.0018448730247282 1.0006827028935923 0.0000955086163309
1.0015608516842294 1.0012123386908898 -0.0014647813045477
1.0018267538568562 1.0016019744457658 -0.0011358717701799
1.0018600303024212 1.0003098866131090 0.0007453315673545
1.0014340696652255 1.0016446707770215 -0.0004562689196857
1.0014613971083981 1.0018181204955683 -0.0004576394521413
1.0019470845057274 1.0011275779824789 0.0007700471282266
1.0019735503949327 1.0011540309083085 0.0012148370804204
1.0019351427895888 1.0009133357245634 -0.0014376754615549
1.0015530661793688 1.0010950238564065 -0.0009789127980923
1.0023082699792596 1.0009735871793621 0.0034396443053280
0.9983643312212150 1.0001275697723861 0.0018734814512280
1.0015575981966129 0.9996460020654818 0.0038757808670440
1.0010944859752584 1.0013493206940243 -0.0015533544409394
1.0013977668666687 1.0013033028439098 0.0003517754814142
1.0056358141768529 0.9999934126420774 -0.0027043860209767
1.0015340448046546 1.0013164789486886 -0.0005917682289252
1.0014290155143124 1.0009684996243067 -0.0006921889691341
1.0012369176147256 1.0013520629720063 -0.0004664915092187
1.0006104388936028 1.0033071202334796 0.0014854189395542
1.0017317596063482 1.0013561233165778 0.0003853501881883
1.0016455805295981 1.0016232092113575 -0.0000657884565864
1.0015954277814085 1.0014232828891545 0.0003715114399482
1.0014827446491532 1.0015286858039081 0.0000156017294902
1.0015674798222431 1.0014259730703075 -0.0008308511900608
1.0015241540212307 1.0016754638134315 -0.0006180028884731
1.0013037541119145 1.0017575175675075 -0.0008033372311299
1.0015012982627389 1.0016038248546768 0.0046324599509762
1.0031001520263050 0.9999857221706588 0.0006411237433040
1.0013438025395620 1.0012136127366231 0.0010898372159527
1.0014190910104381 1.0017290949576363 0.0005366727407346
1.0007022016221496 1.0015367196510354 -0.0019619590146044
1.0022688533234445 1.0019138419332860 -0.0031331561985329
0.9994308065324647 0.9999316438809240 0.0000674881929074
0.9991539025035738 0.9999200638626461 0.0003788822023976
0.9991378284937792 0.9999264233674031 0.0003638760314736
1.0020917970524506 0.9986123811902774 0.0036063598543568
1.0015169390911853 1.0020405814410245 -0.0047036993909330
1.0009016919037046 1.0027133735560612 0.0001405637429439
1.0016325758268769 1.0014370553125855 0.0005578945770773
1.0016707653428667 1.0013062898610017 0.0002968577072231
1.0020194848323667 1.0009052563067933 0.0014332305260363
1.0018613338073792 1.0008264721285534 0.0001409046159263
1.0019416802725385 1.0006321182815208 0.0007604748570945
1.0016076978670052 1.0013225400698347 -0.0006998744556728
1.0019186333037602 1.0003772856125523 0.0013736932267518
1.0055349198511172 0.9999555682554888 -0.0070655809426821
1.0007574377424036 1.0009001996860609 -0.0002024123323026
1.0019419350791259 1.0012029331133914 0.0022767008385330
1.0019079705671230 1.0010207114891476 0.0003487445279698
1.0016435712681173 1.0011928190274242 -0.0007918715640814
1.0018768682113668 1.0005393126041413 -0.0005084777982442
1.0009015768510106 1.0007170354025849 0.0016212503270810
1.0024115869826176 1.0015418942396563 0.0044962111638181
1.0015689936690986 1.0012683321286626 0.0007529497349397
1.0006143985526241 1.0009017897423051 0.0031681435813309
1.0012057988543772 1.0016951666178253 -0.0058147838699966
1.0016674087049802 1.0010762215043825 -0.0009425192494117
1.0004524535853681 1.0019995434913602 0.0049738226342660
1.0016618296049491 1.0007518906286987 0.0015520780774306
1.0019776692527576 1.0014343347186101 -0.0011761769729405
1.0013630346637186 1.0016872838569084 -0.0013172744805611
1.0018917739695514 1.0004887320171452 0.0002869151190006
1.0013310940858777 0.9999817806469868 0.0024789435132005
1.0018327259732278 1.0000316592351253 -0.0041184826469926
1.0008576327307259 1.0014391087624168 0.0043882693039385
1.0014572665124160 1.0012662433101820 -0.0013977151839201
1.0010672345821896 1.0015106933901377 0.0006932706451255
1.0018812526298893 1.0004972893991397 0.0013783203454225
1.0017413274020639 1.0012284475214381 0.0011108061299204
1.0014983316643693 1.0014349524312642 0.0007664446916858
1.0024316284589545 1.0014720177269656 -0.0049581477900275
1.0015316546486877 0.9999697299937961 0.0001965724922613
1.0019583102860792 1.0004346216264288 0.0008401355444335
1.0031985183428593 1.0011185619892973 0.0023852950001155
1.0024691283771985 1.0015917626500903 0.0043740368231353
1.0019342302881959 1.0010831305687184 0.0000952387615506
1.0015253126321821 1.0013511708212122 -0.0012107482186242
1.0019648560432557 1.0003184917072545 0.0026919799914815
1.0017076458407235 1.0009918587217421 -0.0007888707238604
1.0019635252558945 1.0010562214624958 -0.0009369021303706
1.0032207224870715 1.0000059985940619 0.0039785255685291
1.0014473915146407 1.0015538061510889 0.0000173224323720
1.0017144698692939 1.0010397517674643 0.0000010499848905
1.0018758731748432 1.0005703837720912 0.0003601748209140
1.0050296464218167 0.9999627164349929 -0.0040504461316492
1.0015616565314485 1.0010355360127874 0.0023371783182960
1.0014532470959601 1.0011480067581842 0.0010878891696695
1.0015843251287468 1.0013317989740451 0.0004036503333639
1.0017019908966027 1.0007840531950625 -0.0016376461571156
1.0016441134538490 1.0011616455221233 -0.0018501911999958
1.0018616083343062 1.0010867000912076 -0.0005394976651864
1.0014164109686683 1.0000987421775225 -0.0007866559480724
1.0016947751491259 1.0010464271206430 -0.0018459215123789
1.0012480293138153 1.0013891753514488 -0.0011055118447328
1.0017123101155965 1.0015835664331023 0.0033286981319936
1.0027391965656918 0.9999984085460220 0.0013493848511012
1.0014540346783605 1.0013777054029342 0.0004344757035787
1.0016707274515946 1.0013308114326067 0.0034882429762220
1.0015191742483962 1.0012937258877301 0.0007413454908577
1.0016521036525659 1.0007832898265654 -0.0004943862825178
1.0017250289445780 1.0014965907348379 -0.0040711588673625
1.0015494021953495 1.0013809413580974 0.0018776250191738
1.0015759897999248 1.0013347719866039 0.0004095866561153
1.0018678491163124 1.0004276309764459 0.0017586071540301
1.0019699444878856 1.0012416169154752 0.0018800455836806
1.0014808317198898 1.0010328708057001 0.0002300731048005
1.0010288865713968 1.0018253791807428 -0.0047100718797611
1.0008026759093549 1.0001199687956837 0.0012823852028886
1.0019664879407448 1.0001272124135501 0.0007161606466805
1.0014376897222910 1.0001031765625907 0.0006534477603655
1.0009969778989898 1.0001413917776323 -0.0037975131180987
1.0020053270078702 1.0018004372169436 0.0012552641084204
1.0011914084149034 1.0019278391893875 -0.0004324871236490
1.0013790783471768 1.0013674634149561 -0.0001111960421594
1.0019124623586546 1.0010621335632846 -0.0007296248655653
1.0014531493509842 1.0015688915503576 -0.0014510060775249
1.0030682412906367 0.9999653652071698 0.0013199562597355
1.0014752513733913 1.0013074985822867 -0.0019787660539666
1.0019445119262702 1.0004239435137199 0.0001605272786279
1.0008586876838721 1.0012745901695044 -0.0018288468442600
1.0015979534688557 1.0004794538326263 -0.0015574105513357
1.0033659115857734 1.0005399337829730 0.0001110771342558
1.0016136221377505 1.0008071845607747 0.0015518158332649
1.0007574377424036 1.0008258950971567 0.0017736343544557
1.0012816395893729 1.0012869545522201 -0.0022071907253855
1.0010077438072096 1.0013297759698294 -0.0033819903214839
0.9995441244279551 1.0001006562373225 -0.0013956347174399
1.0020046702371970 1.0009868180524786 -0.0008733249650054
1.0014815665805548 1.0010554847939210 -0.0009136863209670
1.0012897948135127 1.0014229116514393 -0.0007907509021953
1.0013572314960613 1.0010219836672301 0.0036896401780031
1.0014491543916997 1.0014554731630929 0.0004719193678692
1.0014683163364630 0.9999817806469886 -0.0025744290326670
1.0014160516962463 1.0014993505944287 -0.0007706404938768
1.0018677897721202 1.0009711387112181 0.0012523011034244
1.0030512123882269 0.9984700993705206 0.0027854100264503
0.9996466663604084 1.0000519974821915 0.0004934633267919
1.0013808812565412 1.0016613000570302 -0.0003695348300561
1.0015697130518504 1.0007015503984091 -0.0008452405397804
1.0012668568131537 1.0009976567794556 -0.0040991395258187
1.0019645367722561 1.0002019910366282 0.0003819967394803
1.0005608989351309 1.0014903018143859 -0.0015957276010740
1.0018252282422839 1.0010528120699083 0.0007840722011373
1.0013043764156204 1.0012237901821259 -0.0017397106698906
1.0011496037660808 1.0022599818747637 -0.0017775394849342
1.0013342573106907 1.0016400117103210 -0.0000552016299146
1.0018671665267951 1.0006027281462506 -0.0000719869379248
1.0017381250197488 1.0010319169103068 -0.0011438122356259
1.0014265083307301 1.0016368201909682 -0.0012130887226290
1.0014120901458601 1.0016748639304967 -0.0009698289091402
1.0015638458704761 1.0008680753273309 -0.0009831166388015
1.0017549038728417 1.0011112840062457 -0.0007052990063910
1.0009149210146426 1.0023594559185487 0.0010871651427405
1.0013364857161924 1.0017279559738284 0.0001236710415027
1.0013418263686371 1.0017687125659964 -0.0003680442394772
1.0013441914298080 1.0018221724045606 -0.0018943442743913
1.0013259644417198 1.0014741043362105 -0.0000111616955366
1.0007610069815278 1.0008719018705186 -0.0013842343756011
1.0026503873871935 1.0011178819106035 -0.0006840404939431
1.0015108488105788 1.0012779096421651 0.0019649167978073
1.0016274262915132 1.0012417727899086 -0.0008667116738778
1.0010283426403872 1.0022177404154073 0.0019426701394671
1.0012593323200563 1.0011924710590276 0.0010052761194099
1.0014356896207164 1.0017105362666918 -0.0011081966212993
1.0019203771768046 1.0010643289764898 0.0003740010640589
1.0013675468635530 1.0014192119262053 -0.0005732444418430
1.0008423258973027 1.0015474212761095 0.0002623417156652
1.0015201749319751 1.0011579411536082 0.0005578229901278
1.0019611114577196 1.0010736597801537 0.0007299301346547
1.0014459675552250 1.0013502480000891 -0.0001906030772651
1.0016139235527548 1.0013413280466306 -0.0005186215484970
1.0013704448552880 1.0016463663850199 -0.0017398691697982
1.0018234560332249 1.0004777441720756 0.0020833514475172
1.0002014590122690 1.0030837946011391 0.0023746892702773
1.0026213045935555 1.0005914830661669 -0.0039957625447793
1.0016056652119423 1.0015100183074295 0.0002724755386685
1.0015478919288752 1.0011812581779054 0.0007771684516176
1.0014559704360730 1.0014710374195475 0.0004188742801368
1.0021297236774884 1.0002740740474725 0.0018827249246226
1.0018110281102242 1.0016406773508799 -0.0036872047577401
1.0013239562221872 1.0000586584699320 -0.0005228138068157
1.0014353356582828 1.0013310540648763 0.0006826601905182
1.0013828276761956 1.0013241106939819 -0.0010462725465711
1.0013900880640496 1.0014196071606252 -0.0003548615954407
1.0014043557255967 1.0012422307770017 0.0006121422121665
1.0014164547221114 1.0016402945319736 0.0006855200043746
1.0024211875175559 1.0011323612208813 0.0005502355858697
1.0016002476298036 1.0011274282893783 -0.0006700833608219
1.0017983081878512 1.0010762328893912 0.0008424681037721
1.0012346102160476 1.0017607975548815 0.0014692631361741
1.0016199165744917 1.0010826473689338 -0.0009633897306839
1.0019001702117012 1.0011233098416203 -0.0014081557014021
1.0013596969855354 1.0017511389938509 -0.0004049311074990
1.0018936022625136 1.0011064976183537 0.0002033332933000
1.0018689023191008 1.0006156814506377 0.0008575576466580
1.0017901022018145 1.0012078846368275 0.0008234217097906
1.0016255662206708 1.0009769542707887 -0.0024719798456388
1.0004745762790763 1.0016019622272130 0.0046385647417514
1.0016898716420410 1.0012362878743970 -0.0029957232109986
1.0014382877861219 1.0013582777694425 -0.0008579465979061
1.0013571551806810 1.0014220800454341 -0.0003581444735498
1.0014509685556214 1.0015705225599318 -0.0010613342650052
1.0016396878533305 1.0025456942069140 -0.0038019154283025
1.0020092535916509 1.0003046786142449 0.0001191933475357
1.0017824035515113 1.0008062262977442 -0.0007156648834092
1.0015722180689026 1.0015626960473540 0.0001753089283415
1.0018380176730988 1.0011398719527236 0.0017154779596120
1.0014728956858379 1.0015801336191232 0.0025517682120639
1.0014584075448310 1.0009637204892343 -0.0021216436207454
1.0015119621307846 1.0002768525369532 -0.0011318025367687
1.0006647185342223 1.0000629175824716 0.0012205703535494
1.0014421039499397 0.9994881465648644 0.0043380905119133
1.0013441532405256 1.0018028839789785 -0.0014149297681352
1.0017568709226052 1.0008911228661908 0.0002815350437555
1.0017929128984218 1.0004059913778340 0.0042360823567105
1.0020079733916438 1.0004175462556009 -0.0008066698872106
1.0018779749555504 1.0012878914181607 0.0002137625995161
1.0012226268687876 1.0020235277768506 -0.0011330038534654
1.0014241712710881 1.0005100632259405 0.0011158743580099
1.0059222784583304 1.0001905136137956 -0.0040051876985374
1.0015205034775265 1.0006873138384704 -0.0019942856383104
1.0017032210344683 1.0008353154673917 -0.0016494512365137
1.0014518444091123 1.0004852108746973 0.0047281025271176
1.0022126437302348 1.0011182621825023 0.0018256815564868
1.0014736520937697 1.0002326982118914 0.0001116099053669
1.0022667897797004 0.9999921271326569 -0.0045655498891136
0.9989787388827733 1.0001983971893722 0.0012363738308081
1.0015054706279289 1.0012917614718759 0.0003435613807576
1.0012772506954941 1.0027773315783313 0.0012240737084205
1.0016195335463858 1.0000705771787126 0.0015840705696934
1.0018840782487723 1.0004335537282223 0.0006937804022474
1.0015879255617375 1.0012169797005499 -0.0001690777641743
1.0037015053084202 1.0007323743141348 -0.0017563098162841
1.0016557078153505 1.0005852422753450 0.0015438132213562
1.0018520178086610 1.0000939327306091 0.0008066495023179
1.0013096425902357 1.0001031537609355 -0.0014754938153270
1.0018449628265671 1.0013419604927984 -0.0002491091520451
0.9996656235177364 1.0019850956208927 -0.0011551065376442
1.0018699201146724 1.0004002493462583 -0.0005255535421431
1.0018397045638947 1.0010913106559187 -0.0005423754465981
1.0017445947278323 1.0007372882216374 -0.0006319508156159
1.0018610468121902 1.0006525509267501 -0.0010206849103879
1.0014576690028982 1.0015997730385851 -0.0014406199382404
1.0014572083190802 1.0012001407244548 -0.0016256281236528
1.0013133072075071 1.0012233818785308 -0.0018753203163345
0.9986598242145204 0.9999585026055050 0.0002705179067834
1.0022617590887999 0.9976342326870781 0.0033324038826929
0.9981217225346627 0.9999708684178674 0.0001674667964126
0.9981895776407391 1.0000112681264706 0.0002257890824777
1.0019151970459799 1.0004065468380168 0.0006433075388606
1.0026402087925603 0.9993074808247108 0.0034488229012250
1.0014200814728427 1.0013092513345356 -0.0011563710566761
1.0019589645499694 1.0010500099661563 -0.0001676766061882
1.0015033434424403 1.0009453782381874 0.0036540115299082
1.0013460792542470 1.0003436369547489 -0.0000556219724145
1.0013515072363666 1.0011871705526143 -0.0014189627828630
1.0008993332910749 1.0026797987134304 -0.0011658628185123
1.0013406034246297 1.0014685557325680 0.0001487105500301
1.0025320647277585 1.0011234622385283 -0.0015351530580742
1.0011893930845921 1.0026045086974258 -0.0015984968156830
1.0015866536782911 1.0013679457878921 0.0008103128366680
1.0015140409687262 1.0015523444550087 0.0005388724595331
1.0015795537910055 1.0008668034199004 -0.0019235611857667
1.0013743594613611 1.0010209050696517 -0.0002826217549837
1.0016144196445695 1.0012540636169949 0.0008471286637512
1.0013843016956618 1.0012197362836823 0.0051263964711637
1.0009764702513895 1.0027247107707633 -0.0013152375906423
1.0015488663739811 1.0008583655760492 0.0002453803873334
1.0020966012421064 1.0003659773248701 0.0005360346240327
1.0031413253634436 1.0007873446047586 0.0036365576278629
1.0040215353413044 1.0002216859838478 -0.0025701136253123
1.0010406757926849 1.0017566414629835 0.0022883120316522
1.0023086844495135 1.0004341958331200 -0.0014744178234109
1.0022597945202112 0.9999503805226320 -0.0016775575889416
1.0013923436547865 1.0015441954773405 0.0023763589916737
0.9995939884084262 1.0001401206687357 -0.0015757069558498
1.0010350373449266 1.0017606087979813 0.0047162592656256
1.0018202272445027 1.0005573682114690 -0.0009900631838858
1.0014285659700608 1.0006191913180096 -0.0005885942168442
1.0018557528703960 1.0004643901915362 0.0013777530033141
1.0009375466925878 1.0013824313542266 -0.0010589734010681
1.0015432310201626 1.0003777225195549 -0.0012278035765491
1.0005658911427440 1.0034976148447383 -0.0011366652112328
1.0012507732642555 1.0014690266742596 0.0004186515553807
1.0007940037291061 1.0002064141615457 0.0016734380566225
1.0012210381851032 0.9996624733091900 -0.0021663305281202
1.0010612370181624 0.9997653694913917 -0.0019125167279695
1.0006882802486963 1.0002252569635621 0.0016462016026500
1.0008033065449720 0.9998518473780827 0.0023003490890329
1.0007334108006865 1.0001209322032469 -0.0017929035187693
1.0007078673546228 1.0000742085209517 -0.0016389435763250
1.0011694066667205 0.9997401052259988 0.0022205365262703
1.0015705891002127 1.0009835942083978 -0.0000404903440737
1.0021294347126890 1.0003920955618235 0.0016123177969939
1.0015736195881966 1.0010370628114029 -0.0008831916935540
1.0046841169371614 1.0004888220181389 -0.0025408080784532
1.0015443324469124 1.0014586379519566 -0.0007945020609563
1.0014339857401995 1.0011029634026860 0.0016992335202443
1.0007948271553868 1.0034221736716107 -0.0034501457459132
1.0015951008629205 1.0012176283851635 -0.0007020367393785
1.0014066896795317 1.0016959581222604 -0.0008424564056790
1.0019359823264358 1.0010777205141681 0.0042218732834474
1.0017061320341243 1.0009414473404101 -0.0011931363653459
1.0009568099462947 1.0014500732856937 -0.0024252752299840
1.0019813255763161 1.0000348720371672 -0.0000886768145606
1.0018300229800714 0.9998806343738401 -0.0005527771486006
1.0006538162389014 1.0020353253294798 0.0017764171395320
1.0020937988897429 0.9999554958111531 0.0005106435202754
1.0013847924624555 1.0014133080036420 -0.0007570741640589
1.0008513835010910 1.0016444915351979 0.0017631635566085
1.0015193867129613 1.0006152286638430 -0.0002775344245104
1.0015156570840946 1.0006698653301536 -0.0006381743150902
1.0014491447579870 1.0013324837901116 -0.0010258559689946
1.0021227179440451 1.0011791673638206 -0.0005993315908049
1.0010918444158188 1.0009508354678687 0.0004683026488064
1.0022033679293456 0.9999999720164433 0.0012945757400534
0.9976783993168419 1.0002839572752589 0.0006032092416601
1.0018049428663836 1.0003437193201130 0.0008451193374281
1.0022088060641217 1.0002377602511321 -0.0015940134032366
0.9975708072970982 1.0003748664717977 -0.0003307216313866
0.9976492943110641 1.0003801885220209 0.0005560617930932
1.0021750921233070 1.0008213560961809 -0.0031460845346965
1.0022960679000565 1.0004289713936476 -0.0021089017320287
0.9976074389566559 1.0003377871806696 -0.0003253029356212
1.0023897429708146 1.0002950215333763 0.0022123079709321
1.0019359857200727 1.0024175073258810 -0.0033926411021499
1.0014791800859073 1.0008346685313680 -0.0019034295630908
1.0014311221126098 1.0016258729560898 -0.0007221048589191
1.0020803627117141 1.0007930497417861 0.0009490791099348
1.0031246851637696 1.0009680841571449 0.0007422495562265
1.0123071039635687 1.0001892069123492 0.0016265984303485
1.0018642083357896 0.9996218053541954 -0.0021191021269128
1.0015571528970184 0.9999272894151767 0.0011202785819216
1.0017616954985573 1.0000317505563614 -0.0015220899954764
0.9973444776091051 1.0003617364921635 0.0001668488480668
0.9974195509218948 1.0002966869311343 0.0004263999889580
0.9967228281563202 1.0004204689132279 0.0000887065472805
0.9966758302878387 1.0003757996735758 0.0000046563640507
1.0021243642409983 0.9999388261578395 0.0026715415749736
1.0020286526376552 1.0010568317681017 -0.0009119608868905
1.0016289009687860 1.0010534350824112 -0.0022177169082189
1.0013753512914962 1.0016429109010421 -0.0008542232826514
1.0024720077441136 0.9999984085460220 0.0019678611721500
1.0009349712635696 0.9995614907190965 0.0055759617900726
1.0011075394568090 1.0003633835820425 -0.0036872767399836
0.9995976462249921 0.9999501559823852 -0.0047612729859770
1.0015717123918861 1.0013045798451710 0.0006110011599553
1.0016509649050633 1.0013185414586030 0.0006642371949721
1.0020866349211508 0.9999857221706588 0.0012863172535479
1.0025003709295175 0.9989950633697887 -0.0048895493977087
1.0017250289445780 0.9992380008014599 -0.0039821775005467
0.9992302767246406 1.0000285639707358 -0.0041297275615605
1.0011188461518035 0.9988409738626551 0.0057447649366761
1.0022432961076535 0.9999690066627833 0.0011483138684961
0.9992501055863267 1.0000158777703891 -0.0042111290859579
1.0024115869826176 0.9999457104342502 0.0039096964045314
1.0011397672556313 1.0001560752758796 -0.0009952414264724
1.0014152129292497 1.0001200926290117 0.0004192790841057
1.0013190403089502 1.0009735539921749 0.0032253619647203
1.0014169130488373 1.0008302713565211 0.0020219639133347
0.9996786577452639 1.0051435370459336 -0.0012483938194985
1.0014173546902907 1.0011824371441822 0.0006792790154972
0.9966758302878387 1.0002440848583896 0.0027020228577447
1.0024325190336176 0.9999388261578395 -0.0025894892698795
1.0014885256930781 1.0000317505563614 0.0009679079057234
1.0025490680105043 0.9999272894151767 -0.0019665256340333
0.9973444776091042 1.0001952632587803 -0.0019293643910690
0.9974195509218948 1.0001800969401924 -0.0017029086138414
1.0023057767654393 0.9996218053541954 0.0022904137694043
0.9967228281563202 1.0003083787517644 0.0027374622316290
0.9976074389566559 1.0002172989001574 0.0013703613638628
1.0019846477465815 1.0003437193201130 -0.0015999844368796
0.9975708072970982 1.0002608087848588 0.0013769871463777
1.0017655175107067 1.0002377602511321 0.0010829940185836
0.9976492943110641 1.0002595852516338 -0.0011885969002387
0.9976783993168419 1.0002296719041692 -0.0010125824277158
1.0018189712628764 1.0002950215333755 -0.0021113545200783
1.0017145788745891 1.0004289713936476 0.0022345319772262
1.0004351313373949 1.0013613240795556 0.0001380853512269
1.0017204686257446 1.0007172528363240 0.0012926341877229
1.0016947004271406 1.0008076319963921 -0.0049287665001121
1.0018096401276373 1.0006131007515437 -0.0054852883008811
0.9991401158273022 0.9999921649218212 -0.0038501835232812
1.0023206090340782 1.0000065458138521 0.0003411355309890
0.9991901655784114 0.9999934126420774 -0.0037097851718174
1.0020391286065622 1.0000421620399826 0.0004730169101378
1.0024316284589545 0.9985894057289848 -0.0043863934824978
1.0017913408959613 0.9988401037315596 -0.0037649991299415
1.0009762877175712 0.9988323071820958 0.0062522853325791
1.0024825813740341 0.9990828333159218 0.0047234263443076
1.0021921305454242 1.0004532665995467 -0.0020258008838545
0.9977291888953683 1.0003074110713157 0.0009921307074814
0.9977291888953683 1.0003261359550748 -0.0008167169065826
1.0022728477495615 1.0004532665995467 0.0021759448114450
1.0016522421159209 1.0012981509658492 -0.0018233353526877
1.0019754000355618 1.0013690981735175 -0.0016360681117473
1.0020908206127315 1.0023667363888438 -0.0062870492726603
1.0009517828576218 1.0034186802967693 -0.0026078293022826
1.0017017663596559 1.0012475072462568 -0.0000113276496513
0.9999235957016289 1.0032181397721587 0.0023472191895647
1.0018559927557724 1.0003788461941934 -0.0006951372671708
1.0022215510514640 0.9999957938801782 0.0027942856835748
1.0013676983677904 1.0002084755101257 -0.0048969405229490
1.0009817834545913 1.0000885239974562 -0.0042789719523120
1.0021824831903046 0.9999694529357128 0.0030727816591915
1.0008576327307295 0.9997383825503058 0.0050431677862309
0.9998740880572731 0.9999419889270996 -0.0057706395646205
0.9998881768971224 0.9999297161702274 -0.0054729012240220
1.0015012982627389 1.0001381888836649 0.0049290365069195
1.0013309244116817 1.0018705398360996 0.0007308126611758
1.0018556483851464 1.0000863501515873 0.0003486983881604
1.0023375876341578 1.0027011686579170 -0.0055902938391396
1.0015718956766360 1.0015897711364017 -0.0013757307475287
1.0020996205356427 1.0011994207570767 0.0004912507891621
0.9989206902486666 1.0001928220642653 -0.0009104254001281
1.0021941807293822 1.0000751156922050 0.0046614023023010
1.0017881657056236 1.0009898157327024 0.0014658245394255
1.0011944856811628 1.0009869672274783 -0.0016783763182271
1.0016157698214136 1.0000790301827978 0.0005999505327947
1.0012960115456677 1.0007389610030633 -0.0013181541038136
1.0012280741945550 1.0001083862728593 -0.0009845023237473
1.0018126783485870 1.0004390321899277 0.0020819333455457
1.0014647636252207 1.0001370755766532 -0.0003798791598521
1.0008219563047260 1.0005859623893554 -0.0010830154496598
1.0005864004581497 1.0028085345017046 0.0017529928009042
1.0015031858923769 1.0001318388710703 -0.0000058522542811
1.0026522143635463 1.0009065713486138 0.0000415448106222
1.0018563358524990 1.0013566618356722 -0.0024157601657837
1.0015546522132548 1.0007673708649634 0.0005370771236753
1.0019899066023457 1.0007685254312124 -0.0009430976158692
1.0005268411412276 1.0023832942443580 -0.0056824994686166
1.0015867167411221 0.9998072977123835 0.0028724914349244
1.0006661031468529 1.0018639475344246 -0.0049755454922797
0.9999735043806558 0.9998172065202311 -0.0027240305776784
1.0008288531306051 0.9999060137962668 0.0048666695169874
1.0015642631687713 0.9998262796540870 0.0028682507554794
0.9999393961137507 0.9998392261937135 -0.0024994490442192
1.0005228984646521 1.0022529425732325 0.0053453223195308
1.0010180374008020 1.0002956469879218 0.0026021397105369
1.0006771655749791 1.0018296403609184 0.0015733943978173
0.9994415280819059 1.0001316683754260 -0.0015535495839158
1.0022060639356467 1.0002755747871144 0.0035202774323379
1.0121854859774067 1.0003063771625407 0.0024582447797674
1.0018630770300745 1.0008974533247768 -0.0006269015641961
1.0010206311484457 1.0013633162830482 0.0030951752868476
1.0013991616660889 1.0013287863640814 -0.0009277449277549
1.0015950177730963 1.0001231159586637 -0.0000666756489084
1.0017258380963154 1.0004905103768764 0.0016806224188458
1.0014017442728476 1.0010019438521929 -0.0007953698656898
1.0018435370974104 1.0005643235967974 0.0012678531004986
1.0017139796606476 1.0010720182466775 -0.0019807467018888
1.0017981869621491 1.0002555325301328 0.0015497812029887
1.0016843809311498 1.0006586130796216 0.0028789846332279
1.0026042226622154 1.0030666120558391 -0.0043908013483577
0.9993815604871861 1.0098615263465147 0.0001516324226365
1.0016571680773088 1.0001004448862796 0.0038756112890324
1.0017403735099712 1.0002213872943722 -0.0006351936292133
1.0017533978931144 1.0001465650110104 0.0003172396859145
1.0018153747031429 1.0004336244636518 -0.0014844331500783
1.0014060356501024 1.0003408858612222 -0.0013865363929873
1.0014215390106043 1.0002299650895732 -0.0007142757641780
1.0020851987710120 1.0004042981936661 0.0016481890617024
1.0011725746236504 1.0007054950174485 -0.0014087090140777
1.0010804924832917 1.0009426883370891 0.0019048375790580
1.0015097015479582 1.0009241903170727 -0.0016493511371097
1.0046584968010845 1.0006276596613568 0.0037538015948144
1.0017073836688732 1.0010624724230242 -0.0019262363474250
1.0020203324373527 1.0003033060789039 -0.0001794380932485
1.0022097834601540 1.0012030335150455 -0.0000195900215466
1.0017372483841136 1.0006542705061841 0.0000737186956703
1.0011559210091545 1.0008834037111571 0.0026285951139442
1.0015769965099628 1.0012358587522820 -0.0007034822560440
1.0020318238420500 1.0002126173611456 0.0017234737757167
1.0017506361718855 1.0011678807494628 -0.0002217857935415
1.0026261174502509 1.0006690586116833 0.0011345922033457
1.0013713624859026 1.0016904845875816 -0.0006166005674291
1.0029095638246455 1.0000059985940619 0.0039812513404295
1.0012057988543772 1.0008233389890102 -0.0051774310632441
1.0010025526289792 1.0006875957614840 -0.0050296834024807
1.0004524535853681 0.9994986703639216 0.0055921244243150
1.0028891810249827 0.9999872949347383 0.0040589519247249
0.9989479526737289 0.9999555682554924 -0.0071511736434262
0.9989564875028667 0.9999754428640527 -0.0066908515138268
1.0013366768264149 1.0008846831652083 0.0046441979722478
0.9990944191901211 1.0099208248594111 -0.0000657109154437
1.0008806299952409 1.0014788882691352 -0.0004686813940237
0.9999277145475350 1.0000440528121963 -0.0009384047076947
1.0015881806462690 0.9998031977443995 0.0040399707936324
1.0006195688384221 1.0000095079807729 0.0010558948069370
1.0010249554247308 1.0014411417901299 -0.0062571348523825
1.0013361176820854 1.0010032325263136 0.0023197666882692
1.0005868598679393 1.0034381065096398 -0.0005973033768027
1.0029416716029536 1.0011898844858473 0.0016772129169262
0.9987160744802597 1.0001697950609287 0.0017694311500705
0.9982833626334120 1.0003246381853779 -0.0013082730812171
1.0011497267185780 0.9978645209983368 0.0101423683145615
0.9982652205513761 1.0002801184618553 -0.0014676369009924
0.9999312635582661 1.0000138617332603 -0.0009313475311076
1.0008318791020796 1.0019237394573355 0.0079686485299367
1.0014496179675989 1.0000948316100742 0.0005645950507409
1.0011654255503664 1.0003272607761535 0.0026023966950215
1.0016117599903500 1.0001539778342496 0.0002370620266327
1.0013681748097660 1.0002153409522667 -0.0008162897319693
1.0019444179172510 1.0002165196812667 0.0017877451937725
1.0015020538580504 1.0017311573514869 -0.0006806820321049
1.0016914811750035 1.0004086137644173 -0.0003828731850365
1.0017661628865329 1.0009178940639063 -0.0010019396544683
1.0014619160666411 1.0002717101655014 0.0000867232868133
1.0027759504261384 1.0006031061609029 0.0003788126838315
1.0018496078175716 1.0006211685209874 -0.0043210276103596
1.0033422005296411 1.0000421620399826 -0.0001189721909570
1.0012790035518842 1.0018997094966950 -0.0014814832173314
1.0015583135606130 1.0010718727238370 -0.0010439734801673
1.0025908167681516 1.0010359461322189 0.0018803111479698
1.0014952619305000 1.0006119751130502 -0.0004694643814939
0.9991937062171461 1.0099481133349695 -0.0001653589310695
1.0028690456458851 1.0013784310079716 0.0016877960668791
1.0002455302433713 1.0018910758271180 0.0011422005967068
1.0017867332559116 0.9999267618561305 -0.0007255392500913
1.0003601716060937 1.0015396593157642 0.0019767649038906
1.0016340175395870 1.0014839102542270 0.0001877627880602
1.0019208574015710 1.0007674233253097 0.0035851580674157
1.0015169390911853 0.9998139640468947 -0.0047750770616763
1.0020481948938729 0.9999653652071698 0.0020736678704693
0.9996044450390092 0.9999627164349858 -0.0048670387776143
1.0013983785249532 0.9997223528980352 0.0049211985110239
1.0015830215318133 1.0012275202053889 -0.0013613407286965
1.0027006314159119 1.0022590461853460 -0.0059048637178583
1.0020619761661487 1.0001660954424680 -0.0010011651381460
1.0013841658336127 1.0010316867052476 0.0002625093028310
1.0010673724329637 1.0021593083209759 -0.0049209844219299
1.0013829010373492 0.9999413218779859 0.0016924598546313
0.9999984037491461 0.9999911560776547 -0.0019194813726386
1.0014079996312470 0.9998187875334691 0.0042602750162514
1.0011496874179415 1.0017272916598079 -0.0036960645241259
1.0013155603199519 0.9999815657609115 0.0017196505775287
1.0000278053878251 1.0000006639185155 -0.0017257612777949
1.0009898646064948 1.0021615144722813 0.0049486552964598
1.0019747068931435 1.0007339964794766 0.0016701362479562
1.0017086504010695 1.0000247100798938 0.0001809061862885
1.0011713316779836 0.9998792129920701 -0.0003573189397332
0.9990709941569308 1.0001454670920606 -0.0006882968491664
0.9990399487683835 1.0001245450944030 -0.0007266690054799
1.0013048627196102 0.9982960034511960 0.0077491514469239
0.9993631817388106 1.0001039235138252 0.0008331019990853
1.0016778554860724 1.0010658452325281 -0.0009156156315974
1.0022855129315325 1.0006759359262933 -0.0022864703456964
1.0125777143444568 1.0001876429488541 -0.0002817402701227
1.0019201422718724 0.9999782543511446 0.0043951160485572
0.9997175620320581 1.0068475533721366 0.0020797744089757
1.0017049998049317 1.0010105388528565 0.0010340694098643
1.0008974482079678 1.0023939856720403 0.0027691874121894
1.0019517900495996 1.0016702707358336 -0.0012095661594412
1.0015729307006163 1.0003149670187197 -0.0015357777598420
1.0004569514722692 1.0003562746679848 0.0014337012819343
1.0007955486087170 0.9999368036018755 -0.0007049063471986
1.0004910801544169 1.0003804776270571 0.0016761053124675
1.0006940542607612 0.9999500217118830 -0.0007139447244590
1.0020164446445126 1.0020668785610558 0.0040529029853938
0.9991718981420254 1.0074487488677319 -0.0024897132330777
1.0003922610457845 1.0030131729627403 -0.0007462788366486
1.0016560926221993 1.0003996089782630 -0.0050558795685728
0.9994458349308635 1.0071832406490893 0.0025966731512955
1.0024040636967331 1.0010462545327816 -0.0007344358850233
1.0014188107625539 1.0013498125731655 -0.0000961448990613
1.0019768908351845 1.0010557242286577 -0.0004952971604092
1.0025518858560567 1.0028046976154381 -0.0053544303701919
1.0029690651665797 1.0001503672069247 0.0012717561796232
1.0059532989721265 1.0001914744817828 0.0006849624350324
1.0028333220119248 1.0007955845987087 0.0010685110800210
1.0013770030898765 1.0020310516754320 -0.0026938536667509
1.0014770835235058 1.0002809725811768 -0.0033439165628641
1.0023713140950494 0.9996152453557434 0.0034505348072159
1.0135756681749835 0.9999223564632261 -0.0011029965449252
1.0006157440223606 1.0015334257875137 -0.0010149814809560
1.0018518095497861 1.0004835813321582 0.0007982401670279
1.0138139862542273 1.0000409969422186 0.0026428947110121
0.9993371846704833 1.0079285609171811 0.0010693678719494
1.0057830290960983 1.0002459828839461 -0.0012069286634011
0.9989578689634028 1.0021874796247010 -0.0018802588870196
1.0012773475724108 1.0013327532177489 -0.0012384997795219
0.9995926784834021 1.0075265867842624 -0.0005627813005956
1.0010143136460830 1.0001789117197946 -0.0024096754133538
1.0013140109519079 1.0005006998108579 0.0032632422736991
1.0005314392673377 1.0010913068202474 -0.0047276827497195
1.0020776326405711 0.9999333874655805 0.0038362210101552
1.0138629779188397 1.0000391568506730 -0.0016068451673188
1.0013640900899803 1.0014114245149208 -0.0007628702423451
1.0013998845319041 1.0016368824778115 -0.0010117737346059
1.0005210242514728 1.0001057559852005 0.0005446937460091
1.0018325141545297 0.9999176496587855 0.0004146787582489
1.0033267426781272 1.0012802824576648 0.0029560652865117
0.9998125116154283 1.0057515584156340 0.0034442240385927
1.0017265704354077 1.0016261370829438 -0.0010908790522688
1.0032783610193394 1.0014044608847632 0.0044964907264009
1.0009023954510903 1.0015420999242637 -0.0049203896382056
1.0023862185156855 1.0001974411905277 0.0041818139169941
1.0029528840751059 1.0000426145253805 -0.0049103811837361
1.0000546739879703 1.0013702161749989 0.0047444159304837
1.0024619686853222 1.0002079075319716 0.0041934087661545
1.0008907706593602 1.0011312907520367 -0.0048366650111879
1.0027706413530277 1.0000380418628267 -0.0045660434509087
1.0008867899792693 1.0013743827060073 0.0045796844624279
0.9990811411690523 1.0092943708095765 0.0011454411261449
1.0039240975549262 1.0008716481476805 0.0062720372593030
0.9993804670445881 1.0098630715791344 -0.0000284804714773
0.9992045713120089 1.0073406223384405 -0.0023721839010743
1.0007182282373259 0.9999379395763042 0.0007556970519486
1.0004689299581002 1.0003172388249011 -0.0012589429497416
1.0005005346742308 1.0003879214740732 -0.0013862972122787
1.0008104447454491 0.9999391449558305 0.0006867707084977
0.9968493554284670 1.0005510679541170 0.0004355906717177
1.0023314472228377 0.9984715297584440 0.0007206986891490
1.0028290188844440 0.9965362713529239 -0.0011829623138564
0.9970891860131074 1.0006650771444479 -0.0004276536599147
0.9963404755984795 1.0006605037171377 0.0004671573207418
1.0067213153340935 1.0000040978178952 0.0016982139369535
1.0121110051929809 1.0003130833970979 0.0008426103887590
1.0016670467155659 0.9996954705098670 -0.0022161877258884
1.0014547266870029 0.9998880207052718 0.0025839767631541
1.0017028934841341 1.0007142526031390 0.0003339500797173
1.0014385828600205 0.9984599819747800 0.0005642873645795
1.0015457524149010 0.9959171664927279 -0.0008063492972303
1.0020387366398600 0.9969554150864428 -0.0009212541980923
0.9963736420183665 1.0002998470667126 -0.0001847863256518
1.0024056795475884 1.0011280360912163 0.0000620937123148
1.0053906118272276 1.0002853253411992 -0.0002125843459843
1.0019081986309744 1.0004707336807181 0.0016608316942754
1.0019809820621293 1.0010470292011626 -0.0015621144423955
1.0081804889929786 0.9999928393704610 0.0056524159897577
1.0024203401335894 0.9963415210129049 0.0040713916418651
1.0073410597228771 1.0000483801708320 0.0045762050397343
0.9995846964428328 1.0092852665700187 -0.0117242632167151
0.9999246299837115 1.0074031413370612 -0.0095934193482991
0.9977180021027380 1.0002046995712128 -0.0023754491988353
0.9998694266596664 1.0049229054876387 -0.0030168204142555
1.0020050583720626 1.0000607492604112 -0.0022902955103321
1.0020027990935891 1.0008412225452228 -0.0028299134163532
1.0018545301920665 1.0001920362512053 0.0013475128432984
1.0021869789715596 1.0012153469651517 -0.0035607937977631
1.0009157322582880 1.0017753307300794 -0.0081321222985184
0.9996346876337600 1.0057109230160282 -0.0011718247667043
0.9935117231994123 1.0006417518048361 0.0025664638523303
1.0018959285396514 1.0012210358186855 0.0020452628752116
1.0056543600570742 1.0003566631897995 -0.0006844965785984
0.9988867396959764 1.0063225487655738 -0.0026165297785943
1.0004439717879783 1.0028433655036260 0.0022654110052579
1.0025882596392561 0.9967286089429304 -0.0014321976541262
1.0024907852451692 0.9967100748727151 0.0015075844430472
1.0029476148597978 1.0014620310722029 0.0030421957929410
1.0019137386063843 0.9998159186607301 -0.0004221910143595
1.0006392906249870 1.0017752784591809 0.0015971042223855
1.0020814572315753 1.0003142077137039 -0.0016433848344699
1.0021576536907875 1.0012018543952139 0.0005248776402193
1.0008940353235336 1.0022240267022311 -0.0031156938679342
1.0009446312987258 1.0008693538765772 -0.0048601329507302
1.0065347809572356 0.9999607124673557 0.0045591827226603
0.9996261820054532 1.0095202046974951 -0.0114827139047395
1.0019767440853300 0.9965766880274038 0.0035182448944308
0.9999767212074154 1.0073179886547636 -0.0093915176250663
0.9993172170294057 1.0091544015043346 0.0121085255115651
0.9971584148752736 1.0007798498093450 -0.0010323011242237
1.0030181156160194 0.9959755118233795 0.0014846798492792
1.0013828852467199 1.0014689555224998 0.0037533853249809
1.0004679473845020 1.0009541649491707 -0.0029501148969086
1.0010368795755156 1.0017948426388281 0.0027996452246910
1.0015445716123459 1.0007301526412760 -0.0015038983452516
1.0018125391281583 1.0010690713093271 -0.0011027641630990
1.0012970420922074 1.0016331689185769 -0.0001609064345627
1.0013499553114578 1.0004482490254079 -0.0000945772709551
1.0014000670320946 0.9998303512667024 0.0023942814563145
1.0022126479648554 0.9996222849886325 0.0019967375475271
1.0015853948533213 1.0013850786979750 -0.0020353903053944
1.0017861840867512 1.0005757255578080 0.0018548380165472
1.0027138779580880 1.0010437462061299 0.0001007359156298
1.0015054122849794 1.0000419750958300 -0.0000339289771740
1.0014991513522113 1.0013311435430454 -0.0006260920057731
1.0001396723687248 1.0009800220895768 -0.0038581335125253
1.0014232676937329 1.0001314147533826 0.0018353122178647
1.0011877437756895 1.0002235168619025 -0.0025178554406395
1.0008174142163402 1.0009760435184891 0.0042932491258487
1.0014464791751714 1.0001936529169249 0.0019109553789201
1.0012124407933252 1.0001662983390107 -0.0022775095604318
1.0001474915445472 1.0009195467726351 0.0039201336488781
1.0008523874881183 1.0010698499504562 -0.0020186956084661
1.0010141663027974 1.0014707497915296 0.0033733317739964
1.0009865499156902 1.0008441995699910 -0.0014829617705928
1.0015672140155318 1.0004122783322129 -0.0033968886136380
1.0018364250421457 1.0011448784306289 0.0012689693998213
1.0016585959635016 1.0013061392281160 0.0006545281156064
1.0017817232217385 1.0001260722702523 -0.0011147569900852
1.0016698513571982 1.0007649585180363 -0.0011922769464077
1.0010956421174151 1.0010300996961763 0.0019683901009408
0.9990017407655465 1.0000639818326311 -0.0003321198826380
1.0015317348140684 0.9988599945296470 -0.0023865275145516
1.0016829649752466 0.9991927657303920 0.0029677088691873
1.0020225807833907 0.9991920615748385 -0.0006234814503209
0.9968692219333785 1.0002476460470537 0.0000544980574861
1.0003171639175252 1.0007703744339165 -0.0049879691343011
1.0014357991557716 1.0000754738531836 0.0030235610108357
1.0012559527198281 1.0001205204429056 -0.0033788056999430
1.0014340874063834 1.0001550738797673 0.0030735096142324
1.0002706082076247 1.0010369732142521 0.0048242024819665
1.0005038997590245 1.0008182857261791 -0.0045055584507426
1.0002656700663728 1.0007564935245503 0.0046538803398024
1.0012034153874232 1.0001005445548832 -0.0031165597074059
1.0016338391467199 1.0006124617552101 -0.0006702712811918
1.0016813533397226 1.0002629660961309 0.0013231447556133
1.0023843528776082 1.0005096067351491 0.0018343426077063
1.0009662770096306 1.0007810941999584 0.0026592441020732
1.0018059456906929 1.0006010047341631 -0.0041497163360854
1.0015745841725170 1.0006627123159502 0.0031559133368294
1.0018705126931420 1.0012477754412497 0.0025200227929841
0.9997622412714022 1.0001038857236291 0.0008440199985773
1.0019953316879366 0.9995761010881222 -0.0049187415912467
1.0021164638638260 0.9986826223759563 0.0032991522679454
0.9995018035738705 1.0001812196757629 -0.0022111484198650
1.0007535203256910 1.0001510595841769 0.0009020087346854
1.0013842753809470 0.9987934769558906 0.0047842176976128
1.0014590730764785 1.0010812596956424 0.0009625602563201
1.0012831955019970 1.0018530798889214 0.0031513045683822
1.0006435154804683 1.0000100948170045 0.0011908318193941
1.0020604340005248 1.0010755256919561 0.0015289609385673
1.0020630507969608 1.0013443638749051 0.0055809079491249
1.0053085482051154 1.0003700874546391 -0.0026245550886829
1.0006509759105524 1.0015397094861502 -0.0005534523072788
1.0034122909573155 1.0009159547991082 0.0038921753823614
1.0015053455653540 1.0008469668816151 0.0040705987026572
1.0020826328141179 1.0008163150816838 0.0034678909603022
1.0010089599567089 1.0009658924170066 0.0043684849320114
1.0019668855209021 1.0001850183312293 0.0012304343608299
1.0019108214499073 1.0001155184796053 -0.0023994062003333
1.0018813531399202 1.0001815896566566 0.0013940234702052
1.0019234951175131 1.0008007733729574 -0.0022651821087454
1.0015944771405734 1.0016959436420814 -0.0004067100584421
1.0017722781533989 1.0013097963072286 -0.0001175807673949
1.0014588413480445 1.0015662080178400 -0.0031476409701012
1.0013142291577708 1.0001220642244470 -0.0004692031762553
1.0037706453509552 1.0006546106913454 -0.0035632293405950
1.0018680637554402 1.0004934546347313 0.0010349841495990
1.0017754927648792 1.0016422529206068 -0.0038188326003236
1.0023819868564918 1.0003009042354414 0.0025724179551789
1.0027751371223195 1.0001560185901457 -0.0038309074092282
1.0001369837427743 1.0017817761157572 0.0040173875823466
1.0023542234572234 1.0003525707275882 0.0028132002802793
1.0029593993061019 1.0000980573381715 -0.0034421441318951
1.0017937699671207 1.0017066877993781 0.0038095504234864
0.9989219536841598 1.0082887732499939 -0.0021204768764801
1.0008610295652136 1.0032681838798745 -0.0055797721843046
1.0013264076735855 1.0003755412585149 0.0017402829538800
0.9999623786821685 1.0032032458496336 -0.0028636575843661
1.0021700656138264 1.0000622846447906 0.0036124248351838
1.0009099542088993 1.0017428865779736 0.0044342544331079
1.0027302647805469 1.0008475253612112 -0.0003202814499667
0.9997739968483123 1.0000500208056662 0.0004349432351670
1.0026042619147446 0.9989978788730196 -0.0053322513883617
1.0027802563953629 0.9991804652820819 0.0029052955645096
0.9996406361818738 1.0000611252714176 -0.0003811516204400
1.0019683891982969 0.9993219698978858 -0.0041562277981074
0.9997639246556939 1.0000424644880803 0.0003871793236374
0.9996428284028063 1.0000688608794954 -0.0003849394138737
1.0026337999144521 0.9990257416130512 0.0052722276919625
1.0006498727253468 1.0020915339971015 0.0039614849464662
1.0017701259979097 1.0008659916420397 -0.0009544529537493
1.0016587070662144 1.0007821906576950 0.0017217407894055
1.0018352120640734 1.0010631331934012 0.0007346689288498
1.0013907594676719 1.0000705474446954 -0.0004727302307235
1.0020627113237237 1.0016429230147899 -0.0045313741618687
1.0010574263010503 1.0023155908386701 0.0008871449849120
0.9995622945427658 1.0086539376066175 -0.0084681810345318
1.0080433207087509 1.0000206838699575 0.0052478794095020
0.9973331084295650 1.0002256757175150 -0.0038366285784393
0.9994792440903532 1.0090030730837625 0.0084890719545666
1.0013404403700370 0.9999260034694871 -0.0019201210887287
1.0010042084877211 0.9987153273122858 0.0050867671687131
1.0014399025493110 1.0000218500434499 -0.0024021642541642
1.0017644116376239 1.0004754837158554 -0.0014083200825310
1.0022716582669653 1.0003280946915172 0.0009920860345499
1.0003425080063226 1.0029474688955269 0.0010367753481087
1.0013766393517984 1.0000550096225176 -0.0027356483727813
1.0015853607228040 1.0009524839239090 -0.0000366628130676
1.0017694629027760 1.0011410152736768 0.0008107421349405
1.0027175315069219 0.9951970924151717 -0.0011349946025560
1.0029131545930874 0.9953792824437148 0.0012062047695066
0.9971227921654836 1.0005381158370104 -0.0003519555905862
0.9996562931893866 1.0000758090309769 0.0003326381105623
1.0032002922736609 0.9987163970047797 -0.0051901136577293
0.9994661087859631 1.0001007950728920 -0.0001443654422825
0.9996701073601767 1.0000594558957332 0.0002344061600293
1.0035257244754070 0.9990231184416454 0.0030871852579914
1.0024511667629352 0.9991715736018375 -0.0042270439461605
1.0036111427671839 0.9987015147881820 0.0055799571246667
0.9994488594750964 1.0001072507888613 -0.0001545995432300
1.0013802783245560 1.0014924025424976 0.0007955058244368
0.9963019609492857 1.0003085484059688 0.0001096606476949
0.9966923872676615 1.0003580321891599 0.0001463249288886
1.0020128687535070 0.9952035728239073 0.0011683496400126
0.9966956359267741 1.0002158796110745 0.0001236872075517
0.9997437533479673 1.0064418996669258 -0.0071625098929769
0.9975130586470968 1.0002090947955853 -0.0034900369100685
0.9977367300026044 1.0002591691029379 -0.0024873051586779
1.0069839970221084 1.0001231044576213 0.0049355131096655
1.0021625110409369 0.9968157761638704 0.0035906660167566
0.9992145540045796 1.0092497643829714 0.0143087035384674
1.0021599975915261 1.0007099888991846 0.0011615762590778
1.0023654757552110 0.9927743874061964 -0.0011467313896111
0.9933225195362991 1.0005006369144314 0.0024076001905559
1.0029112156092430 0.9941575545060388 -0.0013550734459571
0.9960986793020626 1.0005202794155221 -0.0021238254446604
1.0015759468902088 0.9974797553033801 0.0006012163812693
1.0021971946341723 0.9934226535969257 0.0009751483608433
0.9961574248007555 1.0004708066783736 -0.0018489020760036
1.0007655261245245 1.0023319413630043 -0.0019449068362006
0.9967452072179026 1.0006591505154903 0.0014288393067295
0.9973680704642943 1.0007185792540008 -0.0014494222155038
0.9967115976512521 1.0007840018025758 0.0014988960109807
1.0031550892624830 0.9972780898827307 -0.0015009702669430
1.0020349466668281 0.9983343227183483 0.0006700541259781
0.9974024300190071 1.0005965452204078 -0.0012043930677664
0.9974570330936680 1.0001331306017613 -0.0020203385216103
1.0061056632318990 0.9999530816939215 0.0050061560893505
0.9974061116299864 1.0000732550415690 -0.0019016630700255
1.0004566293443369 1.0025162172340540 0.0015154475590710
1.0028674213881965 0.9962320794570464 -0.0013300794467933
0.9965785251989335 1.0008192527198876 0.0010767997694426
1.0013564704828661 1.0013009665775376 -0.0015369526083734
1.0015661841526566 1.0010481915491309 -0.0047505944562452
1.0022980610154735 1.0018683844072040 0.0050067287149804
1.0013813540096035 1.0012942153076683 0.0023051468110298
0.9997773214920630 1.0016246883170365 0.0023008659437177
1.0017329405357769 1.0001783803663000 0.0008097617235927
0.9997150839274065 1.0018197791215331 0.0019276015604815
1.0034224929237396 0.9984879109404553 -0.0009520344533205
0.9977808770903820 1.0006734511858062 -0.0006188222451551
1.0019361188152196 1.0008119614018709 0.0011826880595129
0.9976371279803822 1.0006011605096048 0.0006802203291441
1.0019557804852768 1.0001940269956127 -0.0000155833872766
1.0018362745375013 1.0001378668313283 0.0038344299015234
1.0004537316273669 1.0011201291942629 -0.0007829635071334
1.0021717391962321 1.0002924090151450 0.0019902132145047
1.0015535193243501 1.0009614138991836 -0.0016353544797462
1.0026310378422003 0.9998604460943989 0.0041995122248959
1.0017348935822048 1.0001279414201700 0.0029651146871857
1.0017330357284895 1.0002507088237882 -0.0020179324989525
1.0013545731122848 1.0010039305265375 0.0035502924230353
1.0013822712761336 1.0009544004980446 -0.0006220376157243
0.9993788434801779 1.0001215735402997 -0.0006848402243695
1.0019586493603103 0.9996054035712179 0.0050300740914219
1.0018663289794445 1.0011489567495608 0.0049577590939302
1.0015138607345291 1.0006776512782269 -0.0007043894918892
1.0022191968644389 1.0002758086595591 0.0019538218904772
1.0043513369716224 1.0002106082752806 0.0003464064407206
0.9994752940151118 1.0001509695290260 -0.0021667131545384
1.0018282244767300 0.9992351922997998 -0.0022496200983975
1.0020257019610201 0.9990102305911378 -0.0028653183473708
1.0026073731333180 1.0003186442733716 -0.0017870469597163
1.0007532429318216 1.0019486260153194 -0.0084694832655830
1.0013806924776083 0.9998884763072726 0.0042995243561312
1.0004877554868521 0.9998888526972708 0.0008265811762666
1.0008501510482846 1.0015285407333929 -0.0066011901905265
1.0019016591468504 1.0005961205590601 -0.0000292507134462
1.0017074660078855 1.0006858169477248 -0.0048252472811919
1.0019635287154434 1.0003088160129197 -0.0009053620441495
1.0061081040595725 1.0005325757846661 0.0006931089034005
1.0020737284228149 1.0001730494337520 0.0045015415481042
1.0013593399364442 1.0010322023503502 0.0009350640477346
1.0016794640677942 1.0000519154531555 0.0032294202927737
1.0006451274061223 1.0021971801476581 0.0026812787629789
1.0032558186842202 1.0010556117214484 0.0038135000832774
0.9990000777124968 1.0001871347034466 0.0019412066024591
1.0010963574832641 1.0003011651230458 -0.0025600313010657
1.0015839915872082 1.0005149198010073 -0.0002305975980731
1.0013644391934282 1.0009877075665048 0.0033129492580925
1.0019343865223549 1.0002361795602026 -0.0025835503852456
1.0026557239715472 1.0007326995881216 -0.0016656935149842
1.0019032310861622 1.0010057710433009 -0.0012745052175083
1.0055884755361857 1.0001437026838866 -0.0023299019752515
1.0018609923546513 1.0007586054833724 0.0000983054917559
1.0007957013320599 1.0038714540017262 -0.0037330145045687
1.0014401698042568 1.0002144347752759 -0.0027896396389214
1.0037198680731314 1.0001904074699088 -0.0028245143671928
1.0017904851989525 1.0001669049394735 -0.0007030966672308
1.0010443491672609 1.0017397005124733 0.0023848624445239
1.0005795785540004 1.0021518458316145 0.0010628053826896
1.0011917503273395 0.9981721196759856 -0.0099476070672334
0.9991715703578727 1.0084595818798969 0.0077288723180642
0.9973453662804120 1.0001312080552653 -0.0043534500963565
0.9997472645040621 1.0060452659247803 -0.0064960968733605
1.0020270295467395 0.9962644492020710 0.0039781439132748
1.0086105135724519 0.9999316064583016 0.0061475356164365
0.9973720466110698 1.0001561873600888 -0.0046774160212769
1.0089045369685026 0.9999156213597006 0.0059697856100928
0.9991317976059679 1.0084725974924977 -0.0077178553824923
1.0014339760284767 1.0014149616844110 0.0020873677140906
1.0011475055264150 1.0015297777128169 0.0023207142426559
1.0005075149404610 1.0018167409780008 -0.0013184181697919
1.0111684657948985 0.9998499348224918 0.0094120205134684
0.9992334131274896 1.0091272187145857 -0.0099549381369182
1.0108507850994701 0.9998974316500421 0.0093169991156002
0.9968864708614091 1.0000938074708614 -0.0058329562649352
1.0016266903083810 0.9963648015443856 0.0039507862256341
0.9997323202295647 1.0069371686066775 -0.0087058210925815
0.9992688048555534 1.0085650637864767 0.0089713437017037
0.9969413111404600 1.0000938621103244 -0.0053959642084390
1.0015370148326810 1.0012063168055032 0.0014009476969144
0.9970905564989515 1.0002600806790829 -0.0026071624729589
1.0021378921689545 0.9956446744166161 0.0091448952082077
1.0008045116009097 1.0022496330471891 -0.0028291614141018
1.0020995543110787 1.0000666055285141 0.0016767064266896
1.0013242205223254 1.0005389733872017 0.0010807370404974
1.0019151771949255 1.0004625161100245 0.0009148388711747
1.0019175984459676 1.0003435600005752 0.0033869540566592
1.0015941172163967 1.0000658317994828 -0.0031145487100391
1.0015031355284461 1.0000395349176348 0.0029042375810892
1.0016411739856772 1.0007127961699147 -0.0004170968190462
1.0026191133527744 1.0009958452831065 0.0008114967904903
1.0005935047337797 0.9997509449725968 0.0013205287572693
1.0003598992913172 1.0000229827274478 -0.0005325910711282
1.0003238610191496 0.9999569890762683 -0.0004160207227458
1.0007312276167855 0.9997380030505829 0.0011534681660293
0.9983161795738555 1.0000878312581993 0.0004684409946322
1.0014425782842080 1.0008681505527202 0.0003145183859573
1.0009241397659678 1.0000817892799589 -0.0034273719713297
1.0010949038331258 0.9982934436754642 0.0098785782439488
0.9986266320499655 1.0002320745395321 -0.0015625098767167
1.0017068169168348 1.0010410147477420 -0.0001104538116163
1.0037762911505741 1.0001487617969211 -0.0013591366163514
1.0019347185607888 1.0008740375509892 -0.0021726754684909
1.0019424879399987 1.0003515398816927 0.0005850704591007
0.9987476095590193 1.0002093610854199 0.0019668385875815
0.9986220202725624 1.0002671697853289 -0.0015373520158607
1.0019826498990569 0.9990325882479362 0.0042706918530438
1.0011636367602632 0.9986939956116503 -0.0076454481322197
1.0018966210229379 1.0009678591148308 0.0009994094938101
1.0124401792728031 1.0001798610310839 0.0005310526275983
1.0015884932696817 1.0004462253251005 0.0017791012743492
1.0012656580908139 1.0011020499668806 -0.0009013255939923
0.9994992971041099 1.0081983725897974 -0.0011843631479798
1.0019681004955501 1.0002868775845677 -0.0034366896167683
1.0013871838749908 1.0007445547760923 0.0005195304757647
1.0010674364192951 1.0019796049853211 0.0023504430196786
1.0019125229689843 1.0009826274644023 0.0002944875385546
1.0003659651445176 1.0000513818800798 0.0004515723216628
1.0007649782733816 0.9997581852631948 -0.0010246329658024
1.0007287924808026 0.9996039320888337 -0.0009834746896267
1.0002968413660833 1.0000785915143231 0.0005463201223908
1.0006290334832195 1.0002065619407206 -0.0013859445236987
1.0008258316286187 0.9998134956846935 0.0014949570173545
1.0005163867703002 1.0003064526219516 0.0015720130284700
1.0010391213057444 0.9997216344703252 0.0013632260749920
1.0009711661118004 0.9997428926478729 -0.0013035998186625
1.0006963509037092 1.0002070004058323 -0.0013953282976094
1.0010137298016266 0.9998812617123064 -0.0013911483998054
1.0006129552985743 1.0003048403772747 0.0014527727582019
1.0010540830964407 1.0011302004970208 0.0015382819166346
1.0015507893215356 1.0005277363527842 -0.0037583608091043
1.0018328152024591 1.0012423916377562 0.0025068354581535
1.0004443805253436 1.0015568971615894 0.0041013558219433
1.0007407553834571 1.0025780416474965 -0.0020479328834550
1.0014647225723470 0.9998445681390844 -0.0025018631336186
1.0011466498068082 1.0010015140886135 0.0034562158158571
0.9994358673048569 1.0000775395222463 0.0017433814332383
1.0017174521228596 0.9993899991908889 -0.0054350110238975
0.9991408070397858 1.0001151230267218 -0.0012654772115891
1.0016903324363944 0.9988524140047710 0.0032229891177438
0.9994703000652411 1.0000943005132688 0.0017446242575047
1.0017495794433784 0.9993692722811155 -0.0045108451715520
1.0016581343939963 0.9993966134280926 0.0050981996969977
0.9991327564478087 1.0000764528917310 -0.0011476757637605
1.0005456136309336 0.9999172783104218 0.0009499122172406
0.9998366601344761 0.9999535846905094 -0.0006729871231472
0.9998544892554769 0.9999324920412487 -0.0007517362811803
1.0010159103082361 1.0015998740372078 0.0082614769769676
1.0027230462168395 1.0011613231639271 0.0007239255184533
1.0048993644252719 1.0001228856157547 0.0036292220193315
1.0017966734508161 0.9998654681112138 -0.0021638133290998
1.0015575078580496 1.0010811311573293 0.0017669802682508
1.0013130205904941 0.9997805670697359 0.0027147892167129
1.0010426304702091 1.0002033567474995 -0.0023832710246151
1.0009628161330433 1.0040010302274758 -0.0029863763121427
1.0042395622189118 1.0007391886938655 0.0064229123128157
1.0014243622939181 1.0013268679783487 0.0012553484679565
1.0012325074819530 1.0002196175366707 0.0028976076081872
1.0022503305341053 0.9956217091126621 -0.0091220297155799
0.9963580947828337 1.0002185671817041 0.0038982115564789
1.0013527885641111 1.0006551593152366 -0.0038026586948287
1.0014959547425135 1.0014659752556136 -0.0006462877804701
1.0004669145026330 1.0012534341920571 -0.0017499569466934
1.0010164924275755 1.0001281539490947 -0.0024559921787174
0.9993531328527472 1.0018200982075456 0.0018913144842692
1.0008512500194819 1.0011058581753631 -0.0045330898397356
1.0013489574304000 0.9999843963502911 0.0031135989931372
0.9997681463105980 0.9999464037932787 -0.0041198854489810
0.9999781174573593 1.0001512614741681 0.0054444859413970
1.0007789544957937 1.0009071238011689 -0.0043172117776632
1.0012897043877034 1.0000699327672880 0.0031884522380897
0.9997364936107600 0.9999371505310145 -0.0038458058221002
1.0008106490913169 1.0011341250475894 0.0041776328394431
1.0011907118591268 0.9999420762630851 -0.0002413155325966
1.0035625903593546 1.0004278408394363 -0.0013945527931372
1.0013640835713182 1.0001037879018673 -0.0028835997069516
1.0020233613064917 1.0001856530938220 0.0055437154750450
1.0022760751618327 0.9993050994235668 0.0042843343766059
1.0013456713979467 1.0018672120977610 0.0022092776942151
1.0018104280652482 1.0010002843184183 0.0002595049996003
1.0128174102782097 1.0000750969258525 -0.0001356554648434
1.0022564208190445 1.0001767862433804 0.0003397281003139
1.0004431530456015 1.0002225300756915 0.0022034411418868
1.0004178436523743 1.0040594816865180 0.0040767406534063
1.0014464282706883 1.0007012980863870 0.0011532280057565
1.0021754767133768 1.0002687174096481 -0.0004602251572808
1.0011494500194555 1.0009777982866590 -0.0024089392113356
1.0004371402097274 1.0021482434368167 0.0011597439586072
1.0137711602196180 1.0000994326608144 0.0029877185892127
1.0027764891177611 0.9995081402502637 0.0042202104392626
1.0021105755942885 0.9997369234299909 -0.0026584585890461
1.0066848209958090 1.0000765595745920 0.0015746585636804
1.0026434257776711 1.0003001881825448 -0.0039856351587524
1.0013203381787326 1.0013273669333356 -0.0028392544847980
1.0016249288737196 0.9999944227740659 0.0018837922158808
0.9997433567914932 1.0000054795293964 -0.0031536795783280
1.0006375346304603 0.9997395128896550 0.0048336160812016
1.0015432165200095 0.9999886263518123 0.0020317900157516
0.9998279243925953 0.9999912961337970 -0.0028558338380810
1.0013798016255677 1.0012956936115343 0.0028402476070491
1.0012897046625751 0.9998475511144445 -0.0022937380404825
1.0018689922363841 1.0005501587677872 0.0004947102814943
1.0015146367318930 1.0009491824710097 -0.0019065451321097
1.0056419846727342 1.0003482527414529 -0.0013789624756197
1.0022427314655722 1.0005858051894847 0.0029938005127802
1.0016125589384348 1.0008233216439741 -0.0019200710978376
1.0019692085833116 1.0000712489372201 0.0018558920282486
1.0021885610102064 0.9976758815289449 -0.0031779950328608
1.0010463600066277 1.0021067752342869 0.0028245659366533
1.0015327048723317 1.0011915176576642 -0.0001184984542993
1.0015794092254759 0.9998519376994536 0.0009104196291462
1.0011962496417695 1.0011118620671700 0.0014565316782401
1.0016447395752315 0.9999485105166536 0.0039191096448255
1.0041384714426065 1.0006350004663724 0.0020660280475554
1.0016669970714085 1.0003677673363374 0.0012693139782110
1.0006472300125888 1.0043414432643407 0.0045194952174305
1.0014911370307487 1.0007632060653564 0.0003409303544323
0.9999032649646064 1.0018329521087386 -0.0070065119945087
0.9994996854713118 1.0002870262617494 -0.0030848332811409
1.0011663253901688 1.0000937779206327 -0.0009756914911698
1.0012185735726782 1.0001570512192486 0.0003418173714675
1.0007645199168258 1.0008901836078481 0.0028996972690002
1.0014325699826518 1.0006816572807551 0.0019551422307221
1.0015266803409886 1.0002826653572678 -0.0033191811378954
1.0023737615127657 0.9993668016191700 -0.0037359551742456
1.0020621408126438 1.0012774337151160 -0.0037842241860628
1.0017687450384862 1.0006376551055143 -0.0011152562251094
1.0024848987742911 0.9957622922680111 0.0003766404639795
0.9979806071043941 1.0001522261124891 0.0000494467658906
1.0015501271730605 1.0013442765397147 -0.0029537689540668
1.0024621918254972 1.0001389557806295 -0.0031318560170303
1.0018976706626244 1.0002549017478957 0.0005437151880996
1.0009231450542859 1.0007204811409158 -0.0032374924958678
0.9994182508909057 1.0002965377588555 -0.0034343307475916
0.9996826636679796 1.0010782580214674 0.0092028878459348
1.0017587369051997 1.0006251154017565 -0.0014812401169537
1.0028093510250113 1.0010767341269824 0.0018908249708938
1.0023812259429346 1.0010541265517390 -0.0021035108930917
1.0026769492893195 1.0007500946633334 0.0001184809493308
1.0016050215947616 1.0012517778743721 -0.0008387606994795
0.9996411131165461 1.0009983613079405 -0.0092047372589591
1.0013101828290436 1.0002014045343322 0.0056495455067396
1.0015507862375623 1.0003958057240054 0.0034313523989018
1.0019187480245622 0.9996479029677675 -0.0009066175975999
0.9984209194441045 1.0002170416979128 0.0000859817154637
1.0023062332812678 1.0010093773176285 -0.0000229546688201
1.0025782825936460 1.0000855856174145 -0.0032953744481022
1.0020546927218945 1.0001378423182399 -0.0002059700688945
1.0019215439536628 0.9996257383457403 -0.0051499479385609
0.9997158348642073 1.0001012147278874 0.0009313302929722
0.9993168635792284 1.0001170183619119 -0.0008156856241023
1.0018149328618113 0.9990630068501459 0.0032479382113969
1.0018108985817917 0.9997257975648290 -0.0039539225086148
0.9996914974363581 1.0001181824697729 0.0009539866861648
0.9993275373455569 1.0000912147858283 -0.0007184291692808
1.0017925840635540 0.9996431014007316 0.0052410854202834
1.0011315553253621 1.0013157343959291 0.0005917106278044
1.0030420886932205 1.0009129548185289 0.0004449305333870
1.0010496353083589 1.0012922059454297 0.0004523841619064
1.0013198184714363 1.0010663794891552 0.0023861600039771
1.0020711525231785 1.0010969086338362 0.0017081925384957
1.0014298905301868 1.0006998007937153 -0.0016540025499798
1.0012848871574289 1.0001159185438266 0.0004711189649177
1.0013048523422436 1.0007175098004879 -0.0013124317133839
1.0012047086645646 1.0000322262542065 -0.0009344345582665
1.0020684341976775 0.9977824085992246 -0.0042919186531141
0.9991278309413829 1.0000745759100089 0.0005856907948552
1.0017824887408400 1.0006365730257722 -0.0005952193014823
1.0017326306060976 1.0017940738354645 0.0025581544125033
1.0017838281173916 1.0008997867721032 -0.0006261855124065
1.0009444016305651 1.0011452900921292 0.0014286394855491
1.0016186178085331 1.0010104177318542 -0.0001195723613880
1.0015768076459242 1.0005641457189287 -0.0007073724107016
1.0015166589876645 1.0010755397600790 -0.0009298268981900
1.0023392489236653 0.9996600293048554 -0.0041559580650395
1.0046322538652295 1.0000520724804869 0.0032052100649186
1.0023598234722590 0.9998876508271309 -0.0016447797385936
1.0018977730237044 1.0004542178300997 -0.0005448111737342
1.0059227878544221 1.0000565375256372 -0.0023539516523594
0.9995530150205172 1.0001389757122472 -0.0026383989996854
1.0018278823107747 1.0001746846527564 -0.0005661057278160
1.0011713941887947 1.0001106741925310 -0.0027284356546153
1.0019701842602338 1.0014324944163007 0.0037915412453669
0.9994101490683894 1.0003916592065907 -0.0020518112088994
1.0024173267996208 1.0005087931924934 0.0079723761523887
1.0020268476958958 1.0000311785021827 -0.0033150971998560
1.0025186644678188 1.0001942211495261 -0.0080140485413303
0.9999249613497464 1.0003835567480648 0.0031233059090482
0.9995106498927852 1.0001043700729457 0.0000051280027007
1.0018835035935210 1.0001049036902026 -0.0014613564951864
1.0020789461386816 1.0003267472934616 0.0020271454203752
1.0004811374625295 1.0016121940985965 0.0046821612666467
1.0014541585484475 1.0011737446891682 -0.0024260280268091
1.0061774615196533 1.0002527088883479 -0.0000840799334399
1.0013260233542916 1.0001609190039495 0.0034485948270469
0.9984897352801383 1.0000551640454201 -0.0002046536084637
1.0023374333434878 0.9976125215578594 0.0032147735209269
1.0022599701683930 0.9999964749815226 0.0003285205964443
1.0029881222019550 1.0000938257456080 0.0016726927865304
1.0019179571105619 1.0009524961210019 -0.0000712069137953
1.0022957368769845 1.0002039203668927 0.0033519039385359
1.0016308743070086 0.9998327563821822 -0.0018246079873681
0.9966511630088322 1.0002104129614360 0.0033107694561343
1.0021185501593461 0.9986874339384193 0.0039317787726703
0.9993100771292198 1.0000498263078250 0.0009251818925009
1.0017546397047445 0.9989332094396401 0.0039029845884514
1.0002926629484690 1.0033243639636296 -0.0002762585129290
1.0018514602196400 1.0009751072421778 0.0010546555063438
1.0017945820097416 1.0001918320666459 0.0023039485106060
1.0019419787559858 1.0003268537394903 0.0008736342120967
1.0025005807398848 0.9958509424525391 -0.0059122816540512
0.9970565005675158 1.0002499663486126 -0.0020046179944716
1.0019141696121148 0.9987121380978022 0.0013398563709759
0.9984770648315601 1.0001008270798004 -0.0002076820190386
1.0021933210209393 0.9982798640290805 -0.0023167171596494
0.9986153614845309 1.0000930644086716 0.0003936837276081
1.0014573274707168 1.0000603387824776 -0.0027697589656519
1.0014029921348064 1.0004141111605787 -0.0004831724602737
1.0004782772537584 1.0024116470913047 -0.0012442052698538
0.9999828715748846 1.0020042521350250 -0.0009074570399290
1.0020503745075326 1.0004721827473162 -0.0019459547940430
1.0028289328587008 1.0005035974213652 -0.0011326303006419
0.9996305387467604 1.0043089804979111 0.0009274136040347
1.0012146285388177 0.9999675189361513 -0.0040729720071080
1.0011952744932378 0.9976944965541530 -0.0104630842544825
1.0018903934948684 0.9987992783281109 0.0046788466896386
0.9985514342342653 1.0002598104158060 0.0017155157838505
1.0011480789288418 0.9983265281774014 -0.0081185075258628
1.0023052486740236 1.0009168753890416 -0.0010817469686822
1.0023615411612523 0.9974999147796335 -0.0025801896504551
1.0019196361952378 0.9987202958378193 0.0013033803952652
1.0019758114874451 0.9981773102970324 -0.0020724824640909
0.9985157829307201 0.9999483052421873 0.0000360357726785
1.0016198933133715 1.0008703840134245 -0.0005079506748378
0.9994583629378702 1.0019505783612617 0.0007919105962971
1.0000355698288192 1.0036032774287351 0.0010966009980105
1.0016409693994839 1.0004262042400749 -0.0035534431205033
1.0019645905176158 1.0003362057529728 0.0000395110016341
1.0000185529654984 1.0038647483871224 0.0024969214648345
1.0018514319500189 0.9999171623776681 0.0007353865231952
1.0039577441685958 1.0002622128129872 0.0017408934288896
1.0052524748317226 1.0005665702392912 0.0037992829936906
1.0019732312945409 0.9995643549206943 0.0045273833057664
0.9982349433081694 1.0001195851078633 0.0002158909129274
1.0018880696942436 0.9980132805974403 -0.0010877419166998
0.9994243963307994 1.0020314236896126 0.0021198768090678
1.0038925494498074 1.0000504490436979 -0.0009521080039374
1.0015376162772611 1.0001156435046643 0.0019764551295324
1.0001723956848221 1.0035131928769319 0.0001024256541839
1.0018722235212996 1.0010311724411152 0.0000341358853484
1.0003258876076573 1.0040389917365591 -0.0011696563681429
1.0016459625008549 1.0000886731574312 0.0031281867249662
0.9997551370983991 1.0020202562702307 0.0010235663681145
1.0018591957094076 0.9999406039855886 -0.0024186025514510
1.0010212993749585 1.0004360526424758 0.0020878706378207
1.0015780179454405 1.0009978407868367 0.0008745915753724
1.0019579106783267 1.0000750219787262 0.0010002722321218
1.0012768334959798 1.0003931556849899 -0.0044489357981647
0.9995242196212138 1.0015461449158107 0.0005368765445933
1.0003453166977971 1.0041620318864164 -0.0007864776967682
1.0011965862251297 1.0003092014066743 -0.0033942100636291
1.0015326867415331 1.0006310826512201 0.0002560554993300
1.0012619452170184 1.0006255182211201 -0.0010381101123651
1.0019974384293462 1.0005226167384498 -0.0004523415572608
0.9993370378362577 1.0018298487401613 0.0011128781712322
1.0015103666443730 1.0002811377215752 -0.0026108489195661
1.0012184763577057 1.0006206253635723 -0.0019947629700894
1.0005224674441571 1.0004407379544507 0.0026163523039895
1.0011543424470721 1.0006253403365482 -0.0014522773416083
1.0023386152862817 1.0000595552184930 0.0016203527601984
1.0017346296249354 1.0001438851053530 -0.0005135315007850
0.9990034175817060 1.0018594545064128 -0.0014819237713621
1.0043825686804673 1.0007224323126584 0.0021950213546818
1.0009702255029118 1.0017013548527116 0.0025874154420914
1.0000202980765833 1.0036617576806464 0.0000293209007553
1.0028280791666246 1.0005305969884173 -0.0004648245566206
0.9996655457124092 1.0001525187746187 0.0000716530343108
1.0024850454666161 1.0026966475841366 0.0003250583009590
1.0002270225465471 1.0000678619139778 0.0019775518849695
1.0008397244770384 1.0016164383110362 -0.0013619978518299
1.0005129522938874 1.0037769646516836 0.0029727145811671
1.0025055038293893 1.0002913525600661 -0.0021814726724613
1.0012307129519602 1.0001142999201189 -0.0025368507001974
1.0033193452465472 1.0002053026914588 0.0031611970480863
1.0013182660552375 1.0011567954217124 -0.0006374738431679
1.0018925889598700 1.0010720565111138 0.0006501803133651
0.9990238007730793 1.0000743545664508 -0.0005161740992878
1.0020839455017665 0.9980739354398492 0.0045134413158387
0.9990205151107616 1.0016344248471507 -0.0012975460326366
1.0024924030571232 1.0002322550636282 -0.0014756696882148
1.0015434191764485 1.0012360784210756 0.0016265219193795
1.0015816988556363 1.0009985444417027 -0.0014580105390566
1.0010872847588239 1.0007118262521895 0.0032492215532070
1.0028164238870245 1.0007671481604403 -0.0019540635946337
1.0015862954684445 1.0001784593479257 -0.0033376335479633
1.0018140593227214 0.9995733276612579 -0.0028387696522374
0.9992041563680117 1.0001056946197888 -0.0004258872835555
1.0020757532672999 1.0002593999798959 -0.0000926959638985
1.0017789815792419 1.0001374520469406 -0.0019857876959029
1.0020588272724880 1.0001425894961102 -0.0037216290758921
1.0017638344581761 1.0011376979670568 -0.0012363516731569
1.0018689023271168 1.0001692980526904 0.0014229348458375
1.0015525001071699 1.0011685495237486 -0.0031219607599803
0.9962129227383850 1.0002435658439022 0.0033933260866829
1.0001176313151086 1.0000878883564235 0.0047844013639761
1.0015818191020187 1.0004842638605980 -0.0009159169278598
1.0014469412110216 1.0001405902025848 0.0011126972713874
1.0002508390175557 1.0000825388480263 0.0012393102536449
1.0015664560239659 0.9994984350000350 0.0039216092915761
1.0017465604857245 1.0004801674702539 -0.0011086860325776
1.0014196610870598 1.0010814778725101 0.0002002541116664
1.0027264870252459 1.0010821771747058 0.0007435493448350
1.0014619699910190 1.0006419013578678 0.0001156825754844
1.0018676773611042 1.0006282049584396 -0.0000751595340307
1.0003244883114524 1.0029595633647521 0.0000387052237533
1.0037246311001728 1.0003112074511764 -0.0009526860035363
1.0004399651598410 1.0030935051399177 -0.0001466417800911
1.0018235825071524 1.0001516547293958 0.0017339661531934
1.0035019121279798 1.0006620454851558 0.0038530518076970
1.0016645091533207 1.0005583464697103 -0.0001312630788586
1.0020002440901385 1.0002612097578092 -0.0000419442921045
1.0017787083016452 1.0001894319325495 0.0003533719009641
1.0017523383292175 1.0001924205604946 0.0008977132647661
1.0002511878382327 1.0015957517978666 0.0003563548669626
1.0031751740262118 1.0006131616766940 -0.0013930291470521
1.0003990401189597 1.0015535377248737 0.0001479753118487
0.9999143312749353 0.9987562968037348 -0.0103776880085165
1.0021074936233130 1.0002762650468935 -0.0028235822698191
1.0018242537343369 1.0001367937133177 -0.0017066433420643

SCALARS f:PK2stress double 3
LOOKUP_TABLE default
-0.1063574605479482 0.0419315382894422 0.0988485055779004
-0.0979976578306215 0.1447154497563763 -0.0506060181590765
0.0785965480421857 -0.5796901158723544 0.0884572057933666
-0.0565016103100826 -1.0546588096288112 -0.2578527129016584
-0.0976093857185589 0.1277039857878751 -0.0498269151759087
0.1077220164142196 0.5768515850499502 0.0461454612309894
0.0167241962960026 1.1112612644633186 -0.0073578143015885
-0.0653471786413962 -1.2998595018045178 -0.2583659981650297
-0.0358628105637465 -0.9349002547492720 -0.2053614735168903
0.0725646923398506 -0.7530050278721965 0.0918293887678455
-0.0720912631060505 -1.7495592071225150 0.2770825973513933
-0.1267683497207805 -0.0130909421320509 0.0830309892082448
-0.1065954563280558 -0.0088097376746692 0.0860118536257574
-0.0670630365644333 -1.3082202484849090 0.2630537884666345
0.1401009413129206 0.2766068137247062 0.0431287143247541
-0.1118485284086762 0.0998769625306972 -0.0442798064643085
-0.1124664812583958 0.0770497626706463 -0.0464039459727601
0.0775290083547833 1.1115761901186478 0.0520771228517699
0.0277136318540071 0.0226143640900798 -0.0138653033876693
0.0827908021244491 1.0406415976797028 -0.0268902144530978
0.0402207965272545 0.0368827637610138 0.0112131004222632
0.0670552592029944 0.7315299771808960 0.0486319221559349
0.0273824186371423 0.0256325228396182 -0.0157255851284900
0.0402154011008249 0.0275874086186927 0.0106205325049888
0.0811093210834181 1.0992115328617216 -0.0513917033309353
0.1005479811323460 1.3371751209727385 0.0064015890812579
0.0044009136186206 -0.0561253346963121 -0.0040580833563763
0.0004882140310617 -0.0184454002788174 0.0036906920673177
0.0004725646841123 -0.0272714407835570 0.0046334368823654
0.0052758209157101 -0.0622686093454167 -0.0005941785623728
0.0368742326818765 0.1537786955372926 -0.0385549906669271
0.0210928305108125 -0.0096824372844390 -0.0261419684005096
0.0514566322940100 0.8679154467184134 0.0729302153078063
0.0370892075315366 -0.0100515111057330 0.0303823579571696
0.0503390153666707 0.8095299292911314 -0.0652930266663697
0.0453319351533533 0.5658301872523160 0.0651823975607471
0.0232397918307168 -0.0156870352266322 -0.0274743255951150
0.0572238056778119 0.9531905793860082 -0.0770463704298897
0.0379029444494830 -0.0112904245333173 0.0304847101502121
0.0876917624419516 0.0348044557588427 -0.0070307176120239
0.0589882145182869 0.1254103373643021 -0.0350114658728884
0.0749213687489419 1.0508020195522183 -0.0590649962596232
0.0380197944268168 0.0495585578366765 0.0085469725876671
0.0243253329996717 0.0474002704773386 -0.0136755032898683
0.0738319292714558 0.7525103325753296 0.0515804720523313
0.0823714394677580 0.9994418497145460 -0.0380599171556911
0.0365533134751492 0.0516059535748029 0.0085104387798477
0.0248164108149737 0.0416028759010894 -0.0129159566305439
0.0722896705664283 0.9930618610962051 0.0601908816607277
0.0006797067593713 -0.0148441489360204 -0.0043708504348201
0.0058788752316764 -0.0459107816325555 0.0036149169321099
0.0044060576600412 -0.0531093201766312 0.0037135280678491
0.0003097441441943 -0.0215346526129392 -0.0060148597155630
-0.0274442115700180 0.1822170422560067 -0.0081818110103151
0.0106281983803033 -0.0211396459432089 0.0007691397006492
0.0106028015256006 -0.0262073853953699 0.0016996520417858
-0.0212236940842607 0.1911180861093367 -0.0034064989924238
0.0885725728827292 0.8303333029743678 -0.0456992506432441
-0.1185903280615403 0.0990748328909133 0.1869310931375209
0.0861262333032689 1.3659148615733612 -0.0453387605855253
0.0743370717468180 0.8114191333441527 -0.0472622264095074
-0.0762863719098191 -1.1771045737163928 -0.2197954910419952
-0.1222867805484536 0.0708266207944296 0.1887812790599659
-0.0903799399837324 0.1763944675953924 -0.1009800622017904
0.0463804874522396 -0.3839095846336339 0.0838963731684433
-0.0438477890217569 -0.9446941222864844 -0.1852361045114459
-0.0703168802228214 -1.0478229340089149 0.2004231180609486
-0.0896498103943129 0.1551149680710347 -0.0943120076406581
0.0095155016898064 -0.0249302185458349 -0.0018555862766256
-0.0234019616475181 0.1500636390705008 0.0076519553292549
-0.0266643984037224 0.1554804955741556 0.0079911695671034
0.0112178869573754 -0.0278388555909592 -0.0028845407646909
0.1093909453540749 1.3462054426018233 0.0207808662219479
0.0839659352216952 0.4035842730513873 -0.0286246281654163
0.0673328124568376 0.0981857409169159 0.0075799032838150
0.0658870998826003 0.4170545051302891 -0.0389395997936624
0.1122722233145154 0.8645761196786920 0.0589897638636518
0.0774129542987022 1.4945557690602727 0.0265872095839205
0.0665983820221757 0.5879082918352310 -0.0180959799288520
0.0588544263854721 -0.0267299403915041 0.0120072106316785
0.0545340910789614 0.0151384425852735 -0.0221719084750850
0.0578019072219015 0.0120697025061173 0.0129391628828933
0.0605865758316834 0.6380261166132022 0.0252483646447006
0.0660046970962091 0.6279206983304065 0.0038376912021972
0.0651845012904145 0.6470595102211818 0.0174053190640312
0.0568093786601536 0.0513280993558470 -0.0176739430550724
0.0540173110443830 0.0776667526681826 0.0507356909621395
0.0728811022612224 0.5543622800842133 -0.0021105479581172
0.0828730803508297 0.2492835261852814 -0.0298790194352097
0.0098082850369268 0.0693985491849551 0.0233204881048664
0.0524343489846158 -0.2634471973293187 0.0796563520361965
0.0903207600994197 2.0690580337661597 -0.0541607622475596
0.0228727368832741 -2.6300333445243127 -0.0454036768999507
-0.1008686752503114 0.0716407163121211 -0.0091311254182691
0.0935882102807398 2.6931069070538665 -0.0015749191351672
0.0842185844097912 -0.0887702075232541 0.0547156003593775
0.0219589408902611 1.0816897967071171 -0.0122416231902712
0.0541540124362240 0.2579126829112035 0.0564152831404579
0.0640764225672017 0.3626215898243912 -0.0996066588758227
0.0726062211670973 0.0794831478320121 -0.0171164873903191
0.0395817138632051 -0.0867081419222787 -0.0636403480279871
-0.0090907362544204 0.0760016384824887 -0.0264264668016932
0.0802682362229445 1.8953072952162335 0.0172743243254492
0.0746567163121209 1.2253585430133298 0.0024713922715152
0.1829311979188553 0.3937338945971364 -0.0312179848838030
0.0932357060993900 1.0102653119659191 -0.0416988588555706
0.0660732106943378 3.2972570967565544 -0.0562525697505761
0.0041813951430017 0.0283890894025844 0.0032101071432407
0.0277665309444241 -0.3273586985171631 -0.0136708618829641
0.0016117038002062 0.0481895633456222 -0.0083235167705164
0.0381372189035899 -0.1583469975435914 0.0337713991162904
0.0305823755625537 -0.3337986073306051 -0.0015191348448534
0.0038079299458303 0.0426563090352757 0.0020772524491714
0.0013797990731386 0.0363315991380402 -0.0090243086197375
0.0330991293506211 -0.2829586932107611 0.0081661730909822
0.1058475742718911 5.2491254024824467 0.0230942576368322
0.0748591970056110 -0.2367084093836164 0.0854228172696528
-0.0087652179432310 0.0487528347881254 -0.0092369706976055
0.0849758453227539 1.1708914520833811 0.1131878984176193
-0.0127638981144094 0.0171774696578344 -0.0126752396054362
0.0612887943099879 -0.1603174355998182 0.1007017544541188
-0.0130559981320226 0.0219234567374075 0.0162575541399025
0.0667880750308920 -0.1268073763578864 0.0661194445786618
0.0613238533369888 -0.1448782853289125 -0.0740264467418724
-0.0138742835250422 0.0155996863236616 -0.0142219645827305
-0.0130627066363324 0.0142445914272315 0.0159772430194582
0.0649590714210625 -0.2520847581744638 -0.1000475697515821
0.0303759396518933 -0.4729528241220727 0.0004581367467352
0.0015725524629890 0.0350514752558407 -0.0087915412805949
0.0039282549102680 0.0357540161348911 0.0026525058107325
0.0282127025033913 -0.4645413975324895 0.0009535107145269
0.0041146569768080 0.0477662231082175 0.0019051511653741
0.0015205408952297 0.0452138439155447 -0.0087860914266963
0.0365464041110225 -0.2530306778671293 0.0220655256880920
0.0330450104291018 -0.3817888210917874 0.0073105419971874
0.0515145332161678 1.2455416609719845 -0.0304449566622183
0.1152873957600295 1.0172458590935969 0.0679896089463121
0.0590609589475424 -0.3065836723843235 -0.0439835048824935
0.0978235290634353 2.5037390421066830 -0.0449939535658102
0.0000044413018512 1.5548568095418147 -0.0465266966489271
0.0586063827882271 -0.2956002360725602 -0.0473574127624821
0.0414204242696342 1.7213593597971801 0.0186623381093103
0.1062914834823457 0.7108785282591055 -0.0686443806870319
0.0638980903179024 0.8059030219767760 -0.0195931276732971
0.0197148412642022 0.9153406493338373 -0.0358172277470092
0.2170745104697649 0.5892756207069221 0.0147743110280433
0.0829246695550888 0.8241128246286383 -0.0012824985826938
0.0877291723667028 0.9852154610963054 0.0097198542680993
0.0103384573130611 0.8637595298177005 -0.0118613339703910
0.0563851076816778 0.2712736177005411 0.0520294903517786
0.0579382718919859 0.0670586674611975 0.0034791462708418
0.0728780196568832 0.6223699426459686 -0.0226782143426716
0.0657384043675392 0.6612549941945940 0.0277345643081675
0.0680556640630296 0.6577826576008043 -0.0067222191359107
0.0550946603584790 0.0992493157244998 -0.0132511570191855
0.0573337952372075 0.0967895234273721 0.0031916861616235
0.0710457777683745 0.6606052902550157 0.0254506082903874
0.0560654901582655 0.0761883636259146 -0.0112110391153215
0.1174135003272710 1.8090719990280006 0.0522620326680780
0.0574790976661672 -0.0951220367412767 0.0997830604649409
-0.0132875887137607 -0.0122178585052042 -0.0198535206996347
-0.0142714916720613 -0.0236707757705253 0.0293561952140317
-0.0165192514917871 -0.0295028248047086 -0.0222593240814921
0.0561021505592559 -0.0751998997481977 -0.0836939810201902
0.0632020842289749 -0.0457893141773434 0.0663499635571934
0.0642738038056074 0.0799499314471278 -0.1044871456310139
-0.0148463494859904 -0.0215127385508692 0.0303915207301339
0.0841872744545230 0.7264305984719835 0.0095958388099124
0.0880060312338327 1.0325334720834471 -0.0148126795275263
0.0225142840788099 -0.8843615572757380 0.0381104405325589
-0.0017151736388758 0.0190351731845397 -0.0109911261024790
-0.0016095595716701 0.0239823200310138 -0.0123442910941279
0.0344588200384139 -0.4894746347842339 0.0350660511671799
0.0292768815031911 -0.8590978002394982 -0.0198747448516357
-0.0026838529506511 0.0267628385461358 0.0084566153845994
0.0276665100941691 -0.8306096257283814 -0.0391551401495056
-0.0028526490799146 0.0167225495828801 0.0080600789357373
0.1053096602724009 0.6235289721708627 -0.0016975693085818
0.0612379689547636 0.4006953297119847 -0.0411633518419865
0.0164334316803585 -0.4987023288740513 0.0485546916464260
-0.0009113144643586 -0.0046762497822630 -0.0212650664827715
-0.0023250992771129 -0.0076216766388136 0.0237521891373515
0.0275208126124292 -0.2002725901323244 0.0421195007230692
-0.0011884822375890 -0.0102287025380448 -0.0220916902810571
0.0182441271793870 -0.4518805519589393 -0.0416096313979985
0.0180354034617879 -0.5731474629995081 -0.0502145930756259
-0.0024098061392010 -0.0131509403084623 0.0251053194467961
0.0758429226391083 0.6433488549680608 -0.0344136816903516
0.0810814007380188 0.9164226049180391 0.0218934424162494
0.0860389697639868 0.9142189238739054 -0.0136471757696935
0.0665741418030297 0.1320865950506579 0.0024290202184729
0.0895749089964592 0.3378588609271573 0.0049025989378580
0.1237682410829830 0.5407161080330432 -0.0458520838572306
-0.0014986404231383 0.0217506248135027 0.0063999165500098
0.0289177572797766 -0.6156751448009382 -0.0456810806715792
-0.0009213660105774 0.0394415234961200 -0.0121779856307654
0.0373104634882376 -0.3135439989192188 0.0345498151317427
0.0360156959179675 -0.6334580032790170 -0.0267528876837922
-0.0021462939527083 0.0346834802026471 0.0080984703643590
-0.0010165094147670 0.0303251084062927 -0.0118388988963537
0.0280168201453963 -0.6133883403610708 0.0457231821830267
0.1614438797808437 0.6983812433465443 0.0189844492428210
0.0991626170361880 0.3315937145808200 0.0347529472079272
0.1844846883888534 0.9125070674136994 0.0769207944020527
0.0884072153610443 1.9722903414322239 -0.0222288160350027
0.0870373960711433 0.9011143155450657 -0.0186753499401623
0.1081952886473452 1.4205052026511733 -0.0217154879774340
0.0497961362943262 0.6158383550226996 -0.0585014201564654
0.0639748303589931 -0.0277187852426899 -0.0854466102102063
0.1047506581624163 1.4834684696156590 -0.0338536422127665
0.1521572257617624 0.3205893396509998 0.0149754437876946
0.0604461597077315 0.0885780801748419 0.0690642234748094
-0.1277034924960593 0.0452847058858135 0.0834960076248572
-0.1014312964828614 0.0937726665291637 -0.0617804215538890
0.0396995649722281 -1.0852774669375489 0.0802163693462017
-0.1282035130258281 0.0748422321681781 0.0843001678084973
0.0182582028133533 -1.7897389754811404 -0.1307973232135628
-0.1005706374405910 0.0739809382519332 -0.0569508156731474
0.0897756785606432 0.7942428120062099 -0.0182504352520119
0.1065360063147812 2.1056453762966347 0.0387189144423809
0.0970723677074767 0.1671886282838118 0.1177973923489099
0.0109595904692782 1.6504318342185440 -0.1706315259331606
0.0618509737629139 -0.1958591593470844 0.0883417604726692
0.0279428879029552 1.2424288893299043 -0.1357522621798845
0.0018181315485915 0.2347771572751701 -0.0794469258006792
0.0941584417087746 0.2088991317882549 0.1185394049975508
0.0045380765899272 0.1956533264555696 -0.0744889264385975
0.0107225249661632 1.6453069950604808 0.1731033189953962
-0.0067170146043091 -2.4592569057667535 -0.1588137129647176
-0.0074952242279878 -2.4728885266535685 0.1608560763279898
0.0716600147424824 0.4100044991757731 0.0107396516462285
0.0784021576315253 0.7251436913735437 0.0252943499829868
0.0722706932698460 1.1328533178234970 -0.1045934437676656
0.1832195947867368 0.4725156825660907 -0.0251947544917184
0.0315332103258075 -0.3280607276828996 -0.0905259335123166
-0.0017617660089786 0.0918704112866571 0.0245036913372968
0.0869959888134226 0.8853991372429041 -0.0161262289913057
0.0929057791152107 0.3101758556637651 0.0132093864384586
0.0548882559432066 0.0894004457743076 -0.0320391383287834
0.0865755000416005 0.2161433937016610 -0.0214587092876389
0.0877118773762032 0.9585279136929206 -0.0066124596429067
0.0017168453760573 -0.0128504011003617 -0.0081567797111541
-0.0082292136811739 0.0039221278891494 0.0091398824354994
-0.0099027043854518 0.0060265674888087 -0.0108891238479572
0.0023141880667493 -0.0106008451399314 0.0066433227569302
-0.0096995700297093 0.0107323807036680 0.0107195037835034
0.0026142044616248 -0.0132894183555901 0.0078527703389258
-0.0089784552914565 0.0124938031680030 -0.0100741336164347
0.0022285569949308 -0.0124906999884045 -0.0074879166031179
0.0369837372907730 0.0438272309197697 -0.0088710019854222
0.1020816794482125 -0.0618166008089237 0.0868396648215090
0.1009056893729285 2.4592640225866638 0.2224952949670251
0.0509068322712181 0.2102429583070239 0.0120296651356364
-0.0121114713237065 0.1023595662484611 -0.0296183292987437
0.0322509458918109 -0.3202293271051261 0.0911898966105956
0.0995248101116515 0.5203446444817794 0.0310193214243350
0.1280975412030559 0.2986131353812854 0.1092251432425264
0.0875818424227841 0.1134930462460353 0.0391920252975361
0.0199646462214765 0.0375845967534022 -0.0104807288412043
0.0382631423872968 -0.3121447428469837 0.0158411389903866
0.0228222053256672 0.0859845201799991 0.0035433786717174
0.0417955569097556 -0.2489783124266340 0.0060583021862997
0.0373585209850784 -0.1757939392875890 0.0248991783124455
0.0205359339960324 0.0735554087754816 -0.0126073872136426
0.0432694333538713 -0.2473036665090934 -0.0170088620296964
0.0232602255885334 0.0553860760821976 0.0032256787776686
0.0881977014602914 0.7720780694130378 0.0177492631661190
0.0070568987018848 0.0380781090424929 -0.0015203562076264
0.0190252003946268 -0.0213549593588622 -0.0013916582405986
0.0180307060139717 -0.0128611499208756 -0.0020382291252371
0.0089665140181466 0.0787671796315116 0.0036042008619178
0.0441810635191529 -0.3220166151863010 -0.0269515685735186
0.0206800031611484 0.0656889519096756 0.0013791171951458
0.0190790730758062 0.0970118262567958 -0.0113510727689666
0.0429656018031637 -0.1108234317366660 0.0294705671656095
0.0414486110247371 -0.2580680919022189 -0.0083710296530733
0.0193118358948007 0.0961802201713994 0.0014254002253011
0.0423901728947648 -0.2996486494947312 0.0286583501171968
0.0191128043894010 0.0713638214966436 -0.0106510685636374
0.0985079379511098 0.7819955650942880 0.0776129922105350
0.0619570026091978 0.1055284893532422 0.0354569884668310
0.0508753919535377 0.0815716186053743 -0.0423443396573785
-0.0104711466074899 -2.4773010840605720 -0.0855235360872942
-0.1101456047512736 0.0949442921225497 0.0511348272772003
-0.0855744175391666 0.0860010568751559 -0.0355984266353048
0.0072793108635291 -1.3005560444515887 0.0377053685904619
0.0042456961254969 -2.0431404383671170 -0.0705720153365553
-0.0128185450621259 -2.2684077493563626 0.0767961382354233
-0.0852034848972962 0.0726609532286712 -0.0315251636211922
0.0873105238307303 0.3062028043118390 0.0165163919819010
-0.0305968512767807 0.1787694791638791 -0.0331461801912168
0.0636826972146302 0.1737505512383911 0.0506410247828363
0.0672488495142267 -0.8731184484576245 0.0928638378607477
0.0555826595271738 0.0493056290180206 -0.0046710181176087
0.0763666270540592 1.7007359936549633 -0.2146745474196473
-0.0306994754589802 0.1315077321698396 -0.0328278994027116
-0.1053089446499059 0.1256650390323847 0.0517768166384128
0.0665118627659354 1.4579162673422905 0.0250775775866499
0.0918874716956033 1.0135323787183830 -0.0168517247472417
0.0180108272174703 -0.0164776456933089 0.0007778293133118
0.0087790273308118 0.1012943675384551 0.0002293122535441
0.0076872795957418 0.0200049406598467 0.0002670885152671
0.0151286237278703 -0.0220953435974237 0.0043739355092805
0.1564448339006874 0.4845176658306374 0.0132464181252277
-0.0062627707732405 0.0120241352886017 -0.0397788768874935
0.0179787769621097 -0.2386876977897794 0.1027129952732147
0.0016384111655761 0.0294286147429333 0.0481549932526780
-0.0056649689102329 0.0248208392636530 -0.0420201957601723
0.0257713699122936 -0.2242682299527097 -0.0924649668407725
0.0371393058646915 -0.1509435999026875 0.0829868263588644
0.0008971070514044 0.0053674662883366 0.0488427651707835
0.0181911442826583 -0.2376827374918962 -0.1093640789442114
0.0766758713822478 1.3166418152369037 -0.1678775570926183
-0.0025464308151850 0.0644690817402322 -0.0288809264819016
0.0314959582860701 -0.4286609454723967 0.0933230184791215
0.0047599040622411 0.0749520782954879 0.0287372974327436
0.0524210179999252 -0.3065144550069531 0.0745798203099057
0.0391000472841730 -0.4186733053374933 -0.0666858864288628
-0.0026716795250096 0.0800534301583452 -0.0307354570803051
0.0047533010160342 0.0500995001273689 0.0280290984577374
0.0352817627977544 -0.4186371151380158 -0.0921137342505507
0.1007414552091802 2.3654053234860646 -0.0400155932802977
0.0802518122993794 1.0138480207532510 -0.0452322131263447
0.0749448658978936 0.4200516258756406 -0.0155709288578868
0.0573325718318021 0.1114607574372132 0.0301085111700519
0.0588553268609018 0.7522105294059621 0.0917585216326301
0.0688903429196336 0.7020996925392394 -0.0923412529488941
0.0372655120405438 0.2207327061210822 0.0450742373026708
0.0657603705119306 1.7548693272908877 -0.0071620319115799
0.0639802455813339 -0.8307522889431995 0.0653719381909246
-0.0266995318258278 0.0065277348575200 -0.0005470520769146
0.0902434842825622 0.9821977636166167 0.0068729198925587
0.0800879797252999 1.3694913919456786 0.0065592845186990
0.0766296526160562 0.7031867101396524 -0.0111593971659606
0.0738834023151466 0.4394837214605186 0.0960808952399112
0.0929868315371717 0.7927655278374460 -0.0489368884095148
-0.0308558540929879 0.0488584736166734 -0.0230025177441225
-0.0338578739296517 0.0040238727866224 -0.0249394747710625
0.0979296502953170 0.9775893254283932 -0.0806881757884612
0.0998860765229035 0.7336680527316425 -0.0016567457848611
0.0746182116793707 0.0581728397522721 -0.0265989271234110
0.0899719608020564 1.7168618817777728 -0.0360192673177381
0.0811423281519287 0.4273071027394750 -0.0107163682575073
0.0624938776995380 0.0730553064665308 0.0299106482501314
0.0225849310511552 -0.3759502840471941 0.1024775848754969
0.0895278951990341 0.0588678077576338 0.0604548391665347
0.0955290373455730 0.7236910976280911 0.0248849245228310
0.0490401149772976 0.0248460126679448 0.0388953034428797
0.0641782013828704 0.0250360076577822 0.0418942423836586
0.0691637302656913 1.7510681195590381 0.2176650466473491
-0.0263563906604852 -0.0566587654188519 -0.0015787933759832
0.0441689655440449 -0.6515935731199158 -0.0488731827850911
0.0490916282445745 -0.6833048088342468 0.0261291841354473
0.0488232287124909 -0.9893842894514114 -0.0542260857145445
0.0664328200593875 0.2070453385981963 0.0338274510705648
0.0753905971968366 1.1168827664672958 0.0313715185745728
0.0929993099690822 0.3539631106706044 0.0210636159155837
0.0873929324783051 0.3080808106590542 -0.0387893658879589
0.0921289100502006 2.1355640282488078 -0.0388237400410854
0.0615708110491370 0.5192985788809931 0.0514935699535073
0.0795609607578350 1.0420844168317058 -0.0096541377862377
0.0945566371711907 1.1179438410580416 -0.0028263136199270
0.0333440541245285 0.7937090412485511 -0.0571525783353952
0.0470223311109141 0.1398095277899537 -0.0402954389866284
0.0511722070823109 1.0852064555946799 -0.2217495508995874
0.0576648513363914 0.8002406169047021 -0.1749710938325200
0.0567378844373800 -0.9249086949616118 0.0966031317846118
0.0890021776032646 1.9718266717662987 -0.0443220751449635
0.0854670221046228 0.1397281807049593 -0.0451184267704851
0.0428932413030666 0.3562495807382562 -0.0534136992764296
0.0500488829703741 -0.0737172768218483 0.0373878670666722
0.0463164732223884 -0.0761292404321644 -0.0405878676922698
0.0477096675602003 -0.0428236772624863 0.0389225513345048
0.0342804328160138 0.3363982731600402 0.0518932318431826
0.0426594540073127 0.3739475569475254 -0.0484115274632978
0.0415994475298072 0.3168391194261728 0.0514636691340876
0.0421733657538089 -0.0696638509843487 -0.0365229129721123
0.0875304202385203 1.1369032716185070 -0.0239828368195096
0.0906106136235773 0.7990195683587231 -0.0432876076473016
0.0089475653510804 0.0268720732716800 0.0122762016576892
0.0989557027266031 0.8046220398743161 -0.1190818602770436
0.0027915625999334 0.0422793103928321 -0.0110955705571348
0.0092997596305641 0.0297381465986107 0.0116006060069108
0.0969274530349759 0.1611719658960640 0.0616881182767950
0.0819703066622614 0.6562679376881383 -0.0938533530540507
0.0030121383040102 0.0374552639786815 -0.0110580174739184
0.1024448702888050 0.7751032259678553 0.1180531350922313
0.0660438583089621 2.2466480666921678 0.0023568254091726
-0.0078992332703301 0.0472484646303725 0.0112704712971224
0.0776972969938489 -0.1052815199277625 -0.0829219853467383
0.0070105355444052 0.0117091254683847 0.0103930615674015
0.1146409336542991 0.7401871563882825 -0.1157819236993519
-0.0000161466374885 0.0188107824110279 -0.0065819923576952
0.1116599182474642 0.1476381083083456 0.0622612181065621
0.0916246684625582 0.6281731506358839 -0.0935995395598033
0.0067426735811608 0.0117204113604649 0.0084386632477492
-0.0000835037235128 0.0192568043059357 -0.0068535977540086
0.1167990423601293 0.6441852124527561 0.1189849665316908
0.0875899676326456 1.3321583711362119 0.0701312517990215
0.0584261993044031 -0.8495477918327029 -0.0673321722104652
0.0974798433844955 0.1638759252719017 0.0591924971295526
0.0086674068125659 0.0465108921474154 0.0140482238919894
0.0107066893813160 -0.3750490684723939 0.0171349696031689
-0.0007721107908464 -0.0066636099489516 -0.0095129741653698
-0.0009094423699071 -0.0119091075152070 -0.0086764316099071
0.0139184044881494 -0.3285903761643519 0.0201814257815076
0.0689403626336805 -0.0559838228356425 0.0204144597104842
0.0637159976148198 2.7201804488876680 -0.1574088930018529
0.1338291851031526 0.1183506183126660 0.1072953364163654
-0.0169065758997664 0.1095456824510597 -0.0778498495488442
0.0262463820595771 -0.5675625789571332 0.0897718343532945
0.0671802025860175 2.0488937640204097 -0.1352839798049537
0.0555147183457617 2.5398681174172832 0.1424631282680245
-0.0188644537233413 0.0949118637356546 -0.0720638077231487
0.0975535343583218 1.0161230524721669 -0.0138320893083987
0.0842414548571084 0.1293952785634884 -0.0384333635802706
0.0904747753676040 0.7388299093121506 -0.0173028002184393
0.0892631088673599 0.7613425585845981 -0.0432195180990410
0.0786320365438205 0.0449828067936008 -0.0295645404273182
0.0147807892626068 -0.8319040912626416 0.1475227378126563
-0.0250874239547886 0.0594216437229192 -0.0180277823550402
0.0559632094893920 0.1114552973237425 -0.0229652533415566
0.1303291590658980 0.1698985326735192 0.1073905280709630
-0.0010020035563711 -0.0018305711700711 0.0078391170393076
0.0122741492345026 -0.3321878563507042 -0.0141418295749660
0.0124879746082898 -0.3753678349274228 -0.0159889751679963
-0.0011207207875751 -0.0102011979188134 0.0082865419352534
-0.0267474582759394 0.0194366986240015 -0.0004623832580365
-0.0205169435392596 0.0057584385433519 0.0040374542490447
0.0523060586853652 -0.5703526454122020 -0.0520587170046465
0.0591572705599625 -0.5826929392190527 0.0287135965646863
0.0669175239477606 0.2379928551310615 -0.0149576267668984
0.0793520760272775 0.8459946130327921 -0.0226941035359098
0.0751488906776217 1.5106333082242804 0.0103165772509603
-0.0852345044286305 0.0967780968039572 -0.0174935255513412
-0.0054030559854261 -3.1288726654785415 0.0816847516786508
0.1089683287288621 0.3712689857438005 0.0858286141321839
-0.0033053509016904 0.0389190338393244 -0.0098586470245323
-0.0034817023603588 0.0342511120316392 -0.0111477513465980
0.0029169415949742 0.0412888557882151 0.0115672478412858
0.0874832587665004 0.3678209108503047 -0.0637126044516499
0.1002232276711885 0.0339912159064301 0.0574906015749857
0.1142088938445298 0.3439615002484799 -0.0842931061262132
0.0030500223325683 0.0449900408762520 0.0112031605850041
-0.0064375267487204 0.0410924577878312 -0.0176644828690664
0.1313855594805823 0.2119525419609969 0.0812975609659242
-0.0059291499166439 0.0359394342704288 -0.0189369563869800
0.0004166131980602 0.0420317047066724 0.0248389733472846
0.1197941272237606 -0.0705720760854491 0.0546551494786728
0.1102350821239504 0.1830857999573130 -0.0698195368288813
0.1366943455338649 0.2660950013283835 -0.0873542818856338
-0.0001297504252068 0.0424847632513184 0.0258722356094422
0.1050208464511760 0.2443312068591534 -0.0071563409344525
0.0722317397226790 0.1406167089619661 -0.0241268302784385
0.0844918696137535 0.2037358712760985 -0.0140722834003159
0.1130416094546352 0.1128895122718903 -0.0736738392581439
0.0823848887545106 0.1263661323321904 -0.0512639154785292
-0.0076477183740243 0.0318684706761397 -0.0089080052459723
-0.0005507592594920 0.0299869132627662 0.0088806917823294
-0.0084460696785791 0.0341142275999630 -0.0082061825081304
0.1121860641822826 0.1172570741852047 0.0742349454333460
0.1139384731732559 1.1750188907794161 0.0826803544106179
0.0690152778455595 -0.0809872416780164 0.0097266434179516
0.0555595510138533 0.9987752853496872 -0.0132325437151900
0.0159363527775368 0.0729656994196977 0.0124069501504611
0.0344258264933454 -0.4753337320506006 -0.0355566377127756
0.0379503236180738 -0.4363874025370230 -0.0239693108465468
0.0021865136881550 0.1195108494475647 -0.0210196389055798
0.0174926169515489 0.1026148102291634 0.0096743463612109
0.0371649725760028 -0.4326035389610348 0.0573387147121855
0.0018811431409424 0.0911507230339117 -0.0211563524085822
0.0394263617716221 -0.5582502822157573 0.0384994290971366
0.0862041229556086 0.7269634576303752 -0.0008584303769663
0.1379665796061546 0.6941984667414086 0.0040562610269945
-0.0231433098783149 0.0669659574882595 0.0162312532812083
0.0198175202287662 -0.7377210257183513 -0.1194764234959094
0.0414749776220538 -0.6902086554778963 0.0845384843481572
0.0085513131142425 -1.1092450326412964 -0.1517682035743191
0.0868369251401929 0.2683178030142567 0.0400692914577223
0.0179273061981952 0.0203193696704795 -0.0031415614876230
-0.0013163306686576 0.8362347431596324 -0.0139726024652738
-0.0001069706234705 0.8244032212063749 -0.0013623539062185
0.0176525877563838 0.0186955587956502 -0.0014389037760065
0.0132758284718136 -0.0056972477406837 -0.0144079111149309
-0.0058576323359551 0.4884895534619110 0.0279752405194313
-0.0034608216767014 0.8094289941123165 0.0148877802765412
0.0182342951606256 0.0143142264033184 -0.0022807064882427
-0.0066931014734703 0.4505287048080650 -0.0232213435756502
0.0173355265287728 -0.0129898409695087 0.0142229358462011
0.0041066624851097 0.5707466995493100 0.0168961077521499
0.0177858322943110 0.0112672127993255 -0.0028011783296455
0.0102682767908807 0.6504903037667056 0.0098607601054307
0.0177325514537593 0.0112409165779511 -0.0027171933950558
0.0150498193236634 -0.0125623153601524 -0.0142360585473960
0.0294724778842904 0.7937360362513619 0.0215256557763172
0.0225345787231457 0.8475351813010040 0.0082878534169837
0.0095918528409781 0.3769482630029286 0.0306406659289549
0.0190857230559757 0.0249543328542002 -0.0022911792219290
0.0194231181884922 0.0173329136990818 -0.0026052347452681
-0.0066368427103323 0.5343432959602477 -0.0271052688058037
0.0183493749959239 -0.0155215151403670 0.0150667137453922
0.0026713489592931 0.7796473835558583 -0.0024814111686616
0.0193648671994575 0.0290558807300542 -0.0028094869451267
0.0879204851620088 1.1497196678248185 -0.0162859667120274
0.1243734894070184 0.7768780455528445 -0.0093849159397740
0.0693747140523308 1.0859141452334253 -0.0235606392242435
-0.1023029497317308 0.0936020181989718 0.0296831337093324
0.0180756397333913 -1.4215210367389393 0.0413656647433093
-0.0845689897333626 0.1181813824541614 -0.0233071601810587
0.0070282948121168 -2.2855154094276586 -0.0584356965442550
-0.1020724225787485 0.1177381860781841 0.0297517654625746
-0.0846725842419403 0.0944355669139582 -0.0199250112580972
0.0895148602288630 1.0388042886380302 -0.0417710779730601
0.1228015406469148 0.6817985727673298 -0.0076249795725338
0.0896059711644604 0.5144293705091509 0.0235710907427017
0.0791394171793888 0.2250694022504847 0.0263760362591831
-0.0079809635155673 0.0491295089939513 0.0086864072177076
0.0999377294022624 0.4498124959534596 -0.0873919700649951
0.0821785086861912 0.4494062689222584 -0.0669391565465683
-0.0066337143376403 0.0580880919103397 -0.0053351861691188
0.0953274669403541 0.3751512602611153 0.0443791797376133
-0.0075130733554354 0.0499971071400551 0.0073696960198665
-0.0066649066785386 0.0536033660121399 -0.0055078937944725
0.1014591908646076 0.5439074967214854 0.0852387128285616
0.1438219018963428 0.4397387038486321 -0.0218007553497734
0.0832125775873501 0.8754102233115124 0.0078617897829312
0.0842608520503707 0.8516962161446613 0.0068189152015116
0.0995278213846376 1.0517529811829245 0.0632566546094987
-0.0133237762178543 -3.0379877762592824 -0.0722668049844806
-0.0159063316719230 -3.0385837265168409 0.0750391903000540
0.0165357076031242 0.0628906815692609 0.0082880200503847
0.0240301361287043 -0.4255642508427152 -0.0488946201998526
0.0278991731093910 -0.4120293832447470 -0.0320193859669623
0.0298128181751513 -0.3338232402031279 0.0657056419139909
0.0000866018935204 0.0933329815644881 -0.0193546318503646
0.0143550899014425 0.0734845897181530 0.0080095414126270
0.0324499854984946 -0.3868338051538287 0.0459556497921381
-0.0000481772306686 0.0600100892061089 -0.0205930986024232
0.0517116956981882 0.0771128176506613 -0.0070081789053038
0.0639543259282811 0.0637854004907998 -0.0281142001223327
0.0437045073204146 0.0245789297091517 0.0177512274501092
0.0347703637804543 0.0831436300433297 -0.0297812041070107
0.0450235199045951 0.1388735339366107 0.0197212283920583
0.0429197291570129 0.0949168780387934 0.0375535941213900
0.0622949146851879 0.0718287979688400 0.0266151901990527
0.0359941000645551 0.0408320820450105 -0.0240273688645830
0.0466995696319949 0.1358986945909869 -0.0202006082491372
0.0885979109074430 0.9922364214661336 -0.0006715893258221
0.0963718592793681 0.1559664611241306 -0.0773834773754142
0.0776424051968819 0.3627375597826384 0.0671774171200665
0.0541213576818483 0.1761776812918377 0.0128453556841781
0.0692687849756980 0.0489740938806125 0.0606580691567042
0.0828765760636945 0.8370699379056552 0.0205219804080847
0.0924301717300060 0.9404168964059915 -0.0052339751066035
0.0892314617625351 0.9083737660356626 -0.0395578566102521
0.0031496202729070 0.0443474666499102 -0.0043018743294632
-0.0189655162554882 0.0704882452069380 0.0182622054784567
-0.0254705317149421 0.0730550308450404 -0.0178248040590360
0.0245518975021386 -0.6056613618654326 -0.1145473421826996
0.0478426147455405 -0.5964808949539416 0.0782060248547201
0.0124448662396091 -0.9192985506729340 -0.1487275906579064
0.0762535752202352 0.7778138303493167 -0.0197314767588785
0.0890146440710967 1.5969301744779920 0.0133258085973702
0.0723564204547184 0.4565396574078802 -0.0395197343127316
0.0275109382623611 -0.2463627594260593 0.0450792852974409
0.0134147135608406 -0.0011291212420185 -0.0228395524492723
0.0153451972655930 0.0082189165617629 -0.0240293330988705
0.0227090772947246 -0.1218109005161994 0.0470059850442021
0.0178704956490508 0.0439715050245973 0.0220055353584561
0.0284822150246591 -0.2200502781226117 -0.0397442696956452
0.0273465612779307 -0.2707329220398633 -0.0458995214463408
0.0183455067352054 0.0030567296997968 0.0220973888988426
0.0145908226297290 0.2041531114179467 0.0531489492133932
0.0675458915793974 -0.2684510844281765 0.0813445685793644
0.0897781385105570 1.0832540894797495 -0.0096339314624414
0.0699089684205464 1.2437357923221524 -0.0279930068656116
0.0705451263823701 0.9175821609269775 -0.0438502824565102
-0.0201761709117232 0.0609872987474540 -0.0531187026967669
0.0753786471903128 0.4156827250522893 0.0120537754553250
0.0818983763322729 0.3610621013263910 0.0170299917557878
0.1017864111704857 0.2893829978686444 -0.0180962791263100
0.0996968305523069 0.9286149344750757 0.0160350960095683
0.0917500943812189 0.4666536835363694 -0.0558631468809071
0.0795308750044884 1.0603498440446868 0.0030093650022614
0.1003885694367617 0.2058984447736489 -0.0170567225908470
0.0887573185906192 1.0756710849735265 -0.0394688286592685
0.1200614247141672 1.9599087938432151 -0.0906003513913484
0.0691157885520095 1.6372599253714906 0.0391775793719247
0.0566361831741969 0.9456441930898690 -0.0357794940600001
0.0968911791225942 1.0038511818943867 0.0085507010557779
0.1049088069233360 1.6024334715826969 -0.0384268893825205
0.0814836124058654 0.3074086738608502 0.0279796635569834
-0.0178351251184028 -0.1672995125503717 -0.1658400825551873
-0.0324790310444876 0.0186677870496915 0.0999781694373712
-0.0326662858238886 0.0796655729886879 -0.0683785666947834
0.0473563502613071 0.1626257061242811 0.0906401723716418
0.0063140065503418 -0.0929922555322153 -0.1382592355898062
-0.0170201163422988 -0.0412427089886141 0.1541297098119612
-0.0333334044345641 0.0681509448376421 -0.0636273303340836
0.0458726811207725 1.1779320738625765 -0.0116933055484710
0.0940823275179596 0.6350019871059656 -0.0295232101568474
0.1714760067262677 0.3101702896889766 0.0136588191831161
0.0861252082647413 0.9472382700975465 -0.0091313159045938
0.0670671520372056 0.3571230746377779 -0.0654685784463963
0.0952994386955537 0.3663707931915977 -0.0051666799717610
0.0677961411327805 0.9635223940337623 0.0145080303472058
0.0773041227123468 0.2316796908041442 0.0649314676696594
0.0924386894034833 0.4943334398597207 0.0523976902571911
0.0956804594079903 -0.2738343225765204 -0.0979749576082685
-0.0282053057226492 0.1745001585499452 -0.0355703938695721
-0.0525079756018142 -0.0357660395519127 0.0447316432614400
0.0754620090992320 0.8779637357206472 -0.0909923801635305
0.0665842015482409 0.8964309820356623 0.0424660719093664
-0.0421884783131563 -0.0482419486498931 -0.0286919093427560
-0.0512395889393445 -0.0160279822561167 0.0448362805339392
0.0768399042209847 0.8097051305828491 -0.0738574036129551
0.0746480406447236 1.0972050610155681 0.0831136537076283
-0.0426985700333365 -0.0371678479618565 -0.0260865755737182
0.0998645471104406 2.0071070365119459 -0.0355504236210838
-0.0188651344049622 0.0036607383272751 0.0058604965724603
0.0855146390549310 0.9808970400810412 0.0211694197882944
0.1547630026810733 0.5693669398344063 0.0141370660441565
0.0922258537007354 0.4745443596447580 -0.0123473389067451
0.0754232844744338 0.6290272094930496 -0.0352578155718848
0.0877889860333149 1.1300770112488425 -0.0197520617097291
0.0601527082455977 0.0230056827634519 -0.0174837289314116
0.1005525366457735 1.7904555384789294 -0.0770768001023811
0.0418241029899740 0.4398586590045476 0.0949530383375530
0.1342042292056026 0.5091996533856368 -0.0094129810907790
0.0951997530223465 1.0267158189149153 -0.0006101336606643
-0.0712814630141128 0.1162144233101575 -0.0001376547872376
0.0525240991250236 -0.9010094579961974 -0.0443816414495604
0.0494484148548009 -1.1683972471259878 0.0229613285776639
0.0491421408098651 -1.6733065308799024 -0.0510697201720845
0.0870256634442172 1.1607689770273948 -0.0006194033859445
0.1100498335592827 0.6479032739596879 -0.0830446181788196
-0.0092675299344484 0.0495610614249612 0.0056894760265236
-0.0091165187394406 0.0644340457718148 0.0004467755260793
0.1082329637373600 0.4726133182989027 0.0497501731810133
-0.0084306784819270 0.0439605877485945 0.0035135579447514
0.0894311409608246 0.5027786179733654 -0.0695282915764052
0.1152938247348706 0.3982716775000752 0.0957353171893140
-0.0097166336323279 0.0624669436418300 0.0002186749373244
0.0924333787658351 0.7917343058595983 -0.0367202986114568
0.0494479520371858 0.2206710428417557 0.0182473440087589
0.0461245729721954 0.0454521093994588 0.0140240717530997
0.0612156603689421 0.0633984477275309 0.0084726001882775
0.1339507422095050 0.6883293552110240 0.0005384102149321
0.1200629924010885 0.6365576483523184 0.0063209492505463
0.0855196631543637 1.0066510632336008 0.0617046413656256
0.2320636556294468 0.4604153507852417 0.0441644147293840
0.0600480070350354 0.9758279323957035 0.0020935517231580
0.0799928648874747 0.5662102888069657 -0.0411499494694797
0.0841313466644935 0.9698018350671754 -0.0211344514274166
0.0996650848526869 0.7938288599007131 -0.0342527935753934
0.0769498893078514 0.1968297902668758 -0.0317418688626666
0.0859109554104872 1.2333260163573776 0.0427383258054519
0.0910393291020126 0.7648857704840701 -0.0169356441886238
0.0937010050160918 1.1698464399600836 0.0020449102810348
0.0892341283186602 0.8173942829450371 -0.0085792474288058
0.0937699237590832 1.6814776960749758 0.0174302881338939
0.0494592954440749 0.5863002034418012 -0.0257605114391109
0.0594790712131681 2.0316451748161795 -0.0574193059284121
0.0915878956879768 2.1662932469009304 -0.0008176157337224
0.0802379120414465 1.5797993964616857 0.0413263209815979
0.0823678454053173 -0.5603360051844919 -0.0559195022499382
-0.0445910191619630 0.0916464573961776 -0.0130746264000865
0.0582173802321301 0.1465080916440045 -0.0170443161974194
0.0898322443779676 0.6728640971935416 0.0162369910189109
0.0706909522008116 0.0981665678203114 -0.0075841655206913
0.0758563418029106 0.7042771653477751 0.0107622503240199
0.0702646409876672 0.1308852229461711 -0.0106378483557531
0.0713632097860408 0.0774586504165320 0.0029260816340913
0.0670471314886052 0.7219211543293883 -0.0031352258800329
0.0933169693113421 0.6123741219990313 -0.0119175620417388
0.0712187106696923 0.0504568318481467 0.0041390758603407
-0.0031049668054160 -3.1389456653811654 -0.0783428151477777
-0.0982650294731447 0.0996037944388828 0.0235384927973452
-0.0301645127951952 0.0685784144497291 0.0989009548062031
0.0888479466835180 1.3400572430707953 0.0192426786590029
0.0917616281987902 1.3446522082216756 0.0092086276628050
0.0870238753695644 1.2979696838407218 0.0068803607213098
0.0605695759287827 0.8561475538296853 -0.0531210636597542
0.0990780717172941 0.7794540800006068 0.0063530664255309
0.0561528892406623 -1.2342425572767002 -0.0672357407384047
0.0965122019811839 1.7081058903319344 -0.0017524913469387
0.0953459356008285 1.0527007581288028 -0.0022454720120580
0.0665835172032083 0.7875334465624362 -0.0861369858101041
0.0873910449467999 1.2437763139305675 -0.0126565534054594
0.0425297116399469 0.0622400189835907 -0.0580999971045480
0.0419942783723974 0.0644004244228642 0.0410325537634659
0.0349845822896532 0.0220382276403421 -0.0450484071138679
0.0423604229430153 0.1557767167513145 0.0423066509726632
0.0291304123320549 0.1930329174782898 0.0545674325140493
0.0416538888711726 -0.0088288416450276 -0.0567046240584832
0.0422577771066065 0.0037292130340541 0.0565218686772559
0.0313422348648392 -0.0005523266992713 -0.0405675081515963
0.0943215307602128 0.1695981023067382 0.0625700285180252
0.0850245661878719 0.6169769589999579 0.0334035307471112
0.0729097437475645 0.6925632115379435 0.0871123721077978
0.0734919055523057 0.4854829760774474 0.0069902675644772
0.0898000887315971 1.2398018063137348 -0.0222754745472521
0.1267378467024598 0.8780484909600912 0.0347480216697249
0.0746871731048856 1.0983061638678131 0.0387876085272577
0.1206730497742622 0.9243022666283706 -0.0121552138279568
0.0911774624410708 0.5124972981239375 -0.0263064029616970
0.0565136017976534 -1.4599543575476115 0.0656914866573395
-0.0635829933236870 0.0954460534357858 -0.0042133852257082
0.0827793171711298 1.0104811413011647 0.0247627894039555
0.0884056069548356 0.6972274080086509 -0.0460477869661570
0.0743453130877471 2.0378150246039737 0.0279856360741340
0.1542283540255696 0.7763037692787426 -0.0346037128872822
0.0373394870670384 -0.0029596079448963 -0.0075715524495987
0.0726646018102797 0.8229235185324801 0.0206550222662534
0.0733913394732345 0.8452232286956964 0.0444916357637213
0.0363507913000171 0.0047991884378795 -0.0065310669639517
0.0682355198275734 0.8299109839562805 -0.0099701338160514
0.0400549820259889 -0.0167034692833290 0.0004235065338221
0.0389951997772534 -0.0059443084558142 0.0016819584951612
0.0696836897416035 0.8845698222487213 -0.0254247127997980
0.0878727395631640 1.1173781749963385 -0.0191380449313697
0.0774789731769730 0.8701959583460357 0.0026418112850344
0.0831178453439309 0.4633189601586937 -0.0466980264405305
0.1324288270346945 0.7716462242542929 0.0022416032340009
0.0739512234141276 0.1640908200008447 0.0097095517650359
0.1981869239143787 0.6658052309829671 0.0216868665055474
0.0946673547412960 0.6611137274189075 -0.0093227353094006
0.0827888241095645 0.6370125273036049 0.0016057057666554
0.0952579936287843 1.0917480703295848 -0.0043143492860928
0.0908038010022172 2.0040351976819872 -0.0045250044262971
0.1003638282121838 1.0424899198213260 -0.0024860661091096
0.0902288587239072 1.1297012541104663 0.0014136643374226
0.0728706996510198 0.9450722834123969 0.0578610365826605
0.0904045653483037 1.8723044629781569 -0.0399830559118252
0.0786834680253094 0.8919776590130817 0.0143010815499177
0.0392098495583019 0.0292685641748120 -0.0100498205196101
0.0411056944173968 0.0308750503393687 0.0024625893060088
0.0377558393955232 0.0433444556397736 -0.0100997497662036
0.0725736119594894 0.8079723472308954 -0.0020844338603940
0.0777966661371719 0.9567325420587339 0.0335104152028147
0.0427387205523495 0.0318582594446110 0.0038018924575881
0.0752095658515087 0.8921526347652072 -0.0117957106965405
0.1524460459590913 0.3686855121618776 -0.0037725432568656
0.0972825438326750 1.0590225251310359 -0.0013788799386420
0.0888756723559802 2.0373006270777276 -0.0081565425743388
0.0893175237308769 1.0006978865149547 0.0792042635537817
0.0883198497123939 1.0454188831769129 -0.0117515471292449
0.0987323075115791 0.7216908620167819 -0.0262436022271019
0.0802624525873692 0.9355612146436135 0.0647416182601522
0.0769038253200164 0.3344480326023875 0.0524146438786525
0.0987183873084565 0.9417455777196013 -0.0087181197056322
0.0750545023770672 0.3308707861278077 0.0019020870101267
0.0847314820492332 0.8526751523063839 -0.0419389779994250
0.0795738578454983 0.9923640385898326 -0.0143455919367600
0.0921294061043665 0.8248668958361931 -0.0301985777955189
0.0980485102897868 0.7158319689204887 -0.0090065966397963
0.1006336631147906 0.8627101250310548 0.0344143312977584
0.0463034052327196 -0.0077691253924440 -0.0063833375394728
0.0763178251177349 0.7173362017823133 0.0278249871506245
0.0335086890893588 0.7952180912316490 0.0811212894108444
0.0886400469590003 1.3590098356826865 -0.0048031131625409
0.0883565853683454 2.0226449590248250 -0.0118199033512703
0.0721112270899166 1.2319991799352050 0.0400998184582433
0.0829195091712544 0.9287556030398177 -0.0020725667390916
0.0953775490543032 1.0137364514983138 -0.0414331014269421
0.0884020521694603 1.3768731634664120 0.0205378007218863
0.1019173325266006 0.9539242404381868 0.0540459180648778
0.0881172978343643 0.9720821917992085 -0.0208590948781556
0.0975376908086615 1.0401751510093120 0.0535883207144967
0.0753548593191058 0.2911788134006455 0.0144161627703083
0.0876771796542406 0.6334452549073818 -0.0462917254830989
0.0748975766811141 0.1133343551324104 -0.0324930135959052
0.0630361413132988 1.0483427838112831 -0.0144684393541567
0.0987352832108129 0.6583578423815706 -0.0099929517908806
0.0748009094506932 0.2210752438406656 -0.0113544989429569
0.0955299043562034 0.9351153407581297 0.0495116204800937
0.1027732354613542 0.8003457360756663 0.0222387176831331
0.0891950473918483 1.3518840250742443 0.0019024479452583
0.0812242307556419 0.9551414612587414 -0.0443520070552695
0.0821820853804675 1.0000234180293375 -0.0103933372337599
0.0825178051980821 0.4459628953188808 -0.0347337973698683
0.0884938498315631 1.3206115864376731 -0.0170246616460611
0.0987853507988906 0.9770240299597592 0.0563243410524012
0.0994277769019980 0.7551844355242319 -0.0156393238440783
0.0851434395340213 0.8355917359120438 -0.0007099421861859
0.0830519288166930 1.4766538830635740 0.0287925035193867
0.0711210369757449 0.9645909642823760 0.0156557500749739
0.0809647319830551 1.0194494726476755 0.0189881849945735
0.0821244645285969 0.0915852925983410 0.0247195648340336
0.0520821928417144 0.2192714902445788 0.0382182623467022
0.0345745408368896 0.3142367416331609 0.0568182612709492
0.0697393598506870 0.8241421046776132 -0.0392821975304291
0.0764151008687651 0.6860592665270877 -0.0118385302063690
0.0827208025004602 1.0247018994416124 0.0002862060294279
0.0867263695576530 1.3221330069394899 -0.0135702070028188
0.0749358834058285 0.9810189369152840 0.0108878446132841
0.1142197676289583 0.7216356173636062 0.0730208104398605
0.0840710089395658 0.9913786503717948 -0.0184640007281909
0.1149924156628223 0.9102210845839174 -0.0016631073797277
0.0880905124803468 1.1104393505074845 -0.0262356266280005
0.0860721564241341 0.3261971802776623 0.0079946683595039
0.0886331649336978 1.1251734997302740 0.0217623219176726
0.0894436670843695 1.2719570563508646 0.0072309974811596
0.1086434413312114 1.1167075797988220 0.0787243219420421
0.0700619683487937 0.3142104535797661 -0.0274006298867441
0.0419778157108112 0.1560574990086513 0.0082469014734269
0.0888879369165688 0.7680247067590285 0.0008244348966509
0.0799256411212037 0.4427044801537409 -0.0439874132318256
0.0887379317802246 0.6801998279932477 -0.0149593627450732
0.0877084962730318 1.0182635361262282 0.0420496449537015
0.0939531042125217 2.1484360669125961 -0.0440629927577552
0.1025828789698012 0.7924420008658587 0.0055466589486690
0.0825921159854397 1.1466978613371621 0.0476063737907361
0.0437292625895911 -0.5487495884531016 -0.0085805686665072
-0.0696689444206369 0.0860525466962460 0.0039304252272787
0.0881445889209324 0.7870590116341275 -0.0216733480686659
0.1008013171596574 0.9262717053825948 -0.0280920498966390
0.0323089463816280 0.0629398188549092 0.0123732309952346
0.0896791224827167 1.1121486948489148 -0.0347927497724610
0.0834708226730725 -0.0598217279335514 0.0049522816574372
0.0894053005839494 0.9391250438909587 0.0295369487058500
0.0852661818205721 0.7454644388962987 -0.0447048732234743
0.0823629611847532 1.0515244781740800 -0.0032867408656715
0.0869484105808118 0.3924737580815696 0.0004459881558683
0.0885051398560123 1.3186369707434171 0.0002176081115055
0.1373815447461514 0.7882093189668268 -0.0184882460730784
0.0913570036872991 0.9320087276880780 -0.0041951228968921
0.0953748447808961 1.1035519577807673 0.0800571278980126
0.0883330123357400 1.0999166713093780 -0.0075037701512021
0.1888817613383930 0.7299405176837731 0.0411560119911061
0.0877035850749835 1.4525722500297813 -0.0200028568503554
0.1146247861538898 0.5980083981223651 -0.0644521694119133
0.0924358191890223 1.0125060647196340 -0.0448567898967576
0.0851629280064931 0.9222946874532444 0.0065487026075436
0.0592697593951694 1.0328550317672385 -0.0330555208312534
0.1161306778371079 1.6325221411237714 -0.0647267634249429
0.0695591735825391 0.3186291395259585 0.0305520455323690
0.0852424236098676 0.8856890240652564 -0.0137865026333471
0.0876201679354383 1.1911943039118400 -0.0319889901887014
0.0653812161000735 1.0732427618819183 -0.0021288665792296
0.0926437070618915 0.7210266396892733 -0.0079330257603954
0.0844771040107289 0.7624455516599496 -0.0362520163043070
0.0894928630811588 1.0341566169798497 -0.0480095578773396
0.0845866950034997 1.0238140279090642 -0.0022576018777039
0.0728122811084099 0.7847834291931501 0.0257763701162918
0.0290230533365312 0.1290515813192615 -0.0226136573149798
0.0424548471123106 0.1174991799720904 0.0087655893975983
0.0459399777649328 0.1025874081965835 0.0391969385012246
0.0926328085894518 2.1207914638688226 -0.0171603969861548
0.0753481696933966 -0.1645887502522690 -0.0193133828204296
0.0850186630634418 0.7978472203531263 -0.0001769141822984
0.0802263806588030 0.0657410483870670 -0.0739542873739554
-0.0565723675853641 0.0950794092403941 0.0120588827532154
0.0845769313879448 1.0298723331710062 -0.0147937361359011
0.0986965652979767 0.8567163386444874 0.0182790962595054
0.0766740678926637 0.1778316749487482 0.0078127237884432
0.1168623322647448 1.0891232850247390 -0.0767971137580320
0.0848291261063524 0.9531624510358778 -0.0074773295587532
0.1073857210448984 0.8830711970654490 -0.0002097447362146
0.0885122296830409 1.0584106583331985 -0.0257791512544956
-0.0061217819393220 0.1836282187166164 0.0712837017477955
-0.0187246797881508 0.2116228238075657 -0.0516902731243574
0.0708721957006436 0.0078013458977980 0.0800521004989405
0.0776330079237002 -0.1512399718848704 -0.1158367423160754
-0.0063856596018409 0.2255091906600065 0.0711100602400504
-0.0189961620846300 0.1744102148651775 -0.0482605554979019
0.0906002794579215 0.7373318782951174 -0.0140207776055565
0.0947200728502148 0.9727444913891857 0.0378193115508672
0.1104184754357499 0.9871967601193443 -0.0368191440316029
0.0757618199855604 0.1930359995716613 0.0067587290257690
0.1292434760309063 0.8004897258882714 0.0007040720789504
0.1345294684816501 0.7729274477303849 0.0388342689404386
0.0991944550047614 0.8778598939144124 -0.0024157713345964
0.0907447840932420 0.9184661164091058 -0.0157042263953788
0.1069959967883794 0.9977499204402003 0.0065216356623259
0.0877211467431812 1.2717941010077545 -0.0316895115188440
0.0636394266562213 0.7534998819414722 -0.0362067751561156
-0.0185314929384567 0.0574168449743777 0.0184416895006519
0.0827981454360495 0.2624868772420410 0.0370877092789518
0.0835485701109785 0.6933695936756465 -0.0391645597492794
0.0629174946284491 0.9885911605488737 -0.0332825076939988
0.0862725702354274 0.4030691141297206 -0.0127181778214879
0.0886167879465622 0.4886046322108033 -0.0430996016425131
0.0580702524135027 0.3164123263941580 -0.0137168269741941
0.0322617969446742 0.0959458410277074 -0.0197676056275474
0.1003346473134083 0.7123640991930560 -0.0369320189726244
0.0888685342578452 0.4212276588374925 0.0106339611348976
0.0813042308544854 1.1862755936339988 0.0558152143486944
0.0928637157824456 1.4105875618308532 -0.0492264385528526
0.0905771654830521 0.9710837416335311 0.0291928296894394
0.1006696036768833 1.0029041222286523 0.0620152223241950
0.1048832988186634 1.2660308175250115 -0.0433545847355025
-0.0196647649756487 0.0534419442423967 -0.0365936022569534
0.0878805996924765 1.2702293394989532 0.0114087817481855
0.1055559669766424 0.7724943371468608 -0.0080553079686969
0.0822159980337762 1.1651525817231654 0.0275092092870642
0.0794935056693283 0.9162786892881829 -0.0274497042547359
0.0452714912278344 0.2028424307398622 -0.0442270833442300
0.0913367882228582 0.6512560148736114 -0.0898580217332363
-0.0409315600458958 0.0219234857548828 0.0279279957597382
-0.0392321272847244 0.0389940941658661 -0.0205916370760976
0.0737864048462118 0.5968206303224179 0.0480566483951646
0.0833712402293798 0.4383648954983735 -0.0694662019906824
-0.0408196421093177 0.0494421562004453 0.0281786799117040
-0.0391727928981030 0.0398257033455431 -0.0185833435073031
0.0860980664502656 0.5404921729936526 0.0927191612502037
0.0738974684802940 0.0972092300645492 -0.0176409532378419
0.0441785395094626 0.1704488336409558 0.0003372169630757
0.0527448219941540 0.1679893071193350 0.0193379685085090
0.0441456011195360 0.1355750523904046 -0.0102137669496886
0.0537140083561147 0.1462481471851727 0.0017370339248954
0.0428689576394532 0.1863509111636657 -0.0001427778888210
0.0719746677483117 0.1125210617693605 0.0199898533090024
0.0459009168100292 0.1096857253416771 -0.0084272321229391
0.1296510540367268 0.3028001406320421 0.0443589947854676
0.0803587972234237 0.6883242004572528 -0.0500694162364247
0.1071742236939620 0.9453136882001365 0.0523445830249445
0.0861972564984792 0.3715155232475637 -0.0310908622074668
0.0671866160906337 0.0251050934315836 0.0010898620102155
0.0531794527821588 0.7178930083596606 0.0003646988685218
0.0794306772849568 0.2839112951099971 -0.0145765729969007
0.0897092266735146 1.7136714023795552 0.0063600693830947
0.0793330023262034 0.4736074583939113 0.0569320613615921
0.0982591535197685 0.9032041364617670 0.0425145284797281
0.0991471562707329 1.0199362865549462 -0.0073277038788680
0.0918325061270308 1.0081889024888901 -0.0099920190027394
0.0966146637169540 0.7410230120626560 -0.0448725402851021
0.0583702778558652 0.6260825380604128 -0.0682829146434391
0.0828060030271412 0.9364903929472721 0.0041318680995139
0.0812651231913586 0.2908612579905868 0.0218727874085653
0.0842783330946843 0.9067029010972644 -0.0111453456419768
0.1477234060441490 0.6388969082396921 -0.0198903909365925
0.1161205481041554 0.8990316527184837 0.0156291656630566
0.1028084571304169 1.0908389615876162 0.0104434419029735
0.0874630521103112 1.2061339488753218 0.0250593539500925
0.0643513336177171 0.9170847678601654 -0.0297253415651559
0.1042325394988214 0.9184087217377139 -0.0163070263270929
0.0824422719548729 0.8477146974850329 -0.0145099957244808
0.0846798350577044 0.3020949865218489 -0.0164736962696233
0.0743843625043605 0.9693490380039764 0.0015497468006422
0.0637958614446271 0.1368099942993397 0.0194773275079318
0.0730744442768010 0.3796001240306545 0.0832693610858944
0.0884943706229121 0.6706110566560393 -0.0227073684138466
0.0990128151221886 0.8655976825538568 0.0349985105385003
0.0706887147313641 -0.0460391970989995 0.0077735150408451
0.0815094302029362 0.8335086685313363 -0.0388071995910150
0.0813005410136476 1.0092697705670688 -0.0112337413790279
0.1055595481207857 1.2030625230451002 -0.0044949612649837
0.0914111378944865 0.9069603711008106 0.0407440852556853
0.0813939691967554 0.6403928962994700 -0.0154057609691482
0.0963286358583614 0.6936717082137591 0.0255588836195403
-0.0638610039350108 0.1121111696319258 -0.0039737811966634
-0.0590676399101659 0.1095459944072750 0.0076270743003284
0.0579250858803112 -0.8834079519206002 0.0281149190967362
0.0590357069280103 -0.7169446026834626 -0.0487360017472011
0.0876347255148009 1.0516554474318656 -0.0133147159829609
0.0855743417072337 0.5913371695847031 0.0325163872230196
0.1177035898554992 1.2688554988460035 -0.0873520556094070
0.0839692316082475 0.9381412562943948 0.0034056718406889
0.1106798580144331 0.9409093181119420 -0.0102539570449256
0.0987695672503711 1.1128734444255215 -0.0036707651692536
0.0970310590171777 0.7863039340892555 -0.0166465030453847
0.0826308865187586 -0.2025740075058867 0.0282116713086868
0.1007849326759209 0.7639476126135523 -0.0325164882107569
0.1132148622817229 0.7350310999078006 0.0431376229448253
0.1096454085598067 0.1305598617975739 0.0725111255332801
0.0897570839532134 0.9539040654425219 0.0257549813459652
0.0922150991547798 0.9503819169494810 -0.0046066553299758
0.1461589266609798 0.0777699480965652 -0.0122747753290648
0.1225402726393624 0.6359681802743307 0.0079742965989885
0.0962847802068229 0.8141987539393266 0.0342220214561257
0.0872202833779081 0.5688936598983904 -0.0145502470071117
0.0608395526219755 -0.0206920895373218 -0.1000542161608085
0.0983713846932273 0.9450946561288487 0.0033329391697354
0.0966053241655987 0.6792518225103413 -0.0420060550903608
0.0833759767737969 -0.0146161112484481 -0.0057773392085895
0.0909707570396825 0.5511387060844198 -0.0450729006700973
0.0668654781039732 0.8311119519959695 -0.0686788215683528
0.0804246456912935 0.3647223741038162 0.0586913309637376
0.0907955211500568 0.7154640321252410 0.0285226113569962
0.0872459358381504 0.9072650598568910 -0.0307844445181222
0.0754073659510029 1.0839521741842733 0.0385533433584357
0.0891518228843463 1.0873198974674669 0.0019570446644558
0.0819015485409525 0.3244445109242500 0.0440057427709263
0.0992902492208390 0.8356355555327492 0.0376644503711285
0.0833351284694693 0.7752231335876358 -0.0523037143782052
0.0827911052485037 1.0169987789233526 0.0401443236122911
0.1083471519623504 2.0128576032134995 -0.0497281462182491
0.1133069014022953 1.0129352914472578 0.0712814819476763
0.1019108851789677 0.8083765000908477 -0.0029528308525370
0.1196042463241442 0.8392202689560803 0.0019592488588111
0.1259278212312391 1.9532748014807120 0.1056962143955491
0.0856603265184337 0.6334190595506020 -0.0364514345924652
0.0855723602495697 0.5593865401323361 -0.0168245785473118
0.0847371408245571 1.1381656097939945 0.0412751967156071
0.0892152318859923 1.2502621199121460 -0.0019747957465999
0.0926176605462845 0.2235589463572359 0.0319856140755385
0.0875698872180029 0.3968095079764985 0.0018742933342323
0.0892892714492995 1.0487648521707105 0.0055982219568906
0.0903835772659313 0.6499544030196364 -0.0006343167726564
0.0170195919076642 1.0922017655506584 -0.0265636703938737
0.0880750479282563 0.6656029233578428 -0.0224878089596322
0.0866371150775617 0.5921015370147714 -0.0206957268681223
0.1009041337680312 0.7860837955446420 0.0103346752950751
0.0987771913871793 0.8621799002529225 -0.0535823487255084
0.0826524960182906 1.5834567697681234 0.0485154938300729
0.1091332455561371 2.0317244632211193 0.0873974578398573
0.0842624045389319 0.9194802230234301 -0.0132548154824783
0.0831923288727870 0.7921306509571112 -0.0377649225832144
0.0718922255428321 0.6772724641485027 0.0088907225165473
0.0847032221783957 0.2604269561222567 0.0028496991456914
0.0855226992025135 0.3915486863573597 0.0197144499395734
0.1053538460698673 0.7749519524995343 -0.0368933356995599
0.0807492597519730 0.8772446770821701 -0.0181384843863186
0.0811522974192161 0.8641911849753474 -0.0365389250363280
0.0752133670402647 0.1129292155843683 0.0523145178261192
0.0872239719290176 0.9442119159781917 0.0030128095543979
0.1032694677473208 0.9639093111799864 0.0484843606952706
0.0427130255834623 0.6411923227199053 0.0212228341830152
0.1008148165580063 0.6215752856565726 -0.0410741190558851
0.0735152892679675 1.1169882832299718 0.0841399621801736
0.0691171959951417 0.9118834243846005 0.0505654242803002
0.0784961828844822 0.9142185602692422 0.0158366086479591
0.0969016758197602 0.8127167318586080 -0.0431894415938568
0.0966967489929662 2.1348061786887857 -0.0186548713767658
0.0772803414693444 0.4391702633221585 0.0716790000079698
0.0832049267403216 1.1365802485577881 0.0557733299817239
0.0969113865102582 0.8121368029951067 0.0196051004814406
0.0978784635939384 0.8986057291684921 0.0398598661060430
0.1363006248580389 0.4018363525008258 0.0294336537098718
0.0794333149773908 0.3415432421336940 0.0695878799748960
0.0911760546711334 1.0746502605228612 -0.0092907474203268
0.0661681268267605 0.2167049893683187 -0.0064739352592846
0.1070408221539614 0.9023534415771479 0.0470145214191960
0.0784560929315161 -0.0861707515638294 0.0542632670253787
0.0859223205548078 0.9229259543093016 -0.0117596548838151
0.0916343312343502 0.7089658194157018 0.0036547985678801
0.0839462988411131 1.2543510487283818 0.0488836025011251
0.1013518838774963 0.7583504799233719 0.0099108941961172
0.0860803127510930 0.8426164174022137 0.0234795959089917
0.0815258267846174 0.1079287117289191 -0.0591869556482823
0.0583498676688536 -0.1612548817905228 -0.0525387962448050
0.1001104646513663 0.8711078358842813 0.0302827836327826
0.0792652795306197 0.6647813906822350 0.0330551549453411
0.0710159802155648 1.1719521501530492 0.1068215147336082
0.0869625252212711 0.8268053640752960 0.0178092777261659
0.0325771002446813 0.9142880751898309 -0.0809057609908072
0.0574628778229117 0.1693606587732888 0.0310172575312955
0.1485950382179526 0.5994526777235384 -0.0017498422829377
0.0838783426172628 1.0431268599565431 -0.0056612324483202
0.0726314170927007 1.2027311708029558 -0.0825387570601664
0.0940111239093878 1.4598134284241524 -0.0373062742956398
0.0775810790450042 0.8416748457214226 -0.0139776734158411
0.0998413380324140 0.8493634445300333 -0.0137069704882734
0.0792121572428744 1.0358725283574841 -0.0034390569379485
0.0969188269300031 0.9719888512261567 -0.0052760758195435
0.0801731449997759 0.8673860024475692 0.0452231006191117
0.0832625647966964 0.8402399946438157 -0.0285298883618880
0.0425558996087676 0.3016622113775617 0.0608755145559797
0.1325918945813484 0.0619974928507912 0.0739201853487111
0.0846098847618186 2.0063407063531593 0.0076948094117107
0.0829735065533637 0.7642931622684813 -0.0286245464642193
0.0872944798318490 0.9896561414269471 0.0098005356130782
0.0962928796937477 0.7874400663331346 -0.0476775646061111
0.0777848027066908 1.3643624260658744 0.0412790191537832
0.0737118350680827 -0.0524426501110196 -0.1478708744456024
0.0720067059044286 -0.1047636161317100 0.1497770612460954
0.0972018950518796 1.1556286880623772 -0.0152277778379259
0.0856979456667669 1.9455399979702155 -0.0002624222887594
0.0873070091455132 0.6734716937129891 0.0237801699180059
0.0831948064246182 0.4001707304489293 0.0314140751786533
0.1011486571088157 0.8181994532151117 0.0769186242251007
-0.0635510356321106 0.0906156169306781 0.0047389396540412
-0.0788377983868316 0.1329827613905509 0.0046200756574084
-0.0815634207413510 0.1066977864092776 0.0028763434444739
0.0552347253823694 -1.3457518911262272 0.0690230382334239
0.0843076520222972 1.0627464657729269 0.0492692915377444
0.1022407175116084 0.9356279402321782 0.0194223489212937
0.0969965236929989 0.8506541034801524 0.0254094492794709
0.0937646841206182 0.7008279626201382 -0.0766650400910064
0.0409757497666461 0.2614638547273044 0.0620066770906105
-0.0072713842251128 1.0927086543229936 0.0225658146827545
0.0994386692963220 0.8249638917148289 -0.0180396772866076
0.1367761979726422 0.7750382180592156 0.0304974712353395
0.0801606692392994 0.9526690248663500 0.0266027128296038
0.0874492989812119 1.2009572690466384 -0.0107084364559044
0.0899674441500113 1.5803449502062459 -0.0036630864075073
0.0878122474319909 0.5661099790092116 -0.0065783247466795
0.0897781227432542 1.1714589060273559 -0.0321914891524425
0.0889009399406679 0.9838518192159943 0.0079578946393718
0.0836286712374512 0.9449765616517111 -0.0132177979212877
0.0806517637674635 0.8313088135540172 -0.0440723494864712
0.2099124264112974 0.0653041113334426 -0.0998157308756887
0.0882094872982656 0.8951081736615798 -0.0061270457445233
0.0836750219565672 0.1878194437726690 0.0124230910176256
0.0816595834221641 0.3102860493812380 0.0294350683728848
0.1062789934155178 0.7955478072351587 0.0257217492464777
0.0842503520563175 0.8608060983148730 0.0909861208228062
0.1647818159813984 0.2652690418467105 -0.0003239673398548
0.0743785135262881 0.2087991981377680 -0.0072217192136928
0.0943022929551330 0.7816563269898241 -0.0204895574446114
0.2197072612343399 0.3897172946859728 -0.0443310998808075
0.1039170592280390 1.4412918365276342 0.0061308797880942
0.0852047266216255 0.4586295429345034 0.0271634698700788
0.0692463121953632 1.1572723851256430 0.0945159569732279
0.2162504840224679 0.1308466541722460 -0.0627250289815569
0.0709476819257308 -0.2046974447625674 -0.0750028462683541
0.0825869242770006 0.7060841273609324 -0.0140951461553117
0.0858906652434077 1.3259085406549129 0.0577636318936924
0.0635504129355233 0.9332003293536597 -0.0402827116593995
0.0935266280679535 1.0495043994754549 0.0020318947459105
0.0865154945577314 1.1937529037139254 -0.0039054565948576
0.0941066709537637 0.7820136662145416 -0.0201468876195937
0.0902925595894241 0.9122639947936697 -0.0187621322842066
0.0844030041164779 0.6461795801231842 0.0397138623287167
0.0467920456286250 0.4918825862129338 0.0112102938223900
0.0882202847284257 0.5884546450719520 -0.0275128183092400
0.0608932923401784 -0.1861676333534855 -0.0042359822496266
0.0959802210166686 0.7486142040258880 -0.0191865797067390
0.1034695308708205 1.4143895543273508 0.0273113553429185
0.0857562568827130 1.0317002175221446 0.0185999664744328
0.0883751617701963 0.6644153310792494 -0.0138806064435907
0.0746532022130016 -0.1830911418221869 0.0221017080756471
0.1404004219369697 0.0512985669429823 0.0468659148850797
0.0866239004133381 0.5061190678298375 -0.0194478205262276
0.0616268773436235 1.0277895003787354 -0.0060307403105324
0.0844274582655278 0.3904200643345697 0.0475433000811064
0.0906868473815689 0.8169367110309748 -0.0204416225494046
0.0865568344472332 0.7980858590780870 -0.0218766987927591
0.1918525886781454 0.0670447201072835 -0.0778033834930793
0.0883314277125598 0.9945636233901505 -0.0345170917633065
0.0491699115502094 0.5571143561392937 0.1023165967191197
0.0930669427135673 1.0564815571537267 0.0450490128357904
0.0839522729115423 0.3016058418171209 0.0082136429834158
0.0766415211252146 0.8729970325481120 -0.0343080940204592
0.0648047488534658 0.9205493730278070 -0.1061378860616111
0.0924134298738787 0.8189650710460988 0.0325060355867166
0.1012160117695556 1.2490870289350298 -0.0112476877000172
0.0748926944616360 1.0273825550463880 -0.0023304191760517
0.2411492864829213 0.1177316870511570 -0.0520094486682088
0.1277892630784211 0.8727660509059645 -0.0593205464248499
0.1406136496112027 0.2339394131309785 -0.0939192189645587
0.0894081818334188 1.1120757950946722 -0.0252846051291154
0.0722360583004989 1.2385584074272646 -0.0422289947465695
0.0693903440301386 -0.1565595050195796 0.0409106909894022
0.0683429365504280 -0.1807688371988019 -0.0871470965488504
0.0808951522167774 0.9759645425159374 -0.0216042630122556
0.1054071654377775 0.9760880374608838 0.0029875463864123
0.0917613384214057 0.7517687870225757 -0.0159219153026111
0.0689967620050104 0.0335904650921410 0.0036978660023960
0.0541290865093976 -0.0607433399977705 0.0317027522829958
0.0871971713973456 0.7721768425816471 0.0358313266811357
0.0821639920538936 0.8621570190957296 -0.0333266068699360
0.0842202800087960 0.2905957998323667 0.0287857316966462
0.0792884716793753 0.2422072770709628 0.0635634236756924
0.0851665962733775 0.3806063848979704 0.0325848227342467
0.1261825822191077 0.7032813778686863 0.0413378647114191
0.1482002471373600 1.0828439367314124 0.0550258150547805
0.1010061181936415 0.6439665614971711 -0.0484214945724762
0.0907046433906676 1.5004957518977440 -0.0856078661001355
0.0836973641353433 0.8659495241446796 -0.0168361563734948
0.0912534792072057 1.8213288536764605 -0.0013352052364769
0.1168407524387960 0.6958548174126907 -0.0126934934982025
0.0889254605157704 1.1715142495822988 0.0061825062869933
0.1004528150912267 0.8677567267699959 0.0271261874637325
0.0886788937863315 0.8372324647165142 -0.0237721011888908
0.0881289880571287 1.0272902259488534 -0.0135587672789440
0.0939254069749868 0.7591774324453705 -0.0180506497715361
0.0867534912895977 1.4468044042086967 -0.0240110962524766
0.0931057583412960 0.8160137503966786 0.0263645751257004
0.0848060500372943 0.9637568524803446 -0.0153984771659885
0.0829588928944520 0.9324396766017778 0.0540711598930249
0.0861710413985771 0.4526239788267020 0.0194776645649716
0.0692137605647265 0.4787608940556319 -0.0314961314698217
0.0931916832135986 0.6332894358192435 0.0145344692076784
0.1241962563857469 0.0412192226107408 0.0078639825595438
0.0956938537927452 0.8366485636655975 0.0292426986319431
0.1005394394780695 0.9207498940421593 0.0451893977907037
0.0935441689269461 0.7386218183606322 0.0144012587494267
0.0860141680776587 0.9580406799536120 -0.0005466244638737
0.0865689897081697 0.4416542589202733 -0.0227920874421029
0.1052329362654308 1.1267263289331857 -0.0141320249754212
0.0818479238210188 0.7324380068998211 -0.0409033633327738
0.0938373413246835 0.9429523244404776 -0.0078483155595476
0.0973555614177732 0.8326495949921996 0.0179613185679810
0.0965302440720228 0.8119324044746206 -0.0025056952193697
0.0893829160677981 0.8566374704624978 -0.0212096996897969
0.0763639343471730 0.8488593424859396 -0.0290553000027245
0.0872959375551338 0.1472424962268229 -0.0206954143583455
0.0734734481014932 1.0284190319370230 -0.0120323298007681
0.0882114054381950 0.7827457272822939 0.0278814836258193
0.0771366887707369 0.9913928238938919 -0.0459186924410135
0.0801255181794741 0.6639548666993921 0.0454193950402179
0.0904820913680381 1.0500817031686804 -0.0132148322524195
0.0823699770284013 0.9378648792414145 -0.0072625563097440
0.0831844527780236 0.7109509952124069 0.0010505852219266
0.0933715670505775 0.8846533276639199 -0.0177880558984832
0.0954545733664074 0.7987453905076826 0.0203462915059320
0.1019972562874050 1.1286374392774610 0.0043196967097162
0.1106388216603325 0.7633785480152828 -0.0400888135944555
0.0992541853274607 2.1405054033712450 -0.0551748853163882
0.0805617531193952 1.5035200574573313 0.0532781565749624
0.0920267957857326 0.9539421601771079 -0.0044030672939391
0.0901323557453626 1.1562816635171911 -0.0036061864362634
0.0854745975971231 0.7832921644094258 0.0005288694728467
0.0787338596177190 0.8179459132578561 -0.0367806044267396
0.2020187116205094 0.0699649199208022 -0.1018237267175364
0.0838751898758819 1.0909295038829669 0.0413612841941936
0.0806918931418130 0.7657664232618810 0.0267553504096283
0.0858962720673981 1.1403912934133138 -0.0869457920075745
0.0820529568649285 0.8815546526313845 -0.0258153207467298
0.0832448442536522 1.3881329249189056 0.0881556625234039
0.0481874386293337 0.5419114968051406 0.1081993115449319
0.0841014956763218 1.0849905435430125 -0.0282550907710707
0.0602161059926000 0.9534377140282989 -0.0670349172160127
0.0958553397389477 0.7494425861338870 -0.0244836198249730
0.0863510584546165 1.0606870611760701 -0.0116289402201206
0.0460923631487428 0.5573066243411967 0.0099625825923120
0.0945009776879317 0.4842440631769544 -0.0359419144588608
0.0870326897039042 0.4531230898721466 -0.0065434018113297
0.0870415432095852 0.1924644378476894 0.0771645299270780
0.0781084269639037 0.9531472075584728 0.0017669676059674
0.0861142093211005 0.8699512624852148 -0.0042018575703267
0.0782867219050558 1.4681804896767248 0.0166027104014956
0.0776365868130073 0.9369980205942742 -0.0147242884060505
0.0805401001683660 0.8393297631893902 0.0835349738511261
0.0791325174076355 1.0507277164287128 0.0216990760410774
0.0949170489014250 0.8314808028225037 -0.0171065274444036
0.0804211132785460 0.9185337600728867 -0.0197037294021155
0.0886257931572629 0.8356232022046691 -0.0356995909659082
0.0854836033894030 0.9688762213879173 -0.0171689178587991
0.1038139613790141 1.1065517071051743 0.0143369450317284
0.0854294595653129 0.9599901548941765 0.0090997450271952
0.0905576045768957 0.7541578772655900 -0.0243957929020527
0.0896319509123082 1.4246199660831571 -0.0145622473369438
0.0864728884469696 1.0186093380103614 -0.0170775779349043
0.0847137017028098 0.9354205633241816 -0.0392268172614595
0.0947404629209847 0.9665871183801392 -0.0117324042778581
0.1024769953767824 0.7892042235203762 -0.0194407142904913
0.0935607668900802 0.8369800533934170 0.0420645823568870
0.0800614251257722 1.0519734314365330 0.0076523497697350
0.0858003604018166 0.9871442922144280 -0.0153693254219951
0.0947104826648919 0.9473653277622831 -0.0175824741096292
0.0893809399611404 0.9942723767274068 0.0154547670736716
0.0885266641574192 0.9110902269464828 -0.0445081142097264
0.0892317727683161 1.1291166069117025 -0.0182196532850688
0.0907361706983375 0.5383170736445909 0.0081879928302340
0.0828763808626776 0.5445048852618700 0.0355325370348136
0.0843766555420752 0.9366734338487803 -0.0127513003781684
0.0882145380574945 0.8721903403606199 -0.0015190238922597
0.1193642232503450 0.6563376265307068 0.0262523368208722
0.0996160676131083 1.1348732773883732 -0.0074936002157244
0.0845263802836828 0.8091051851102388 -0.0135246816715270
0.0459814397190445 0.3739942108691070 -0.0110937564402456
0.0855712307908600 0.3140807099850365 -0.0017042287106680
0.0840481327510679 0.6319977909838104 0.0288419440337896
0.0885219877867938 1.2684360340479548 -0.0120156307160147
0.0768160525567079 0.8538891883833329 -0.0307449795561519
0.0531860841128223 0.6113024395829972 -0.0040448779391924
0.0878281286486979 0.8807515163463768 -0.0007610324191185
0.0873006867966719 0.7425557416853931 0.0230507071583974
0.0887835164877691 1.0681894233570752 0.0090412936378145
0.0916815091969521 0.9588252650556223 -0.0178476313198860
0.0871325184689477 0.4740322997859857 0.0125602004019386
0.0885831846633962 1.0496523290782436 -0.0213759893137751
0.0940166344622352 0.8851135432803737 -0.0188071039307709
0.0820750284668321 0.8522786509260523 -0.0007650991058909
0.0904348599328440 0.9481107500246794 0.0025834923192943
0.0799240931480460 1.0224497941756867 0.0028188713879122
0.0871650035460249 1.0533535866970292 -0.0161593060673941
0.0736617267592410 -0.0921081162658214 0.0471932380343803
0.0872524102803540 0.9455681505315739 -0.0119349929697726
0.1092272101461269 1.4862198813521466 0.0112987790337258
0.0923369118841510 0.9105413217358654 0.0270313037837147
0.0862810007285742 0.9432520926979484 0.0268987361870585
0.0581126275220262 0.8942431591240328 -0.0369174127994530
0.0930126008738097 1.0003703642256963 -0.0150313124563059
0.0885675841719924 0.0362288278012297 0.0737021784490825
0.0806892552790441 0.7791805987701244 0.0010255785121697
0.0885975210109471 1.1929285060222850 0.0877600863310140
0.0878204409832151 0.7850041603207268 -0.0243733831968071
0.0956028060921797 0.7166705098825951 -0.0085424560087152
0.0987661411546995 0.5822980075214272 -0.0297287058679981
0.0831787753633477 0.8857372884233462 -0.0224934668720106
0.0980597768196989 1.0352438385075089 0.0691053376391766
0.0844590544984889 0.3438591036514839 0.0144277753419553
0.0903617688372114 0.8293699998347425 -0.0157261064936102
0.1012471714438384 0.4600208826588261 -0.0403805311832217
0.1101315348164528 1.9689377485414199 0.0088337148694717
0.0887345112015354 1.0504213495938941 -0.0108010638994906
0.0836662138130618 0.8729351234679974 -0.0327934138716125
0.0967906772015542 0.7948228112260338 -0.0043944583953769
0.0886498236274915 1.4210831888397952 0.0041937158594186
0.0972083459318958 0.7460410505335198 -0.0024769700842221
0.1116122237117035 0.7197004014564323 -0.0488006655956265
0.0457115113012790 -0.0354061263090732 0.0262905025101700
0.1073344513421352 0.9646323064505472 0.0044749185169114
0.0901480883345239 1.0709442988895457 -0.0015357305760477
0.0892098217664117 0.7643173276747419 -0.0102296893667998
0.0897975541951120 1.0939794854680791 -0.0048721958788924
0.0882057635776848 1.0958807596000149 0.0158079779275546
0.0872321493090554 0.9962152862407019 0.0273013943841958
0.0892166326080208 0.7992359357082556 -0.0232894580981905
0.1000013511973614 0.9606256769996856 -0.0137116217735308
0.0824975382755242 0.8785285441566326 -0.0241639254064632
0.0867733495405363 0.7976501472546884 0.0042380840616740
0.0877898290889388 1.2688691134316630 0.0091451441585837
0.0973391515584688 0.9010405661493964 0.0273802318018834
0.0843298871661518 0.4719808352318240 -0.0252014206170559
0.0906451992631227 1.0433266238127401 -0.0119477197978504
0.0849236808110816 0.9561221973758417 -0.0071458200978889
0.0818885866395425 0.8693206884112267 -0.0371458527581001
0.0900025996468740 0.9403806278305449 0.0094290613885032
0.0930685985746331 0.9022444691084797 0.0094652205613796
0.0855193067858188 0.3373670429578071 0.0187488241583491
0.0870934706186524 1.0033641237474089 0.0413771785378734
0.0601917631911617 0.1656369810656447 0.0416050314886676
0.0897154242527897 0.9149011381328968 0.0250767374372750
0.0870323514093946 1.2072205378117340 -0.0008827523891482
0.0865250952393313 1.1006512208817547 -0.0314729828684834
0.0824021160672634 1.0375422773735212 -0.0147510365787274
0.0866550179742843 0.9383421646748068 0.0259418130216216
0.0941347886436275 0.8774170584470945 0.0328818314607577
0.0867885619813609 0.8444812407365954 0.0261974248633220
0.0914489428789212 0.8837502272645793 0.0122821393902866
0.0917395459057098 0.8087254873325918 -0.0225994254949717
0.0851187548099757 0.9461993610890631 -0.0023571624188578
0.0877479439298646 1.2083331099812740 0.0131234747053343
0.1188265089535441 1.0140195067603757 -0.0260338275418499
0.0866142800788903 1.0138875279824453 0.0018195841227310
0.0947349664242512 0.8280216211394645 -0.0169875506508986
0.0886742329571006 0.9680724841172232 0.0246925567163989
0.0779915086363277 1.0152754854109951 0.0046837974967393
0.0861954199897282 0.5209683893731849 0.0214929632117106
0.0868610853961085 0.9371343770452402 -0.0107907081070747
0.0901678696698098 0.9208567718645448 0.0087511657542938
0.0873360313467648 0.9452139268357164 -0.0043859859466405
0.0945725103664588 0.8728640537026450 -0.0168850110334413
0.0855957955987504 1.0012822452984169 0.0262077144677216
0.0923420935345380 0.7921925945364493 -0.0178456047676567
0.0841726017764582 0.9528709884684929 -0.0003629440279185
0.0902367955170138 1.1076846039288746 -0.0087024216356303
0.0821061255716907 0.8890842183621612 -0.0373531974652313
0.0939125653170457 0.8476245190555352 0.0092348083529878
0.0941814411053611 0.8853431952386031 0.0099107387816939
0.0624036198148889 -0.0381735968151083 0.0593039153358876
0.0862390175474842 0.9339588569959021 -0.0077688586733514
0.0927443929121894 0.8343942400469099 -0.0124912879851848
0.0941094853980705 0.8119654209610205 -0.0028167840804806
0.0879524715388079 1.2196670531274396 -0.0227113689056835
0.0830566525458614 0.8455415618576165 -0.0005566313403836
0.0906644574907992 0.7648419336234671 0.0111294504744039
0.0851471356580730 0.9554116000287530 -0.0036685178706595
0.0817329988789853 0.9733654569468035 0.0132081129280971
0.1254841640095506 0.9880961939813077 -0.1053225993404320
0.0964941889528924 0.8259464990738898 0.0052954773182220
0.0911448418388668 0.9521769962244533 0.0006653705661014
0.1031628061851667 1.2310245243743760 -0.0102392039350904
0.0992705559070152 0.7109274885792360 -0.0418487387962043
0.0972525278671095 0.8857155396264724 -0.0039069629785084
0.0880596497920887 0.5736512349540421 0.0012447411620378
0.0860941140450481 0.9727462655281197 -0.0070811404008328
0.0496355938210561 0.5118609495446770 -0.0547759205531394
0.0900830559645268 0.8740573342657101 -0.0192008931124111
0.0849558998855806 0.9522196765274217 -0.0061514982347272
0.0863503156842890 0.9492471434071114 -0.0055114079634830
0.0977395712609127 0.8257144209419788 0.0113886013369185
0.0681190299262767 0.2084742976783457 -0.0437414111743978
0.0887199593978059 0.6819351382494909 -0.0122366324688925
0.0816634937975804 0.8609817478383559 -0.0007695016599445
0.0914470675259718 0.9621815569153076 -0.0034700035958502
0.0905178276855126 1.0402995576009972 0.0011853970671663
0.0854888125795823 0.4978494344805883 0.0289013011672817
0.0924791050352086 1.0100331958911748 -0.0098500056519610
0.0815470615143864 0.9239347250158646 -0.0037754372335464
0.0938119142968084 0.9521704545714362 0.0064522162000284
0.0981558672346086 0.9448401628989217 -0.0027864367468770
0.0950371434336906 0.7945319264175111 0.0012079798933414
0.0872150565092259 0.4527873653566779 0.0124944157659514
0.0967071069300709 0.9322454859971462 -0.0028357211889034
0.0986734381240878 0.8323863065411660 -0.0074382174173786
0.0953781816275964 0.9420005002355750 -0.0058028551233186
0.1049759658842380 0.9833105658800144 -0.0083634053882189
0.0925540485373151 0.9182207221919839 -0.0039736479605924
0.0888353666081886 0.9302235335060042 -0.0055274126876021
0.0912106838310211 0.9388593400482076 -0.0103398453011542
0.0944435471772278 0.8149275366299469 -0.0098217289975139
0.0872932457181362 0.5540339262705791 0.0150284959843564
0.0964887836848665 0.8203403862857656 -0.0188847500329904
0.0988099202081912 0.8320472626551768 0.0183922820545013
0.0923107351145850 0.9755193516529623 -0.0039993237957750
0.0953892367410073 0.8584500850729299 -0.0180644480170864
0.0874734821824639 0.5091735228377010 0.0063525642056856
0.0966453486594122 0.8727537283216740 -0.0184611271742858
0.0953974684858348 0.8310616623245345 0.0003505597061929
0.0967976645531274 0.8789690461513160 0.0200104175730990
0.0880519349418695 1.0534179935450771 -0.0046142350266391
0.0852380901699298 0.4844204103325049 0.0370095165445197
0.0826626454564802 0.8991621268628704 0.0115354200201010
0.0859130893498384 0.9709983199333599 0.0131412631545852
0.0903891191567283 1.2300493072293663 -0.0021437380715966
0.0804066307890610 0.9887143155701683 -0.0063051315129218
0.0979078491540387 0.9701911981204164 -0.0049590976885472
0.0988473196277992 0.9910605906215281 -0.0080451366506776
0.0906805762556039 1.0274209309025817 0.0127983164818021
0.0950259136123741 0.9000330694563464 0.0150656409872096
0.0897177149829323 0.7213999493243661 0.0158725314608391
0.0844910012750743 0.9791728934068823 -0.0139673029133163
0.0900360320029901 1.0374222354017946 -0.0172159748946055
0.0871656123427844 0.9173976835534667 -0.0188045004422468
0.0963567534133864 0.8588236460850460 0.0086073602784528
0.0898223754061550 0.8344593095246018 -0.0145577507801552
0.0870232466349094 0.4334363325213733 0.0226881191585170
0.0907265985491803 0.8753239420110124 -0.0144581482775318
0.0920317035878708 0.8990025251678596 0.0035779155931576
0.0911467483515305 0.7117252475665563 0.0125892555690228
0.0896870405949512 1.1937659917284222 0.0002313910800066
0.0884561759184846 0.8710740814463667 -0.0207902317525819
0.0891785546856557 0.9752783294782097 -0.0005042204445750
0.0919890363330223 0.8649553823249019 0.0067205245636819
0.0909009319426572 0.9395994418226421 0.0123870498009591
0.0883757262563546 0.9770574780589917 0.0133081487381548
0.0913562563891180 0.9352157408634735 0.0014185931024645
0.0911673765120848 0.9983198110637711 -0.0053024224859251
0.0897745469679561 0.9766860851885996 0.0034054702384469
0.0899815960423228 1.1312618181565768 0.0052191100151524
0.0921272901009634 0.8668571248279905 0.0066307894315235
0.0995595905267985 0.8903706454818752 0.0385956235418987
0.0909393663193453 0.9641934093998296 0.0013670287977264
0.0926225828474023 0.8678400683878723 0.0065426303396161
0.0905224469919011 0.9440234846663742 0.0012807761544733
0.0914245499141835 0.9589325561841117 0.0004932136127001
0.0897308941271095 0.9931775135000450 0.0131847878576955
0.0919018238082054 0.8483783451552158 0.0062106242079397
0.0893755681430102 0.9277711421011570 -0.0106736630856946
0.0915453907218373 0.9078264120284767 0.0122904845211853
0.0903267356714766 0.7508904540578081 -0.0145842411719383
0.0881406102234758 0.9675711526262625 -0.0060347870422088
0.0913373364099768 0.8871644329157562 0.0042280434700323
0.0927631437209999 0.8473977904189417 -0.0006143945823281
0.0865253013299262 0.9725981774385184 -0.0062247708335193
0.0919084293096305 0.9122531451441573 0.0042847520475106
0.0847847558879925 0.9791863490846635 -0.0100330802387368
0.0898758107434553 0.9581889856572607 0.0010564885980994
0.0907190297275171 1.1655922029016905 -0.0150175190556024
0.0918342829582798 0.8686370941345276 0.0056663400039007
0.0921392302612636 0.8682778132864645 -0.0092690348106949
0.0919298902965159 0.8957424300792634 -0.0091132261159076
0.0902444716019182 0.9451059470846709 0.0000930108481018
0.0908441733667844 0.9951824656682507 0.0010118782407554
0.0854265051000179 1.0148432025484559 0.0031688231265874
0.0902814428888321 0.7630940149939645 0.0097254469066956
0.0903451628572569 1.0248456453520756 -0.0040065249079728
0.0936782902394354 0.9950018865328477 -0.0099386946611568
0.0902971460385074 0.9600368783091416 0.0035064601587097
0.0907314300903954 0.9406307470664228 0.0034623714586180
0.0899698522412374 1.0640040113623921 -0.0090930488015393
0.0916469107131701 1.0042688910723945 0.0074158778964748
0.0851998946060344 0.8258995026147073 0.0425675626857547
0.0912749925856413 0.8949660135812072 0.0033589870173940
0.0908650327880724 0.9726531045787091 -0.0019466582097970
0.0888828563558458 0.9099547300758203 -0.0045603076836095
0.0879349945910507 0.6202907672405871 0.0256762607567171
0.0893174388081271 0.9951710848441372 -0.0044901925375541
0.0889933299959897 0.8051474218238175 0.0176709368670478
0.0912609100550297 0.9330530992326472 0.0035339653368727
0.0914832455475064 0.8773402244664498 -0.0036454442003011
0.0959165939560972 0.8594218416734272 -0.0055960440905849
0.0917457980397448 1.1042720470817138 -0.0039144544984724
0.0910913969607118 1.0490046059345106 -0.0044348438295446
0.0856943939724612 1.0074241324306521 -0.0059464153246304
0.0879874476087400 0.9913770202129316 0.0067310848363604
0.0957564683594741 0.8965771682023872 -0.0054653311482701
0.0909325069533746 0.9552652557170994 0.0036263640190841
0.0856241106632479 0.9710938956001326 -0.0138898222061502
0.0916896218798454 0.7471110133412597 -0.0029443235844223
0.0925047459664711 0.8829434481703430 0.0093266642226563
0.0911724878391147 0.7141562707218341 0.0098414368635746
0.0943696443430665 0.8656480796386348 -0.0000145009671798
0.0858731124788499 0.9939713778023385 -0.0040787649759048
0.0912675399854133 0.7488730098033499 0.0046599929311572
0.0908310608089093 1.0875022355483723 -0.0114695785871802
0.0898506655017881 1.1455407124806865 -0.0038498547510594
0.0925749188843633 0.8547514427378308 -0.0001476611692631
0.0908823258655157 0.9855250841718168 -0.0005879585324588
0.0905388529820606 0.9092103796404772 -0.0082129190676179
0.0890766388618642 0.9549300897100348 0.0128769751884063
0.0927333727509413 0.7485617876461790 0.0003092559902772
0.0905282732042424 0.8977719475728270 -0.0077587591473788
0.0905784593626074 0.8234274224828138 0.0097515850855811
0.0974989398876673 0.8225863673939463 0.0089142556843176
0.0844029443265458 1.0028509085389952 0.0007527957640280
0.0914683286293060 0.9947592183837236 0.0026729968676619
0.0894804579339721 0.9702254663126222 -0.0140123223666093
0.0920554743439198 0.7977448269676872 -0.0038710567946967
0.0912361103644517 1.0669606821725250 -0.0149116905010177
0.0806930425075295 0.9673124899374014 -0.0166543192952001
0.0918110739693175 1.0335396487498028 -0.0092684324775556
0.0890505450265165 0.9690521389568889 -0.0055558127114097
0.0903556980417512 0.9653997015339537 -0.0058129701471767
0.0907157482461083 0.9523947706730662 0.0070478285465052
0.0880311375734012 0.9538195737158334 -0.0076085762912064
0.0968639455046440 0.8287746865103743 0.0010904511814526
0.0906828414506661 0.8659757680233930 0.0116884260027854
0.0910294391066908 1.0268135366558453 0.0003564191053296
0.0916285137422600 0.9138769626855836 0.0033268566699034
0.0909917936500269 0.7322039762938618 0.0000311992334966
0.0883429840112543 0.9773309212025687 -0.0036676816694675
0.0937297749680457 0.8574795429920705 0.0054283122765150
0.0929549521026615 0.8410864203942050 0.0023295096956495
0.0932879697861289 0.8808619173836462 -0.0049366821620400
0.0916544683168403 0.7986470231877412 0.0154832972891964
0.0855248696281337 0.3881408694984343 0.0308885548315682
0.0888315841746453 0.9756642812970902 -0.0058768201955094
0.0894644146726342 0.9787994639318151 -0.0016473433811575
0.0914912734849215 0.9870734368684304 -0.0066040273370486
0.0925537057391015 0.8918747138495478 0.0008909029139145
0.0924426890004862 0.6663094856939213 0.0096895982459459
0.0877750324814224 0.9727143901173032 -0.0059126323551222
0.0886462644739971 0.8794249167505243 -0.0156686773571420
0.0924968758893251 0.8533287212086630 -0.0001780105223771
0.0875203865432020 0.9625575145679510 -0.0104705317774075
0.0911936841316664 0.7950667225323933 0.0040731925577807
0.0904337733241150 1.0487172509461622 -0.0062870392148771
0.0895986156512382 0.9113336940912423 0.0072916142743051
0.0871645448999551 0.9471040227155180 -0.0078032188956174
0.0950484858158993 0.8312350057251112 -0.0014660185076499
0.0963789374758426 0.8461235630170735 0.0100370844391679
0.0922802463323097 0.6707315089716765 0.0017161610161490
0.0891854488890655 0.9213988284835531 0.0079521441607886
0.0931667807688171 0.8236265399256576 0.0041485924540844
0.0924246726736511 0.8825537096828689 -0.0078490778970446
0.0929446489784503 0.8857257160688401 0.0033365875047527
0.0886626156521026 0.9509925739694571 -0.0103124836014231
0.0888050343565039 0.6118323459603813 0.0201720254021317
0.0895127124246095 0.9768685250499244 0.0013557685463810
0.0901562191381263 0.9023814615654605 -0.0093070576533423
0.0908298613086325 0.8403712384993787 -0.0010249700722792
0.0922956783083077 0.8874688652500102 -0.0003620942002863
0.0917795766194145 0.8660607253992406 -0.0003799441065883
0.0910623055832654 0.9187923843215707 0.0033768640949230
0.0943932165142433 0.8875139248908388 0.0141067552751860
0.0911224068676983 0.8195126971058287 -0.0081080009280951
0.0909335046226846 0.7953806278747141 0.0059701091592336
0.0899507463985611 0.7105183665991242 -0.0026800333425771
0.0906579180441347 0.9803659137348760 0.0036533703462570
0.0944511719248207 0.8894275986064246 0.0037383639771762
0.0903440692262874 0.9992546420006853 -0.0072966181801578
0.0902339000342679 0.9331818350962805 -0.0090546052016941
0.0924886062522112 0.8970638481232387 -0.0059936691252199
0.0906204524103447 1.0093164415453308 -0.0032699092998695
0.0957989044803119 0.8797471004907386 0.0135172781669792
0.0898832278446201 0.7602761216810880 0.0121900872351427
0.0911990077689802 1.1888312161346946 0.0075509691768420
0.0876287782019896 0.9759248068862509 -0.0087053975888128
0.0905842408350864 1.0248083069601022 -0.0037791858859325
0.0909220765446689 0.6662641005851649 0.0072636261349757
0.0938430598185100 0.9408324796721321 0.0006490306768834
0.0890275468246965 0.9587827113398549 -0.0069849128474830
0.0901341490243412 1.0110828970790438 -0.0046735622084461
0.0959584170900917 0.8881383388229087 -0.0018573424686910
0.0882076562183741 1.1640266337531380 -0.0115438250778826
0.0910687795443583 0.9446904342466999 0.0192831026905382
0.0923817406849029 0.8172440307387178 0.0023066416211366
0.0903666520961203 0.9130816250621498 0.0129653887793914
0.0982865595822636 0.9554088654612505 -0.0080761960969601
0.0915720057692663 0.7806148053686350 -0.0010856140776303
0.0924328377917221 0.9130783839623946 0.0111300960361556
0.0939183198755074 0.8195554524191919 0.0025368207343086
0.0872624366862123 0.9713231305967623 -0.0069894167294218
0.0939080465251991 0.8516020535489505 0.0081434856962892
0.0934346613014627 0.9024140819017197 0.0142114065915349
0.0909994017701007 0.9602103940994168 0.0128048052262882
0.0912607864820375 0.9278385406668446 0.0049756548410473
0.0909510000669659 0.7950931651050692 0.0006530614478399
0.0901389806940801 0.9648575976722855 0.0021090215349571
0.0922609578280191 0.8947476874133636 0.0056510586845646
0.0902540982617306 1.1471481769670646 -0.0046530542477026
0.0951219330165521 0.8963040121956203 0.0144941879355445
0.0939751204482212 0.9105356993702169 0.0029298653707132
0.0911569071194237 0.9203157321373636 0.0048916900033049
0.0892737196743747 0.5367008908263643 0.0099275830795815
0.0811954676875991 1.0084549201136950 -0.0063610257935818
0.0831191760834052 0.9583500457095188 -0.0187778532980655
0.0907533870687146 0.9462682880514656 -0.0073339705585635
0.0936428142619110 0.8406639012726432 0.0052742660992087
0.0935057251035303 0.7711123805863006 0.0011554137585516
0.0902962590658453 1.1235349293273247 -0.0019774065036195
0.0913145858600121 1.3328700522838326 -0.0013304437505098
0.0917302562575843 0.9071729691695871 -0.0045786673061135
0.0900202424430172 0.9411388276699888 -0.0062741905355346
0.0914564545174337 1.0590795247924309 0.0014639787468033
0.0902199725902198 1.0486684997364313 -0.0013947253859414
0.0905386472583967 1.0920787357092778 0.0116674887421575
0.0907700250763669 0.9143913925740146 0.0031183772912942
0.0890166110271676 0.9888288821026336 -0.0035829199174280
0.0913489469877318 1.0572199813874918 -0.0006316182612311
0.0929601136927355 0.9158929678151653 0.0002362271753756
0.0974308855829040 1.0186539255638360 -0.0070367918614910
0.0926121511989883 0.8047494027597003 0.0042295685327608
0.0954321889303676 0.9236352762519077 0.0300590876210761
0.0852320335922985 0.9934885812576305 -0.0070811942644346
0.0895720350934087 0.9006686067250184 -0.0054746303548011
0.0899727901321508 0.9812698966594663 -0.0202651081010013
0.0907862096643354 1.0094026837534034 -0.0010818885388220
0.0890441768746589 0.9878333390894553 -0.0043099149526588
0.0884483335509085 0.9771315601350899 -0.0046588270720329
0.0903086600664246 0.6781504046660354 0.0039942821411854
0.0947794139205363 0.8361122284143706 0.0034858269554715
0.0936140188157108 0.9082554758823382 -0.0102197554003692
0.0838435655640243 0.9069418710896449 -0.0015444328062727
0.1002078688666649 0.7897777150777971 -0.0099012456832973
0.0920751400716106 0.9269717302922056 0.0070070002768503
0.0962258054527666 0.8753182861172517 0.0153596737823898
0.0923135608160024 0.5064936151876251 0.0051164548456192
0.0846141335821463 1.0072412942053717 0.0071815312308041
0.0937500442874908 0.8814844015698886 0.0092406081615685
0.0935642879959191 0.8375006724248484 0.0029721980423218
0.0873068928874362 0.9643409020591432 -0.0109893569143449
0.0920909365284465 0.8624508675659819 0.0050605990485598
0.0905258368106652 1.0867420929286091 -0.0121936587906005
0.0895703134000887 0.6830039364164505 0.0270972775669237
0.0935167414835187 0.8703910385444465 0.0037377497595098
0.0904467906663761 0.9501890320243723 0.0025809552225933
0.0944297517779572 0.9515610532895725 -0.0047494997674789
0.0912110131197125 0.9556729786035948 -0.0034476139855851
0.0882798689420890 0.6062512505383513 0.0164813940978362
0.0912641394544050 0.9392644013965901 0.0193316895416687
0.0911217104267527 0.9779469542668245 -0.0026969977706161
0.0878437890868596 0.9310300709273365 0.0254542063407328
0.0902189067850360 1.1818574814714549 -0.0132118915554513
0.0888691423956296 1.2147983571002068 -0.0037426898273106
0.0898989679015766 0.9943938730505432 -0.0052150432343775
0.0896138555256556 0.9903397842416154 -0.0036662072460146
0.0957359443884286 0.8833862716219364 0.0123191363255838
0.0884702575392086 0.9821550230127021 -0.0021050567484230
0.0900198555489106 0.8222870509361638 -0.0169987941014761
0.0872379678748023 0.9725780974356034 -0.0051202233512111
0.0926507617907918 0.8685859072025379 0.0000470807409005
0.0915657133863632 0.7665792461482218 0.0031935300889600
0.0843220498285919 1.0210276854257456 0.0002607540543949
0.0901814346923105 1.0655914434728002 -0.0222237464525694
0.0891152105911440 0.9292912878871132 -0.0035531857149431
0.0888343621653102 0.9781838956867394 -0.0018696106289270
0.0915750363760378 0.8108599398256788 -0.0113032252266977
0.0900944682762101 0.9377732506628632 -0.0026704161386643
0.0942481445548436 0.8388485513186855 0.0011911666210298
0.0900203218156134 0.9630007906969443 -0.0050337518199641
0.0916863298449077 0.8608087085183581 0.0056184168507971
0.0920038192795554 0.8838811869475759 -0.0046894581922369
0.0899410758717415 0.9354770776550310 -0.0077222858716313
0.0933799930382572 0.8943182472877170 0.0107173131203296
0.0967242140439634 0.9111998917564436 0.0257847372756900
0.0859761018590358 0.9382789463754353 -0.0054516740626476
0.0922456356188218 0.8959467368846837 0.0045218373353845
0.0907551624259449 0.7127785978456596 0.0015294263121550
0.0894696657774979 0.9686136804345079 0.0004636688325177
0.0896621576858646 1.0271187039983354 -0.0018718560727154
0.0929601460689633 0.8710262532050983 0.0024007047667734
0.0904563211177376 0.7758332307758353 -0.0047178702134296
0.0901723786529028 1.1576173925334852 0.0010797578473738
0.0954387351615959 0.9664755029088755 -0.0009734011065550
0.0951075161685183 0.8375263203124605 0.0064315374286308
0.0958635959155492 0.9905549867149808 -0.0082288956616849
0.0899342577228133 0.9835068539772263 -0.0032258627758778
0.0897995217740135 1.1767688241887788 0.0028434915228547
0.0953333684370774 0.9390830835873304 -0.0087498080708234
0.0902121133129813 1.0389752848037956 -0.0050483269589497
0.0917798792865746 0.8505570449055797 -0.0093480100009009
0.0834242334790757 0.9613919314970659 -0.0165365928234960
0.0903436779141461 1.0335500131509101 -0.0037538475300752
0.0840454676741485 1.0003271591343228 0.0042782373913366
0.0920357191093995 0.8523396267306150 0.0055875056931391
0.0939356870894176 0.7803945422943391 -0.0113510300165871
0.0902052286840259 0.7968650318249494 0.0063696800026081
0.0938692410426416 0.9769498956234657 0.0356559963430311
0.0888070597309152 0.9911010126656314 -0.0052872802407952
0.0902561801567670 1.0435172352036377 0.0069425338169129
0.0903671423360883 1.0541591281643037 -0.0022091144816809
0.0958509759375192 0.8245652677017182 0.0010502420376709
0.0938560281350239 0.8386202796961073 0.0043239430964446
0.0946166468269870 0.8554472213853246 -0.0077297105866108
0.0905731807945568 1.0024389385150714 -0.0034241745466494
0.0904407020408232 1.0076881638409301 0.0035141349212515
0.0852707206966127 0.9066209499173628 -0.0212088308355150
0.0888366532335223 0.9348509254826010 -0.0096868217941630
0.0896930890394418 0.9680997121598736 -0.0010183207497463
0.0904971671304140 0.8953853357510086 0.0063069356482617
0.0912707941139802 0.9028799181928854 0.0022004350531875
0.0932269489015204 0.8766452352166918 0.0057173561933006
0.0907640134334598 0.8237207045320444 0.0009775871186437
0.0917585709110705 0.9354232053907802 0.0069957128473999
0.0923031329691896 0.8407686686689123 -0.0066338833204648
0.0900907176615494 1.0484090377357738 -0.0039970479893224
0.0917620684398805 0.7322477297096017 0.0021229944560934
0.0905711883186245 0.9536587158220977 0.0047955045251324
0.0896491805258782 0.9212046626400157 -0.0042839480695598
0.0895343511638672 0.6725631116626426 -0.0132456718470129
0.0928695684780020 0.8336408100655224 0.0034673054431194
0.0910555374155378 0.8734947330784523 0.0097097392255254
0.0897535624180713 0.6520494900086010 0.0071193559795123
0.0915448979728563 1.0268506044260588 0.0022512144957506
0.0941491364238575 0.9225771016091339 -0.0103999307368826
0.0861277844708446 1.0257207033126334 -0.0100060328470021
0.0895127845781471 0.9946773187758097 -0.0039243529772696
0.0870789977404457 0.9799456058180523 0.0056506467137436
0.0920508598459516 0.7918007697188231 0.0046277698360087
0.0932866621010149 0.8410167045592208 0.0053202866440479
0.0908229774170384 0.8333756348681841 -0.0059101773798307
0.0900871988245512 1.0500077087179069 0.0068010170711732
0.0855377568876411 0.6618419640223858 0.0337349511705026
0.0918511764583423 0.8454117988167074 0.0072437198536377
0.0945338886375531 0.8902044426892515 0.0088036701404471
0.0871608693819532 0.9491621450486023 -0.0134224554727299
0.0883934908029123 0.9783227243173256 -0.0013208949191430
0.0885120225221644 0.9770625037535232 0.0028638405012251
0.0897383920814528 0.9610965084407440 -0.0004198171742290
0.0902914352195926 1.0441094475914945 -0.0048374660091853
0.0898004929909215 1.1726483924306681 -0.0081101329389662
0.0849959070572018 0.9679646293519694 -0.0141633538473958
0.0917211763544526 0.8244308418360766 -0.0000514571649806
0.0904978283881105 0.6615028746616847 0.0094043126357547
0.0905923151494054 0.8051816096046717 0.0013014940101515
0.0859370787039482 1.0002223232065930 0.0167264368874982
0.0963843195635356 0.8455978304669115 0.0037557646500791
0.0902615065561736 0.7568200012540023 0.0149272742756093
0.0895108794370151 0.8870291806714227 0.0070771005370151
0.0958618498365072 0.8495287405957040 0.0059792969258019
0.0912826577836500 0.8345549549603419 0.0002658233457801
0.0860699637217249 0.9605305727455975 -0.0099689277939602
0.0906261474663089 0.9256805893935178 0.0004619544570738
0.0909985568165773 0.9052519488897768 -0.0082720243545258
0.0891098137572869 0.9020884311358170 0.0001478139498193
0.0856511480643338 1.0092133641162313 -0.0045781440330258
0.0909340232488633 0.7389255956055371 0.0065173503220439
0.0982523644248346 0.8288349924122066 0.0144757911780323
0.0910235204221210 0.8888055807678504 -0.0120078116305384
0.0935356230228603 0.8244193235956491 0.0028577978854911
0.0907782556763724 0.8684764355338550 -0.0146853717155803
0.0915406191054065 0.8670920061826679 0.0045042314694564
0.0947491693725080 0.8380457999960230 0.0017849503419802
0.0950985933115714 0.8410274499907560 0.0002540357105226
0.0908756621413048 0.8071874906079669 -0.0030574920314310
0.0916268761982130 1.0840005115453744 -0.0020272223361606
0.0921648379066481 0.8435096681489995 -0.0031406259579103
0.0934373930239990 0.9170047069499301 0.0168849977010172
0.0893131193074077 1.4519776418735362 0.0176575071388698
0.0910595982664261 0.8763897533064078 -0.0067341933772434
0.0880924669953031 0.9669606552745186 -0.0059754810911401
0.0927640888759379 0.8326009210316472 0.0038207731931575
0.0946764501630672 0.8457115128240786 0.0022548259882527
0.0915251311355220 0.7848202261573345 0.0029957421149924
0.0903844648328558 1.1023023436968673 -0.0096551554528869
0.0899314470617757 1.0182731686849282 -0.0021724611445731
0.0892377224655711 0.7434308690310772 0.0325258519698066
0.0903737587251240 1.0124139227679760 0.0032271632038954
0.0898601304572308 1.1663161631356374 -0.0112148627757269
0.0930716332343381 0.8772284893642512 0.0022049624190575
0.0947924707222592 0.8702836378479368 0.0112805091487455
0.0880023466590557 0.9913657095201019 -0.0053061206748156
0.0908976264382163 1.0067214011867041 -0.0004413925641666
0.0906326887752281 0.7759713923870470 0.0076322865296453
0.0953039429727888 0.9051382773364000 0.0264392209322515
0.0901648396831778 1.0426832729475100 -0.0078800037775526
0.0890352040477712 0.9621408678528617 0.0210133407536671
0.0939990286478780 0.8433792329106262 0.0060785062174373
0.0725232917343864 1.0607760152788215 0.0102987152790301
0.0868597511052218 0.8967911127129732 -0.0034061607029371
0.0919283815294915 0.8838689569404732 0.0058603445898849
0.0901300140161337 1.0004072383900122 -0.0001394913001405
0.0905448690968439 0.9178459022420089 -0.0080060473023964
0.0910618120158946 1.0538928942716443 -0.0025723391956552
0.0884513354652875 0.5659567643856761 0.0046678007731725
0.0835461087028845 1.0228208517057698 -0.0032315979709377
0.0911425310555365 1.0021355578685158 -0.0055287759142194
0.0904888017351733 0.7277470313950172 0.0073074945754029
0.0917755496178712 1.1077751133433831 0.0028671815394373
0.0907674470959385 0.8326734878281259 0.0012874024649314
0.0935732243398395 0.8392393911499660 -0.0070862533663300
0.0909285370566380 0.4408286573122600 0.0120922513088514
0.0910752058559675 0.8706727352012689 -0.0005184900850218
0.0908013973761193 1.0453841387973097 -0.0081082468666367
0.0888787852957908 1.0305500273120067 0.0177021796791908
0.0931589656511006 0.8094428690792397 -0.0074153874227683
0.0917451736588072 0.8852698444920278 -0.0020351202256641
0.0919670428116040 0.8868433851368024 0.0026240059504729
0.0926687016094726 0.7224545853155692 0.0071201509693569
0.0925751545732038 0.8355346787766627 0.0032129946281871
0.0954280948828765 0.8042077075209082 -0.0041845342512800
0.0951896728795630 0.8552758935666741 -0.0075891524822084
0.0905576564293106 0.7395957098889241 0.0086721877600652
0.0878234923654564 1.0824694765400920 -0.0057679751639093
0.0904372673726112 0.9149963595383886 0.0077575224051476
0.0917886971271786 1.0110942018933551 0.0050150098178481
0.0899703733584191 1.0034657088060370 -0.0047727815767944
0.1058516273044757 0.9224178497053399 -0.0015864629131049
0.0918779762898388 0.7588399786449244 0.0112814279526235
0.0871618907238624 0.4119951604511615 0.0375092912319525
0.0910785068912345 0.9975491304188274 -0.0099870349961662
0.0867593737032040 0.3964815803768540 0.0113725868439837
0.0943924377215268 0.8809399529308948 -0.0041367995777191
0.0896529884197172 1.0240279928006391 -0.0019393596263701
0.1021039524234001 0.7906709144635370 0.0097744733090295
0.0906949635846663 0.8705077848009994 -0.0128718264299885
0.0930829643606796 0.8929236944294208 0.0096025775487483
0.0965709484827933 0.8726202073796171 0.0076498067304538
0.0942773708668671 0.8781501035273126 0.0073019769646606
0.0869056694558055 0.9684788047535884 -0.0114954046101753
0.0887602313215189 0.7842359991076721 0.0203986086313766
0.0914030288051141 1.0262675368274932 -0.0148965553481654
0.0938633072654338 0.9514210871416551 0.0337977068228215
0.0882643891373374 0.9771012138152447 -0.0076055533037954
0.0905768382312025 0.9063187300562103 -0.0126330759810818
0.0849666846680669 1.0024335473277135 -0.0074935000988445
0.0954953956639409 0.8583273999200396 0.0021252147141961
0.0910038004129362 0.9531625982215943 -0.0056519084102650
0.0912601417334836 0.8931424821761765 0.0073693647155363
0.0914732546339101 0.9009423687469997 0.0046312717594139
0.0899183452877033 1.0040062495113939 -0.0046803732011558
0.0878759097335585 0.8807540046244556 -0.0036824144674260
0.0920027928294502 0.8172351627937479 0.0062579495112279
0.0863644592196698 1.0123489897624465 -0.0021280105110601
0.0904749623101315 1.0354340186319875 -0.0046468545443048
0.0851658031872037 0.9863295253195304 -0.0158186173112324
0.0873256227104317 0.9643379647112124 -0.0085452018287051
0.0912962343728715 0.6971792293912021 -0.0010614757078277
0.0915650359975105 0.7407762606790128 0.0069668343553872
0.0953063877425057 0.8542197088692974 -0.0002472999491798
0.0918680111905639 0.8818288857445098 0.0061666416880767
0.0908880897800287 1.0325931574276839 -0.0017309799452468
0.0896879098960227 0.9947105911097185 -0.0024152725831205
0.0902650133408528 0.7073807989285628 0.0042031498874805
0.0911653246970376 0.9001778307832772 0.0006419220600812
0.0968661873396082 0.8687562243331498 0.0027476092099352
0.0914116372628657 0.6979844242092808 0.0043499013357330
0.0916459836456345 0.8820871606860514 0.0028245409491150
0.0882903404944092 0.5639902376442778 -0.0082458578783213
0.0932752901097114 0.8371779608798112 0.0035756200626488
0.0905665560325234 1.1094832369853858 -0.0183983174035628
0.0913203986339210 0.8439716050105124 0.0039543207091066
0.0920962846559121 0.8992805083583661 0.0013533731032697
0.0906110595789122 0.9052198367622654 -0.0042613766863160
0.0919397941941946 0.8806371012196914 0.0068325463584889
0.0908046783342955 0.8350255179752680 0.0095629142716182
0.0914833560659258 0.9204843070631535 -0.0000281464729787
0.0877224969334451 0.9794514339963544 -0.0025511689252134
0.0899529714574273 0.6501768587212857 -0.0060563023034238
0.0889891490585558 0.9393270493307808 0.0224333814294561
0.0924658141183841 0.8624527565553262 0.0067393323409234
0.1005305652905304 0.9527487339625610 -0.0027212534925568
0.0873234241154517 0.9834716738489901 0.0003914403734603
0.0881254777883898 0.9730893091836454 0.0018096012748664
0.0918072173735300 0.7998634126833342 -0.0088767187340437
0.0868834394817844 0.4830043244625895 0.0123604880876922
0.0914069409980054 0.9142601993921199 -0.0003490452372881
0.0924669126825252 0.8868134081103128 0.0006075792122009
0.0898480681343168 1.2091540202536195 0.0070223805635629
0.0915181408951730 0.7989918704807228 -0.0090593959989565
0.0897760596813636 0.9824250142442407 -0.0058637999835909
0.0986267383152088 0.7991487135873010 0.0257133718911111
0.0838131844110928 1.0345806686754426 0.0059934889603429
0.0895161277188704 1.0718511845835790 0.0125864436224579
0.0922653190981258 0.8644516577970935 0.0023277957396035
0.0836079753505178 1.0252304561480352 -0.0031938534627485
0.0868875312848508 0.9940677944208326 0.0036495953594591
0.0902096535960212 0.8522484123989057 0.0110889337869191
0.0948451673264447 1.1135432479002578 -0.0054557950578757
0.0909083522762008 0.9662508899820871 -0.0037913229109168
0.0903905642409057 1.0106962116803291 -0.0035829201779227
0.0924453829024741 0.8235171473695653 0.0077576451137697
0.1007979179734755 0.9022277992084268 -0.0175348696441163
0.0901578214619094 1.0652948377051203 0.0023724676716347
0.0920822877055688 0.8850760526905800 0.0059684451671664
0.0885144190599125 0.9694342149301751 0.0028027604585972
0.0865326374889792 0.9868768919875269 0.0256032734604069
0.0886314470278436 0.9287454987395054 0.0012848259299785
0.0940279515853029 0.8428769523981027 0.0003770309859423
0.0923674003496175 0.8865346442381437 0.0096163442141957
0.0853396903640547 1.0083166636784797 -0.0012869900265489
0.0891519975801127 1.0076393458000927 -0.0001366722555314
0.0829208717178808 1.0118765286665135 0.0157811607247644
0.0899665867175924 0.9307477117601961 0.0129016864030854
0.0881248233174510 1.0138865140391418 -0.0021080533850902
0.0911943155031787 0.9086436630791649 -0.0081530741591379
0.0931238829158469 0.7645344010754681 -0.0145293053647436
0.0906787890905346 0.6793189711319544 -0.0063106652060379
0.0881392385874582 0.4215251196171677 0.0235913722226390
0.0928737753235579 0.8459684058902318 0.0054698702672787
0.0849275790468488 0.4008504887651199 0.0248750827729628
0.0891182163147248 0.9409750685711563 -0.0043688335297489
0.0898072699158461 0.9663276014715233 0.0083456501434905
0.0935964508098871 0.8704330535133293 0.0090889643328463
0.0916341606308570 0.9737574362583660 -0.0127260913790970
0.0917684549610039 1.0087706304073965 -0.0110628633733234
0.0903119113860207 0.6392700658695665 0.0108828303029656
0.0903261099922930 1.0670931786060263 -0.0150493915688845
0.0916094003804740 0.8479956177375891 0.0079080645872039
0.0886091975333575 1.0437022650729526 -0.0189716596501393
0.0907439868054736 0.7389894684722420 0.0120113028442855
0.0933014902393554 0.8511339236952004 -0.0004535135260850
0.0927425278411996 0.8675806430899959 -0.0046948446133916
0.0898617004532961 0.8924309105774278 -0.0122627732284936
0.0920057141115252 0.8364532306382699 -0.0047315858577368
0.0902794042284820 1.0205556014214339 -0.0005247336756209
0.0910850888783806 1.0933871280076615 -0.0069506851658022
0.0909247509804086 1.1161152300580757 -0.0016810050835421
0.0899409885600005 0.9051673662327925 -0.0161566400974901
0.0940702178654683 0.8695516023773506 -0.0200577248143663
0.0958977319491732 0.9340425551846198 0.0309452119460846
0.0916136843315950 0.8478447334172239 0.0049352286244539
0.0822468118247466 1.0040066742206761 0.0076065172316380
0.0974838011124197 0.9189990511196692 -0.0107092312046742
0.0906805083724636 1.1376666363251429 -0.0040115156551322
0.0939277884295670 0.8434461181893474 -0.0080216606560743
0.0915627257474182 1.1131635862557570 -0.0090969939236516
0.0914443402791263 0.9046618810954919 -0.0040591218557036
0.0866951187778351 1.0047638609414531 0.0053374772741017
0.0871261302720626 0.6115110503906638 0.0186407459501119
0.0906012861190077 1.0310593880174426 0.0198750284519852
0.0880015113752882 0.5676160683122984 0.0067508260223494
0.0900397770789036 0.7497371582868031 0.0049304433589680
0.0845498640614305 1.0083927560555510 -0.0041675815008181
0.0898073566139291 1.0479358275760564 -0.0024705118553798
0.0875709489766525 0.9229514079083267 -0.0136151315544152
0.0894167149170823 1.1662742715052556 0.0107415092947768
0.0874008428794279 0.9784998618029556 -0.0086420396089347
0.0890772488029039 1.0211503753495716 -0.0022921839491031
0.0879440814812888 0.9721222596514911 0.0072661123542914
0.0955273078429954 0.8533873262503535 0.0088640334467147
0.0904176750909885 0.7834412229876674 0.0044846847477486
0.0935370914679528 0.8995201862843754 0.0085279958042195
0.0911581371966854 0.7417458917912445 -0.0080946728930334
0.0927470273065350 0.8778318561538221 0.0009647142276419
0.0908754726857919 0.9756869970016179 -0.0035251148853086
0.0918599941556475 1.5899241804012805 0.0096511429134122
0.0918695442812732 0.7540887095613505 0.0050772045300807
0.0908216821777619 0.9231611736433881 -0.0001712679477208
0.0888244397463251 1.0135584150002899 -0.0029393194354271
0.0902902136032827 1.0383370077824565 0.0027496147901840
0.0903540232649523 1.0797829052353198 0.0013779067668695
0.0962959276717678 0.8956118723259950 0.0243540126669539
0.0901833553183001 1.0471959389733747 -0.0065935530305050
0.0904771144512981 1.0187145354987464 -0.0030163494966480
0.0982425994848214 0.7568531716634207 0.0003296975925673
0.0827728602939798 0.9918895298722260 -0.0181350035036851
0.0859181265684521 0.9347279276955558 -0.0120485863159415
0.0907808434124681 1.0047078667474230 -0.0039036754687269
0.0890074770822523 0.9840515820305897 -0.0036487142882653
0.0917339295272735 0.8360559535584248 0.0066328133265786
0.0916623494542032 0.8786495883941638 -0.0082645813889322
0.0977185554477297 0.8985739829837530 0.0225602568729839
0.0956111624354680 0.8445580287065695 0.0072433398289450
0.0915937635810119 0.9398893265121065 0.0185818484938594
0.0893515653327643 0.4437520794592766 0.0281733560473827
0.0914033111825402 0.8268077848016686 0.0048567360617780
0.0896824832821276 0.9378186861078865 -0.0030055441462945
0.0899122916375635 0.9898921950039504 -0.0036217660072785
0.0936096706318737 0.8454073300006142 -0.0004510403670496
0.0890430146173592 0.6303173624123463 0.0116186370668982
0.0871748701773919 0.9522452965123057 -0.0114062650062795
0.0907564728679203 0.9366016471053463 0.0074417628407258
0.0837091510795904 0.3481933198055653 0.0404057436157614
0.0921044981140788 0.8738909975236231 0.0061623418020555
0.0942735472869914 0.8409093715650212 -0.0031903616515106
0.0921463658107862 0.9024209661410222 0.0104328647350736
0.0912591809741703 0.9044690721850991 -0.0017729528544790
0.0909536385020747 1.0943546904984507 -0.0090978556945974
0.0902901303931940 0.9571160679693703 0.0215923451822628
0.0897925482694571 0.8432053702355564 -0.0094779740837822
0.0980548900953377 0.8536478991855090 0.0233196265400576
0.0867095050228070 0.9205242615873915 -0.0170387127356799
0.0920991991004632 0.8637985548107356 0.0024763662572421
0.0831249139882665 1.0156192419784649 0.0038193764030984
0.0716596662250327 1.0271311483241496 0.0070639436580217
0.0875813907312067 0.9497227105241971 -0.0061374107512831
0.0885678103317044 1.0143568329870343 -0.0011306787544311
0.0930886587390502 0.8263050066363254 0.0039203095233285
0.0901106795575212 1.0813774142362373 -0.0018693219268815
0.0919556919328253 0.9605885023519383 0.0113079465566563
0.0966791218574090 0.8214527389270839 0.0044727714719407
0.0840758654679328 1.0150364966736030 0.0101120588025858
0.0905484371387171 1.0048090753166465 -0.0060797913217515
0.0708472542160557 1.0447907154115164 0.0000642216586244
0.0842939893167629 0.9552219281022368 -0.0059841508105629
0.0855655577180487 0.9090667389805833 -0.0232834417619333
0.0843492626650215 0.9978610506923704 0.0467114312162982
0.0862423889002953 0.9539423602782361 -0.0045903077142515
0.0922265481584919 0.9179376104830231 0.0066317910554324
0.0891321091394638 0.6594244437766291 0.0101092273923127
0.0898975535154139 1.0501930095509366 -0.0023893454819450
0.0907852565837063 0.8119419834578966 0.0112321519957729
0.0862044315299878 0.9932129440359900 0.0097987729519813
0.0944856688311311 0.8302330906877687 -0.0142724446438203
0.0874876259057855 0.5924173429127478 0.0196345595617197
0.0874957450968550 1.0463444650530260 -0.0046951746263904
0.0851969359626571 0.9396499790062449 -0.0050687289555227
0.0900229149586683 1.0826135979678235 -0.0022949883493556
0.0906787733142879 1.0244201150056182 -0.0038594631497747
0.0898019703235868 0.8091738140833349 0.0102288681958777
0.0912026829793081 0.8903971731998251 -0.0065309453740750
0.0900746188581879 1.0445019134418116 -0.0001401690915680
0.0900346582567516 1.0245510471566881 -0.0025120437817293
0.0891774695267092 0.9903473765039762 0.0030645313084346
0.0903152044957254 1.0126128469204283 0.0073186917379363
0.0907569697088812 0.8978581336244089 0.0106519255780125
0.0935530990679152 0.8494423479940996 -0.0020696424566841
0.0928239916695789 0.8639742541791825 0.0062819432142929
0.0896014013385486 0.6198572123183123 0.0152018551465970
0.0893365042132219 0.8513465110859346 0.0204850561326124
0.0911829658187090 0.8803584258694140 -0.0140010400670377
0.0925620439826328 0.8534154790990114 0.0048032998764586
0.0913146170872347 0.7922571113973078 -0.0014297726501482
0.0915487454415759 0.9336478074052061 0.0040980958819101
0.0897555396219180 1.0401949522220251 -0.0019761589956222
0.0919683161474551 0.7128213740284565 -0.0007541649652876
0.0906987579097550 0.6769412738239716 -0.0007090484812367
0.0864957347111605 0.5777253804669826 0.0257548984357841
0.0901869293587304 0.9867118217141019 -0.0025868024115915
0.0919692780918005 0.7673506974030542 0.0005479726689431
0.0920338243091311 0.8348795047762592 -0.0008930257344821
0.0890856837103062 0.9199476768857886 0.0016564489582966
0.0912691001922715 0.9999261777532655 0.0410157488821911
0.0845881346292368 1.0241867226868560 -0.0001170668046259
0.0809062130173301 0.6538930446209668 0.0013356982800765
0.0925381050009262 0.8890298118520790 0.0091913394158348
0.0906781702744588 1.0994212072056220 -0.0048518113231859
0.0911887921624030 0.9400176830883016 0.0158566331589427
0.0912802488116063 1.0317896520749070 -0.0102516330905887
0.0895636625324690 0.6430917505599310 0.0241886206568257
0.0912607161788597 1.1053250222050681 0.0100178206133838
0.0898253029666565 0.6526264961262189 0.0219453883277465
0.0934427003640651 0.8742304901960295 0.0080508109234407
0.0921495306608810 0.8558068571905190 0.0066085799308858
0.0893893088808506 0.9806645084292257 -0.0145861092272779
0.0907027441332668 1.0715043044116321 -0.0139464720241148
0.0905577006839699 0.8547561464354884 -0.0167389871829572
0.0924854344553666 0.8276007540305893 0.0039728195876645
0.0900338923523142 1.0253932182509149 -0.0001605287670442
0.0905053999586459 0.9923757408792564 -0.0000860544792158
0.0911143160619913 1.0353779481800580 -0.0075405847386733
0.0991729806062889 0.8305192706764344 0.0123559805790722
0.0883807270839587 0.8700155416863727 -0.0219819151714572
0.0866096120988507 1.0172717221336149 -0.0041235969632623
0.0926006436367746 0.8529162133684560 0.0033741473138239
0.0910900790163690 0.9145049914484563 -0.0032985216193234
0.0865712056226863 0.9905443679606548 -0.0015647685955106
0.0882982393105970 0.9648206965625303 0.0069265890944563
0.0910528120507935 0.8823447688780586 -0.0064619076691545
0.0906848462455818 1.0230903614539231 0.0126260541848602
0.0916206788977614 0.9378713297193184 0.0223703151872430
0.0939068041415838 0.8088548305473183 -0.0146497135458239
0.0972404510137501 0.8515841533095828 0.0112813269585635
0.0902651014668158 0.8427401592622917 -0.0131260177090669
0.1015416631504405 0.8530535766114525 0.0212110892109983
0.0904000851828586 0.9912118961975740 -0.0067531800351278
0.0915900828816615 0.8305546917125876 0.0056054711198586
0.0905232884396578 0.9795403558051736 0.0077681673616082
0.0925772367733761 0.8685052714515105 0.0070987930748840
0.0912940623788348 1.2696108178145469 0.0037646843304185
0.0925921957086591 0.8782536034124327 0.0076873394958957
0.0900848311508605 0.9740988309139017 0.0137069890710101
0.0931875832159228 0.8402129285407718 0.0020664389384549
0.0901317288886410 0.9434418814284071 0.0034965025066913
0.0909546852174979 1.0417789984352486 -0.0064333084575112
0.0899014109371007 0.6290117460496036 0.0184247747915204
0.0889479093941030 0.8012148320103143 -0.0230784277471316
0.0942104427668476 0.8220510054696895 0.0032607108581455
0.0932155251002436 0.9184526382948410 0.0097617475361162
0.0898519009053247 1.0485692105650575 0.0136331673395863
0.0911130586470424 0.9372177788184521 0.0071031549641937
0.0923398538200420 0.8168347117598043 0.0038966429360885
0.0923984045187472 0.8479202250193922 0.0053814283260844
0.0910428240626503 0.9457334885715423 -0.0106085546547761
0.0918781634159062 0.9105218802747540 -0.0069182060372484
0.0868339115466654 0.9556503110990120 -0.0059562598221310
0.0976656666066318 0.8461183776634236 -0.0201265754058089
0.0914907481693982 0.8165970876927235 0.0065743991635187
0.0833660293694628 0.9245138285851049 -0.0114555457426753
0.0831882512561635 0.8784364196439690 -0.0168862934863815
0.0950029919319244 0.8397870526218495 -0.0006219058746505
0.0966313001495596 0.8195621771831184 0.0056113960269536
0.0948573633102434 0.8606994971963919 0.0172568285748187
0.0919388063528828 0.8315430440675540 -0.0164543718670543
0.0902277226355830 0.8863843893515549 0.0056522301705980
0.0915155861841150 0.8148983542358066 0.0063582220568015
0.0913661080131188 0.8573218384193300 -0.0007610254722364
0.0898543125809613 0.9298104710014176 -0.0173891239523332
0.0923599724976037 0.8658438219781693 0.0048512064247858
0.0867958945984051 0.9399994068704590 -0.0055403783602614
0.0954050331457516 0.8368061163649279 0.0038400097424305
0.0936048777143423 0.9496048192221298 -0.0049325306999909
0.0927141069538377 0.9063383433242668 -0.0101110485551998
0.0888628832674116 1.0023722230095886 -0.0107402492027494
0.0910067313870870 0.9133213822639122 0.0074669020292295
0.0918342802997931 0.9142106344125834 -0.0064525782288881
0.0867577662665686 0.9939102077916833 -0.0036624787237241
0.0949505642843697 0.8262814537996345 -0.0072455431353763
0.0966316261740688 0.8574030570726918 0.0141902799573970
0.0863368726240245 0.9971798719659248 0.0123473131399461
0.0925741907746105 0.8846914842994276 0.0048983763514102
0.0825524552452769 0.3763772895092409 0.0342582379900766
0.0907779138850067 0.9949598967279110 -0.0101391776481945
0.0873942324635429 0.9918884137697180 -0.0067820098600199
0.0905678199184826 0.9735187853346853 -0.0064267870054129
0.0961572611334994 0.8553789882370892 0.0048444587063836
0.0873924499761762 0.9880863878365019 -0.0049054089463564
0.0917215262591881 0.9377056693836512 0.0008270504377608
0.0886688206424982 1.1616464316840642 0.0082152812287955
0.0940737190577744 1.0361007183857300 -0.0095555114463534
0.0880808192180740 0.4667717495487597 0.0051620111424112
0.0884411283253287 0.9687006150709933 -0.0054573628225353
0.0896380397910874 1.1255851652407569 0.0042574907291498
0.0898336546520463 0.9766881521376728 -0.0029156309736798
0.0899952603103250 1.0484624273996113 -0.0005109632061034
0.0895320386267976 0.9922123862895407 -0.0028868309754380
0.0902926504441044 0.9996232890465162 0.0034808080972592
0.0875876436505935 0.9782419627008496 0.0016080323395788
0.0882603230250267 0.9379655035111240 -0.0095551852581319
0.0915952601641070 1.0053009226179921 -0.0125523439192512
0.0928825903657493 0.8602515853824099 -0.0084586197332323
0.0975039371990286 0.8817802461977101 0.0172415987040051
0.0897662724498199 0.8881954205892229 0.0121834635379186
0.0901291798878663 0.7538820401612698 0.0109824391365193
0.0973324054483744 0.8475492504321230 0.0022517015787763
0.0891216797818373 0.6395265234360293 0.0108221094539245
0.0931110123411595 0.8382100150822680 0.0028607694627527
0.0922004401741912 0.9058505470524093 0.0104539596639054
0.0855160187189468 0.9988495373607971 -0.0086548017503979
0.0895238817247810 0.7091512668145347 -0.0003063273548603
0.0896572260537888 0.9682470110494450 -0.0065806891896856
0.0860555827147408 0.9737831523477307 -0.0072703316869795
0.0921035741925622 0.9192058979941750 0.0012073488142444
0.0928999755950417 0.8782721521834633 0.0054930321379773
0.0913568014955632 0.9017403991621397 -0.0043417374611927
0.0870191392902529 1.0022532639253652 0.0131002113241129
0.0867485157378102 0.9782626937623706 -0.0090896274619205
0.0927069650914160 0.7586269929572965 0.0086389407340063
0.0919434727545938 0.8719886408346369 -0.0065486813635914
0.0903259606982048 0.9693047843932125 -0.0082900453712157
0.0915159837740878 0.8396541908252578 0.0054699032701512
0.0892922853759073 0.7500707537058821 0.0171519388761192
0.0931007691627757 0.9179800085425237 0.0194625985066960
0.0907759634913470 0.8893230428619825 -0.0105127516135022
0.0985619383908732 0.8123222662748771 0.0078318148177001
0.0889924108703789 0.6837461721782895 -0.0098017344856776
0.0927211337626033 0.8483951276303829 0.0054841964198241
0.0916308484719614 0.8697551044758542 0.0044247641382498
0.0963184922722305 0.8782732549137428 0.0116967450134504
0.0909010616575208 0.9031092094356015 0.0007840617722074
0.0916490725252627 0.9272884194219104 -0.0122388856504601
0.0898540278896172 0.8886456523218172 -0.0113954637564267
0.0907397869921458 0.9565570847947983 -0.0115630824431147
0.0912168853266589 0.8506897470751407 0.0017932572106954
0.0922683540608683 0.8609595112210041 0.0066189710555309
0.0900378763964206 1.0815696212191157 -0.0072010781462535
0.0921756500723185 0.9005402367566526 0.0061996823881078
0.0869619016502988 0.9787101422694147 -0.0090136130240629
0.0896761223411551 1.0394571452392936 -0.0021161953854250
0.0874375798835699 0.5993671188459876 0.0219708382245447
0.0894130877060116 0.7883326946725399 -0.0089077711142215
0.0882530508614772 0.9026146568222558 -0.0148215736389446
0.0954294761720434 1.1002685166182420 -0.0187750767961810
0.0929731044097083 0.8802959404948514 0.0036844026022867
0.0906006716958711 0.9939864308274707 -0.0034192877603571
0.0895156645617246 0.9017948129170617 -0.0037306087461587
0.0896302127290501 0.9873853592644958 -0.0029491292899033
0.0963138435922678 0.9135250674308130 -0.0068891552269859
0.0921049013770869 0.7724455498359911 0.0036828018203089
0.0894965474490147 0.9832864299207054 -0.0022155830086994
0.0905823463128711 0.9332227028434591 0.0028931968747962
0.0924852098258128 0.8909188968557163 0.0084657188536113
0.0901099342007072 0.7763239920695009 0.0028773235589613
0.0909402498782981 0.8863769407188301 -0.0037104871010893
0.0894006428684123 1.1599885940752470 0.0021414554684176
0.0943468836120349 0.6943831547946231 -0.0120660919921796
0.0909449275828498 0.9561219224173571 -0.0010684024906959
0.0926624289006028 0.8776254951000565 0.0126000451284216
0.0880661744931219 0.8500681913126514 -0.0270313740291376
0.0893278859391493 0.8528609034871043 0.0051652967806400
0.1021353994201023 0.8584690740606228 0.0260240581593867
0.0884085288474044 0.9696469380268651 0.0217953847027097
0.0912450454103483 0.8039663015581467 0.0048648376702203
0.0904734618633737 0.8567457975017022 0.0011774573591195
0.0936677378497929 0.9151356153819696 -0.0075333325811007
0.0907019292312509 0.8628762416516849 0.0061004589729546
0.0945509841716021 0.8842881526429358 -0.0058580475292608
0.0911652157464306 0.9822390012067667 0.0000985555575076
0.0901778522330725 1.0071486707477815 -0.0025948503463499
0.0906447250858745 0.9486498118313135 -0.0000578014933480
0.0905553895737300 0.9764276081757886 -0.0006072705254529
0.0913182659687639 0.8637213122135884 -0.0089447502481807
0.0913680723807869 0.9393298594450489 -0.0084600787199869
0.0943191469836078 0.9309605090219483 -0.0077911120338023
0.0926405388443971 0.8626957685338278 -0.0008066683978949
0.0886113676306847 1.0094245012591359 0.0022365763031837
0.0853020695450846 0.9382573719602488 -0.0060520165022525
0.0924912782811183 0.7863717790798675 0.0035805747720417
0.0916323904321402 0.9141986574996888 0.0034819214142859
0.0902145964393999 1.0886950149007790 -0.0052283166337057
0.0902176918584992 1.0739360886005411 -0.0035422199416995
0.0886417050971291 0.9889580857436558 0.0067160157629906
0.0901494419747369 0.9577647464783402 0.0115892184457951
0.0902962009885943 0.7370429386750535 0.0108425922012226
0.0904655477916427 1.1293552648125449 0.0034553367881314
0.0903771488966548 0.9518061407182290 0.0201472775610350
0.0920896307616447 0.8451158837421906 -0.0078150562635379
0.0881566069559803 1.0034820096213590 0.0019150208849121
0.0988175828239344 1.0548038995266877 -0.0185771673773315
0.0887365747124423 1.0508065098659778 0.0015547560735444
0.0884413422946522 0.9916367942367840 0.0168744629680617
0.0905664997541200 1.0122158355569757 -0.0054391811861445
0.0973014519621396 0.8536830034989142 0.0123848711492687
0.0895831165598968 1.0037376879761524 -0.0002492924620517
0.0885074781109560 1.1101111316263810 0.0169330611663867
0.0916944994602501 0.8870652163756227 0.0017160638498158
0.0914108257370202 0.9482713888458223 -0.0090678137686659
0.0959742979912556 0.8940436952004356 -0.0088074391218207
0.0871390574228419 0.9365045512038404 -0.0070881918992007
0.0847915061914258 1.0381282079664784 -0.0100304399748813
0.0903563911635408 1.1592612211490849 0.0098223871867579
0.0911180653207522 0.8361063064421065 -0.0015001150830567
0.0905597230048194 0.9251330420355209 0.0192358246691441
0.0961054524174481 0.9347912929124679 -0.0092933497573744
0.0909680445951362 0.9455985272613234 -0.0105982314605590
0.0952490330706203 0.7607861037406867 -0.0078155664262795
0.0870368428409388 0.4543755037296006 -0.0072341031583536
0.0821184622463196 0.9692746148142367 -0.0136518547540300
0.0899744734610353 1.1330430011472683 -0.0014974479287262
0.0890644820832440 1.0110404115304725 -0.0005129291565751
0.0909876570608196 0.7950607194331188 -0.0002159904417861
0.0894425557461779 0.9615414704157593 -0.0085179175886177
0.0880947958245045 0.9838903113368089 -0.0066760666316112
0.0876305959922342 0.9916805126897787 -0.0014859627569813
0.0916924790712641 0.8598968108152398 -0.0087562773949234
0.0901307626893637 0.8896503062219069 -0.0137289013101872
0.0936165425706271 0.8333651919374748 -0.0082797737115219
0.0879666654435922 0.9242946380585105 -0.0136327235899696
0.1010906228111115 0.7939732327532582 0.0174332847268939
0.0902500228283073 0.9570537421368697 0.0074789436208250
0.0895493319799936 1.0176353696235585 0.0393108741136024
0.0877303319164928 0.8153579736793964 -0.0233584603732238
0.0934282189778376 0.8786581296482926 0.0075446073752089
0.0887438001040040 0.9909506574135116 -0.0047738230462952
0.0911801951749293 0.9050364667448346 0.0032264659923149
0.0911341656233899 0.9226419202699258 -0.0065619163971308
0.0911521197797904 1.0210598590675224 -0.0087528197319044
0.0866212787327757 0.9705878456188158 -0.0068478980776663
0.0878544900108247 0.8820275937115662 -0.0201622423287772
0.0949725102871530 0.8190829305817430 0.0034257342940652
0.0920236968993580 0.9375070630466865 0.0106638816952189
0.0999124156716216 0.9319894071118322 0.0494725530989752
0.0912436869624366 0.9358754865736719 -0.0029746475904676
0.0914472717705078 1.0527104506860285 -0.0058749640829238
0.0851540586715078 0.9287246117550555 -0.0174285569605579
0.0919985414286645 0.8272347315485273 0.0047418508857452
0.0903478310720706 0.8646822537163859 0.0184494661495818
0.0910721013076287 0.8736284128256981 -0.0111931588081325
0.0886447476825651 0.6071224177523488 -0.0143679403826910
0.0923891681048023 0.8151827988751444 0.0089087148315936
0.0928225267657225 0.8503551606460052 -0.0090911344649507
0.0918698518617430 0.8899247379153242 -0.0003759930602021
0.0927307121016179 0.8997759625374061 0.0116770780276181
0.0874042997016981 0.9343491908807517 0.0164657041477032
0.0885115268281527 1.0741488142352302 -0.0058613958803493
0.0910873552270133 0.7518552014124986 -0.0002652987604378
0.0896465508775583 0.8978062312772995 -0.0168453433984919
0.0873825457939696 0.9672493914783906 -0.0044397626311918
0.0928477775852479 0.8801706904687946 0.0046165214843620
0.0916415512081547 0.8753885448174034 0.0069976319306873
0.0923933963012211 0.8012642922195059 0.0039877675662890
0.0893985763179124 0.9745369578347898 -0.0073335315056657
0.0876602003387691 0.4824433612079629 0.0025596551671369
0.0926959623810462 0.8567383588443143 0.0073110907143557
0.0878178241718865 0.9180741799459579 0.0010000352678158
0.0915980650510235 0.8046977575675907 0.0055112237414458
0.0917619045436997 0.8262827408413163 -0.0149772657869208
0.0919253138027890 0.8744304438095954 -0.0048448106502656
0.0887540962664820 1.2273166430541802 0.0010364246158431
0.0853295885604140 0.9487072285315459 0.0002308407276658
0.0821300080320416 0.9787896042232517 -0.0111775189108667
0.0912354989824736 0.9312941234887452 -0.0015712541136093
0.0894770519887748 0.9611748675378919 0.0245973379283069
0.0946538322688759 0.8393933967581374 0.0052446041248697
0.0906989826491698 0.6266993845674796 0.0042299017222984
0.0889702138410420 0.5991143569060898 0.0083284325919943
0.0914829668033073 0.8090258877416419 -0.0223947380012103
0.0906256023543947 0.8692714919502098 0.0042863868677624
0.0941673876096768 0.8250416541408351 0.0041653666055886
0.0932349240245678 0.8811980238360969 0.0073078184560854
0.0915699689376444 1.1522486461178656 0.0004588249059788
0.0909278983909983 0.8495480504234768 0.0176787745797511
0.0858607447663446 0.9869084427559204 -0.0022466776331739
0.0914486250926065 0.9293938751536515 -0.0140650096784794
0.0865648303514816 0.9426155460462688 -0.0143565384698564
0.0971535000902011 0.9219738715369954 -0.0103110019275263
0.0967969371492011 0.8726258718695104 -0.0087642496589025
0.0972428521077868 0.9352209629297883 -0.0111977022172661
0.0905802928003084 1.0224580011211002 -0.0023237770706010
0.0897722899800288 0.9708273215486516 -0.0044147644148159
0.0907542805834568 1.0014650691177893 -0.0046344935144859
0.0874574452699517 0.9296429842299817 0.0013906327498656
0.0880373170552885 0.9734607091299787 0.0099265220168188
0.0828456668489900 0.9052839224394320 -0.0282746578491947
0.0829317094673370 0.9644269069922822 -0.0057062595244759
0.0920497187961895 0.8019271743550347 -0.0004297574362832
0.0917642526504648 0.8802821490934737 0.0054799518928873
0.0866280544320718 0.9345432832794265 -0.0073726474540703
0.0906160152404550 0.9914963918264089 -0.0055041354091399
0.0911430541644583 0.8275142182641436 0.0083569886853441
0.0895087425747043 0.9739331415031643 0.0071556643187908
0.0891507108204996 0.9734944741651839 -0.0005690031464110
0.0904441638162845 0.9641721561006266 0.0037014214072163
0.0910697271024250 0.8584106534414647 0.0063091875381324
0.0909845244095702 1.1183508769324135 -0.0075467262954158
0.0899723312667831 0.9941689935422727 0.0079439100998942
0.0877684201233999 0.9764912577222391 0.0115285182710969
0.0934894408665765 0.8631017420632782 0.0103796843211710
0.0896588305966790 0.7846146713394813 0.0132498716458857
0.0879948513114405 0.9797069197574602 0.0173026129964637
0.0913984658891771 0.7608311776679241 -0.0021227951734488
0.0960960716273100 0.8337286885780018 0.0012029780722536
0.0964165817983870 0.8322260738688567 0.0036692349926961
0.0908307267716453 0.7435160696108478 0.0035479401565015
0.0960679217828455 0.8360773093776404 0.0072021273836862
0.0894256168639759 0.8389151968895555 -0.0226453981423422
0.0968093466993480 0.8868385930674205 0.0209283220541336
0.0954351183178387 0.9224887643600881 -0.0201234775164872
0.0896746627747625 0.9978923496765684 -0.0193413912175803
0.0908242505700047 0.9480673685878700 -0.0077033989408789
0.0911718604311740 0.9364604503915208 -0.0002119120561903
0.0903341032288021 0.8585643244057212 -0.0037310551547050
0.1003623702555257 0.7601054103809491 0.0009330593085823
0.0897553695203899 1.4393005504392964 0.0148520174990224
0.0847755653313516 0.9546831371905817 0.0156673030266689
0.0913887530488499 0.9160736629997831 -0.0003165845063708
0.0865886117441465 0.9618937530576882 -0.0116607942985494
0.0898759766025260 1.1596211461780437 -0.0050671318198006
0.0892524647761924 0.9140295426528836 -0.0111287068759892
0.0813251739838150 1.0305064146989620 0.0118316547629062
0.0907559175119806 0.9324985790055070 0.0035650963914208
0.0899243016556822 0.9649399834575404 -0.0001886395426908
0.0893476782199640 0.9577662141852367 0.0033793761231645
0.0906219456245947 0.9526129490710318 -0.0000927432297831
0.0940238639582004 0.9019866261876217 0.0162756109727660
0.0917261263060873 0.7272443383475659 0.0053586621186697
0.0924160083902829 0.7334855298900361 0.0089578135502135
0.0962813670383659 0.7878141321732607 -0.0111330538511336
0.0948884404783700 0.8094074167969730 -0.0087550481954065
0.0862196791156811 0.4401022909385559 0.0170337481608323
0.0894444144438127 0.9242907009624294 -0.0207053665711772
0.0906716012714752 0.7942462779819380 0.0077612247565642
0.0956822055850450 0.8585186446160959 0.0013025833573621
0.0909534658021252 0.9380280527702201 0.0049799588504655
0.0924204600892171 0.7674516818057574 0.0127886220558672
0.0894930116730509 0.9641964407749317 0.0192931934901383
0.0919135488536629 0.9293704407230206 -0.0021348904353869
0.0941644992030260 0.8030040126335689 -0.0052485102142259
0.0896273439299834 0.9722630796884782 -0.0036349783669172
0.0900700776414575 1.0562868707848190 -0.0031215162094217
0.0920149938760058 0.8701324877632406 0.0015380621447893
0.0877627190196359 1.0087260009809549 -0.0030152727309495
0.0957668767570205 0.8222977754847873 0.0010707193071137
0.0884669384396451 0.6463452032457826 0.0149246654093952
0.0874418613173358 0.4966962599396889 0.0102437048155476
0.0836528922411749 1.0204855041394856 0.0149994092172529
0.0859565121262165 0.9885973340369560 0.0077692961267065
0.0915213721503971 0.8505895907642855 -0.0141402031489641
0.0931603657448074 0.8647271036550218 0.0044756530362184
0.0877080031158973 0.3686727983725991 -0.0051612615006065
0.0926918788545790 0.7793593490523929 -0.0272021264649682
0.0900162955952363 0.8704044401515997 -0.0130719482925360
0.0979391339395788 0.7883445331498568 0.0122306857724213
0.0926560812592205 0.8684920874650419 0.0057219247620465
0.0906286556174960 1.0012675314353852 -0.0039138641826870
0.0920002607267782 0.8154834742484035 0.0015800552167845
0.0911846658537276 1.0482658619622509 0.0067323095286816
0.0960538415845393 0.8870525854833230 0.0206860115828646
0.0892428158502492 0.7224769054219521 -0.0164444260950012
0.0978970446292805 0.8434802199107678 0.0156113626365511
0.0915173693540513 0.9666735248809081 0.0051326020230497
0.0894506915841399 1.1331670717771698 -0.0092641170260793
0.0896880607994613 1.0067808422952356 -0.0125868199901203
0.0903222491897774 1.0449571134448874 -0.0054647689165861
0.0868641286136234 0.9926173761415964 -0.0076203249199258
0.0903512236276609 1.0157264979778022 -0.0031200394885957
0.0908567886405063 0.9261306900613456 -0.0013227517495725
0.0915516425239978 0.9038042617692059 0.0067876637751647
0.0880045796876467 0.9823449584418564 0.0054212898845742
0.0907663996821340 0.6448172114258909 0.0016345083932153
0.0877679944411923 0.9869176361594284 -0.0086515957042378
0.0863018205468531 0.2853754974587093 0.0258581940267819
0.1012608284140650 0.9046281669100312 -0.0046362030936252
0.0943947853019663 0.8686173004639329 0.0069435985843813
0.0971432691326059 0.8767005364895680 0.0001634249304843
0.0824734639817736 1.0220245229031706 -0.0067894574643365
0.0905554446942374 1.1002803875464713 -0.0073228005031134
0.0891415020934428 0.9578467487535468 -0.0071730673533848
0.0917081922343005 1.0479633100142649 -0.0075048141137546
0.0904961164987147 1.0963526803710377 -0.0096353550191262
0.0903414852291341 1.0966680087859768 -0.0072748327014243
0.0886712150614256 0.9196915291027974 -0.0117453128342888
0.0892595746624572 0.9601793413242724 0.0174555692753849
0.0970310077843449 0.8120869783815252 0.0014531794064861
0.0973531222011831 0.8416242276713698 0.0090363231904238
0.0864442872918518 0.9526345893335403 -0.0108212610565485
0.0961070372257668 0.8116196839486796 -0.0043463446855557
0.0855245598082064 0.9866405661225887 -0.0113507965721071
0.0893219879215652 0.9406937578858149 -0.0079963200192227
0.0933981141536241 0.8315934961967952 0.0046346324059550
0.0904467209246470 0.9303091921965176 0.0114420628841967
0.0904319852323692 0.8292362574608038 0.0131129412175465
0.0881084622496322 0.9622039984372540 0.0018064897637590
0.0944440508814519 0.8181196763565010 0.0029317632987750
0.0901603085882861 0.9561003662316253 0.0108277403370297
0.0915550113542090 1.0277330480735771 0.0112331964247441
0.1009716082014278 0.8411228721053519 0.0184434922552562
0.0914855735580582 1.1433460626252487 -0.0154190924064954
0.0887293775645298 0.6874480996618441 0.0302653313265851
0.0905670802424577 1.0009943276458382 -0.0026114011071639
0.0934010734742374 0.8084203771638271 -0.0012913293295511
0.0914624764658083 0.5134452251437096 -0.0034112849176201
0.0937518147954957 0.8899188427995059 0.0115962101762654
0.0909238899017841 0.8267669134849444 -0.0066508599491022
0.0900929775530118 1.2959688057899046 -0.0179796908140659
0.0906116401653025 1.0028524384377437 -0.0017872980120951
0.0896467671701634 1.0408088595906573 0.0072866929032281
0.0948031185066723 0.8292298758781173 -0.0064544113058621
0.0957726521622307 0.8185118709865916 -0.0033327236586391
0.0931640322145539 0.8351294953700258 0.0048373910040555
0.0966461846428422 0.9155655683765241 -0.0198125221267333
0.0894168671957897 0.9494285976243141 -0.0211331715988522
0.0935844723937312 0.8049894737740639 -0.0150756388270992
0.0845904673125685 0.9768231592564359 -0.0126446582036077
0.0897025086090256 0.8775793235483220 -0.0157770679035361
0.0920749846252971 0.8428083595082517 0.0013964452034740
0.0909271715271844 0.9189796703039091 0.0118018053819863
0.0955025537753200 0.8456334407585205 0.0119024468302938
0.0905218271289294 0.9028385885214973 0.0067854768904844
0.0904092272630573 0.8343031202155419 0.0039581292497072
0.0967329594572310 0.9218241026153690 0.0282836524730764
0.0987656399180326 0.8038774653604434 0.0109828870551895
0.0882974140685657 0.9642048636952120 -0.0069314650016447
0.0866221226843317 0.9622985582392061 0.0003602558376022
0.0897102477830163 0.9576720442914013 -0.0052020283682665
0.0888584516028535 1.2255319070995012 0.0034056288397707
0.0949641095732782 0.9365683928798622 0.0014803917739278
0.0899509228245967 1.0511938808553973 -0.0031141630205899
0.0886258696503136 1.0025954447025307 -0.0038946259396026
0.0882100171141400 1.0121336101325604 -0.0016932650732570
0.0899979635226853 1.0680811498010139 -0.0012221979674614
0.0885199488503112 1.0008536652256768 0.0024001546911483
0.0912808099099812 0.9316928564815123 -0.0064843980683693
0.0925882930456556 0.8705375751538388 -0.0108403346908151
0.0882376243033674 0.4846637591199789 -0.0105958865250865
0.0896707063528980 1.1339057759076487 0.0124568708451255
0.0905060000889646 0.5260692016180875 0.0133220453910967
0.0911814991171907 0.5265826029779884 -0.0009196888987874
0.0902453319599346 1.0474351746034194 0.0027782215588868
0.0938687662934531 0.8750611782886606 0.0037648507286488
0.0883722362971184 0.3847248495071849 0.0197225482982948
0.0914772347311025 0.9343080975888489 -0.0040617241289241
0.0928073298714128 0.8553555898316147 -0.0059665647799590
0.0924884729165151 0.8664442923524300 0.0051716772767218
0.0910661671609743 0.9398001723552658 0.0110646756398974
0.0946359168430913 0.8824267836159803 0.0101713499514330
0.0900849357732497 0.6371341517652148 0.0134386237775829
0.0893740951545876 0.8788726030702638 0.0063119191780027
0.0896554221017746 0.9095447376538065 -0.0123342319604040
0.0903136073461678 0.6437174758388812 0.0173417356817535
0.0917117120986879 0.6395825157819635 -0.0042332153501657
0.0946809941543805 0.8459023471636336 0.0064951267602646
0.0907188703638994 0.9580707809748854 0.0001021206417814
0.0869343579231994 0.9977092960359728 0.0130705245219581
0.0971269951118309 0.9966748975292680 -0.0083443291714328
0.0978415493412210 0.7830345469697109 0.0100621214172142
0.0891272367342394 0.9821414211255565 -0.0029962064591519
0.0908957372667697 0.9189016553822497 0.0077160348627122
0.0914679799893276 0.8285241841832248 0.0073560624264540
0.0908995492071095 0.8936198465077768 -0.0001140148519082
0.0910626936655237 0.9383460600400139 -0.0000343484185868
0.0942938017305384 0.8793621395986343 0.0012568567903590
0.0886577066625898 0.8209982780187797 0.0134877317227159
0.0876602178946811 0.5910654369805810 0.0133018059372595
0.0880556220181166 0.5188088550894288 0.0066213864415403
0.0972147464016968 0.8225155169305404 0.0112883279238246
0.0887840276066620 0.9999227857890265 0.0018170472579138
0.0917015852889016 0.8520597841151687 0.0031177234827521
0.0904423952912556 0.9805029215627602 -0.0035955051346691
0.0848278206649902 0.7455045456479115 0.0390975087558823
0.0882214128388073 1.1949135858166284 0.0056135459971865
0.0990718470690146 1.0043924958729247 -0.0080382094553574
0.0882530380555277 1.0198525805884588 -0.0232119012545546
0.0882739418932790 0.8444230381598328 -0.0221652981422831
0.0932016011703777 0.8763777004799735 0.0063656054291440
0.0908557862249796 0.9026512665504230 -0.0163105440653535
0.0829203439151738 1.0071151864860248 0.0013746399324332
0.0927396254859134 0.8713019585071706 0.0071603894189589
0.0927670557218359 0.8469675022116957 0.0016000005430025
0.0918662272906716 0.6665776693754446 0.0012540901456785
0.0888872526028844 0.5769197975662553 0.0018050707299225
0.0881134351055984 0.8678083075703661 -0.0215678723303791
0.0881579261635816 1.1956947554998860 0.0149306594861147
0.0932063129834982 0.8044629645258043 0.0046066501267290
0.0911669818706401 0.9009812708232841 0.0015859755974333
0.0970075328042063 0.8905534149752252 -0.0099280908435448
0.0906119868712901 0.9408139751420367 -0.0032194847250250
0.0897884339278421 0.9285531028879597 -0.0108285230216133
0.0902926040089293 1.0931068137650517 0.0001576391434874
0.0903480577347159 1.0589744456400394 0.0017323500401738
0.0905213825430391 1.0239629892755808 0.0028027362556146
0.0891356826247648 0.9566603045946991 0.0078395180791636
0.0951276842575386 0.8434252427052902 0.0099630894035637
0.0947736567686958 0.8297738335167846 -0.0023112505563589
0.0870497104632279 0.4067693103464743 0.0090886390885084
0.0865067215264897 0.6161081777085736 0.0278363913060611
0.0921114611406125 0.8638954024536564 0.0090534876452671
0.0902663133836690 0.4818989152332064 0.0200051757343964
0.0892311988155460 0.9227618673013498 -0.0032335001576715
0.0913558978963901 0.8097984109621971 0.0085138265850152
0.0937049663319614 0.8630967432989066 -0.0006420920368261
0.0897074645056781 1.1800208693475744 -0.0115836794281658
0.0900814911531563 0.9858521666300736 -0.0036741173132655
0.0870993463417151 0.9852915995254751 -0.0067950947601078
0.0896167958588931 0.6419244816395345 -0.0018424238287198
0.0900994093887555 0.5909466946891273 0.0052620147339203
0.0963140277485752 0.9101567508877150 0.0243956153893820
0.0931899220177424 0.8818121289505324 0.0020305553319110
0.0889473186973003 0.9932863460911764 0.0027231088279678
0.0896688759080452 0.9524340680601380 -0.0072305813883429
0.0905474880163928 0.7843457146443437 0.0022339858399354
0.0906643425605378 0.9917451436626071 -0.0029810451910924
0.0908139893859286 0.9730993223498935 -0.0028561519657438
0.0904623623957920 0.9551295462596808 -0.0029511841919970
0.0925840113549308 0.9038715202325647 0.0017555404072329
0.0983309985259014 0.7860358924239127 0.0173519094830774
0.0905282756405779 0.8653325027304286 -0.0041207470375615
0.0909714285009546 0.9071517286287095 0.0040127328978208
0.0915844063424586 0.9415340917038223 -0.0029676589999778
0.0878638554306980 0.9870387161806845 -0.0033497973826853
0.0905363114560467 0.9497998024826640 -0.0008188127893436
0.0914888596763334 0.9077093537818481 0.0029864457323286
0.0945025298828389 0.8901174441957187 0.0131085523608263
0.0960107685677483 0.8693483066449603 0.0106871814629293
0.0895242174426228 0.9007882275420249 -0.0221638859704607
0.0922267945188203 1.1200886010410922 -0.0124652852426433
0.0921704497230893 0.8900359922953103 0.0219460427711438
0.0924244215665997 0.8357291262166525 0.0037944788801879
0.0884492083210718 0.9857782611283293 -0.0063835370543555
0.0902685344970069 0.9709256022729201 -0.0073711247892830
0.0923157333804627 0.9196700804517072 -0.0000818725254022
0.0917451110146738 0.8387977765856567 0.0047888742640551
0.0849772905946879 0.9930026687961918 0.0108223672104448
0.0891647847272942 0.9264552968645212 0.0079872489139963
0.0878708601477688 0.9953875496235940 0.0132833925948355
0.0866651902388055 0.9412508190939269 -0.0074691790894723
0.0907324928686205 0.8495148885975272 -0.0035874685363380
0.0895745819451602 1.0267004208735815 -0.0020758885453707
0.0925177203596619 0.8229393058370373 0.0030913514519893
0.0927665801138989 0.9703252471253793 -0.0196422234098667
0.0907124468516731 0.9356298210022143 -0.0003834245130367
0.0900225352923312 1.0088722003727928 -0.0046170911373154
0.0905662914988279 0.9815278871137972 -0.0025327096680980
0.0900968093590161 0.9536619174800761 -0.0005967764378310
0.0934740885554564 1.0019066431902843 -0.0116589874606126
0.0923426274380071 0.7966746518691195 0.0048132744281076
0.0913421515793571 0.9644818509274335 0.0029149220692895
0.0908563341519174 0.9803833962601171 -0.0122907297528468
0.0898146312497832 0.7358370444561795 0.0138927435654271
0.0891760803252960 1.1095520604780222 -0.0119657810196169
0.0927500298384289 0.8495161311628817 0.0056806675165927
0.0903188036301423 1.0055854557597714 -0.0050780087000128
0.0894917324757797 0.9539771705187415 -0.0053123917864281
0.1000701508887926 0.8052304396143763 0.0034125476044359
0.0880143101820518 0.9705187956718272 -0.0087149063320478
0.0874074735159822 0.9350476452649733 0.0015862366196888
0.0917801383221771 0.9643555700723084 -0.0076288446722680
0.0902692593849280 0.9308268107370441 0.0076558453618409
0.0891437811837608 0.8993987977697092 -0.0139543674857782
0.0892595749958417 1.0925351551678799 0.0060143216820483
0.0927200494154851 0.8882780507365426 0.0001702020259292
0.0789012872283799 1.0058264777383643 0.0146584395262410
0.0930501527647598 0.8672839887343704 0.0052165325284570
0.0871679625343906 0.9304125074074435 -0.0158780554309922
0.0891467660598204 1.1900513841070246 -0.0005415082450601
0.0908600027015868 0.9266744543389517 0.0033170205235060
0.0929755577669224 0.9069865938321831 0.0125362054441385
0.0895678193823136 1.2096827275760660 -0.0002812507275002
0.0909458264172078 0.9224922218859932 -0.0042510348181189
0.0896766734070509 1.2918105695684559 -0.0141232299188973
0.0907045593064315 0.7495945639816438 0.0081434656427791
0.0898187272368050 0.9383085679001721 0.0125999776294958
0.0912482050330003 0.8954646498517176 0.0047184221337576
0.0938874592412929 0.9299499712278301 0.0322773286937567
0.0912627500225339 1.2044360822700464 -0.0067038638407168
0.0932474243461082 0.8319843136628028 0.0044399458838621
0.0947299286338304 0.8540898145981237 0.0139250651540177
0.0918063919421746 0.8488389431534530 -0.0126982080483194
0.0975584442131269 0.8712596599840058 0.0319390638320908
0.0914267481408714 0.9145759009953000 -0.0155706501851841
0.0895576469438448 0.8884194757581714 -0.0223687363127785
0.0868709123915771 0.9548081044413175 -0.0140928606853437
0.0888905169496353 1.0150927792340658 -0.0029522969531415
0.0924588712766084 0.8207974820103326 0.0042339352460968
0.0907750940532451 1.0914283179318593 0.0053831604121291
0.0926060587038397 0.9236103454606861 0.0176915241951136
0.0911838570254397 0.7292788156574673 -0.0081082167780706
0.0898031457375687 0.9633302046178926 -0.0041452703279258
0.0987558543437165 0.8011068419714028 -0.0012539516903445
0.0893674347158109 0.8900719680033121 -0.0182166210904754
0.0852105911868848 0.9523297742481447 -0.0083364147708308
0.0886972233355366 0.9617674513124835 -0.0089841911800494
0.0959571917851902 0.8393932132052061 0.0065845243237187
0.0909206065479532 0.8031430473416435 0.0083002604809408
0.0910614136357495 0.9545668286603664 -0.0063641927471490
0.0893078133453260 0.9582348656303127 0.0123705048034734
0.0937973842229276 0.8696723659413433 0.0180495909770993
0.0941478538439099 0.8114795068657874 0.0040540775700665
0.0944373013654642 0.8442879665410319 0.0021845800310229
0.0916998728723763 1.1149303112424043 -0.0063082515276855
0.0902770703861596 1.0363542071355119 0.0031149309819341
0.0931777597887687 0.8358613117863323 0.0027576586515141
0.0921800439912261 0.8017379013354000 0.0049830214958652
0.0922360165405602 0.8041637895775036 0.0028836476830290
0.0966426502875087 0.8737177713829133 0.0189982446549340
0.0864583448814080 0.9455488419025779 0.0012028263509633
0.1010947941797998 1.0054355733376292 -0.0124796315539180
0.0884239963942948 0.5763262662878552 -0.0108953627730710
0.0899542724430959 1.1478423771005160 0.0032697526642119
0.0895205823608504 1.0106407205289245 -0.0023448526243255
0.0886551689442477 0.5662027579765093 -0.0025117438081098
0.0930054141499431 0.8370621955719498 0.0037706245901412
0.0917822087438336 0.8340533452089821 0.0075741778348313
0.0984489160587610 0.7695962841684342 -0.0059241078755201
0.0902056083571399 0.9718704929175108 -0.0030166112236660
0.0851513677784196 0.9377069814075161 -0.0059668457887479
0.0922775194731519 0.7939929219530295 0.0027764564412344
0.0929852824555451 0.7688257163067440 0.0059435037459125
0.0894302015128347 0.9358833560023515 -0.0062240701201788
0.0926424184889047 0.8152644803758081 0.0037234645357130
0.1019091252401126 0.8840024858311930 0.0349656787497536
0.0901534545413183 1.2366024779107563 0.0193541486222422
0.0919096317054711 0.8977139952879101 0.0063932505251766
0.0900199340316542 1.2593452722506457 -0.0121408841136796
0.0916635807388347 0.7881569629405157 0.0056149075272665
0.1026322741279328 0.9439642048608219 -0.0069181381782817
0.0962385002041696 0.8654145217700108 0.0088009923623478
0.0908081153384789 0.9650956993323017 0.0000317375567695
0.0902564595254799 1.0011093921789871 0.0003360757641919
0.0918855542348884 1.0591947224797069 0.0043472626661475
0.0973644698460576 0.9992213372322747 -0.0097053076551225
0.1016277762095908 0.9847177501131454 -0.0131978306851471
0.0925279214970046 0.8501714239330178 0.0022811118143481
0.0893610637158827 1.0248213973584686 -0.0019644487363233
0.0902555911217528 1.0575907991840747 -0.0041566105245760
0.0911085370713981 0.9394712166329131 -0.0000743431120982
0.0882540787174844 0.8429961267225267 0.0233137367315276
0.0878486032697201 0.6785223124112774 0.0191371065843508
0.0962955184436758 0.8699831999391608 0.0051773682924470
0.0878419918136006 0.7630060215686992 -0.0057065104115225
0.0804002066720918 1.0128398622434089 -0.0027128723077414
0.0923286059540956 0.8579762448153325 0.0015208150672551
0.0901788014783762 1.0948518631599222 -0.0032886528289351
0.0904155409922293 1.1040946655727522 -0.0028553140636901
0.0896786520568743 1.1458117594381909 -0.0064970156482024
0.0902112103433024 0.7077418554291239 -0.0043754046850986
0.0897064819689852 0.8416061857012014 -0.0227418365784780
0.0928512874427868 0.8316081042212431 0.0041134290743175
0.0886363383615087 0.9580396568555408 0.0130302107905660
0.0910314116486933 0.9005801468506498 0.0067923859733521
0.0920432691618058 0.8483452044567262 0.0068071743087404
0.0939318934720029 0.9674086137436205 -0.0097888327933252
0.0903883817431824 1.0897552973334104 -0.0123020819302007
0.0904314051060886 0.9263168687241294 0.0037637884805604
0.0901097536566724 0.9399261051986939 0.0078747454605394
0.0882565371434216 0.4189127979897075 0.0055151253524052
0.0934053517373841 0.8363447073045762 0.0027088970979467
0.0843226091857464 0.9918764973930017 -0.0108468368759961
0.0875410852895969 1.0994319818810976 -0.0143580179339597
0.0897023913470384 1.0283319800102093 -0.0021627369863409
0.0913968173727361 0.7012303126897277 -0.0063524877803694
0.0974496566566728 0.9684728944481349 -0.0059287698332162
0.0901412621979319 0.9983924287692657 -0.0187527116115254
0.0901535922883545 1.7282636272886234 0.0092237082792358
0.0935464275359211 0.8770743400814515 0.0072616405625467
0.0893823141198534 1.0276495367274991 -0.0021162962872923
0.0945014940959981 0.8177937039738604 -0.0066906662765480
0.0852170074244859 0.3537576538669731 0.0277261833833110
0.0839946354474431 0.9272777124535465 -0.0243983334484422
0.0922187845836002 0.9058075362395832 0.0093622898137110
0.0935679901967964 0.8270261100503712 0.0025086393516188
0.0943245073833120 0.8389636278325168 0.0047531374804356
0.0917146946668759 0.8505678127432851 0.0051674777117470
0.0891030477031953 1.0230610990719800 -0.0023855304532224
0.0903679667751042 1.1234567846394001 -0.0007256974831832
0.0913505931936499 1.3575995692792717 0.0160777242035055
0.0913521622196157 0.8719378299037033 0.0059851027142297
0.0958336964711725 0.8794731274874283 0.0103737335523493
0.0910166217171211 0.8320174408658255 0.0101313570589323
0.0893340062301854 0.8877675688359237 -0.0224911791976108
0.0853991536333254 0.9867252157057496 -0.0092766285836061
0.0893646857267755 0.9482169901660517 0.0075384053563125
0.0924423981546231 0.8876330545652108 0.0039257890996049
0.0900590445994220 0.8912000611256976 -0.0094857182214292
0.0818632717541076 0.3064661446140731 0.0512977546456165
0.0880217598748789 0.9391063612494748 0.0011530768313990
0.0931318149528736 0.8919954773308536 0.0025898267849482
0.0908273715100823 0.9416748476366353 -0.0135779653998038
0.0927217994970920 0.8785108330977590 0.0080625334856099
0.0896063309045527 0.9993368827491210 0.0001609333628312
0.0955719006231566 0.8511579240948546 0.0065184698429299
0.0922620691768733 0.9312875058913298 0.0195970682168729
0.0918202166833336 0.8631251178268741 -0.0002478807561079
0.0884175532348027 0.9708577558154619 -0.0083947003567099
0.0903240904361542 1.0281156936599660 0.0076023325636402
0.0857487945439641 0.9928688161866440 0.0035989481716282
0.0905978129195670 0.9529591563751922 0.0078813412289389
0.0900028080849155 1.1191107558533993 -0.0003939204390309
0.0871497304080761 0.9768812243117844 -0.0043688945841674
0.0811045555766333 1.0028015291316081 -0.0126652912108437
0.0918602293673119 0.9378797579017428 0.0024839432360449
0.0908221651911529 1.0099928026081233 -0.0045242401470372
0.0926617616955704 0.9189397238763365 0.0168918797331681
0.0906468971443463 0.7701376232159091 -0.0059232935635170
0.0896222177117988 0.9139842136584729 0.0159697482511774
0.0885916247305777 0.9666418305427322 0.0132898341766486
0.0911314531102540 0.9542421943466168 -0.0027920557170918
0.0887654377580610 0.9031625651158810 0.0165473614459923
0.0874270023642317 1.0512743505690387 0.0450833200703267
0.0931428205626863 0.8758347006582650 -0.0017515520059769
0.0927501717543414 0.8484176681393993 0.0045229910960582
0.0912966330364543 0.9200525241034528 -0.0041827910755701
0.0911945872552155 0.9379684099869340 -0.0041158108434212
0.0917798743275726 0.9398089471700980 -0.0000863862164580
0.0892261349131508 0.9927417394346474 -0.0043634305378550
0.0866555194000222 1.0122312874349308 0.0044031663398409
0.0888665967801025 0.6428206656592170 0.0026353614883579
0.0892186403378600 0.9565405347848914 -0.0080376235893062
0.0905085333629241 1.0440619191816449 -0.0164205990962853
0.0900801918988293 0.9582075125241425 -0.0034407668997711
0.0865257667799089 0.9859910734570776 0.0060777000705886
0.0904679851753590 0.9120769404853212 0.0070692364497329
0.0926384003669472 0.9023133615974689 -0.0000894712240636
0.0963095499503964 0.9525969832474231 -0.0096043474171246
0.0915540571734400 0.9164591150890390 -0.0004712479561544
0.0935030865355433 0.8679121087456706 0.0044338222740688
0.0925349640670822 0.8398299772505016 0.0095291411995080
0.0923914489659683 0.8410290657235195 0.0021897571898987
0.0919306036892390 0.7937885747266228 -0.0041316784627457
0.0937644930600360 0.8410612645286419 -0.0046102190330770
0.0912472905005175 0.9212895543190430 -0.0101550127585783
0.0937565831059555 0.8294451803127401 0.0029422946498568
0.0904009123210309 1.0140677225151222 -0.0049393300757871
0.0896028324318711 0.9710967489641796 0.0024124354003745
0.0787574817134218 1.0386040008568254 0.0177858304818442
0.0846717315340709 0.9070929245058356 -0.0209645386844515
0.0902939791928622 0.9436307379036266 -0.0078723461578353
0.0873742517538741 0.9080748816385669 -0.0182048349313993
0.0917694741051688 0.9632727107799368 0.0377646356965079
0.0908679944219198 0.8341762386746664 0.0118836391776338
0.0929678076981579 0.9224305655914883 0.0131161649992790
0.0904208885952788 0.8927533371032568 -0.0144048296399245
0.0896765805559589 0.9157808132839557 -0.0130682515966419
0.0906637487307213 0.5736592700271302 0.0082146226149803
0.0912358237584415 0.9620235686114393 -0.0002493602931673
0.0867671845876134 0.9887773292502746 0.0185793959979922
0.0920278002065486 0.8742603544074318 0.0129625507407593
0.0902977911796050 0.8197884299494936 -0.0028878393645925
0.0915721864402129 0.9034614105362987 -0.0038514358060205
0.0876160908699139 0.9787055347535271 -0.0060798982546941
0.0881176389382688 0.9694263077793462 -0.0068937971066116
0.0885038414970735 1.3598709220336886 -0.0063357453844004
0.0893505348357364 0.9682462434123261 0.0065608618514493
0.0935755679503214 0.7174543412945383 0.0029021233495438
0.0920908414736217 0.8804167090624327 0.0042333799218628
0.0928448123189285 0.8748294148002010 -0.0024657581952906
0.0887658363775946 1.0042365833152449 -0.0037709701990108
0.0925165504728297 0.9215283632345231 0.0116699612725230
0.0805179596336861 1.0390253957587059 -0.0108381576705202
0.0897829884034675 0.7637924877265372 -0.0127749485484868
0.0902693656695342 1.1688165193885123 -0.0036256142902426
0.0891860919421600 0.8340183763528917 0.0152127777027978
0.0904778603872577 0.9235259912294106 -0.0073401976976844
0.0864930569279741 0.9839661446072165 -0.0003287263159909
0.0918372494428380 0.9004048829391619 0.0106778847345949
0.0895584037955304 1.2358732706188240 -0.0036259167489693
0.0966987849351018 0.8251187438496472 0.0040125185475059
0.0935080165891884 0.8531486953153350 -0.0042317374225877
0.0914145110478439 0.9020345900468995 -0.0019874992689295
0.0947009789966346 0.8544881518488427 0.0021020375228488
0.0923181509787749 0.8450193222333502 0.0054386145609767
0.0951550712175389 0.9986504958699245 -0.0041722096473970
0.0968741615689395 0.8677892252901835 0.0164671550135240
0.0885444058784847 0.8452549041235313 0.0375703615541517
0.0906103240807186 1.0098673857762450 -0.0108027703864342
0.0927717026152456 0.7518874932292620 0.0098109971884715
0.0870950858480874 0.9839388193812652 0.0007345628196754
0.0897012273833481 0.9797254928199874 0.0030831001649492
0.0871379353208850 0.8958166004216330 -0.0195294377203027
0.0947532555899581 0.7614710558934840 -0.0029000608012102
0.1010660388064772 0.8095707012104923 -0.0020856320768384
0.0915667980079995 0.8963645091226006 0.0071454575156109
0.0910199237634771 0.9192026866501960 -0.0032237821500199
0.0904854488145711 0.9359407042948057 0.0125169752062963
0.0900208444918479 0.9867827589668141 0.0002149172446960
0.0884848888979883 0.9726118957824774 -0.0065560090153637
0.0891209639987352 1.0466254604635821 -0.0213689369280325
0.0905846855780112 0.9954119727831295 -0.0055262484146843
0.0875632914153928 0.8948213469333796 -0.0206230742744975
0.0908879029459211 0.9217658296292687 -0.0041276397656319
0.0910946155660239 1.1293385478749629 -0.0108186530871468
0.0935429384626806 0.8430651020490283 0.0054749912729062
0.0979544208443550 0.8464363970989068 -0.0039781392798278
0.0830865345217584 1.0072916033779056 -0.0028796456576939
0.0900911056633987 0.9922573400303522 -0.0003029898955266
0.0876780077527980 1.0018436150217882 0.0058214359674692
0.0892250041837642 0.9281345944135301 0.0129343591084108
0.0883336729829093 0.9653920379990707 -0.0089228017850221
0.0897592483755402 0.9668101384477180 0.0041626025277133
0.0933403948047911 0.8467027831528074 -0.0101095788386073
0.0877208884109073 0.9443823265158413 -0.0121616247456166
0.0906888559947125 0.8828795170808375 -0.0093924079708321
0.0913603308026349 0.8697560394265361 0.0035177828240933
0.0850047217525240 0.9205544666508406 -0.0042426218446602
0.0905721581415254 0.7773357763245861 -0.0016371800732232
0.0983814538389232 0.8391983059004425 0.0050422877683667
0.0935619766185640 0.8652214325308837 0.0038862338132901
0.0904828257439917 1.0370914943189178 -0.0045176159077586
0.0906164805118539 1.0311864557238508 -0.0011920581370035
0.1012113880969132 0.7937886027379945 0.0034439075235658
0.0931928072763114 0.8528392597330897 0.0065031791309207
0.0897645389279264 0.7781419104879660 -0.0115109610069969
0.0900707582363677 1.0932989523201115 0.0012187015944098
0.0938757837036725 0.8357131705589225 0.0034978814881341
0.0903474287380239 1.1664327407341466 -0.0097789106231700
0.0896333317963191 1.1831044987249881 -0.0154961192129779
0.0936081600379196 0.8899406896019673 -0.0004669557237158
0.0911810749976131 1.0719986335562182 -0.0036794099424247
0.0901223786168147 0.7841811734724874 0.0061017668068073
0.0975845009011567 0.8254924751525557 0.0076334465840934
0.0913775993330097 0.8947856100672775 0.0145634388543462
0.0890396217904481 0.9253526084580053 -0.0091733808811936
0.0932728039302973 0.8659408459194085 -0.0072228739930782
0.0903012874808414 1.0225826915624510 -0.0061810159113265
0.0935628753060440 0.8376581897205863 0.0031765214436852
0.0873834941357561 0.9031108385422130 -0.0037847373610281
0.0916946104621916 0.7976393711839459 0.0070117564135889
0.0925446521194025 0.8451829848098596 0.0003133088387819
0.0904376980107188 1.0531625984374389 -0.0054539236300517
0.0910964603296605 0.9469440792818626 -0.0040711509828214
0.0918190032088131 0.7894973404534971 0.0021658434201453
0.0903699700042768 1.0754859313345062 -0.0028081854134777
0.0905995681907114 1.0419935693980491 -0.0069486200982614
0.0928260718249114 0.8246119462563375 0.0037734097582052
0.0897525525988092 0.9170037981766023 -0.0070603118177213
0.0891257705251515 0.9734817894889267 -0.0011393226613319
0.0860972306575542 0.8197954067559639 0.0005233042436299
0.0896346618859222 1.0117268051071937 -0.0020392119279094
0.0863695900349992 1.0086721347502843 0.0101606420914828
0.0917720145834054 0.8842010028793765 0.0063208471347317
0.0910136958658879 1.0252043016656822 -0.0174250208980054
0.0891318548863823 0.6698168570832348 -0.0112288642479403
0.0908392165086676 0.8117311525869214 -0.0013661255865624
0.0915502182609493 0.8190190119887780 0.0052929849505084
0.0916987902890161 0.8757306134376430 0.0058856364303775
0.0903781747717976 0.9903689770420200 -0.0031188075550641
0.0878141966162957 0.9175636130243501 -0.0168738958133511
0.0875827765315960 0.9778862958338196 0.0131311986933894
0.0878185931096240 1.0080844228998769 0.0013434121945542
0.0900466475282395 0.8590365225146255 0.0149173121325075
0.0896507977433918 0.9025878975521128 0.0164427720842930
0.0872324259099335 0.9744347142206380 0.0124154868134740
0.0903336813286180 0.8196340457850684 -0.0035121083257661
0.0936835087020751 0.8837749426053063 0.0038071866091518
0.0906746865763763 0.9774298977447690 -0.0194577304471077
0.0886796845017151 1.0118406756705594 -0.0007407887548879
0.0900043468462043 0.7677905892268969 -0.0022934376827075
0.0929447984624288 0.8554947757480723 -0.0014828791805769
0.0901331738645916 1.0231517147599629 0.0002277671592102
0.0921695290437835 0.8885851270299896 -0.0030455607415313
0.0927958651870153 0.8167539002943803 0.0040030188124154
0.0934754424920968 1.0498372255833961 -0.0054502342040765
0.0925358959008585 0.8637549755787217 0.0054276840138033
0.0860856026290142 1.0121834799269429 -0.0034006720987592
0.0911709483393500 0.9598948200142953 0.0038638934346887
0.0929120834470466 0.9032256569588677 -0.0016203944963103
0.0903347418051444 1.1064600806717368 -0.0072213229357433
0.0918731225253786 0.8734565294115503 0.0033586660465600
0.0928537767648937 0.8198063814364064 0.0040213871198330
0.0908108507960985 0.9810310899215373 -0.0016851683526241
0.0900712035052140 1.0642426728944918 -0.0008261810566668
0.0898397375289422 0.9880346866806488 -0.0255982103996272
0.0980985371664419 0.8097346987614007 -0.0129604475432326
0.0953305406914974 1.0375503287809495 0.0034043447794814
0.0932535503333965 0.8282223801966805 -0.0114325263983146
0.0903216344900776 1.0304760036158698 -0.0092984804727678
0.0930175025952587 0.8594129520656959 0.0036863231788374
0.0897774149957064 0.7925516485880415 0.0178488216787909
0.0914660606000798 0.9631157219574816 -0.0147028446487543
0.0915455754346573 0.8867083300033157 -0.0089535676045557
0.0897487630240207 1.1730770914220265 -0.0015937818103444
0.0856144218964790 1.0197831256964052 0.0024249488311182
0.0914819943169037 0.8686398161327703 -0.0021851361334608
0.0923530556277988 0.8759179856695595 0.0075260356953206
0.0851829082264625 0.9863092390646828 -0.0030780967876505
0.0932835217037217 0.8692207401442138 0.0043947306759079
0.0914083613739411 0.9261995255400194 0.0011431294536802
0.0889117309931808 1.1522106964612140 0.0040040697599799
0.0905939024309457 0.8751155388718782 -0.0038902485154507
0.0927539421413411 0.8804378721153877 0.0001647064310830
0.0907973916510163 0.9462089624207218 0.0030431507403400
0.0936007350727743 0.8409241917158109 0.0051448852654637
0.0935746323677484 0.8574526647890335 0.0066369098812290
0.0917790237457559 0.9162789173398477 0.0064414199254255
0.0904506310091670 0.9791841553891202 0.0002623273452895
0.0929455079384029 0.8029048533161819 0.0025275519339892
0.0848760093539308 0.9978507941533409 0.0041775149068948
0.0889493003944016 0.9597989768811184 0.0027709781196972
0.0860285284363623 1.0028424269052896 0.0013596718122456
0.0893436160895259 0.9847225194266142 -0.0062383226934847
0.0907071757651644 0.8835985143430624 0.0071222253221547
0.0897651080542951 0.9593631605186577 0.0169338221883370
0.0902174529809028 0.9520800276732420 0.0080708233664096
0.0796862279616390 0.9492870237632378 -0.0231270150408123
0.0934151601074206 0.8691659210896235 0.0061494542586734
0.0906019372266302 0.9100950485875153 -0.0060809197296216
0.0898523843831930 1.0385582492714551 -0.0109223767495374
0.0896327200714198 0.9726595299181920 -0.0042636606513797
0.0905052630054569 1.1540007604822891 -0.0067305114501238
0.0917544925024139 0.9222942778549671 0.0102726609402100
0.0930226155942000 0.8018462963047835 -0.0135373281577180
0.0906980615011657 0.7514753664773133 0.0016526725353744
0.0916964781348780 0.8953122465738027 -0.0006000947751085
0.0960040791959183 0.9411994143590828 0.0308494424969657
0.0934603484929469 0.9024764887872945 -0.0029696029315875
0.0919942963341585 0.9629889631982643 0.0074485259101181
0.0909277935825601 1.1733128475131689 0.0190880336439968
0.0909013662475428 0.9222057898591481 0.0074766559771002
0.0929438476306053 0.8669590282654003 0.0078847535930373
0.0875005865592737 1.0526873759885562 0.0262840757819215
0.0907213326019250 1.0229935572172024 -0.0085501961768376
0.0998685678020181 0.7714797127163855 -0.0053710871008170
0.0901747717855746 0.8959485375382258 -0.0140815008974517
0.0898255475953168 0.9515274636518987 -0.0044957747984053
0.0885049454119255 0.9887864733559099 -0.0051207017894749
0.0939672636169350 0.6139890832147280 -0.0080375859818791
0.0993077930048540 0.8612231719595110 0.0292560434728047
0.0898644381736235 1.0883047898549729 0.0058013595151456
0.0901453641727816 0.9306287956847916 -0.0053546217786380
0.0902952437982349 0.9748436887087815 -0.0003877935025439
0.0877420000875704 0.9927908259794324 0.0112514550184385
0.0901270632266027 0.9703414470650294 0.0119258475582143
0.0922545403523462 0.9223714239880625 0.0143149567792069
0.0914359689390367 0.9000205427143915 -0.0080601488011241
0.0903907657671873 0.9949483814845770 0.0076843786085361
0.0949518366672919 0.8720158796113776 0.0036458018124508
0.0933592265961987 0.9949753927803219 -0.0090002891695788
0.0938559948448005 0.8387894859815099 0.0030400077753041
0.0941228428390401 0.9948136758901623 -0.0027120884738818
0.0911869519882818 0.7348018592321387 0.0093092214798269
0.0914720237784286 0.7678390506209789 0.0035724680646980
0.0910946284091725 0.8778692664163800 0.0011839896971578
0.0964977998072141 0.8631724389058899 0.0088942273925238
0.0911717182483661 0.6224021620765944 0.0044529786744085
0.0953199131372393 0.8557378965854407 -0.0008674392378214
0.0901906570444349 0.9309693051733288 -0.0210546607782334
0.0836892205488241 0.9848135288917611 -0.0066773605172833
0.0900894299497669 0.9943520873788327 -0.0101946024576215
0.0896655474422519 0.7977349565627709 0.0082421999550273
0.0901485445361136 1.0799413855304596 0.0067904679796904
0.0910863007846223 0.8053869064101558 0.0094405019520728
0.0909769223961337 0.9433387660864477 0.0027934838582682
0.0945019806223434 0.8788718086838025 0.0076000051620118
0.0908217753979232 0.9468754913807663 0.0072944600766508
0.0913462434914719 0.9372509640830178 0.0031139934028663
0.0924018648111371 0.8504826928959786 0.0040750107223724
0.0920277407965637 0.7938113370114008 0.0057522333597543
0.0914461121928779 0.8317092613992155 -0.0020373994464940
0.0948634096515387 0.8563795339385635 0.0086974694308470
0.0850049463450896 1.0227043064369026 0.0083885397852175
0.0919122422330107 0.7549743249459258 0.0048568412097174
0.0930306101260817 0.8284982246395490 -0.0058310784260472
0.0855197425122494 0.9466290032844661 -0.0135811708976002
0.0921024135077490 0.8360079427216777 0.0044634253661041
0.0921633677712277 0.8676609984473597 0.0111503434739721
0.0891864976503188 1.1804396430983239 -0.0044941678767599
0.0922870764187287 0.5739630515529270 -0.0004637578070976
0.0907161108800391 0.9331019986513481 -0.0029022154603847
0.0928410790612501 0.8395593578377508 0.0014662604667051
0.0881711741575770 0.9658621037854883 -0.0069501680237397
0.1019228508519461 0.9962142187074027 0.0036811342006823
0.0935129013655057 0.8514506600018243 0.0056710370218496
0.0903734381932433 0.9698883585750661 0.0001084680851927
0.0903854211903126 0.9629994353613474 0.0030728781101053
0.0873571299988956 1.0018245157351806 -0.0047071696820301
0.0905227904951752 0.9677880424253312 -0.0036440415187633
0.0908500686708192 0.9805933976625110 -0.0047965989408463
0.0916189599141316 0.9359059617740665 -0.0026567173796236
0.0889612402363143 0.8802656803688845 -0.0159614538152214
0.0934268585462949 0.8746261014939529 0.0044726922263237
0.0915630053297535 0.8085217578951742 0.0019974846759791
0.0914344759959654 0.8997695504520137 0.0066232770424924
0.0895393237167425 0.9460941312556576 -0.0097218541717038
0.0901107524889699 1.2149098864901360 -0.0073950783931876
0.0914937279612449 0.7902932335748187 0.0032085141866983
0.0973577776856583 0.8382007903700558 0.0021485721763941
0.0913226767702977 0.8075966270934346 0.0078620543217026
0.0908573169957180 0.9390391786592521 0.0070639359173112
0.0897989091773026 1.0165692104500501 0.0119521656383990
0.0980566158985834 0.8442309574640201 0.0085654338570631
0.0914786819241219 0.8933555358325901 0.0021498212350706
0.0900672405589775 1.1105685889721184 0.0004293385850978
0.0906104191421226 0.8929511753885067 -0.0041705260232698
0.0897481190927797 0.7007587575887109 0.0066995316565603
0.0909241193329281 1.1282703527081346 -0.0145070071228121
0.0911126491260536 0.9493577994103483 -0.0078883224191187
0.0912061840506576 0.8770398773574319 -0.0149010878265605
0.0925109446629725 0.7487050682096359 0.0070023452934120
0.0919484739372073 0.8653434340381576 -0.0009574356241990
0.0910874989823765 0.9567333798760865 -0.0038201247567091
0.0948926432299452 0.8715304606729600 0.0033133474231794
0.0902336604503210 0.9071889480141642 -0.0094940854240774
0.0919356863316768 0.9338450135949616 -0.0084995466149064
0.0886270483321992 0.8673556556232072 0.0201352641335342
0.0911861288448451 0.8942378167361957 0.0032782265553010
0.0953544663235650 0.8731609793033664 0.0096639869927496
0.0897013583628400 0.9217726595209138 -0.0088058586716761
0.0937971634132137 0.7172307141334570 -0.0005325230008887
0.0904896989497404 0.8532701665462257 0.0108482082649596
0.0916601741300438 0.9007716082707601 0.0064243265435657
0.0947432033540754 0.8904586179068068 0.0130453122995589
0.0823879405533187 1.0073622941688964 -0.0005093279255393
0.0910876803315206 1.1987562957489797 -0.0109084745934730
0.0892891021930064 0.6393862959273319 0.0003980241597436
0.0883787885977338 0.6216901188449839 0.0144090328045601
0.0908797698312828 0.8603332170535558 0.0002312166154043
0.0892347842047558 0.9439801987550812 -0.0089103021554144
0.0860460770216877 0.9923397029600846 -0.0062811673998880
0.0900294181852686 0.9804823974684762 -0.0053424522420788
0.0885882173641062 0.9545027602192343 -0.0081151985770357
0.0906008534318702 0.7672549440565022 0.0018948186412180
0.0873731511151592 0.9365690493798334 -0.0142630629249949
0.0920962220299042 0.8888630044381827 -0.0035515818069245
0.0923207394352033 0.9471636758693808 -0.0026277880812940
0.0890886879111251 1.1165040239925159 0.0101531592212017
0.0909486579740546 1.3547925017430060 -0.0075358785330743
0.0915139472917643 0.8464565717898784 -0.0150519794425977
0.0929499652136741 0.8294198643226827 0.0027359318836757
0.0919705149049828 0.9238054688240519 -0.0086049961850143
0.0934512710519567 0.6895472836052589 0.0062059102828593
0.0918923474563280 0.8734115051041522 0.0017410449332426
0.0922903863314322 0.8620815800733104 -0.0031051459460757
0.0890096276744334 0.9772677677671329 -0.0041368474654445
0.0900912846590610 0.9557736597864408 0.0132419209319198
0.0906038383158013 0.9393861709727438 -0.0040626575793105
0.0894576990878305 1.0665220891144844 0.0113908786121322
0.0886003233896344 0.9882062637720332 -0.0049657470961989
0.0861743815505178 0.8802761210310032 -0.0245680347121531
0.0927286184358440 0.9633285504407095 -0.0097731021838846
0.0927438007931844 0.8522081584678060 0.0042299367076831
0.0911702980867279 0.8186964529863037 0.0047524607793940
0.0902517082786637 0.9571541868259987 0.0072349875009159
0.0909191980170911 0.9633818396922197 -0.0110971750649662
0.0923119137872691 0.8688607126821961 -0.0019779662277861
0.0909424031212477 0.9057598643292285 -0.0027301483958216
0.0899413505232301 1.1415442164666678 -0.0024890942350609
0.0895218921358237 0.9576684256817694 -0.0026587668283528
0.0774941527151552 1.0308966390997978 0.0099835416627679
0.0907614932472865 1.0383755281959828 -0.0032307210823808
0.0911142708344459 0.9207074640139845 0.0069820659997519
0.0917977173670702 0.8926779420324142 -0.0007658585008036
0.0913407501757248 0.8570714330036256 0.0087568059376903
0.0905082128553751 0.8068629801121783 0.0162230198938720
0.0913920076313493 1.1867303453765006 -0.0028055455083371
0.0978621426686949 1.0171393944839093 -0.0061231638827278
0.0938767781943852 0.9048420039751454 0.0103800158232985
0.0908103647292412 0.9903711917063436 0.0034724155783262
0.0910097109309808 0.7699268714405803 0.0058759024092659
0.0902155151668980 0.7429800932546144 0.0041066312275146
0.0832642145103864 1.0199471399085307 -0.0070146696451719
0.0897397385627303 0.9440452302940836 0.0033847365586697
0.0892845645959693 0.9857065822774755 -0.0024921877191539
0.0919813540344263 0.9048785822291905 0.0002413881473583
0.0936171055732143 0.8455420243948663 -0.0046000326107865
0.0903121682167447 0.8557554546656537 -0.0121123520814414
0.0912785821051672 0.7915862413790788 0.0068761728089047
0.0949886196595199 0.9787505967553252 -0.0074385602136276
0.0921306769275965 0.8556712655709372 0.0055761881923203
0.0918076937911349 0.8964507788805686 0.0019000431665328
0.0910281882223777 0.9583089256049895 -0.0020171856275276
0.0905536616613138 0.9781358786581473 0.0032819210111630
0.0925779074806669 0.8731777879869379 0.0048734535798549
0.0918111732364172 0.9188989891699771 0.0014358545462905
0.0921008674279701 0.8774613118473207 -0.0008087597880050
0.0914044803278811 1.0971635022384545 -0.0120555390015029
0.0913280198246592 0.9170971627811897 -0.0034709055962832
0.0952175538796891 0.8733940762835912 0.0094181822132818
0.0908583355716620 0.9786226956383196 -0.0059866093012415
0.0914341711152803 0.9599087088967034 -0.0023813552528567
0.0942721163121031 0.8246098694406160 -0.0061644756273237
0.0885817519976138 0.9673100741463730 0.0198314760247130
0.0914569120656107 0.9210284411206765 0.0023609403829269
0.0911185790329151 0.9358334957674527 -0.0026455718800417
0.0917607207018616 0.7578421458033363 -0.0072936076083167
0.0877657166010698 1.0098361898792747 -0.0034187576714439
0.0912172524688368 0.6498634595320915 0.0133130814251675
0.0910788368081234 0.9185236510374813 -0.0063470760039662
0.0892905581860220 0.9917272639876556 -0.0052768209869434
0.0903018198840461 0.9982677147885957 -0.0032572838738848
0.0901867206453248 1.0324103658989079 -0.0177633362441152
0.0962085903889533 0.8919328705818075 0.0185233849518170
0.0903601390065142 1.0735621066321155 0.0207433811917147
0.0922251924434230 0.8948259291869688 0.0035399435722804
0.0942417036725343 0.8663030647919837 -0.0030872511630555
0.0914866809874454 0.9182288546158974 0.0116155624209569
0.0911319326328862 0.8949003175215746 -0.0036902696332772
0.0941431398229866 0.8423700765475834 0.0048171013074890
0.0906760345020739 0.9168034686151776 -0.0118839486725255
0.0890256913639991 0.9756215769264831 0.0116958309522015
0.0846383517157859 0.9904503680168695 0.0186437784134920
0.0911082179246983 0.9177286034287637 0.0026252737713012
0.0870931230877380 1.0119445909931497 -0.0001562952973886
0.0894428913828736 0.7722500063007578 0.0149070959016245
0.0873758194834857 1.0101295544861526 0.0006148080506509
0.0978074168880528 0.8359664743850700 -0.0015714550833918
0.0870124553475511 0.9916165364377705 -0.0067472948965629
0.0901252319643038 1.0098313577981901 -0.0047423081625559
0.0855257922992861 0.9520205191538272 -0.0179005593670599
0.0935843258383234 0.9079320679059012 0.0169732476934649
0.0898379395149313 0.8915076051841145 -0.0054786456879902
0.0955482227533738 0.8684697316292620 0.0067758264593180
0.0850593633856584 0.9854549793942207 -0.0059322098109044
0.0836718168355753 0.9773132396809976 -0.0146039145800434
0.0905573248204507 0.9778017682921549 0.0074461153122624
0.0920570004150865 0.8676510068228894 -0.0115903569155641
0.0912152265842713 1.0894707165616144 0.0001653274982835
0.0904595789152408 0.8736859408030713 -0.0065365538689391
0.0866641926639354 1.0130695124760634 -0.0011759210978850
0.0988750142022621 0.8412503768365688 0.0212389307890337
0.0910506886154265 0.6854304760069853 0.0022500421553385
0.0908774926308020 0.9208383772171091 -0.0037984690019595
0.0973695483268800 1.0376475729379315 -0.0038764793176475
0.0919608538217424 0.9091955230215766 0.0011473270553888
0.0835874169136826 1.0125102599921052 -0.0106673817215985
0.0908195969823300 0.7649068893053910 -0.0072761363048053
0.0941637909756421 0.8793589111854024 0.0054702846172387
0.0900502072796489 1.0904849610494769 -0.0036973958163692
0.0922975619284107 0.9049003306804786 0.0007064719979023
0.0907122116504736 1.0414314860477802 -0.0054638119266168
0.0902708189849495 0.9093033775416431 -0.0116651048523854
0.0902268599040607 0.6383530419374399 0.0053417910671451
0.0892069238631265 0.7646194976804978 -0.0138883504764547
0.0910304807027158 0.7411079425232082 -0.0028117888839976
0.0909074272630663 0.8793900750352981 0.0013532369938787
0.0904317199207783 0.9397530883348069 -0.0038824211064182
0.0925534653545439 0.7326323407584067 0.0036444802501201
0.0891581965709386 0.9342954095348470 -0.0117329957400949
0.0962585892233515 0.8648523002836582 0.0055982036069059
0.0980514062492713 0.9562188379151081 -0.0065370002335887
0.0914441864548864 0.9342144067880631 0.0124253207553489
0.0902595249752815 1.1035831125415947 -0.0050815374003489
0.0897085100269987 0.6656857181533812 0.0075135849812679
0.0925237230271687 0.8746111074411271 -0.0060176823799629
0.0907880031710851 0.9489425034046087 -0.0062310069004973
0.0937039811492251 0.9053165479666226 0.0155244562213097
0.0919488351200833 0.8640367860891319 0.0060716135268059
0.0909136805700786 0.8677513722676591 -0.0083359642888257
0.0905399992572761 0.9612288909782438 -0.0027578148375880
0.0900607340146490 1.0903936256899376 -0.0053643398657100
0.0968017002026329 0.8708619465580759 0.0126315125991323
0.0913249088605837 0.9200617452162621 0.0067569608095461
0.0911821546845058 1.0855783208411014 -0.0051292604829148
0.0945581198686156 0.8720705914038653 0.0061951029654674
0.0910275454460973 0.7733366624000393 0.0137966684694534
0.0901350225917177 1.0959800016342525 0.0055021398901822
0.0898719346982527 0.9935721301860833 -0.0049301144554099
0.0905902542957662 1.0113544066143638 -0.0037280146902280
0.0906160114048543 0.9815295305559696 -0.0025821458480409
0.0886115313070903 0.9859065074291686 0.0001862466744646
0.0875165587847578 1.0024234586851106 -0.0050053289966438
0.0902131016022481 0.8845090360361528 0.0120356885071582
0.0790077437511361 1.0419039086519253 -0.0047256406318044
0.0923998741493624 0.8685624777284373 0.0062188615740512
0.0891961657207589 0.9752841287899345 0.0074056288187652
0.0935111309564150 0.8847558087764869 0.0090160687418938
0.0901501731915842 1.0810395867837157 0.0018585785312911
0.0912570862095598 0.8226134843337579 0.0027279498559948
0.0868079794242538 0.9652864983616845 -0.0049621281644138
0.0916030972620452 0.9532133753896692 -0.0059558755785228
0.0890773381197520 1.3639599426660998 0.0002965023415165
0.0889329929326217 0.7254755822195628 -0.0076279668779289
0.0846735412242150 0.9886446028382007 -0.0104283102396070
0.0922326198667531 0.9187175453531075 -0.0023104006117791
0.0892380767948562 0.9291315619340893 -0.0151517535371464
0.0922565399025218 0.8240451158651073 -0.0147086100667135
0.0910928742617691 0.8732795052694459 -0.0023023251612794
0.0875010786381796 0.9846045196839054 0.0224412096338798
0.0909375742760116 0.9713255464424887 -0.0029033799709642
0.0900367886362881 1.1078108671024698 -0.0185859845654971
0.0901891001983039 0.9957472961026461 -0.0033047171341452
0.0926802901356873 0.9561231827093314 -0.0085161402068518
0.0844631164485157 1.0009497348656244 -0.0137083311192306
0.0913430499928340 0.6949207373135247 0.0062432295946441
0.0858648787597706 0.9319508755963624 -0.0209221284391176
0.0887902391221291 1.2079055770214164 -0.0078824633675712
0.0901239830706339 0.9802781261610045 -0.0018614428622763
0.0904418168588111 1.0071127376820632 -0.0032748945247088
0.0941720575168148 0.8671594186653323 -0.0028138307396752
0.0870142434436578 0.6521002259871419 0.0315008393425838
0.0971766820515348 0.7859003175690099 0.0040869716749927
0.0898166962411392 0.9855637334875558 -0.0035962867617015
0.0900783993011547 1.1611607498686229 -0.0077715554282310
0.0892429718316680 1.2223313255565524 -0.0039689977979376
0.0903590709419334 1.0680150952895167 -0.0147898225149113
0.0869699088682526 0.9378207876531987 -0.0165996207478042
0.0888930961260182 1.0804181593185598 -0.0144631959670443
0.0900345526092047 0.6120399290683096 -0.0035816076523545
0.0887983973778340 1.0635611594371548 0.0231442173520818
0.0893588782931703 1.3074014305784649 0.0058512409719480
0.0818013414647922 1.0293477785006631 0.0064440120694606
0.0882568707790003 0.4835782685632697 0.0157170021020392
0.0895228461301086 1.2240361360650507 0.0099185481793538
0.0853522146767904 0.9312945627160598 -0.0184801441675772
0.0888501431758421 1.2316820263593451 0.0218818602371858
0.0891771080926053 0.5403915930800661 0.0002057807249334
0.0798934547325383 1.0386969130202552 0.0013718972780692
0.0882703897813762 0.8955773598811866 -0.0190638948598066
0.0908570164466857 0.8177497892021628 -0.0151023150833649
0.0837126167962835 1.0124233303320080 0.0214625040208332
0.0886759197913611 1.0550057389424259 -0.0167326194754212
0.0963412631946275 0.7932800222731810 -0.0006311279749645
0.0856479859968975 0.9525673925488536 -0.0162262013929335
0.0939049439407782 0.8511293390214630 -0.0058564197851566
0.0915267077092411 0.8547323470935040 -0.0139840676438558
0.0860998960551926 0.7164105894644525 0.0372964251977896
0.0938543914670805 0.9583623756109798 0.0357884130149768
0.0889244187783185 0.6403810336744781 -0.0027196107722269
0.0899551443643048 0.7048647928452157 -0.0055439577989249
0.0945587952231667 0.8401720096819556 -0.0033706542111251
0.0886661720781721 0.5942082204819316 0.0096259824975538
0.0931731288724540 0.9076754940048151 0.0182991524263436
0.0964862065494999 0.8652907139658849 0.0137216285003679
0.0881904895140609 0.7601200176467019 0.0195259425231465
0.0869329118184317 0.8278560301081520 0.0230971379501739
0.0849867549822470 0.9654353523792658 0.0108880225798297
0.0911187698262934 0.9370290797790529 0.0217029476052128
0.0885272957202785 1.1342532114614772 0.0115925985211549
0.0814342027502753 1.0003622502050709 0.0087581522100693
0.0888994777831436 1.2163220943556330 -0.0186437660025382
0.0875402333121920 1.3145922246402295 -0.0112269123854896
0.0875281596719490 1.2810259359740388 -0.0061779823016865
0.0798947569420724 0.9437025120450296 -0.0227184176279410
0.0788902747138594 0.9929872983280414 -0.0105287139953979
0.0860053724716752 1.2112612722805043 -0.0222920952892703
0.0977898815898852 0.7782706604220205 -0.0007518562673953
0.1023198167230096 0.7050017504324693 -0.0212801626518087
0.0840260642198856 0.7453077678018152 -0.0428840519157350
0.0803018625980208 0.9236418526451722 -0.0257969809805996
0.0929321807221577 1.0554896696849165 -0.0176853169299406
0.0847428394856574 1.0748540261000492 -0.0339638299697765
0.0912202350909749 1.0467021886112091 -0.0389389563162453
0.0930268433088731 0.8904608697965809 0.0092101528125397
0.0985735775237171 0.8967158502557362 -0.0197982207763027
0.0946810638594811 0.9436621278641503 -0.0024264231357640
0.0936969300064473 0.9591202178591252 -0.0040990860141784
0.0945686884233249 0.9046305010373276 -0.0013965441219459
0.0917191580961710 0.9491695414393162 -0.0031185129942950
0.0953715696079721 0.9080633498883272 -0.0011710531114988
0.0914576823900923 0.8834787988851769 -0.0000621345679092
0.0937008702781352 0.8638681962560899 0.0008541371103556
0.0941655090999149 1.0561530150445253 -0.0287483602200235
0.0610540067667553 0.9274024527088162 -0.0130430471071922
0.0917238837730171 0.9341513825100166 -0.0114503413648352
0.0873296441861930 1.1059038296065005 0.0271310464642857
0.0922082792145667 1.7998277887958467 -0.0201718212686088
0.0942911310178850 0.8767143644410698 0.0005867858394705
0.0936991918195837 0.8878580199930151 -0.0000115847109283
0.0725819031276311 1.0183639227630688 -0.0258094814189795
0.0816640226468013 1.0367259767601464 0.0251501279214244
0.0937808668757417 1.7149932860917456 -0.0154583066025255
0.0761215841006695 1.0706924586773356 0.0195356041937879
0.0883987221881038 0.5878754935609608 -0.0094000260562907
0.0989991532745525 0.9754632034040727 0.0445831085770607
0.0723604893501605 0.9946828410328186 -0.0384014778083169
0.0981186354168239 0.9323452697038638 0.0356652182371492
0.0895725078893685 1.3503005639238193 0.0252194893217931
0.0818081196469356 0.6815525438487628 -0.0384425345147243
0.0826000417449280 0.7935347885438893 -0.0364507179980525
0.0856783818099618 0.9351687862242239 -0.0026664657430238
0.0955457830188114 1.1850177240316666 -0.0171670404870151
0.1057988883884590 1.7079368088577800 -0.0258218293980821
0.0986243974614862 0.8438135966078830 0.0257452825690966
0.0851287780890396 0.4750879501041104 0.0455899944414360
0.0881358683796511 1.0379119798391012 0.0142337317988094
0.0871200430316927 0.4146068025055379 0.0194760835170538
0.0878275443175809 1.3055765051015065 -0.0113997328909591
0.0919349171233446 0.9187540395699093 0.0074850113395325
0.1026457583199613 0.9712896647448882 0.0085522789227872
0.0912331962043397 0.9850599611541297 0.0085157093770429
0.0976439323453608 0.9975340420796863 -0.0164103733053086
0.0930513226305199 0.8736179747219680 -0.0115604850382318
0.0917793940643084 0.8767781090068100 0.0051036147682513
0.0919164261869783 1.0633638413856465 0.0172206860441830
0.0889784256673651 0.7253997521938340 -0.0285092438561591
0.0894977527774937 0.8709688000830075 -0.0279491816751851
0.0810156550049238 0.9642859583778419 0.0102950412599376
0.0757556484698362 1.0617310939750748 0.0137568714189739
0.0963307308605930 0.7968703077334335 -0.0058583167550115
0.0869538260674968 1.0088600187030541 0.0076669726379642
0.0871116459741686 0.9626360582785775 -0.0055500990387449
0.0847703872841311 0.8973890373652817 -0.0152073283053207
0.0898494140322610 1.5024991022416940 -0.0098530590437977
0.0797335192780255 0.9234265692818183 -0.0303597059700477
0.0851101154219373 0.9862188239073832 0.0088238264194497
0.0959665375870499 0.9982480567535585 0.0043469000391885
0.0821607920794826 0.0756858177775329 0.0065339350140612
0.1216479609914963 0.5368222204440376 -0.0769749936795621
0.0939641663782357 0.8666444210281720 0.0104017831305152
0.0711357682166834 1.0091730764988176 -0.0181956670923830
0.0881949811495686 0.4936456621934525 -0.0052608968899934
0.0894593700222320 0.9379613066497158 -0.0173766337682499
0.1943915517788217 0.1110335118984812 -0.0604509354438973
0.0828294238854891 0.7975238903655733 -0.0366780881980116
0.0863865691038369 0.9955674610280225 0.0078984947234677
0.0873011507435370 1.2214399177986821 -0.0039304145109258
0.0907366398534298 0.8166207511873039 -0.0280272743653295
0.0869902214955853 0.7998402935845105 0.0247672299231293
0.0985644194367538 0.7983523134757363 0.0257424122218552
0.0887623067625714 0.9551238873252759 -0.0056826610509318
0.0870105215973422 1.0176218155411902 0.0132223247450045
0.0798012484267138 0.8302245530856219 -0.0349431110627734
0.0908722739516421 1.0510103181165276 -0.0089323519959301
0.0902927037361788 1.2611691676614434 -0.0327311140454606
0.0856813163820878 0.8275082391145403 -0.0162967897406808
0.0775040268749156 0.9108686922064464 -0.0251650851150476
0.0768791153499948 0.6917547862212946 0.0093207047586366
0.0899900940768765 1.3098478410192758 -0.0088254143810125
0.0810496334053193 0.9796044689265008 -0.0037395177893860
0.0892346845469486 1.5772817523799831 0.0131107464123403
0.1282307594831543 1.1087851861354208 0.1068055730755331
0.0773654980115367 0.9914730973196780 0.0088018288006367
0.0785531876485257 0.8258483731400801 0.0033331329321196
0.0972065866770380 0.9488414355054955 -0.0138389278562505
0.0804811303650960 0.9794214598389999 -0.0075014147139078
0.0884054651776277 1.3005197873361882 -0.0173299751810379
0.0991926005722348 1.1528702432754092 -0.0143520140843461
0.0843299565612893 0.8758130591224272 0.0139027090017997
0.0856914775154643 0.8935942700235207 -0.0176464002149620
0.0904697129658950 1.3491459742733334 -0.0274513800600668
0.0770684887647602 0.9293592514059761 -0.0212249728305552
0.0835096989782300 1.0774553203375488 -0.0342519520079495
0.0921440820832931 0.8233941510763551 -0.0204255864895084
0.0842587175717420 0.8018081916639721 -0.0150077559086385
0.0804415050562906 0.9654169887827878 0.0253739532535016
0.0866582942736006 0.9082172378913208 -0.0152373381907532
0.0836072569923623 0.9372842109671007 -0.0126049076595265
0.0884353299852359 1.3769543503467236 0.0076695733134739
0.0690772204728143 1.0828583236503055 0.0042854376038120
0.0917644376022825 1.2129625291245292 -0.0036896644554218
0.1004483390942537 0.7392513296746266 0.0052613358763087
0.0825472692942367 0.1589745768451662 0.0399298828579685
0.0768920449235738 1.1724998911513562 -0.0711254398877245
0.0889719323561865 1.3336899103397495 -0.0033069471776527
0.0852126838740549 1.2909625812934473 -0.0204755353468367
0.0767360968414494 1.0137309836692647 -0.0088087101595284
0.1056245191912449 0.6840876481884127 -0.0362434204498346
0.0637536030552228 0.5859647290547517 0.0206003473827197
0.0903036461425699 1.3092462043445208 -0.0249529251069674
0.0778592321950911 0.8125523813435596 -0.0349829618959943
0.0977118811213555 0.8256873055232102 0.0127490885955608
0.0833190706449165 0.8756558101949701 -0.0167456556137977
0.0825921559244312 1.1215391180865593 -0.0316209875819793
0.0877073702222626 0.5776294816028466 -0.0022176837928617
0.0972464108400803 1.0850931221308415 -0.0020963851729634
0.0875084202143349 0.7366438849189332 -0.0252709849466520
0.0787834916215367 0.8485876651363780 -0.0344296491466177
0.0872403591501267 0.4483974131466036 -0.0034880314800756
0.1194547449773093 0.0590711389993315 0.0523332278235540
0.0839076517551735 0.7374721355611937 -0.0163555197078207
0.0974944311141001 0.8792972232762996 -0.0162672682378345
0.0597517412898215 -0.0411338939667371 -0.0372778013979832
0.1004019295445847 1.2777372612386317 0.0246219138591878
0.0839078596560580 0.3436109537736927 0.0367099541883039
0.0467110352440548 0.6276360544980435 -0.0619730585858084
0.0902687558999219 0.6145006087685960 -0.0359811254921524
0.0918679774089269 0.9168241367952020 -0.0183425104480905
0.0857943869846003 0.7740230687687650 0.0046366594491425
0.2059548784416969 0.0995116849889352 -0.1291552018277949
0.0960971457508974 0.7831648792103401 0.0061544278890525
0.0923376569636646 0.7298688218309369 -0.0097858422147291
0.0930816316545430 0.9307367615606611 -0.0166437613789104
0.0955919069895751 0.8520711253186118 -0.0099978861541040
0.0996878703286109 0.8434371926978445 0.0068994060275633
0.0925419560551376 0.6348823223146571 -0.0062191140568897
0.1014217072588740 0.8449093142087321 0.0132758388917889
0.1004055080211376 0.8161878736214778 -0.0029018966507514
0.0954709185757608 1.1346462051643043 -0.0145171358223239
0.0930710822316761 0.9961228560171339 -0.0170461715884983
0.0605199952180939 0.9446973537174798 -0.0181605043995419
0.0923112554655773 1.1415152588810591 -0.0289745667486496
0.0808811036419790 0.9359130622575184 -0.0178127985504008
0.0883228782722050 0.6541462610778703 -0.0054327682343704
0.0885587813444435 0.8150109013184791 -0.0162806476674247
0.0871131207024128 0.9416039793618494 0.0087295977374542
0.0888734791466276 0.9042066925600806 0.0142185951686684
0.0749971272269452 0.9502157394721183 -0.0194306937438892
0.0572935595688016 0.3191678016217097 -0.0665784555731677
0.0866276652744848 0.8249847353017461 0.0001321459212603
0.0816636465617372 0.8496754319703731 -0.0159453616909707
0.0816025521900422 0.8982112239665035 -0.0306342270338187
0.0958214671136948 1.0659544659930673 -0.0130887059503125
0.0791876982305703 0.9874880406302223 -0.0157929181394970
0.0871940214207641 0.5072094810845487 0.0019218837846126
0.0863581854087348 0.8676781571689279 -0.0297148983627629
0.1047113631043838 1.1419496086293830 -0.0231574494276873
0.0803521483284106 0.2506946859771521 0.0149184521475884
0.0899894965570096 1.1633508374077424 -0.0093142050199912
0.0945253813523193 1.2838505234437063 -0.0093644894554829
0.1000868108379156 0.8163874293384881 0.0155906873036497
0.1016312511301725 0.8354315953650029 0.0246047047654481
0.0952946150504822 0.6686925401776231 -0.0290214498823372
0.0837590065612788 0.7861767720679346 -0.0198251840227360
0.1109497323815777 0.7204901190304495 0.0694644817287232
-0.0631765764538165 0.0560734526536597 0.0376661018993701
0.0545175866754725 -0.2081895056304454 0.0769218248413625
0.0705122662899664 0.9530921877823310 -0.0316005942118839
0.0817570841188064 0.9266827185926763 0.0071471367298680
0.2232902847502178 0.1097166501517562 -0.0535221670882602
0.0874323304072079 0.9385613226877192 -0.0120223868128421
0.0763224724485924 0.6962331376129924 -0.0139964076016347
0.0763221984582660 0.9571935308910772 -0.0094872684895077
0.0901786235771984 2.2996602415446663 0.0310817626124926
0.0960907191958673 0.9698244381923342 0.0078302318722055
0.0979812377239898 1.1526597025868417 -0.0013420555175193
0.0920063302491569 1.0135131890633893 0.0075581009794933
0.0896266023041893 1.0840769855858430 0.0003179416029619
0.0909274525608388 1.0149745507488024 -0.0169047878759786
0.0941780281827896 1.1864841077976935 -0.0126192290199677
0.0870330565736733 1.2389219430251279 -0.0164293992587502
0.0910445215925994 1.1425433565355969 0.0945576764223004
0.1231553724304397 0.0521127407621815 0.0127432379963121
0.0777836928614827 0.8639638893009628 0.0221175084239555
0.0910696378781251 1.2214556865158777 0.0109688867820377
0.0585582915088944 1.0751971902246720 -0.0400496286762421
0.1281451862895682 1.3688784756667840 -0.0641213148451417
-0.0241563222276745 -0.0584449942264178 0.0013500006355649
-0.0354948591749738 -0.0719233318892384 0.0075820259654530
-0.0360116624161307 -0.0678711698967579 0.0072826218017551
0.0552340854353324 -0.9079843949308577 0.0704370637363372
0.1003286265820824 1.4451868593022665 -0.0966006498119539
0.0900597834814355 1.8927305253708897 0.0029154477638652
0.0937508418334770 1.0238187012255651 0.0113513892387210
0.0926768395471661 0.9341675298199298 0.0060285193580453
0.0984863954227344 0.6647918193157567 0.0289238238340575
0.0907096653360190 0.6067052186734856 0.0028410764980842
0.0900144434868040 0.4744175929808664 0.0152892042123995
0.0904769704554627 0.9442537330781856 -0.0142179907643591
0.0839744503226969 0.2986794677778588 0.0275200814077234
0.2170621512792049 0.0938855308599621 -0.1399569182224897
0.0482240330598604 0.6355927973981945 -0.0040941219032514
0.1012075880227989 0.8696341409700712 0.0461507068723044
0.0964244943064245 0.7416998818540947 0.0070505690883895
0.0893176056156724 0.8554090045291953 -0.0160564725349504
0.0856021009954012 0.4090522100813542 -0.0102105221680105
0.0502187397477577 0.5128426288628073 0.0327010150786037
0.1260354448342503 1.1174732984645652 0.0915395635792143
0.0878562577431833 0.9060607407138590 0.0152856648080973
0.0421602732640496 0.6366927054304308 0.0641185675924416
0.0806284703894755 1.2033647713716793 -0.1189509449638985
0.0879356104927001 0.7754516366424700 -0.0190789175883927
0.0570092450103897 1.3963470505554929 0.1022996541018715
0.0811997372741575 0.5519692451969894 0.0312755877645024
0.1073715756670180 1.0291078132825124 -0.0239159761095089
0.0879532154192474 1.1918416981806867 -0.0269114760192351
0.0851944302553461 0.3744331630152310 0.0057570792914648
0.0525373712350922 0.0157960299639699 0.0494449040386048
0.0730927864924138 0.0632194269865844 -0.0821519458997162
0.0622145732675296 1.0152402531089315 0.0894686183722583
0.0833172462117058 0.9027919533485622 -0.0283813178670648
0.0727137678768001 1.0635106776280652 0.0141355086655677
0.0848771770143240 0.3806412042431134 0.0276619965012207
0.0938904917536089 0.8821328925061943 0.0225309951164843
0.0883597429996192 1.0197744777142483 0.0155982908944897
0.1252799228424976 1.0708294124274564 -0.1008536864957306
0.0605233391669818 0.0097624045147692 0.0039179207787719
0.0867389245315352 0.3386428061606301 0.0168428838410694
0.1493681479867711 0.8364902916336614 0.0481834533636714
0.1293502485923285 1.1527779048705802 0.0891027182256238
0.0987140158049670 0.7852779828129155 0.0019270439093695
0.0877327762520770 0.9626738729111568 -0.0246108352574047
0.0844373103124525 0.2606212580217712 0.0538886711533454
0.0878670879916598 0.7179425522010461 -0.0159483118493480
0.0993101326755807 0.7675332097296732 -0.0189493256256367
0.1277656692872589 0.0728715530473218 0.0791197696563728
0.0887200422594400 1.1007377664653968 0.0003531551945458
0.0891151924816659 0.7509579876226112 0.0000212409019264
0.0861860657499249 0.4304154708211513 0.0072356988224754
0.1984513343401520 0.0791782241101262 -0.0802344432611330
0.0827449076551131 0.7465699809016844 0.0472987026041266
0.0808334681313911 0.8208363167137436 0.0220529874068962
0.0897440577178950 0.9500913845544225 0.0082015325610089
0.0834273358327811 0.5750321697691579 -0.0330126626461241
0.0886126154944251 0.8346938578903527 -0.0375020730062980
0.0958880280326698 0.7863784591796847 -0.0109182206171142
0.0584838453091575 0.0964464446801050 -0.0157116693486533
0.0883352764150680 0.7561494544740320 -0.0373510606737332
0.0774647645133348 0.9833441256102918 -0.0224952725083950
0.0994273293564884 1.1297576476962083 0.0678792172207601
0.1090349814143857 0.0540665347175304 0.0268451554445946
0.0854738608856223 0.9792224864095043 0.0088357301315448
0.0927050266224752 0.9545684282145536 0.0708875614819087
0.0863805175538993 0.9226050553428279 0.0150568774149630
0.0815206401619123 0.5728153877312725 -0.0099662668271150
0.0979955544104660 1.0714657884724004 -0.0829290802137387
0.0892049654485274 0.9843119364783097 0.0381829731339701
0.0894715162652045 0.9519808166384509 0.0083226289973970
0.0829114350688326 0.3327054898162876 0.0352612405504155
0.1031521042915505 0.8964345589870714 0.0381272086973065
0.0796824138327143 0.7415732244908863 0.0046559173064809
0.0766186548390844 1.2865743955518583 -0.0965280598939876
0.0343996473223337 0.0991088463938862 0.0256519305852216
0.0809489095389961 0.1269843076034610 0.0142943078335611
0.0594272454022693 0.0998694646511866 0.0130513521895795
0.0420790239617551 0.1213792059055056 -0.0759855303229142
0.1157380652591966 1.2828208697181733 0.0256548814410721
0.0859675665772884 1.3543854605088268 -0.0088678589732583
0.0822944840086494 0.9706041108393735 -0.0022613220397015
0.0974114714913259 0.7704997886004651 -0.0147595334064669
0.0891691451175469 1.1118840963922398 -0.0295896350180748
0.1214353928015874 0.0378470446438706 0.0262309128971141
0.0847790290385232 0.9322092704483078 -0.0402041465666016
0.0860035628506669 0.3308150132197027 0.0032177524423729
0.0595937068956807 0.8970372719817765 -0.0371835512842473
0.0732311462425452 0.3628552055791817 -0.0312656373558271
0.1447172828153692 0.4390209075357798 0.0022243029603651
0.0803828141583664 0.5891513209708705 0.0312976931438613
0.0466215974520207 0.5852099609243016 0.0358402534285820
0.0766283029809304 0.9144381197902819 -0.0448497950408364
0.0663205780393142 0.9404458292217283 -0.0688115642867665
-0.0163114127002205 0.0607377908365533 -0.0279797800926472
0.0995689922465633 0.7204133993760036 -0.0176446714009146
0.0801319542479652 0.7574220913316989 -0.0184962883410981
0.0798213991133748 1.0073156182386171 -0.0160965314402841
0.0740266693765022 0.7354766439505531 0.0747013011953194
0.0868256305960081 1.0328724846922215 0.0096078200799961
0.0579860525932667 0.0186710528916048 -0.0513364839730347
0.0863675007913501 1.0626446014139306 -0.0157003233578374
0.0937862997716050 0.7070995510905358 0.0253029650469346
0.0907507294223690 -0.9878849129366100 0.0541791670737974
-0.0131100479184631 0.0287999363356130 0.0098836283665071
0.0882071712515968 1.1737706257615554 -0.0075461226054178
0.0765968908439606 0.5149303582137404 -0.0170222355124232
0.0698204859810750 0.7177966796182994 -0.0829854658297439
0.0823749497668903 0.1783377857070420 0.0076326137159362
0.0520499733733105 1.0399246577990464 -0.0325600273380499
0.0937554506625311 0.7623532384859026 0.0158614794644393
0.0763465933273581 0.8707344038163505 -0.0353158136609386
0.0907950977125425 1.5843453318948848 -0.0366227864060127
0.0859339024862712 1.1580853387704957 -0.0011270068611141
0.0864885403782717 0.4525060400813822 -0.0014468589983892
0.0898502260125408 0.7463949945324916 -0.0231362832532827
0.0894845996521032 1.1581348332917270 -0.0247623211395070
0.0896878835720978 1.1840010382831194 -0.0198075661030725
0.0796697932797487 0.6297575205098134 -0.0198460817505666
0.0921273558364728 0.8012873506962552 -0.0142815698478377
0.0835074373420787 1.6480165200636316 0.0224384905379489
0.0877713231300472 1.2189469168984357 0.0025280018192498
0.0887897910664255 1.2472758594676729 -0.0075275730489361
0.0898158623088573 1.2852929609337143 -0.0387775517527357
0.0823033860414609 1.0432335510677031 -0.0002273518252805
0.0477291949002518 0.6166731160080987 -0.0279885533292468
0.1278205566436425 0.8236371020614374 -0.0138293907036216
0.0856085387518842 0.9124628673424164 0.0399033780906297
0.0896448025912820 0.8889317856905747 -0.0175867245546076
0.0851059963707098 1.5528561492892397 0.0400110492390437
0.0740071285267975 0.8476309994093418 0.0203984615789816
0.0913251123339432 1.2092209377099328 -0.0226440928954020
0.0977845462126248 0.7720603704717705 0.0075656804589862
0.0828532916490654 1.0062212658179361 -0.0116665599259975
0.0645019620971358 1.0843024103744572 0.0053540078516897
0.0837273676300291 0.8287783878784514 0.0113077056691401
0.0995740966076143 0.7794244989029889 0.0147667762537612
0.0846124053161374 0.9600479891256491 -0.0038747480388061
0.0911066825973603 0.9572936708537579 -0.0105384302253732
0.0873850190175986 1.1640663913628222 -0.0355253425682879
0.0820961642101214 0.3667156190341745 0.0418074475152102
0.0693144698700909 2.1374418652616902 0.0495783015842142
0.1156243195191349 0.4643244210731135 -0.0802210881259988
0.0941408821366868 1.0736402073215181 0.0055499559977129
0.0852828620454980 0.8455150282302381 0.0157585883927759
0.0874082034164114 1.0437507646530293 0.0085296223448826
0.0902486658981615 0.2322481028259522 0.0376490525675365
0.1043923668993856 1.1719271197904086 -0.0752420331600264
0.0540145701678737 0.0669054122907508 -0.0104378163242299
0.0837911077311779 0.9466992947937652 0.0138744142519111
0.0815396547639883 0.9410377764635108 -0.0212648853980936
0.0837657965274025 1.0068848060817701 -0.0072217677280822
0.0807942488148349 0.8847013716509392 0.0124263205597449
0.0891918354073911 1.1600497535556051 0.0139938049019074
0.1190207338949020 0.8290323653945385 0.0111311579813310
0.0863001342259508 0.8093427589705117 -0.0135755066957743
0.0931476063723457 0.7780129334724700 0.0170493625404510
0.0842893258405184 1.2402494847427190 0.0300550876050033
0.0861730728430106 0.7789540901232013 -0.0195049232574007
0.0980849595100608 0.8129055883771584 -0.0285120094548488
0.0891501414415419 1.2354847535260671 -0.0082797061747416
0.0975629252066785 0.8006112931821390 0.0041158861941857
0.0867876454150051 0.4616803811980938 0.0172394583325695
0.0954415638554840 0.8687427595141676 0.0166952042215531
0.0840966678257234 0.7075926027610698 -0.0499802229327612
0.0500946598986083 1.1208252801342704 0.0948629464630191
0.0917068500169455 0.8887417500196779 -0.0607897506818211
0.0844399766186130 0.9656432973949407 -0.0174436732404771
0.0825045000132533 1.0079389735989113 -0.0072892814218528
0.0891520369138750 1.1126874469533306 -0.0216432323697648
0.1155342447759540 1.7952953616946621 -0.0785985530140326
0.0862032159211857 0.2499242496852628 0.0023848638975241
0.0871495903341701 0.5913081639873122 -0.0144282444685290
0.0938601587969237 1.1093743615367968 0.0035736707821535
0.0959076481647296 0.8233796190484070 0.0347477323691283
0.0900108783205061 1.1213121750804180 0.0520497961205383
0.0772431466055390 0.6946705884636409 -0.0429003974120773
0.0658145914260339 0.2212086816042753 -0.0226589292029320
0.0277604487619993 0.0570261029781023 0.0244021150937408
0.0466148341901799 -0.3179581450359329 0.0859316174627074
0.0894910141369353 1.2714940774534820 -0.0289547135009461
0.0878404708831528 0.6492487363644128 0.0056829592968770
0.0789317264043324 0.3205408563591940 0.0849590086058025
0.0883755322417597 0.3278485695192149 -0.0161664855621776
0.1005492822139202 0.9255674840091034 0.0043382342891804
0.0890708635132666 1.4215432272465522 -0.0232619999541219
0.0669684250058123 0.3801541089578340 0.0224180568853790
0.2381763535438143 0.2535853027904381 -0.0794728342434343
0.0742298742617059 0.5050643265817444 -0.0401622201639659
0.0844953345732988 0.6104316446279807 -0.0332747776471525
0.0667621118007135 0.3696009819141823 0.0950080185440068
0.1103478337168733 0.8160213318846924 0.0369432817687088
0.0634579026492582 0.1896678205076268 0.0022331306090223
0.0894239668202610 0.0457640618627319 -0.0909528410549610
-0.0370008687583020 0.1166148206209634 0.0248493038216800
0.0858127337624836 0.9208518049095058 0.0069777006872872
0.1062139161577701 1.9449732417576129 0.0253948833228865
0.0659379928981366 0.0816429978958980 0.0316148316945601
0.0837744324253860 0.3363645690643041 0.0139104422315996
0.0876079784105151 0.8708156992221738 -0.0034297928897299
0.1617116322730796 0.5792485262955153 -0.0352482704941893
0.0776384268385163 0.4369190314639632 0.0310358562417974
0.0757273063410727 0.1018276956255168 0.0160963734323038
0.0542579424314729 0.0977987026703159 -0.0294789506315752
0.1003119026567983 0.9622663258329367 -0.0050597537613933
0.0262171707221549 1.3639572018992330 -0.0237726687641383
0.0825559466498836 0.3130730797712174 -0.0105326805761586
0.0951089614497093 0.7891266304835585 -0.0109776274202976
0.0842779180603525 0.5429706859869161 -0.0127289273855680
0.0871976159053094 0.4870341504528813 -0.0205300462081745
0.0899643147235489 1.1333142045387949 -0.0293903229376225
0.0819730635253026 0.8573338827386264 -0.0329790895772394
0.0766752048689799 0.8707705595040094 -0.0380683419428585
-0.0545521727024591 -0.0553885488522443 0.0054219060037362
0.0425208466623160 -1.5751402076936714 0.0641382706396248
-0.0759345857067109 -0.0576875191058575 0.0033608036345798
-0.0723945358045663 -0.0285036582629695 0.0045331924095265
0.0844766923095975 0.3183536739475221 0.0128927001603537
0.0909624720593420 -0.4201902283288717 0.0679661737861339
0.0827170842083614 0.9315835693022361 -0.0234961718828846
0.0990374479692922 0.7629113374772177 -0.0033909927368338
0.0783277795195273 0.6854382295462511 0.0738788771028684
0.0605892459277523 0.2635483060107897 -0.0011149378586060
0.0775323920919256 0.8460927107906832 -0.0287864134095133
0.0892478530356273 1.8697872835104108 -0.0241710305196683
0.0827746745058446 1.0396964666349908 0.0030287575576139
0.1231671815749636 0.8256805303966740 -0.0310474160714024
0.0992476077369222 1.8236942062821431 -0.0330894377298376
0.0905369886420527 0.9752518992337385 0.0164728236812555
0.0913308910445160 1.1011362000297988 0.0109845802593236
0.0801650192300355 0.6299744727496448 -0.0388319652089469
0.0752058079865656 0.7312015605867267 -0.0057195160744958
0.0893733397462052 0.8971523970015928 0.0171927442339202
0.0785580263217312 0.8761834338867239 0.1041129514238351
0.0931961225597564 1.9025709491928711 -0.0272813591026567
0.0789150843092386 0.6225007090562140 0.0049527995868116
0.0908856948532453 0.2939744696697800 0.0107328642617920
0.1402468387284914 0.6089459611112072 0.0731373531534106
0.1641073595784562 0.2346542358463413 -0.0511801242923510
0.0763689205514925 1.2343993042099572 0.0468277937427369
0.1005993278354963 0.3457433525324776 -0.0295403571464160
0.0889999022293070 0.0117478285744354 -0.0333823337404567
0.0861240831104061 1.0946185314578667 0.0484534685986873
-0.0135461535300980 0.0890658368934535 -0.0316048784304198
0.0755720720558571 1.2419089518188633 0.0965662913517143
0.0836815934183329 0.4205776287550586 -0.0198886922351746
0.0693524096092110 0.4552196616286028 -0.0118428652601856
0.0832079828116743 0.3574572832108162 0.0276390004910850
0.0649698661702916 0.9724741522323344 -0.0215588109225079
0.0690611509644389 0.2913934807392317 -0.0246149116603779
0.0922229481732001 2.4308678824887422 -0.0238480537146194
0.0792032000219741 1.0382783296880338 0.0085281208443089
0.0357340504201572 0.1587999997076461 0.0335171777410375
0.0418334521844864 -0.2065181177313709 -0.0430201273953499
0.0375556497601555 -0.1392242245130925 -0.0380465206016683
0.0318947010185917 0.1696425221108434 0.0329872383463621
0.0289268893605719 -0.0844099275441322 0.0458439201746580
0.0315930808766139 0.0988362889041000 -0.0358709998826311
0.0296612744317771 0.0660025290786148 -0.0327700293994058
0.0413154214205200 -0.1540825537649261 0.0441503957656350
0.0822746730642421 0.7093329416890415 -0.0008186794878189
0.0926228978341742 0.3132854056374452 0.0322951651491515
0.0834298308846468 0.7465219736096421 -0.0178711800728725
0.1955988905229079 0.4317991812985467 -0.0507302042091836
0.0906588613693542 1.0370700307819252 -0.0161733267469602
0.0791052390423713 0.7898401416442028 0.0344267987062913
0.0994366781188288 2.3860527344623907 -0.0723028053180060
0.0878886149399649 0.8715394433096686 -0.0142411538793526
0.0899013520680919 1.1984141308881175 -0.0172112970216514
0.0980024782380295 0.7866802789588958 0.0854616933241023
0.0867731056429178 0.6833502543126906 -0.0241046172620213
0.0669009951341005 1.0209628623461786 -0.0494262111338880
0.0797186073253641 0.0635589290902621 -0.0017675451411883
0.0706141260146378 -0.0455308079570393 -0.0109971959542381
0.0665839213568106 1.4189313075526626 0.0365186836748976
0.0826001254233087 0.0112335616494221 0.0101646941318283
0.0834127028270367 1.0025548873629606 -0.0154061562231484
0.0666784580053480 1.1524639588679850 0.0360351310454261
0.0728990991265453 0.4542197171689785 -0.0055828314469543
0.0738263138151462 0.4919148068006802 -0.0128475733733620
0.0843466245770061 0.9481297797256755 -0.0208497711742301
0.1080990118291121 0.8554347092024085 -0.0121391237457173
0.0625548985485107 0.6772523374118085 0.0094729470222541
0.0877881728335307 0.0444333569036391 0.0257814650771314
-0.0875078521362632 0.1491451879930101 0.0121703165990300
0.0788287618494768 0.2729521591184760 0.0169258103397250
0.0927068845898896 0.2085223364140076 -0.0318534083543073
-0.0900053909103572 0.2095605480982901 -0.0066825892854969
-0.0867450672970176 0.2148617523598930 0.0112349045973253
0.1027041656867911 0.6122454982467788 -0.0634110574702915
0.0999082796533932 0.3425416535964700 -0.0422530690879335
-0.0892742471267930 0.1847408558040512 -0.0065691776473176
0.1009466347201418 0.2522402171514530 0.0442329508916267
0.1248687425035923 1.7114953928646448 -0.0699688773669952
0.0755336203866307 0.6057823627716190 -0.0384152905769658
0.0894864883879761 1.1503850951999670 -0.0147372587602104
0.0987167736492077 0.5882591086630116 0.0191199320103338
0.1436443481643315 0.7296826125714635 0.0149613432019660
0.4883870903058323 0.3748492209983335 0.0319291638631750
0.0666524629986307 -0.2217086920538390 -0.0420045844522497
0.0606453369103256 -0.0185935574216622 0.0223146189798219
0.0708301010484785 0.0576913880859717 -0.0303524807453102
-0.0993879832466250 0.1959404679997881 0.0033723234220984
-0.0976751384359736 0.1526643154580615 0.0086091589460533
-0.1232960120276038 0.2239154367872883 0.0017967414275977
-0.1260936742168443 0.1921766670137494 0.0000942645962632
0.0832209416387524 0.0023300928853887 0.0531737225051205
0.1019118818714525 0.7692366515894540 -0.0184427688449283
0.0857971268770080 0.7601085654218748 -0.0448860716090675
0.0875988624640711 1.1611157418182148 -0.0174397202885865
0.0983483300589872 0.0493336057041777 0.0391715326413469
0.0273642572566314 -0.2741774932856225 0.1107194148671218
0.0509504717679236 0.2762740970315449 -0.0739953826946712
-0.0180175678653519 -0.0359260734727069 -0.0952986433063448
0.0886929278125544 0.9310975075569172 0.0124101738014179
0.0921198338655410 0.9423382074543136 0.0134921469953580
0.0828642788136152 0.0322931165308620 0.0256174758721689
0.0787145759537387 -0.6341361056321660 -0.0959847858535703
0.0530103828309322 -0.4850578463299773 -0.0785476506249379
-0.0309466656791423 0.0091009066988679 -0.0827978216766359
0.0202178717406979 -0.7649384134379094 0.1128618112874441
0.0887720384982103 0.0238126013003359 0.0228565349883980
-0.0304332258647834 0.0009562081191013 -0.0844129821274064
0.0944660245556466 0.0151142475467751 0.0778012530673115
0.0485896428813125 0.1305148182948629 -0.0199048530688773
0.0588790385978510 0.1109977496123734 0.0083766111538956
0.0716644785535233 0.7003697907484046 0.0652554118782601
0.0729496386932743 0.6016415519100138 0.0408104032697553
0.0895339974528542 3.5598960697928947 -0.0268293876384482
0.0801181072700940 0.8436903718116276 0.0137772464028122
-0.1290585268067998 0.1034720218967041 0.0546114105023467
0.0954858844530772 0.0083455672393271 -0.0515095773483230
0.0600078523962691 0.0518516989961485 0.0193107689412503
0.0999933154613047 0.0019168214759247 -0.0390993082739421
-0.1028907480267491 0.0822776485897968 -0.0389092489346646
-0.1001334857957649 0.0731061868650322 -0.0343287942478840
0.0841884602489125 -0.2126898259427289 0.0453625442963936
-0.1258726296187686 0.1487771545365857 0.0553722899809760
-0.0917694027018977 0.1022216251105562 0.0276277606286006
0.0859053891863664 0.2770583530205544 -0.0320347875928616
-0.0923719753250566 0.1314678822791915 0.0277804565716674
0.0751317057497772 0.1993025242925296 0.0216590726569333
-0.0892139079627210 0.1320648025831289 -0.0239750451409085
-0.0886261090813051 0.1119300212669637 -0.0204146240480912
0.0782735090446204 0.2407497221876617 -0.0422597522273806
0.0767681416436721 0.3311189351099755 0.0448202789891488
0.0445612431530530 0.9475651202180729 0.0028129372529975
0.0828709173667323 0.5290353527772095 0.0260313394220237
0.0827823125492595 0.5973323179743322 -0.0994539125487600
0.0832600240889102 0.4671093462880732 -0.1103730599685244
-0.0352018707496621 -0.0183999695679230 -0.0771624856795717
0.0926377820943189 0.0508485545829362 0.0067925200717327
-0.0331258335047220 -0.0168391098896779 -0.0743401470069615
0.0821542993835630 0.0697907528456434 0.0094283790574953
0.0680615698080567 -0.9151861733048912 -0.0856020095346274
0.0477697312075892 -0.7574226468634119 -0.0738251947712991
0.0141069836846067 -0.7720163070858393 0.1228749970261095
0.0798194130752772 -0.5746801119792463 0.0928402957253613
0.0962751660198709 0.3571181511674845 -0.0406097174531762
-0.0850171732967362 0.1665025258987445 0.0200220229902249
-0.0846278225004722 0.1793160293201669 -0.0164862092628463
0.0994584550332070 0.3589049825641761 0.0436136989355162
0.0916555991414751 0.9291043119328286 -0.0370283558445274
0.1059359080194325 0.9843581264233303 -0.0332380034834100
0.1289680449898347 1.6874625611917211 -0.1296366212922461
0.1058047921908779 2.3852681091456951 -0.0546250515541789
0.0927435012603015 0.8941561443396611 -0.0002298346537441
0.0609089009791958 2.2251600435588523 0.0491205682185387
0.0815678569523301 0.2981063869260999 -0.0139275333078578
0.0881944105609519 0.0436685795293517 0.0556529347471815
0.0578274009937216 0.1777039462995465 -0.0980347205532895
0.0402653417230200 0.0857772367547474 -0.0855670581732091
0.0860542345376954 0.0252250383141229 0.0611840776731364
0.0280352440130220 -0.1556662882105152 0.1003920607021411
-0.0075355969672219 -0.0329932197685778 -0.1154599450047906
-0.0070825962179677 -0.0421100119591440 -0.1094697791264660
0.0617366882879946 0.1320510795448908 0.0985539490368206
0.0903658787106806 1.3176134079500925 0.0149690739410617
0.0757409182418340 0.0965283402531188 0.0069572286099827
0.1457092783789506 1.9217809675771649 -0.1157308540701553
0.0943152234429384 1.1286189014014607 -0.0280564536323755
0.1075887119149885 0.8689277340506267 0.0099532525925849
-0.0394129908352967 0.1114127432972728 -0.0182985594051901
0.0881567806527125 0.1017018962252337 0.0929880058924554
0.0909703017133881 0.7185717151439488 0.0296300047966697
0.0672630466952902 0.7049770779080520 -0.0339638801445552
0.0660394987783551 0.0867752564136709 0.0119745715986316
0.0664071271393347 0.5355728020128628 -0.0265749401231953
0.0511587707151857 0.0994304204906050 -0.0196733003860483
0.0808966418362918 0.3398185704142839 0.0417568209821962
0.0611924038774475 0.1236715006937082 -0.0075905597806452
0.0444864613236105 0.4204516759064331 -0.0218066053993511
0.0792808848100312 1.9533435167910336 0.0364312081613741
0.0626236433081170 0.1207903459346194 -0.0001169189705329
0.1237116930831392 0.6776922919880568 0.0008373895216428
0.1008382909062260 0.9743044697143364 -0.0490847334566438
0.0773246731018060 0.5599066665045369 0.0108264358074383
0.0946344691373376 0.5695392917345515 -0.0189960351593018
0.0673270469614070 1.6657528840608442 -0.1175102006045648
0.0591587002511089 -0.0985820364311531 0.0571269585564709
0.0628291042798224 1.3067717659467457 -0.1021005621494237
-0.0050142706885610 -0.1242333465119905 -0.0543539432917123
0.0303051272585958 -0.0413909893817195 0.0971110787399521
0.0586439884322917 -0.0859764529916085 0.0570605741412240
-0.0058914926757822 -0.1100966717736369 -0.0498900793475732
0.0647177430557457 1.5743032670332773 0.1103266738387275
0.0462960212626055 0.2258716899146811 0.0521675163622867
0.0634464239669957 1.2768676273215580 0.0322501647960038
-0.0198193402983963 0.0801735009884768 -0.0311662226283464
0.0929770825722706 0.2373284264146620 0.0704048761449065
0.4858625116193613 0.4541213519730468 0.0483509629387082
0.0921773350450725 0.6558201838036043 -0.0126531176914709
0.0675735750662718 0.9633434316613432 0.0630007158388230
0.0822916000494920 0.9445259101570254 -0.0188564176045814
0.0661059134551250 0.1166157429251033 -0.0013316743494167
0.0785249991072071 0.3731375770777238 0.0337366298935855
0.0758970893773331 0.7188170802058154 -0.0160912884880209
0.0847232155038127 0.4260160033944378 0.0254708791042143
0.0895886890325037 0.7743455679832187 -0.0400928260287951
0.0767385532142424 0.2125459958218573 0.0310015021101017
0.0800148162914930 0.4897679667688904 0.0579444489683877
0.1639669454613079 2.1771481703419227 -0.0912889829590584
0.1710840355118048 6.8704898326922264 0.0034700932747151
0.0675499740468362 0.1065248529726376 0.0774051093318155
0.0738344818540541 0.1873045101929598 -0.0127007580356183
0.0728733515499496 0.1359473257620713 0.0063362526439284
0.0809775854792286 0.3355369003118879 -0.0297686124545454
0.0628482220416154 0.2633955667264914 -0.0277902676594029
0.0613088727260538 0.1868882347456742 -0.0142925717631791
0.0911031482300586 0.3208468236401029 0.0330223018561612
0.0608140645552407 0.5101015919913389 -0.0283940366010611
0.0618087104224058 0.6723780714363187 0.0385317452451470
0.0785655390157926 0.6679019417571818 -0.0333268700969789
0.1970677144437837 0.5291851903777749 0.0751186694705562
0.0891445080478122 0.7675634573200626 -0.0389844463090405
0.0866156712604351 0.2492044489169458 -0.0035901185793356
0.1120445062593235 0.8735435017145265 -0.0003968507456608
0.0823478793269688 0.4854589311906117 0.0014831164749156
0.0635058803168348 0.6339079727487142 0.0531250266775180
0.0875311899322576 0.8837704011208292 -0.0142746356012735
0.0851545260474255 0.1878028580027216 0.0344400956546098
0.0931006422913331 0.8401524492037049 -0.0044945041457906
0.1179071867389997 0.5137082707202326 0.0227939572365845
0.0883996939010816 1.1938319252344316 -0.0125968263749152
0.1154213200948343 0.0666870105715016 0.0792202601486537
0.0635284149923710 0.5991445656892067 -0.1045995357037734
0.0527772109661642 0.5010236423218579 -0.1014547331403569
0.0068169747788006 -0.3269738250092762 0.1110481979688202
0.1142167333862042 0.0535852664763364 0.0807492765850014
-0.0451369846792522 -0.0371474938961353 -0.1434537343654343
-0.0441338087181254 -0.0251001885357358 -0.1342297923232572
0.0701672928779768 0.6425829167844158 0.0938704188356473
0.1608282845538659 6.9068022600388890 -0.0015056249028865
0.0646577176266470 1.0377384034000192 -0.0095552450703745
-0.0020458505099675 0.0291337494065461 -0.0187830450710476
0.0588228788121133 -0.0990761968579739 0.0803594895134262
0.0249058733224639 0.0192464550444938 0.0210954567248736
0.0681581686136063 1.0256761834038755 -0.1276073637013526
0.0731283002200873 0.7197581496387582 0.0469447991801344
0.0919114878525261 2.3896601786489367 -0.0125207922039544
0.1407129458950460 0.8798105585371215 0.0339274201809628
-0.0481819961162480 0.0921039638355733 0.0355693135796998
-0.0624035673855267 0.1897029020277300 -0.0263787999462453
-0.0009134807484873 -1.4139321981082154 0.1968634260366691
-0.0640443387468886 0.1587877831221794 -0.0295750085594039
-0.0025072170227743 0.0084147683337816 -0.0186336577654265
0.0691388609307840 1.3625603550713299 0.1637865900674257
0.0597401089612990 0.0943304977643802 0.0112750525084853
0.0528024946595039 0.2505932858204364 0.0521812056841754
0.0673856152308456 0.1382164882523595 0.0047366437364457
0.0588857534830853 0.1757958221568918 -0.0163322139074192
0.0817478045801829 0.1888139484484851 0.0357326160684355
0.0944035138047455 1.2245820203612743 -0.0139105792278159
0.0756291480626134 0.3152458237179254 -0.0076767044003673
0.0887076168472062 0.6681712409078916 -0.0202326346589514
0.0637684564144528 0.2163053773414015 0.0017361942343996
0.1225832327794737 0.4708850630354763 0.0076008244848698
0.0854464133349216 0.4702058047197418 -0.0869207502254664
0.1338870116649892 0.0956619767537197 -0.0023655609498733
0.0888172438585623 1.3372397951189710 -0.0303616566368875
0.0835019594283467 0.7703359572457139 -0.0211357620428986
0.1237152672894568 0.7667704758415194 0.0379779990254983
0.0718685403845462 0.4515367592526501 -0.0094436969172890
0.1653179230622053 6.9280918541192973 -0.0037895884748416
0.1415766636486839 1.0086092937105238 0.0342374177422661
0.0475021897098298 1.3104412708652013 0.0234503360218552
0.0698024803127939 -0.0145864933227007 -0.0144450397974783
0.0449731728715789 1.0704312984344915 0.0403798431795714
0.0947504643637629 1.0561484751847630 0.0038228607574918
0.0914137274453172 0.5708269318456878 0.0722461838970131
0.0559481310049624 -0.0912455637170207 -0.0950275237248766
0.0808290361222775 0.0182695686574531 0.0412920670556293
-0.0175347203243892 -0.0268541771998204 -0.0974345261184338
0.0493383921586302 -0.1562360529277508 0.0978339104093198
0.0875532505769884 0.8785203627668879 -0.0276210172307843
0.1512030747874079 1.6236304573177542 -0.1214240728941547
0.0855017777772333 0.1558019034886106 -0.0199906411552817
0.0758112220264462 0.7388359371039015 0.0053132027470433
0.0847190717615230 1.5190431919009433 -0.1013208579731555
0.0539218839412000 -0.0119530536101188 0.0337315731328036
-0.0003881388698340 -0.0050731791950804 -0.0383890877117119
0.0518832235834145 -0.0914251198891694 0.0847948314216105
0.0798033392302308 1.2186858224754764 -0.0756075600256666
0.0520378811349402 0.0144302517098069 0.0342977964280335
0.0010063841532710 0.0018596552240250 -0.0345166570969978
0.0816657900404620 1.5191072081669805 0.1019091412032992
0.0932711533174266 0.5459641555092297 0.0336264930156658
0.0686664142082660 0.0511361330988718 0.0036072717505755
0.0443567770944002 -0.0596986701792973 -0.0071175952397441
-0.0343175592609918 0.0817058829326723 -0.0138203947986417
-0.0359841556085892 0.0666900006240719 -0.0145875004589398
0.0156612394113358 -1.1273299452367271 0.1511113261567482
-0.0234444627541361 0.0590093867109706 0.0167083400819724
0.0881464955411435 0.7684819923329659 -0.0185312115040641
0.1043737008977262 0.5128044038574092 -0.0459741719208135
0.4989548680580825 0.3783549824652670 -0.0055276166606507
0.0754168079506531 0.0288701316341303 0.0875944014282793
0.1247413882705100 4.7541903303323307 0.0457298996108773
0.0881166110908636 0.7309111376908343 0.0209113070687151
0.0832511323685317 1.6734574406033449 0.0571943166655632
0.1110297581259976 1.1917041192796407 -0.0246780373767214
0.0689600554650613 0.2489890537569449 -0.0307606632282731
0.0253011862226518 0.2551010253374948 0.0287950786305023
0.0305028186307111 -0.0274609232181388 -0.0140634240089129
0.0271175852738503 0.2726753130849664 0.0336736704494917
0.0267152111741759 -0.0203864232576839 -0.0142492891032260
0.1209176793212267 1.4716785060040452 0.0831763492442715
0.1148321085312215 5.1661523056859453 -0.0552351466133403
0.0757104045469227 2.0907503526938149 -0.0155578112638122
0.0730664009410568 0.3155902106095793 -0.1014407193308421
0.1204731737170799 4.9851771876173983 0.0573804136460866
0.1166208914923837 0.7693156203662370 -0.0148399377299941
0.0835243076071210 0.9591990370507776 -0.0019546045873129
0.0998552556657966 0.7672746678552821 -0.0100171354457355
0.1563573210131026 1.9970880061033747 -0.1109579176687506
0.1211862183620728 0.1631998080724279 0.0253448798242033
0.2399581488736316 0.2503899995167274 0.0135846292154423
0.1286470131461470 0.6050478920411194 0.0214967612361950
0.0951353479551253 1.4315362267507090 -0.0553076500885934
0.0641260647506342 0.2261756902913481 -0.0669737404604168
0.0864091995679665 -0.2139977240035259 0.0683375807422159
0.5324728860385352 0.2157495411848824 -0.0215243064944102
0.0551549125033849 1.0703907918373443 -0.0207196652293980
0.0834814245657737 0.3702457431131864 0.0160173439605232
0.5438943752464934 0.3037458014643918 0.0516561900687451
0.1310970770710749 5.5054394335001344 0.0238651320132666
0.2342983334436466 0.2848387660348641 -0.0239633394064892
0.0018537492628428 1.4905870331815343 -0.0388608591841467
0.0774968482572623 0.9450348244011469 -0.0251801686350051
0.1333517963345648 5.2274710303457219 -0.0124876287437366
0.0438557310551406 0.1451111935999438 -0.0482278331614794
0.0620317639124310 0.3741883402146522 0.0655820549218445
0.0421489298486495 0.7693725076263479 -0.0959867305960535
0.0809645554102502 -0.0001835377878670 0.0763731356334230
0.5458843366903149 0.3021650145834123 -0.0313991882961439
0.0825511215761749 1.0008439958028112 -0.0155242985223624
0.0884437659596514 1.1575198757738923 -0.0206537316941290
0.0229258214945314 0.0833134027164881 0.0108990736567331
0.0714562723818203 -0.0200460877138207 0.0082541063256252
0.1575448073662693 0.9515858384195804 0.0598417721266096
0.1065348718411498 3.9904607483648569 0.0746323919576359
0.1012140345923876 1.1566343925045872 -0.0222517860621820
0.1576741220731168 1.0397090041420551 0.0912240872767970
0.0658596310986381 1.0887363076943195 -0.1004684503810455
0.0983880075233740 0.1885524712152359 0.0835260923034964
0.1175599861762772 0.0951144855158757 -0.0977754533129249
0.0286663204282402 0.9525531098173040 0.0967937993601334
0.1016024782778720 0.1972970179521119 0.0837584491888564
0.0572413077807823 0.8044442793516481 -0.0981900522230604
0.1103570767067112 0.0874073541940091 -0.0909355436914427
0.0620210005491819 0.9715854307793160 0.0932857916138644
0.1478839280051497 6.4637611464236873 0.0260345396943527
0.1719681872039503 0.6901397194821546 0.1262087007707938
0.1710718295757916 6.8715556417855197 -0.0006517866225035
0.1140158023549096 5.0906401633108205 -0.0525488906539949
0.0274364608195766 -0.0282022647779655 0.0150793144165918
0.0250185559832967 0.2283092233442780 -0.0252702158638433
0.0276786738039116 0.2777409285425348 -0.0278530037209618
0.0311450468969968 -0.0255590837351525 0.0137016491709187
-0.1155659613472303 0.3165552472128549 0.0088366523570463
0.0624438227852266 -1.0033219094387755 0.0140354666245384
0.0435125351728767 -2.3165783014993773 -0.0223691678115445
-0.1035942288476497 0.4000042846990642 -0.0086851057641567
-0.1339289449802596 0.3818003536837128 0.0095016992822059
0.2663794620520836 0.1372932381984928 0.0335461557280484
0.4832545195174594 0.4557274069917167 0.0165741556802100
0.0602561611940405 -0.1748587534975936 -0.0439928809249298
0.0555722841662647 -0.0461177300785914 0.0514593092804177
0.0821715814291332 0.5261704211239673 0.0067247901438213
0.0266486664103090 -1.0291411189000570 0.0110071436408728
-0.0200828246869921 -2.7645595697693111 -0.0151483451068217
0.0204406272757380 -2.0464821286473769 -0.0175574375548488
-0.1398427390363538 0.1337543326696049 -0.0037392928965881
0.1183304605057505 0.8256522682897833 0.0012560917797789
0.2196651088931088 0.3037573882129845 -0.0042259696381740
0.0853872242117194 0.3631194542811104 0.0333183451038611
0.0997619837787004 0.7619824852504949 -0.0315908465667465
0.3224674885193298 0.1667597356353051 0.1114560703305079
0.0227279519805441 -2.4533252600641022 0.0768667972768642
0.2909925603401708 0.1852216061286421 0.0904071321112341
0.1628010806706391 6.5074912609723610 -0.2671494235963975
0.1407450397574440 5.1741578211485830 -0.2129125296495426
-0.0877263181641755 0.0968299987282754 -0.0478770471528272
0.0924748297172793 3.4118645277480830 -0.0646330435294355
0.0809779234402538 0.0833406251410369 -0.0456730184591595
0.0963239263494666 0.6219823827421739 -0.0570698466022721
0.0777374034037173 0.1697666746494992 0.0269275858532283
0.1109080013581076 0.8852285676347270 -0.0721757835104041
0.0694246066641576 1.2623009217233636 -0.1667867795499763
0.0990389264879954 3.9554613637330678 -0.0253789568442707
-0.2495704604769622 0.3135125979446876 0.0525182261294886
0.0997769966750582 0.8809343203105700 0.0414722270914578
0.2314564797611804 0.3582434045786835 -0.0136149868479319
0.0811243435688408 4.3703642154296869 -0.0572165230324620
0.0742199098854748 1.9752669020176428 0.0471182121711536
0.0377518170486098 -2.1899778230521654 -0.0271736500483949
0.0334887118036999 -2.2045174297828973 0.0286020982096755
0.1461144762859842 1.0697741508520875 0.0617873904319617
0.0726599518995703 -0.0884280852748169 -0.0083900837622625
0.0608515196781697 1.2385301484032167 0.0327136610357905
0.0891612512900863 0.2586939689252533 -0.0328839798295905
0.1099406638133964 0.8717718461056648 0.0106337998402945
0.0796572520432109 1.5562435922653206 -0.0642029059889434
0.0541576156870080 0.6247764809829532 -0.0982931180809561
0.2575717398608608 0.1088844409778584 0.0900806191040440
0.1693098452445737 6.6727910828098844 -0.2623883324915020
0.0099137938423969 -2.3030033009342432 0.0667092583765402
0.1412753569640904 5.1142193447728124 -0.2081583729901089
0.1491998547901712 6.4124059090905146 0.2756197061605674
-0.0985332358926853 0.4808250201970133 -0.0209958701239309
0.0397746315155500 -2.6948212028495089 0.0278301836706531
0.0839289546812923 1.0448456912751731 0.0764696406208798
0.0374124713918781 0.6695360393680428 -0.0597647020213041
0.0768783791268322 1.2614935434562933 0.0573270043138665
0.0761067718976329 0.5345985837632442 -0.0303019977738003
0.0935516887544968 0.7734970905258126 -0.0223145471071508
0.0843161387535373 1.1526203834811226 -0.0032850104315679
0.0628287260038708 0.3357161159051230 -0.0018986027224020
0.0522803410105900 -0.0871611659942202 0.0476460133084504
0.0805433721239881 -0.2145747342438971 0.0395520725347957
0.0906953878299323 0.9880635549761376 -0.0413916179717919
0.0825992625629140 0.4332583871790485 0.0372753594075965
0.1288828814151768 0.7735889870484844 0.0020341932649324
0.0609204280085483 0.0589608278760482 -0.0006769764682719
0.0863345122177870 0.9480096821846983 -0.0127231872448104
0.0245750802525478 0.6825968358770341 -0.0782519816198170
0.0593021533646021 0.1198648635123214 0.0366757618817283
0.0516394356812846 0.1794459765643262 -0.0504087620966522
0.0514130899351053 0.6943859742666439 0.0869672800855479
0.0614567970454370 0.1632706170090806 0.0382198762113560
0.0515271147443750 0.1402009511756393 -0.0455560496641277
0.0236611322952647 0.6411509777381214 0.0794417256210199
0.0552347503854486 0.7557339834197211 -0.0409266333133595
0.0693863085267052 1.0379693272645458 0.0687706278788051
0.0561577370809681 0.6021362169915199 -0.0299602965665737
0.0703189216715010 0.3185470408151403 -0.0681508756547387
0.0959943747190698 0.8264230738431133 0.0257044218639520
0.0921770514786330 0.9339189181088289 0.0132924131684201
0.0735482484667994 0.1227258966768213 -0.0222581455345690
0.0818167535478610 0.5608604600697631 -0.0240287146566750
0.0641443519893471 0.7330826903915569 0.0398656356887999
-0.0387133359259799 0.0240992917134511 -0.0066618594819258
0.0381508390606112 -0.7513644301737574 -0.0468215002865274
0.0507051577938565 -0.5189749541715627 0.0584918998909457
0.0645407004804015 -0.5150709560996757 -0.0122770670734270
-0.1208602587343067 0.1077539131291546 0.0011008445743176
0.0270871139027583 0.5443239421562882 -0.1008636416436886
0.0584622399354896 0.0832407610837584 0.0603815619135890
0.0521060744484992 0.1113188130215463 -0.0675473586850758
0.0599699035435237 0.1381059418941004 0.0614495318535134
0.0306130074920521 0.7269189426093559 0.0979234237267986
0.0356820292076398 0.5797993300087356 -0.0911250524365401
0.0248793901982830 0.5328010116472603 0.0940901274627857
0.0496794849914486 0.0960298229230679 -0.0622901861456787
0.0773844268641419 0.4546979726292480 -0.0134797302215612
0.0722626462063327 0.2151527738079259 0.0264761430735854
0.1050604129025701 0.3995638111719497 0.0367871310760316
0.0539028203798904 0.5595878043442647 0.0536864859824544
0.0833630900469945 0.4550183558675696 -0.0834541708427032
0.0756630504282782 0.4908853217696948 0.0635381497404371
0.0992167817518773 0.8995176434051010 0.0511239509210646
-0.0074638732206296 0.0669752705166436 0.0169137185409112
0.0702015339936756 -0.2449137200391101 -0.0974666832665204
0.0577017121275877 -0.8599133423846784 0.0644953253714679
-0.0165128205055217 0.1162116328091847 -0.0443874827841243
0.0330914755257414 0.1193015671599182 0.0180524330636712
0.0302637664532519 -0.7950884545720859 0.0938478798908287
0.0797464739787978 0.7747942210727840 0.0194936513065889
0.0877625817286327 1.3072821674077548 0.0645546664891462
0.0258617333936369 0.0202150501440368 0.0237906157204023
0.1034895711775069 0.7832050223998864 0.0309281837947147
0.1078559532783062 0.9771767269398713 0.1134151543975697
0.2178684198449216 0.3624849322145409 -0.0522554353171562
0.0567127855603176 1.0752288907672007 -0.0112980909067724
0.1534661273434007 0.7036081868638664 0.0783873848307451
0.0763241641202721 0.6184902024219558 0.0821944587529958
0.0988493538165641 0.6075372140351289 0.0699086552935495
0.0588230425171515 0.6913847895021389 0.0884478639776273
0.0820780431825753 0.1670856201706430 0.0245800205962079
0.0783012590098034 0.1193188787511590 -0.0478957466716498
0.0785914000115230 0.1631428349679752 0.0278515343732213
0.0924755149093433 0.5916758991634992 -0.0456579005779467
0.0973895837996643 1.2019819949582291 -0.0083060193228151
0.0967851564866358 0.9385875158300926 -0.0023874646741878
0.0890457081732462 1.1123797923014125 -0.0641994827308863
0.0548937774834759 0.1103540814062040 -0.0093761359466184
0.1625540623584135 0.5297523378300160 -0.0714437334177542
0.0843079024652776 0.3774986708551692 0.0207703465432060
0.1029739325008175 1.1725935258826425 -0.0779371045340294
0.1006905580377418 0.2566306303507211 0.0514406659557309
0.1131153894081837 0.1669644374889774 -0.0764094783231164
0.0404128159843302 1.2369109540772758 0.0824064014981511
0.1005670541847146 0.2920442605823241 0.0563021979168588
0.1193802623145071 0.1299122597066254 -0.0685689717086622
0.1049842551476367 1.2174925784281192 0.0778153489631955
0.1215507200080699 5.7519013143958357 -0.0475840045068402
0.0982868470471224 2.2859403438508519 -0.1167326666620287
0.0603247963135848 0.2860026115271530 0.0349040745666526
0.0620561375741986 2.2163634859672863 -0.0599160654816787
0.0872726231546713 0.0899113364196166 0.0720342304805667
0.0703346914782707 1.2264207178146611 0.0907842503548102
0.1256305666250291 0.6385333946691569 -0.0064493577175945
-0.0080499806501988 0.0299713310068667 0.0087090368486090
0.0827292506917518 -0.6288443870508008 -0.1046725096351239
0.0941258840522316 -0.5056372580074943 0.0571285241843679
-0.0131648770240611 0.0349362886720346 -0.0076351845251745
0.0643244348072081 -0.4221039612691637 -0.0820442203150880
-0.0086027367821817 0.0245559324239986 0.0077519579437544
-0.0129224113982422 0.0403074549879031 -0.0077118738750318
0.0844839434968488 -0.6093061308293334 0.1035280735523425
0.0670630176869473 1.4613619698115716 0.0815317225342564
0.0878357550450964 0.6324103371971117 -0.0192593443167100
0.0816576160220950 0.5729663621682554 0.0347101040203525
0.0943605181638769 0.7696552199429495 0.0148639313387350
0.0569150557327414 0.0764091828922906 -0.0094382765005023
0.1141775794976657 1.1804749670128931 -0.0924467652696150
0.0883226152483329 1.6203485310019654 0.0182939804770555
0.1518141323385849 6.0418144641143003 -0.1910659398813073
0.3177844810021623 0.1819426561330955 0.1035318219397448
-0.1032031295140035 0.1061158924118387 -0.0774327025117784
0.1553977873479042 6.2867149712366146 0.1924386173223873
0.0518924063117153 -0.0231091030303053 -0.0382646914688848
0.0134054664641324 -0.8554723911675547 0.0997555635759396
0.0576866179854144 0.0454433101579619 -0.0479302222585039
0.0797924479688671 0.3633084382865210 -0.0282616487136114
0.0970616893106891 0.2715576688442867 0.0198473328917731
0.0724016596072811 2.0443120274243949 0.0215965135912069
0.0557612567454292 0.0674984259683619 -0.0546195055700440
0.0822430648283271 0.6881559262949333 -0.0007409431271421
0.0932916307174946 0.8221506043460196 0.0164232147230703
0.0122133156867217 -3.2308521460989836 -0.0210406298271357
0.0236641390131035 -3.1029820420675129 0.0224129849340436
-0.1047877265068375 0.3131031695687244 -0.0071345885221927
-0.0122427345023821 0.0453505855970693 0.0066645388313350
0.1008558437326410 -0.8105575679703413 -0.1013451184146649
-0.0193558437422573 0.0587243452308241 -0.0028945450156219
-0.0120146401576385 0.0343509275292649 0.0046951947670073
0.1205342381500305 -0.5985264049852551 0.0604822251150081
0.0805103271403137 -0.5156248810074405 -0.0831844650275224
0.1167074311843834 -0.8113836060813913 0.1088612486846792
-0.0199177731443936 0.0628256113503104 -0.0031001316567134
0.0848045233492034 1.0571419316627333 0.0162064239052803
-0.1425666397433056 0.1383003433663206 0.0022196750657617
-0.1257831785462779 0.1802698127102139 0.0029614004891937
-0.0157922446507143 -3.2405924603027461 0.0216941942325437
-0.1285134524101280 0.0823761176785016 0.0024982528507809
0.1159996867074049 4.4839593585237880 -0.1568271328910261
-0.0961721164350223 0.0975914854767973 -0.0703894478313691
-0.0859004891521832 0.1348876827902435 -0.0501687430934171
0.2783277983699790 0.2305800673146412 0.0976809084650534
0.0221014075283409 -2.1359579017727004 0.0682984157576210
0.1448498007444164 6.4949189043697402 0.3266363454131808
0.1002113736136031 0.5326815793434654 0.0233700567812249
-0.0506878710084268 -4.8802316379612325 -0.0205017066510009
-0.2601314097032984 0.2121110983503587 0.0491913416091345
-0.0009863535583603 -3.9326566766909332 -0.0247171869335202
-0.1467225476446324 0.2814356050654229 -0.0431405818169656
0.0125026217138420 -1.6975647793753290 0.0115577712451207
-0.0443069989662942 -4.4452291327646734 0.0176157589302472
-0.1452940197686166 0.2481981999588997 -0.0375243664455009
0.0769119826900453 1.6267319448287616 -0.0401404687381828
-0.1176768754003718 0.3895277226346521 0.0290379697695834
-0.0913552318950859 0.4430578232620894 -0.0294425368213038
-0.1165321471809566 0.4750445682069638 0.0305171091545200
0.0712902619305037 -1.8032989591087405 -0.0286781563628029
0.0479021127981868 -1.1033159235029628 0.0130308098780745
-0.0923940142526153 0.3593904285508328 -0.0244212742923043
-0.0996163768883780 0.0418425505986443 -0.0406991819045104
0.2403817901326757 0.0963609234889573 0.0989876023345203
-0.1028540284240360 -0.0005515642248713 -0.0382798281989130
0.0683267523227825 1.7478507270070878 0.0313738723452792
0.0389333159659676 -2.5231340900405375 -0.0250355909988045
-0.1211523436782267 0.4963848317424358 0.0219395299743556
0.0799817288257614 0.9248881478153123 -0.0312301700054102
0.0825243257721811 0.7602917337326415 -0.0962041332885305
0.1278350854803040 1.3423922990646258 0.1024382809218776
0.0807249394390233 0.9215651232524386 0.0468368486604951
0.0233376081127789 1.1179921173403673 0.0471107751186597
0.0726720129692668 0.1576080520677488 0.0161816801490954
0.0248036018860828 1.2512307629009158 0.0395786717703785
0.1061026728236559 -0.9702167450916254 -0.0185056895497406
-0.0755630080612618 0.4197267018768452 -0.0125510662105052
0.0933415560233329 0.5985774370583562 0.0238393663907650
-0.0828045705546375 0.3670057184984224 0.0137865078714887
0.0818736551660297 0.1726367909664877 -0.0003113375511609
0.0754379216162896 0.1357738817956863 0.0765964360288041
0.0404717277640417 0.7815113989892803 -0.0158954591532605
0.0922679335410912 0.2458340810383401 0.0398062361048603
0.0810519736490987 0.6944497285323965 -0.0330586845448765
0.1013978821827906 -0.0385217689773718 0.0834372210831881
0.0714320089123264 0.1252324812805283 0.0592239092976252
0.0739860637449972 0.2084016594624255 -0.0403705371210104
0.0735999299884110 0.7226736751356901 0.0718599682508274
0.0741847144488923 0.6855454580595581 -0.0125764839935612
-0.0224543672693162 0.0714139669585511 -0.0137377730434772
0.0692832587469170 -0.2251807795017932 0.0997250900030004
0.0963949132383395 0.8364134267371602 0.1004917008414266
0.0739064930379583 0.4972737255106193 -0.0141822537590186
0.0938289481011924 0.2353023911423077 0.0390654301478600
0.1771623040062951 0.2317139555715530 0.0068916424907995
-0.0181724171593944 0.0947905800765368 -0.0434789173430559
0.0574836570757424 -0.4879942919377054 -0.0443482482364649
0.0607337204399470 -0.6376554247966871 -0.0562862211217600
0.1101226869048325 0.2723587917089664 -0.0357259109716904
0.0661804417767788 1.3805779776552640 -0.1742075281143179
0.0521727448683210 -0.0439193749911877 0.0856667351617434
0.0172479256491801 -0.0665593001727526 0.0164897902162321
0.0627594628325454 1.0838690436705400 -0.1348507808315085
0.0877286592155089 0.4486357972424811 -0.0005878137504333
0.0809023414394873 0.5132734890321996 -0.0971918444353953
0.0844368391889216 0.2520939527235778 -0.0181178866134167
0.2528023017073455 0.4884429404050739 0.0138104325740842
0.0853736073117349 0.1663215465293060 0.0899416022671402
0.0748024627663039 0.7389280068546588 0.0189272153364249
0.0676468241615910 0.0722470088304784 0.0644430177405273
0.0693035962882980 1.5319761592375658 0.0552521729175931
0.1500634616925093 0.7967117812583973 0.0769762109185763
-0.0364618590717716 0.1099204195294388 0.0390100759519446
0.0495372622711755 0.2311739927755269 -0.0513192242821434
0.0734730517902398 0.3863458182785017 -0.0046314774588871
0.0737321157878482 0.7112066731434160 0.0670362234466119
0.0816076336656689 0.2031481856260705 -0.0516595405892358
0.1202916347762362 0.5586112549920097 -0.0334937319414825
0.0958820121571085 0.7317235070128628 -0.0257625700336265
0.2244687455543642 0.2116943498244873 -0.0462125659591713
0.0893457720954697 0.5598796392454725 0.0019802376483321
0.1083139985938388 2.6990349445030954 -0.0787197537267627
0.0614603130907483 0.1786361218203880 -0.0558178744086023
0.1514980361439908 0.2075149019216341 -0.0562542341150895
0.0747392793324946 0.1508058170238622 -0.0140462445989947
0.0761607957668210 1.2228847733452319 0.0487922969738977
0.0660222038980496 1.4975396428384553 0.0218859420689498
0.0071023208769885 -1.2035042575331034 -0.1939068756056530
0.1328330066519463 5.8934824246297035 0.1740006324584477
-0.1047880392987718 0.0424829003932777 -0.0877556596758475
0.1086176971042074 4.2035341124768131 -0.1414489319915149
0.0055161420116829 -2.5139776572950003 0.0750806923495363
0.3379215520589837 0.1348032867592143 0.1210444783373546
-0.1033329578314485 0.0610545000344582 -0.0943219816813226
0.3491932923900875 0.1289934983564783 0.1174525901519667
0.1315105998009820 5.9018223671376591 -0.1737927704610346
0.0852583697258708 1.0057606317865235 0.0424787864276179
0.0761019501974790 1.0797053196091932 0.0473306300471562
0.0564548884548014 1.2643545492209813 -0.0270270660825147
0.4347433216430096 0.1437800706119115 0.1846115653864012
0.1470618635037913 6.3775209186199726 -0.2262774051127595
0.4233298500990956 0.1696722996331126 0.1829572727101677
-0.1247162080006829 0.0117468870426217 -0.1176835877586792
-0.0084532750213318 -2.4536552993184011 0.0747385738807220
0.1244468804102408 4.8382806287935152 -0.1920058772343977
0.1380320727992711 5.9758989125978283 0.2023260177018795
-0.1222884800797839 0.0115015457324549 -0.1088386961238189
0.0852970881062574 0.8629926471141847 0.0284186604732703
-0.1119627389578887 0.1226988241519816 -0.0526590017926256
-0.0052357249487037 -2.9149725120161292 0.1713324012104886
0.0766661197169602 1.5717076406798074 -0.0583262205087311
0.0849451838596361 0.0885608422829595 0.0334312064033375
0.0635673036959395 0.3980692092736228 0.0217251779502569
0.0855742948126773 0.3570458268580449 0.0183493848245728
0.0828959219261380 0.2781575450242361 0.0678395344405994
0.0645541359054470 0.0799187165868461 -0.0621720262119835
0.0604551039001026 0.0596386269964217 0.0579601207934801
0.0796848994238612 0.5239548689161538 -0.0083999500658959
0.1241481565132370 0.7388298994698830 0.0163788422570814
0.0186737007065972 -0.1590363654435857 0.0262872715231400
0.0148363045572514 0.0230982884909265 -0.0106477549761151
0.0120815970161931 -0.0230835121225443 -0.0083099991115599
0.0239310728112014 -0.1653047809689631 0.0229508559767027
-0.0657734445631195 0.0268062492461892 0.0094126905618323
0.0748786287203607 0.6271466225867733 0.0063504594918064
0.0380878515573241 0.0781203133045684 -0.0685254826247487
0.0057160769680121 -1.1226885417448595 0.1929300877730811
-0.0504968947777386 0.1330168143210927 -0.0314424865201003
0.0888355324753084 0.7516810119337627 -0.0022345226891046
0.1531288872459134 0.1782036386290546 -0.0270452897241581
0.0943952677033046 0.6423273650634219 -0.0438373983723144
0.0844692202453882 0.2809738740941734 0.0117157316381013
-0.0461529518226751 0.1201999395173941 0.0395580201431345
-0.0499753227875150 0.1570810195691199 -0.0309517699805870
0.0590778334465533 -0.6203167791854132 0.0839526948380855
0.0180555072464051 -0.8576928405911519 -0.1499854731174498
0.0948886966123580 0.7052467629473493 0.0201908830545510
0.4934481251042848 0.3703492019215996 0.0104200165801658
0.0721641810068316 0.3399759999463975 0.0357007044438116
0.0724661994334909 0.7852642687146079 -0.0182655121841760
0.1428757289716591 5.6987136325639520 -0.0265185088906559
0.0837625461881621 0.2402090672102391 -0.0687741700086154
0.0702053156177109 0.5408281026559769 0.0104726722448804
0.0818594330874048 1.3892752544082621 0.0482476181659807
0.0958491198000343 0.7154945426469421 0.0059503875639184
0.0156493686151379 0.0427492461747101 0.0090315163858012
0.0256928124578725 -0.1508259254192459 -0.0203917333900568
0.0211688265010555 -0.2576713925573991 -0.0195308688946336
0.0134273256776723 0.0601296043895720 0.0109322440902163
0.0291875566916447 0.1553576007035121 -0.0277673117455829
0.0291801295947913 -0.1112190203930498 0.0297728545460184
0.0266632362935605 0.2220778033819034 0.0315473836477238
0.0358705914193281 -0.1702640852830664 0.0271020302937690
0.0335904156684575 -0.1570428556258058 -0.0259278462596996
0.0318822890411754 0.1570111709351739 -0.0279518175979583
0.0380422776894265 -0.0609205557187216 -0.0277217615919684
0.0305005837001017 0.2227924736818852 0.0291479561666287
0.0645409731359200 0.8009316385223463 0.0311998416662550
0.0718666606638463 0.3985376664817261 -0.0755349389264425
0.0976137386634763 0.8950303836345097 0.0508560258444420
0.0481740953652657 1.0877228906582561 0.0838171534003261
0.0808036131594550 1.7969014999370196 -0.0424141544403276
0.0551197534547545 -0.0759386325956073 -0.0497915000805673
0.0652957886052449 0.7166750589520652 0.0699797129485086
-0.0211551166610012 0.0429621793198752 0.0349487308601953
0.0552127222743863 -0.3768764627753458 -0.1074844752764837
-0.0321715162093930 0.0625263733897938 -0.0253960068780908
0.0441380318499777 -0.7520668329559579 0.0632140843482639
-0.0194401663189875 0.0551946249434887 0.0349795258188118
0.0564354730560755 -0.3930923612746348 -0.0891513592643662
0.0531186716829071 -0.3745234744832924 0.1008343021468108
-0.0332574329119754 0.0356544345918653 -0.0230195122682777
0.0201183408139018 -0.0457772555590781 0.0189557935674858
-0.0074820461996357 -0.0350907920666892 -0.0134554522379545
-0.0071950445721544 -0.0492209889609737 -0.0150249404154764
0.0698412819664453 1.1435589346956188 0.1690027402703640
0.1315630477193482 0.8550901831165076 0.0146428465567750
0.1966006438741217 0.1859209835690902 0.0720670959156676
0.0688162245252303 -0.0553852684441874 -0.0430468432304302
0.0835766949070045 0.7772933261769824 0.0357802287482262
0.0477538201698103 -0.1226855832042511 0.0539974275860446
0.0454776810922596 0.1624767058329298 -0.0477131588713523
0.1177198098329251 2.7910632128694597 -0.0630596643182263
0.1817503682645836 0.6055779061313218 0.1289344660745442
0.0832288858036176 0.9439070033095439 0.0255135880602073
0.0532659253494404 0.1782392763877445 0.0580068313272472
-0.0011839798420708 -2.9284591585478683 -0.1708018579209994
-0.1427645934554956 0.0817209048499472 0.0788314327613378
0.0665083991976660 0.4825428777974088 -0.0765933142198442
0.0888887797897053 1.0411171734943347 -0.0131586608027580
0.0435599915349402 0.8745355505557671 -0.0355953294134935
0.0429208193864100 0.1102629730478992 -0.0491194326903975
0.0103414513115634 1.2441910033517525 0.0388607159762554
0.0552685920556811 0.7852821878193481 -0.0919935437228409
0.0531636163924199 0.0189638628648475 0.0621103555446413
-0.0110329875672274 -0.0367124361407213 -0.0824144799277453
0.0009646573311357 0.1121458870969336 0.1092235700906651
0.0484965705406504 0.6461124827763872 -0.0873746560164785
0.0524905352775384 0.0768029113682458 0.0636894384182275
-0.0123978845114374 -0.0443356915742323 -0.0769216216506208
0.0543330866165222 0.8031054156460694 0.0848127471430924
0.0463866949504203 -0.0160676828337724 -0.0048109976667680
0.1502085576806232 0.3662261974604544 -0.0278724355710812
0.0562017938186802 0.1010703663857753 -0.0576163641597701
0.0832217776071256 0.1769853021654890 0.1108289573402081
0.0761911879236567 -0.4272492631666884 0.0845045093338359
0.0907213541557168 1.3168523354008026 0.0452543995133123
0.0921427264420297 0.7256443444290573 0.0052458465429463
0.5060589255376159 0.3055829363379670 -0.0026561179497383
0.0934770361422937 0.1667832465464680 0.0067818283155757
0.0219683567015846 0.1634795856577478 0.0441757693696204
0.0969035197335388 2.8231622294539904 0.0862542382188655
0.0716614309649361 0.5124766528656498 0.0232305551394654
0.0920870608942841 0.2285175167343380 -0.0092007717914678
0.0651715543288136 0.6986053236717775 -0.0487497331152933
0.0602641912006915 1.4922722394965748 0.0238874772843955
0.5433266782534028 0.3436848461707416 0.0584534822081615
0.1001509002853644 -0.2778827213176248 0.0834018779526935
0.0786513821888979 -0.1368867691525117 -0.0527616473756397
0.2663924274126043 0.1863300188422173 0.0311398460113903
0.1107101130567934 0.2639885702909308 -0.0796822940492639
0.0788512633796693 0.9440391113486356 -0.0577271879508645
0.0645943232819809 0.0296195661188517 0.0375565361946007
-0.0105602143142916 0.0014636967285784 -0.0631294418740407
0.0193481088962423 -0.1598771238704501 0.0962583010046232
0.0612025757384670 0.0241651664488277 0.0405108624176077
-0.0073865183618425 -0.0071169093774034 -0.0571430239108255
0.0805874258173932 0.9233440020969981 0.0577151688571015
0.0482435420374274 -0.0776627254687789 -0.0456656469746445
0.0855053876809376 0.4163683918492851 0.0099357402638207
0.0792245748365381 0.6855090123715655 -0.0385380337731475
0.2307523637194822 0.3526159734503005 -0.0274266770970028
0.1007398911548552 0.4508746934914428 0.0601306773876957
0.0806129824467848 0.6006283264082082 -0.0387351974424442
0.0798301065351619 0.0893414793080758 0.0370162989697380
0.0404771701827740 -1.5483946564916997 -0.0612109882266304
0.0834562971131853 1.4775876177939677 0.0580894242436859
0.0849053546501218 0.8521287002654647 -0.0024031604426808
0.0600452552511313 -0.0701259563070919 0.0181139288222894
0.0698476244795943 0.7910312152012129 0.0295259414887728
0.0640119001345938 0.0017770666421925 0.0781068367427891
0.1770190891439083 0.5211137381855259 0.0413751490164243
0.0737849388769633 0.2870295820882509 0.0254375457177082
0.1114882190159543 3.0251683476956539 0.0959618651277012
0.0747206615221832 0.5557197345212357 0.0068728855029181
0.0308028890559016 1.2770904872004598 -0.1440226996346077
-0.0146667426613937 0.1903734891844654 -0.0620276348253484
0.0484068692813810 0.0881346756241160 -0.0194955061983828
0.0517840446112720 0.1325100780678497 0.0068352284679786
0.0479811390015006 0.6312124836290994 0.0586562578170475
0.0706227177321183 0.4993674504705871 0.0393771867753227
0.0661413694979313 0.2282836821107851 -0.0664732613374910
0.0814753510687986 -0.3841530540866622 -0.0737302184304776
0.1071215220993685 0.9260983477539776 -0.0767933510738398
0.0832225927142597 0.4749827801041679 -0.0224315577358746
0.0143314134465567 -2.8513024772717332 0.0070450324965851
-0.0779704910717236 0.0643593958283072 0.0009951528803717
0.0883066677424926 0.9604846008195123 -0.0600450488131834
0.1005322530714047 0.1475956939251226 -0.0624792557291169
0.0807639197191745 0.2134923303898044 0.0108735292531565
0.0508421910275621 0.5178913568421645 -0.0653163797289647
-0.0178308746346701 0.1959447603943305 -0.0690802661289074
0.0054810703683809 0.7612035333048103 0.1874581587253412
0.0825385696578952 0.4664085996523260 -0.0297888060323162
0.1331920224485816 0.7992792544725255 0.0381971636021562
0.1157254679971310 0.7754090958473924 -0.0425146362944809
0.1215825322824925 0.5702401587674355 0.0023827182203711
0.0889546326013870 0.8953826415268755 -0.0170226571530015
0.0022156745993548 0.7052162419031878 -0.1873015639695585
0.0550860012857892 0.1739483164720330 0.1131290489012258
0.0693274791123803 0.3069350366498107 0.0688288212832084
0.0694847045232417 -0.2037179979098190 -0.0179737459058089
-0.0589623301201370 0.1178447746839305 0.0017304542679060
0.1120243651218527 0.7417622510898459 -0.0004636540610715
0.1040411097858394 0.1134584515067268 -0.0656787561041626
0.0846860387548967 0.1359268658179577 -0.0041109628878108
0.0681647188960628 -0.2115898222972581 -0.1021425261447262
-0.0093810979360421 0.0642515554431051 0.0186644859350478
-0.0250373671750583 0.0670917334079972 -0.0163635964236437
0.0533035308646081 -0.6049624442026497 0.0638820540916199
0.0661751732521741 -0.1480764672927761 -0.0785251582296339
-0.0100176054148071 0.0754615109324298 0.0191240935008225
-0.0251202060061998 0.0494934401519475 -0.0144068800507338
0.0633391342989104 -0.2019527210842371 0.1040049939846334
0.0713989975103844 0.9300363453805687 0.0120301913203459
0.1392896929345226 0.6898987142074758 0.0089625852391461
0.0676735836650694 0.9121101216690110 0.0091958544682134
0.0737249476279073 0.7631130469918308 0.0483334251741059
0.1043187847818727 0.7983464065156330 0.0345640753552197
0.0709192549380643 0.5115162459494716 -0.0333198303770204
0.0536020190323171 0.1055374288797011 0.0094141310197404
0.0663323723239695 0.5209492473057137 -0.0264510707891193
0.0487117839719170 0.0464995827680198 -0.0186533203514496
0.0374954184839205 -1.4755530460654049 -0.0828365083602126
-0.0334528752571462 0.0339867065361809 0.0117469648985330
0.0837816033867992 0.4742560652587907 -0.0119710587030795
0.1045913927087839 1.2744276691482130 0.0523120497174714
0.0890729502361366 0.6558529822363643 -0.0126409674297360
0.0604840478047284 0.8090729075496090 0.0289879868327325
0.0847186925596987 0.7288064141787116 -0.0024183487330586
0.0741506134054785 0.4202649766929970 -0.0142176687824354
0.0819263244285712 0.7719739282782251 -0.0188271387682876
0.0858225387981009 -0.1823104927340388 -0.0823795796669353
0.1847505392213547 0.1310406499307312 0.0636075415418025
0.0917298909661327 -0.0294614847783642 -0.0326942948208043
0.0847375587968388 0.3508257869923280 -0.0109264504240829
0.2359082276892759 0.1583419127912498 -0.0466033565256233
-0.0153906427742115 0.0887298989732567 -0.0529303763255262
0.0763888223932258 0.1568590935357230 -0.0113098700692906
0.0486933681430098 0.1017197532304298 -0.0545404554454485
0.1065489260558855 1.0314142254882579 0.0771236713481799
-0.0159455116164186 0.2591736319345473 -0.0413184099396855
0.1040852105302736 0.4168680197728352 0.1601517510050334
0.0810358528462909 0.0650550647031042 -0.0660900153040255
0.1018214417863825 0.2023174652661063 -0.1602411454786230
0.0042782808797547 0.2654642208547822 0.0628341357177644
-0.0174992221076058 0.0620718802227867 0.0001028130054292
0.0771416285740873 0.1104325878474138 -0.0291648739796384
0.0892575694190158 0.2676853032533651 0.0405721154894218
0.0505446164937458 1.1281468824934200 0.0957681737955025
0.0812025131464614 0.8399733049531752 -0.0492033314808578
0.2500091775290443 0.2968634125623352 -0.0016683328514182
0.0556861851096187 0.1406731774015776 0.0689738337278124
-0.0594454212285867 0.0077425108343154 -0.0041088507839022
0.0451310676244721 -1.5886960215782320 0.0618435811134528
0.0900278450764000 0.0427062841585129 0.0065411488398638
0.1207734879426822 0.1249845144908449 0.0333081004945489
0.0954687448513727 0.6947842925446945 -0.0014381679543645
0.0951581260118353 0.1894280125087751 0.0669551969844785
0.0616154450592438 -0.0815858308890909 -0.0362919193172849
-0.1308910416313338 0.0808106329992815 0.0668941378814176
0.0577036162940261 -0.8552737328236456 0.0768781879458259
-0.0266626243213611 0.0207406347754498 0.0185429223353606
0.0481263274516690 -0.6939513918876131 0.0766419435393137
0.0779448508969804 2.3047106910724899 -0.0057849670857869
0.0932333917983115 0.7093830378702201 0.0213110710545920
0.0752144821809745 0.1694278592309778 0.0460500723687712
0.0839412928675676 0.2640756119637592 0.0174881449116717
0.0153524544485993 -2.7808630571123349 -0.1108537751087503
-0.1134227437725440 0.1142578105230753 -0.0404827755201409
0.0505884603516495 -0.8462836375633347 0.0262075171347457
-0.0590386238519358 0.0389339793082173 -0.0041724508649454
0.0529292685334297 -1.1360788426868818 -0.0450108192615217
-0.0536427573826516 0.0363935498427545 0.0079062446014906
0.0590748724080031 0.0728305173896547 -0.0552964073824968
0.0642517864030302 0.3133104850631532 -0.0096938709982814
0.0671380548737813 1.6755981905362791 -0.0257194447450258
0.0392919096068277 1.3833931541249771 -0.0186693334260394
0.0910297277497048 0.3672428176683669 -0.0390297200232117
0.1226641744793736 0.4036681800001143 -0.0226923331565482
0.0710770700348747 2.9767068117593505 0.0197081408134082
0.0472038847125768 0.0066286272125368 -0.0812661899660805
-0.0027713075641157 -1.5275408644718440 -0.2026087224855931
0.0506004093652788 -0.7812711081040511 0.0916931705008099
-0.0529818591092396 0.1507599405734727 0.0345407574661378
0.0097719331519867 -1.1078945636007127 -0.1584626565785897
0.1101022250499428 0.6782398838281470 -0.0218219783419868
0.0439819203883392 -1.6662716941114504 -0.0495458456595901
0.0509728944159586 -0.8406052592998583 0.0254967129716713
0.0422574190292707 -1.2109964817391958 -0.0402217633003520
-0.0605408707412260 -0.0653184621859650 0.0007223623650957
0.0819726880227081 0.6322636718660634 -0.0102529895805976
0.0172709287065381 1.3357320519733202 0.0162962377862355
0.0731968279386073 2.4937533816823025 0.0230630336752153
0.0734908539586959 0.3299246590801034 -0.0712981099443021
0.0850557091997279 0.2707516849676451 0.0007909731049913
0.0775208228716119 2.6767124972288419 0.0527111988318672
0.0721851486763174 -0.0198992354505684 0.0146372593001040
0.1625186317513759 0.2602766696468745 0.0346880178492497
0.2192848645180594 0.4989432374821901 0.0758829809308312
0.0692296799681291 -0.2544833487143756 0.0896906823095155
-0.0683955527067131 0.0469956656561937 0.0043406865071423
0.0356020201647087 -1.3259806149873199 -0.0210616699080931
0.0173720511544432 1.3921190126886955 0.0436803686044680
0.1558115683131450 0.1125571831051863 -0.0189145274827099
0.0635210004935000 0.1114382262989240 0.0394792818783348
0.0769065916019098 2.4335086369792882 0.0021508823507076
0.0952163145597254 0.7481749681414965 0.0006902713317721
0.0934116855661955 2.8026614774034337 -0.0247339406839481
0.0670706923343571 0.0967035964141454 0.0624585375091601
0.0305062921393512 1.3899964076474001 0.0210720427748622
0.0727575358222464 -0.0020981903598088 -0.0481632347666168
0.0493210046256761 0.3219983855006787 0.0419378521393313
0.0828246811501953 0.7195322054223783 0.0176871873765890
0.0795493540480326 0.0910171018392580 0.0199507946826150
0.0580522566196737 0.3019344974621716 -0.0893048859109081
0.0118487411919875 1.0572068501981957 0.0109844170817585
0.0966556493152957 2.8884865129895680 -0.0166582010203616
0.0534999533119438 0.2401261622883840 -0.0680458843491049
0.0737446949247860 0.4654130080159954 0.0051517926951113
0.0628152406241479 0.4564709209648518 -0.0208963751023134
0.0900654955507500 0.3999281485845113 -0.0090790275572904
0.0099850102845072 1.2499464699504590 0.0228685256521125
0.0656231565967912 0.2257079038313189 -0.0522815695247096
0.0608741110610972 0.4530592443253634 -0.0401570268324660
0.0294151403714878 0.3159816691375582 0.0526115241489739
0.0584852208378591 0.4544980937073748 -0.0292400914035293
0.0943136521003325 0.0884151211347871 0.0322894321498177
0.0720668300335607 0.1337743353181003 -0.0102568306717405
-0.0028168434716235 1.2640445952612835 -0.0304851452982495
0.1883798529172891 0.5864007217137714 0.0439949276637252
0.0724069625347259 1.1951788453615635 0.0529167828011558
0.0737960157287183 2.5337622780646911 0.0006171506649755
0.1232068242846940 0.4219562378361703 -0.0093161116951701
-0.0103331579520812 0.0983322256454936 0.0014371284147699
0.1526094011800919 1.9125826698814044 0.0067213352570288
0.0102788293217281 0.0523735423582617 0.0395758346314903
0.0657036635384127 1.1324759168377068 -0.0278248619748494
0.0953762888509381 2.6262183047776371 0.0626286126390731
0.1054762629770329 0.2519778395138895 -0.0436044466752334
0.0511694806869643 0.1051126106138469 -0.0507060078023104
0.1358548598930930 0.2103902251081352 0.0630235597317091
0.0756660761205098 0.8239954840822410 -0.0129270634462854
0.0968231395867789 0.7769231897613788 0.0131547496729967
-0.0376268591195715 0.0317282975160732 -0.0103548312491827
0.0438704533218534 -1.2750974126828842 0.0874863698047406
-0.0066056482692517 1.1085851304133552 -0.0266074942438669
0.1038772235500124 0.2102719431795904 -0.0294700681706423
0.0861181019789741 0.8838700201528464 0.0330086202642646
0.0829332164084975 0.7204805739419013 -0.0294871320213874
0.0572100866061534 0.5152164814676837 0.0655244387922914
0.1273123042493464 0.5858641581042210 -0.0393010407604179
0.0664329578360755 0.1577292936477309 -0.0667361889075783
0.0635514998610833 -0.2550287256256664 -0.0562420123498826
-0.0297624483393290 0.0568989559288168 -0.0085442493305880
0.0879455137360999 0.2200556759731685 -0.0018532613745363
0.0735623283252508 0.1312776930657960 -0.0396596466733730
0.0844185645604703 0.1432180255509098 -0.0743146205116387
0.0929688263739176 0.8199976677792986 -0.0250445110238672
0.0778480993788150 0.1544529556149447 0.0284249176599945
0.0848649671868548 0.8394487991103136 -0.0633085332417156
-0.1479781922883453 0.0949782701153922 0.0686592829040576
0.0055489099006720 0.0693732620008497 0.0958495219078462
0.0727457107484670 0.3653960772452507 -0.0183883719618347
0.0605104143104762 0.1260482027135666 0.0222359674788638
0.0116185851386352 0.0622801693488458 0.0248040142544751
0.0519107576068385 -0.3093798100888055 0.0776662646974865
0.0792044161999676 0.3659657467285860 -0.0222504536090259
0.0782163074656689 0.7739065798308067 0.0040557319930668
0.1301262617132158 0.8005238785566152 0.0150228159782321
0.0711474410237303 0.4714493982401375 0.0023281815406136
0.0870160304527497 0.4700824380473272 -0.0015111705865514
0.0719651002541908 2.0520375570991352 0.0008063851733959
0.1543448452497149 0.2887887814217001 -0.0190029540881273
0.0792282107865094 2.1473056043809868 -0.0030601491010697
0.0756559530203604 0.1416797807823831 0.0346334389398144
0.1519843182820646 0.5301588894011011 0.0773056041762894
0.0775434756319194 0.4178758433294159 -0.0026375964978664
0.0849797996513218 0.2197966357438663 -0.0008387302433018
0.0747337453050164 0.1659798955705978 0.0070619068465707
0.0737179292895503 0.1677070158791865 0.0179422447654331
0.0418893911851460 1.1059549622346863 0.0072857932524534
0.1385443199411225 0.4862659178239055 -0.0279357740864045
0.0469519111914375 1.0796873759759693 0.0030227539253170
-0.0327260876908285 -0.8260888456264223 -0.2045917282671511
0.0892402912488234 0.2345789837511761 -0.0564749390134209
0.0753901215517471 0.1314325894447823 -0.0340803338097121

SCALARS f:fiber_f double 3
LOOKUP_TABLE default
0.0000000000000000 1.0000000000000000 0.0000000000000000
0.0000000000000000 1.0000000000000000 0.0000000000000000
0.0000000000000000 1.0000000000000000 0.0000000000000000
0.0000000000000000 1.0000000000000000 0.0000000000000000
0.0000000000000000 1.0000000000000000 0.0000000000000000
0.0000000000000000 1.0000000000000000 0.0000000000000000
0.0000000000000000 1.0000000000000000 0.0000000000000000
0.0000000000000000 1.0000000000000000 0.0000000000000000
0.0000000000000000 1.0000000000000000 0.0000000000000000
0.0000000000000000 1.0000000000000000 0.0000000000000000
0.0000000000000000 1.0000000000000000 0.0000000000000000
0.0000000000000000 1.0000000000000000 0.0000000000000000
0.0000000000000000 1.0000000000000000 0.0000000000000000
0.0000000000000000 1.0000000000000000 0.0000000000000000
0.0000000000000000 1.0000000000000000 0.0000000000000000
0.0000000000000000 1.0000000000000000 0.0000000000000000
0.0000000000000000 1.0000000000000000 0.0000000000000000
0.0000000000000000 1.0000000000000000 0.0000000000000000
0.0000000000000000 1.0000000000000000 0.0000000000000000
0.0000000000000000 1.0000000000000000 0.0000000000000000
0.0000000000000000 1.0000000000000000 0.0000000000000000
0.0000000000000000 1.0000000000000000 0.0000000000000000
0.0000000000000000 1.0000000000000000 0.0000000000000000
0.0000000000000000 1.0000000000000000 0.0000000000000000
0.0000000000000000 1.0000000000000000 0.0000000000000000
0.0000000000000000 1.0000000000000000 0.0000000000000000
0.0000000000000000 1.0000000000000000 0.0000000000000000
0.0000000000000000 1.0000000000000000 0.0000000000000000
0.0000000000000000 1.0000000000000000 0.0000000000000000
0.0000000000000000 1.0000000000000000 0.0000000000000000
0.0000000000000000 1.0000000000000000 0.0000000000000000
0.0000000000000000 1.0000000000000000 0.0000000000000000
0.0000000000000000 1.0000000000000000 0.0000000000000000
0.0000000000000000 1.0000000000000000 0.0000000000000000
0.0000000000000000 1.0000000000000000 0.0000000000000000
0.0000000000000000 1.0000000000000000 0.0000000000000000
0.0000000000000000 1.0000000000000000 0.0000000000000000
0.0000000000000000 1.0000000000000000 0.0000000000000000
0.0000000000000000 1.0000000000000000 0.0000000000000000
0.0000000000000000 1.0000000000000000 0.0000000000000000
0.0000000000000000 1.0000000000000000 0.0000000000000000
0.0000000000000000 1.0000000000000000 0.0000000000000000
0.0000000000000000 1.0000000000000000 0.0000000000000000
0.0000000000000000 1.0000000000000000 0.0000000000000000
0.0000000000000000 1.0000000000000000 0.0000000000000000
0.0000000000000000 1.0000000000000000 0.0000000000000000
0.0000000000000000 1.0000000000000000 0.0000000000000000
0.0000000000000000 1.0000000000000000 0.0000000000000000
0.0000000000000000 1.0000000000000000 0.0000000000000000
0.0000000000000000 1.0000000000000000 0.0000000000000000
0.0000000000000000 1.0000000000000000 0.0000000000000000
0.0000000000000000 1.0000000000000000 0.0000000000000000
0.0000000000000000 1.0000000000000000 0.0000000000000000
0.0000000000000000 1.0000000000000000 0.0000000000000000
0.0000000000000000 1.0000000000000000 0.0000000000000000
0.0000000000000000 1.0000000000000000 0.0000000000000000
0.0000000000000000 1.0000000000000000 0.0000000000000000
0.0000000000000000 1.0000000000000000 0.0000000000000000
0.0000000000000000 1.0000000000000000 0.0000000000000000
0.0000000000000000 1.0000000000000000 0.0000000000000000
0.0000000000000000 1.0000000000000000 0.0000000000000000
0.0000000000000000 1.0000000000000000 0.0000000000000000
0.0000000000000000 1.0000000000000000 0.0000000000000000
0.0000000000000000 1.0000000000000000 0.0000000000000000
0.0000000000000000 1.0000000000000000 0.0000000000000000
0.0000000000000000 1.0000000000000000 0.0000000000000000
0.0000000000000000 1.0000000000000000 0.0000000000000000
0.0000000000000000 1.0000000000000000 0.0000000000000000
0.0000000000000000 1.0000000000000000 0.0000000000000000
0.0000000000000000 1.0000000000000000 0.0000000000000000
0.0000000000000000 1.0000000000000000 0.0000000000000000
0.0000000000000000 1.0000000000000000 0.0000000000000000
0.0000000000000000 1.0000000000000000 0.0000000000000000
0.0000000000000000 1.0000000000000000 0.0000000000000000
0.0000000000000000 1.0000000000000000 0.0000000000000000
0.0000000000000000 1.0000000000000000 0.0000000000000000
0.0000000000000000 1.0000000000000000 0.0000000000000000
0.0000000000000000 1.0000000000000000 0.0000000000000000
0.0000000000000000 1.0000000000000000 0.0000000000000000
0.0000000000000000 1.0000000000000000 0.0000000000000000
0.0000000000000000 1.0000000000000000 0.0000000000000000
0.0000000000000000 1.0000000000000000 0.0000000000000000
0.0000000000000000 1.0000000000000000 0.0000000000000000
0.0000000000000000 1.0000000000000000 0.0000000000000000
0.0000000000000000 1.0000000000000000 0.0000000000000000
0.0000000000000000 1.0000000000000000 0.0000000000000000
0.0000000000000000 1.0000000000000000 0.0000000000000000
0.0000000000000000 1.0000000000000000 0.0000000000000000
0.0000000000000000 1.0000000000000000 0.0000000000000000
0.0000000000000000 1.0000000000000000 0.0000000000000000
0.0000000000000000 1.0000000000000000 0.0000000000000000
0.0000000000000000 1.0000000000000000 0.0000000000000000
0.0000000000000000 1.0000000000000000 0.0000000000000000
0.0000000000000000 1.0000000000000000 0.0000000000000000
0.0000000000000000 1.0000000000000000 0.0000000000000000
0.0000000000000000 1.0000000000000000 0.0000000000000000
0.0000000000000000 1.0000000000000000 0.0000000000000000
0.0000000000000000 1.0000000000000000 0.0000000000000000
0.0000000000000000 1.0000000000000000 0.0000000000000000
0.0000000000000000 1.0000000000000000 0.0000000000000000
0.0000000000000000 1.0000000000000000 0.0000000000000000
0.0000000000000000 1.0000000000000000 0.0000000000000000
0.0000000000000000 1.0000000000000000 0.0000000000000000
0.0000000000000000 1.0000000000000000 0.0000000000000000
0.0000000000000000 1.0000000000000000 0.0000000000000000
0.0000000000000000 1.0000000000000000 0.0000000000000000
0.0000000000000000 1.0000000000000000 0.0000000000000000
0.0000000000000000 1.0000000000000000 0.0000000000000000
0.0000000000000000 1.0000000000000000 0.0000000000000000
0.0000000000000000 1.0000000000000000 0.0000000000000000
0.0000000000000000 1.0000000000000000 0.0000000000000000
0.0000000000000000 1.0000000000000000 0.0000000000000000
0.0000000000000000 1.0000000000000000 0.0000000000000000
0.0000000000000000 1.0000000000000000 0.0000000000000000
0.0000000000000000 1.0000000000000000 0.0000000000000000
0.0000000000000000 1.0000000000000000 0.0000000000000000
0.0000000000000000 1.0000000000000000 0.0000000000000000
0.0000000000000000 1.0000000000000000 0.0000000000000000
0.0000000000000000 1.0000000000000000 0.0000000000000000
0.0000000000000000 1.0000000000000000 0.0000000000000000
0.0000000000000000 1.0000000000000000 0.0000000000000000
0.0000000000000000 1.0000000000000000 0.0000000000000000
0.0000000000000000 1.0000000000000000 0.0000000000000000
0.0000000000000000 1.0000000000000000 0.0000000000000000
0.0000000000000000 1.0000000000000000 0.0000000000000000
0.0000000000000000 1.0000000000000000 0.0000000000000000
0.0000000000000000 1.0000000000000000 0.0000000000000000
0.0000000000000000 1.0000000000000000 0.0000000000000000
0.0000000000000000 1.0000000000000000 0.0000000000000000
0.0000000000000000 1.0000000000000000 0.0000000000000000
0.0000000000000000 1.0000000000000000 0.0000000000000000
0.0000000000000000 1.0000000000000000 0.0000000000000000
0.0000000000000000 1.0000000000000000 0.0000000000000000
0.0000000000000000 1.0000000000000000 0.0000000000000000
0.0000000000000000 1.0000000000000000 0.0000000000000000
0.0000000000000000 1.0000000000000000 0.0000000000000000
0.0000000000000000 1.0000000000000000 0.0000000000000000
0.0000000000000000 1.0000000000000000 0.0000000000000000
0.0000000000000000 1.0000000000000000 0.0000000000000000
0.0000000000000000 1.0000000000000000 0.0000000000000000
0.0000000000000000 1.0000000000000000 0.0000000000000000
0.0000000000000000 1.0000000000000000 0.0000000000000000
0.0000000000000000 1.0000000000000000 0.0000000000000000
0.0000000000000000 1.0000000000000000 0.0000000000000000
0.0000000000000000 1.0000000000000000 0.0000000000000000
0.0000000000000000 1.0000000000000000 0.0000000000000000
0.0000000000000000 1.0000000000000000 0.0000000000000000
0.0000000000000000 1.0000000000000000 0.0000000000000000
0.0000000000000000 1.0000000000000000 0.0000000000000000
0.0000000000000000 1.0000000000000000 0.0000000000000000
0.0000000000000000 1.0000000000000000 0.0000000000000000
0.0000000000000000 1.0000000000000000 0.0000000000000000
0.0000000000000000 1.0000000000000000 0.0000000000000000
0.0000000000000000 1.0000000000000000 0.0000000000000000
0.0000000000000000 1.0000000000000000 0.0000000000000000
0.0000000000000000 1.0000000000000000 0.0000000000000000
0.0000000000000000 1.0000000000000000 0.0000000000000000
0.0000000000000000 1.0000000000000000 0.0000000000000000
0.0000000000000000 1.0000000000000000 0.0000000000000000
0.0000000000000000 1.0000000000000000 0.0000000000000000
0.0000000000000000 1.0000000000000000 0.0000000000000000
0.0000000000000000 1.0000000000000000 0.0000000000000000
0.0000000000000000 1.0000000000000000 0.0000000000000000
0.0000000000000000 1.0000000000000000 0.0000000000000000
0.0000000000000000 1.0000000000000000 0.0000000000000000
0.0000000000000000 1.0000000000000000 0.0000000000000000
0.0000000000000000 1.0000000000000000 0.0000000000000000
0.0000000000000000 1.0000000000000000 0.0000000000000000
0.0000000000000000 1.0000000000000000 0.0000000000000000
0.0000000000000000 1.0000000000000000 0.0000000000000000
0.0000000000000000 1.0000000000000000 0.0000000000000000
0.0000000000000000 1.0000000000000000 0.0000000000000000
0.0000000000000000 1.0000000000000000 0.0000000000000000
0.0000000000000000 1.0000000000000000 0.0000000000000000
0.0000000000000000 1.0000000000000000 0.0000000000000000
0.0000000000000000 1.0000000000000000 0.0000000000000000
0.0000000000000000 1.0000000000000000 0.0000000000000000
0.0000000000000000 1.0000000000000000 0.0000000000000000
0.0000000000000000 1.0000000000000000 0.0000000000000000
0.0000000000000000 1.0000000000000000 0.0000000000000000
0.0000000000000000 1.0000000000000000 0.0000000000000000
0.0000000000000000 1.0000000000000000 0.0000000000000000
0.0000000000000000 1.0000000000000000 0.0000000000000000
0.0000000000000000 1.0000000000000000 0.0000000000000000
0.0000000000000000 1.0000000000000000 0.0000000000000000
0.0000000000000000 1.0000000000000000 0.0000000000000000
0.0000000000000000 1.0000000000000000 0.0000000000000000
0.0000000000000000 1.0000000000000000 0.0000000000000000
0.0000000000000000 1.0000000000000000 0.0000000000000000
0.0000000000000000 1.0000000000000000 0.0000000000000000
0.0000000000000000 1.0000000000000000 0.0000000000000000
0.0000000000000000 1.0000000000000000 0.0000000000000000
0.0000000000000000 1.0000000000000000 0.0000000000000000
0.0000000000000000 1.0000000000000000 0.0000000000000000
0.0000000000000000 1.0000000000000000 0.0000000000000000
0.0000000000000000 1.0000000000000000 0.0000000000000000
0.0000000000000000 1.0000000000000000 0.0000000000000000
0.0000000000000000 1.0000000000000000 0.0000000000000000
0.0000000000000000 1.0000000000000000 0.0000000000000000
0.0000000000000000 1.0000000000000000 0.0000000000000000
0.0000000000000000 1.0000000000000000 0.0000000000000000
0.0000000000000000 1.0000000000000000 0.0000000000000000
0.0000000000000000 1.0000000000000000 0.0000000000000000
0.0000000000000000 1.0000000000000000 0.0000000000000000
0.0000000000000000 1.0000000000000000 0.0000000000000000
0.0000000000000000 1.0000000000000000 0.0000000000000000
0.0000000000000000 1.0000000000000000 0.0000000000000000
0.0000000000000000 1.0000000000000000 0.0000000000000000
0.0000000000000000 1.0000000000000000 0.0000000000000000
0.0000000000000000 1.0000000000000000 0.0000000000000000
0.0000000000000000 1.0000000000000000 0.0000000000000000
0.0000000000000000 1.0000000000000000 0.0000000000000000
0.0000000000000000 1.0000000000000000 0.0000000000000000
0.0000000000000000 1.0000000000000000 0.0000000000000000
0.0000000000000000 1.0000000000000000 0.0000000000000000
0.0000000000000000 1.0000000000000000 0.0000000000000000
0.0000000000000000 1.0000000000000000 0.0000000000000000
0.0000000000000000 1.0000000000000000 0.0000000000000000
0.0000000000000000 1.0000000000000000 0.0000000000000000
0.0000000000000000 1.0000000000000000 0.0000000000000000
0.0000000000000000 1.0000000000000000 0.0000000000000000
0.0000000000000000 1.0000000000000000 0.0000000000000000
0.0000000000000000 1.0000000000000000 0.0000000000000000
0.0000000000000000 1.0000000000000000 0.0000000000000000
0.0000000000000000 1.0000000000000000 0.0000000000000000
0.0000000000000000 1.0000000000000000 0.0000000000000000
0.0000000000000000 1.0000000000000000 0.0000000000000000
0.0000000000000000 1.0000000000000000 0.0000000000000000
0.0000000000000000 1.0000000000000000 0.0000000000000000
0.0000000000000000 1.0000000000000000 0.0000000000000000
0.0000000000000000 1.0000000000000000 0.0000000000000000
0.0000000000000000 1.0000000000000000 0.0000000000000000
0.0000000000000000 1.0000000000000000 0.0000000000000000
0.0000000000000000 1.0000000000000000 0.0000000000000000
0.0000000000000000 1.0000000000000000 0.0000000000000000
0.0000000000000000 1.0000000000000000 0.0000000000000000
0.0000000000000000 1.0000000000000000 0.0000000000000000
0.0000000000000000 1.0000000000000000 0.0000000000000000
0.0000000000000000 1.0000000000000000 0.0000000000000000
0.0000000000000000 1.0000000000000000 0.0000000000000000
0.0000000000000000 1.0000000000000000 0.0000000000000000
0.0000000000000000 1.0000000000000000 0.0000000000000000
0.0000000000000000 1.0000000000000000 0.0000000000000000
0.0000000000000000 1.0000000000000000 0.0000000000000000
0.0000000000000000 1.0000000000000000 0.0000000000000000
0.0000000000000000 1.0000000000000000 0.0000000000000000
0.0000000000000000 1.0000000000000000 0.0000000000000000
0.0000000000000000 1.0000000000000000 0.0000000000000000
0.0000000000000000 1.0000000000000000 0.0000000000000000
0.0000000000000000 1.0000000000000000 0.0000000000000000
0.0000000000000000 1.0000000000000000 0.0000000000000000
0.0000000000000000 1.0000000000000000 0.0000000000000000
0.0000000000000000 1.0000000000000000 0.0000000000000000
0.0000000000000000 1.0000000000000000 0.0000000000000000
0.0000000000000000 1.0000000000000000 0.0000000000000000
0.0000000000000000 1.0000000000000000 0.0000000000000000
0.0000000000000000 1.0000000000000000 0.0000000000000000
0.0000000000000000 1.0000000000000000 0.0000000000000000
0.0000000000000000 1.0000000000000000 0.0000000000000000
0.0000000000000000 1.0000000000000000 0.0000000000000000
0.0000000000000000 1.0000000000000000 0.0000000000000000
0.0000000000000000 1.0000000000000000 0.0000000000000000
0.0000000000000000 1.0000000000000000 0.0000000000000000
0.0000000000000000 1.0000000000000000 0.0000000000000000
0.0000000000000000 1.0000000000000000 0.0000000000000000
0.0000000000000000 1.0000000000000000 0.0000000000000000
0.0000000000000000 1.0000000000000000 0.0000000000000000
0.0000000000000000 1.0000000000000000 0.0000000000000000
0.0000000000000000 1.0000000000000000 0.0000000000000000
0.0000000000000000 1.0000000000000000 0.0000000000000000
0.0000000000000000 1.0000000000000000 0.0000000000000000
0.0000000000000000 1.0000000000000000 0.0000000000000000
0.0000000000000000 1.0000000000000000 0.0000000000000000
0.0000000000000000 1.0000000000000000 0.0000000000000000
0.0000000000000000 1.0000000000000000 0.0000000000000000
0.0000000000000000 1.0000000000000000 0.0000000000000000
0.0000000000000000 1.0000000000000000 0.0000000000000000
0.0000000000000000 1.0000000000000000 0.0000000000000000
0.0000000000000000 1.0000000000000000 0.0000000000000000
0.0000000000000000 1.0000000000000000 0.0000000000000000
0.0000000000000000 1.0000000000000000 0.0000000000000000
0.0000000000000000 1.0000000000000000 0.0000000000000000
0.0000000000000000 1.0000000000000000 0.0000000000000000
0.0000000000000000 1.0000000000000000 0.0000000000000000
0.0000000000000000 1.0000000000000000 0.0000000000000000
0.0000000000000000 1.0000000000000000 0.0000000000000000
0.0000000000000000 1.0000000000000000 0.0000000000000000
0.0000000000000000 1.0000000000000000 0.0000000000000000
0.0000000000000000 1.0000000000000000 0.0000000000000000
0.0000000000000000 1.0000000000000000 0.0000000000000000
0.0000000000000000 1.0000000000000000 0.0000000000000000
0.0000000000000000 1.0000000000000000 0.0000000000000000
0.0000000000000000 1.0000000000000000 0.0000000000000000
0.0000000000000000 1.0000000000000000 0.0000000000000000
0.0000000000000000 1.0000000000000000 0.0000000000000000
0.0000000000000000 1.0000000000000000 0.0000000000000000
0.0000000000000000 1.0000000000000000 0.0000000000000000
0.0000000000000000 1.0000000000000000 0.0000000000000000
0.0000000000000000 1.0000000000000000 0.0000000000000000
0.0000000000000000 1.0000000000000000 0.0000000000000000
0.0000000000000000 1.0000000000000000 0.0000000000000000
0.0000000000000000 1.0000000000000000 0.0000000000000000
0.0000000000000000 1.0000000000000000 0.0000000000000000
0.0000000000000000 1.0000000000000000 0.0000000000000000
0.0000000000000000 1.0000000000000000 0.0000000000000000
0.0000000000000000 1.0000000000000000 0.0000000000000000
0.0000000000000000 1.0000000000000000 0.0000000000000000
0.0000000000000000 1.0000000000000000 0.0000000000000000
0.0000000000000000 1.0000000000000000 0.0000000000000000
0.0000000000000000 1.0000000000000000 0.0000000000000000
0.0000000000000000 1.0000000000000000 0.0000000000000000
0.0000000000000000 1.0000000000000000 0.0000000000000000
0.0000000000000000 1.0000000000000000 0.0000000000000000
0.0000000000000000 1.0000000000000000 0.0000000000000000
0.0000000000000000 1.0000000000000000 0.0000000000000000
0.0000000000000000 1.0000000000000000 0.0000000000000000
0.0000000000000000 1.0000000000000000 0.0000000000000000
0.0000000000000000 1.0000000000000000 0.0000000000000000
0.0000000000000000 1.0000000000000000 0.0000000000000000
0.0000000000000000 1.0000000000000000 0.0000000000000000
0.0000000000000000 1.0000000000000000 0.0000000000000000
0.0000000000000000 1.0000000000000000 0.0000000000000000
0.0000000000000000 1.0000000000000000 0.0000000000000000
0.0000000000000000 1.0000000000000000 0.0000000000000000
0.0000000000000000 1.0000000000000000 0.0000000000000000
0.0000000000000000 1.0000000000000000 0.0000000000000000
0.0000000000000000 1.0000000000000000 0.0000000000000000
0.0000000000000000 1.0000000000000000 0.0000000000000000
0.0000000000000000 1.0000000000000000 0.0000000000000000
0.0000000000000000 1.0000000000000000 0.0000000000000000
0.0000000000000000 1.0000000000000000 0.0000000000000000
0.0000000000000000 1.0000000000000000 0.0000000000000000
0.0000000000000000 1.0000000000000000 0.0000000000000000
0.0000000000000000 1.0000000000000000 0.0000000000000000
0.0000000000000000 1.0000000000000000 0.0000000000000000
0.0000000000000000 1.0000000000000000 0.0000000000000000
0.0000000000000000 1.0000000000000000 0.0000000000000000
0.0000000000000000 1.0000000000000000 0.0000000000000000
0.0000000000000000 1.0000000000000000 0.0000000000000000
0.0000000000000000 1.0000000000000000 0.0000000000000000
0.0000000000000000 1.0000000000000000 0.0000000000000000
0.0000000000000000 1.0000000000000000 0.0000000000000000
0.0000000000000000 1.0000000000000000 0.0000000000000000
0.0000000000000000 1.0000000000000000 0.0000000000000000
0.0000000000000000 1.0000000000000000 0.0000000000000000
0.0000000000000000 1.0000000000000000 0.0000000000000000
0.0000000000000000 1.0000000000000000 0.0000000000000000
0.0000000000000000 1.0000000000000000 0.0000000000000000
0.0000000000000000 1.0000000000000000 0.0000000000000000
0.0000000000000000 1.0000000000000000 0.0000000000000000
0.0000000000000000 1.0000000000000000 0.0000000000000000
0.0000000000000000 1.0000000000000000 0.0000000000000000
0.0000000000000000 1.0000000000000000 0.0000000000000000
0.0000000000000000 1.0000000000000000 0.0000000000000000
0.0000000000000000 1.0000000000000000 0.0000000000000000
0.0000000000000000 1.0000000000000000 0.0000000000000000
0.0000000000000000 1.0000000000000000 0.0000000000000000
0.0000000000000000 1.0000000000000000 0.0000000000000000
0.0000000000000000 1.0000000000000000 0.0000000000000000
0.0000000000000000 1.0000000000000000 0.0000000000000000
0.0000000000000000 1.0000000000000000 0.0000000000000000
0.0000000000000000 1.0000000000000000 0.0000000000000000
0.0000000000000000 1.0000000000000000 0.0000000000000000
0.0000000000000000 1.0000000000000000 0.0000000000000000
0.0000000000000000 1.0000000000000000 0.0000000000000000
0.0000000000000000 1.0000000000000000 0.0000000000000000
0.0000000000000000 1.0000000000000000 0.0000000000000000
0.0000000000000000 1.0000000000000000 0.0000000000000000
0.0000000000000000 1.0000000000000000 0.0000000000000000
0.0000000000000000 1.0000000000000000 0.0000000000000000
0.0000000000000000 1.0000000000000000 0.0000000000000000
0.0000000000000000 1.0000000000000000 0.0000000000000000
0.0000000000000000 1.0000000000000000 0.0000000000000000
0.0000000000000000 1.0000000000000000 0.0000000000000000
0.0000000000000000 1.0000000000000000 0.0000000000000000
0.0000000000000000 1.0000000000000000 0.0000000000000000
0.0000000000000000 1.0000000000000000 0.0000000000000000
0.0000000000000000 1.0000000000000000 0.0000000000000000
0.0000000000000000 1.0000000000000000 0.0000000000000000
0.0000000000000000 1.0000000000000000 0.0000000000000000
0.0000000000000000 1.0000000000000000 0.0000000000000000
0.0000000000000000 1.0000000000000000 0.0000000000000000
0.0000000000000000 1.0000000000000000 0.0000000000000000
0.0000000000000000 1.0000000000000000 0.0000000000000000
0.0000000000000000 1.0000000000000000 0.0000000000000000
0.0000000000000000 1.0000000000000000 0.0000000000000000
0.0000000000000000 1.0000000000000000 0.0000000000000000
0.0000000000000000 1.0000000000000000 0.0000000000000000
0.0000000000000000 1.0000000000000000 0.0000000000000000
0.0000000000000000 1.0000000000000000 0.0000000000000000
0.0000000000000000 1.0000000000000000 0.0000000000000000
0.0000000000000000 1.0000000000000000 0.0000000000000000
0.0000000000000000 1.0000000000000000 0.0000000000000000
0.0000000000000000 1.0000000000000000 0.0000000000000000
0.0000000000000000 1.0000000000000000 0.0000000000000000
0.0000000000000000 1.0000000000000000 0.0000000000000000
0.0000000000000000 1.0000000000000000 0.0000000000000000
0.0000000000000000 1.0000000000000000 0.0000000000000000
0.0000000000000000 1.0000000000000000 0.0000000000000000
0.0000000000000000 1.0000000000000000 0.0000000000000000
0.0000000000000000 1.0000000000000000 0.0000000000000000
0.0000000000000000 1.0000000000000000 0.0000000000000000
0.0000000000000000 1.0000000000000000 0.0000000000000000
0.0000000000000000 1.0000000000000000 0.0000000000000000
0.0000000000000000 1.0000000000000000 0.0000000000000000
0.0000000000000000 1.0000000000000000 0.0000000000000000
0.0000000000000000 1.0000000000000000 0.0000000000000000
0.0000000000000000 1.0000000000000000 0.0000000000000000
0.0000000000000000 1.0000000000000000 0.0000000000000000
0.0000000000000000 1.0000000000000000 0.0000000000000000
0.0000000000000000 1.0000000000000000 0.0000000000000000
0.0000000000000000 1.0000000000000000 0.0000000000000000
0.0000000000000000 1.0000000000000000 0.0000000000000000
0.0000000000000000 1.0000000000000000 0.0000000000000000
0.0000000000000000 1.0000000000000000 0.0000000000000000
0.0000000000000000 1.0000000000000000 0.0000000000000000
0.0000000000000000 1.0000000000000000 0.0000000000000000
0.0000000000000000 1.0000000000000000 0.0000000000000000
0.0000000000000000 1.0000000000000000 0.0000000000000000
0.0000000000000000 1.0000000000000000 0.0000000000000000
0.0000000000000000 1.0000000000000000 0.0000000000000000
0.0000000000000000 1.0000000000000000 0.0000000000000000
0.0000000000000000 1.0000000000000000 0.0000000000000000
0.0000000000000000 1.0000000000000000 0.0000000000000000
0.0000000000000000 1.0000000000000000 0.0000000000000000
0.0000000000000000 1.0000000000000000 0.0000000000000000
0.0000000000000000 1.0000000000000000 0.0000000000000000
0.0000000000000000 1.0000000000000000 0.0000000000000000
0.0000000000000000 1.0000000000000000 0.0000000000000000
0.0000000000000000 1.0000000000000000 0.0000000000000000
0.0000000000000000 1.0000000000000000 0.0000000000000000
0.0000000000000000 1.0000000000000000 0.0000000000000000
0.0000000000000000 1.0000000000000000 0.0000000000000000
0.0000000000000000 1.0000000000000000 0.0000000000000000
0.0000000000000000 1.0000000000000000 0.0000000000000000
0.0000000000000000 1.0000000000000000 0.0000000000000000
0.0000000000000000 1.0000000000000000 0.0000000000000000
0.0000000000000000 1.0000000000000000 0.0000000000000000
0.0000000000000000 1.0000000000000000 0.0000000000000000
0.0000000000000000 1.0000000000000000 0.0000000000000000
0.0000000000000000 1.0000000000000000 0.0000000000000000
0.0000000000000000 1.0000000000000000 0.0000000000000000
0.0000000000000000 1.0000000000000000 0.0000000000000000
0.0000000000000000 1.0000000000000000 0.0000000000000000
0.0000000000000000 1.0000000000000000 0.0000000000000000
0.0000000000000000 1.0000000000000000 0.0000000000000000
0.0000000000000000 1.0000000000000000 0.0000000000000000
0.0000000000000000 1.0000000000000000 0.0000000000000000
0.0000000000000000 1.0000000000000000 0.0000000000000000
0.0000000000000000 1.0000000000000000 0.0000000000000000
0.0000000000000000 1.0000000000000000 0.0000000000000000
0.0000000000000000 1.0000000000000000 0.0000000000000000
0.0000000000000000 1.0000000000000000 0.0000000000000000
0.0000000000000000 1.0000000000000000 0.0000000000000000
0.0000000000000000 1.0000000000000000 0.0000000000000000
0.0000000000000000 1.0000000000000000 0.0000000000000000
0.0000000000000000 1.0000000000000000 0.0000000000000000
0.0000000000000000 1.0000000000000000 0.0000000000000000
0.0000000000000000 1.0000000000000000 0.0000000000000000
0.0000000000000000 1.0000000000000000 0.0000000000000000
0.0000000000000000 1.0000000000000000 0.0000000000000000
0.0000000000000000 1.0000000000000000 0.0000000000000000
0.0000000000000000 1.0000000000000000 0.0000000000000000
0.0000000000000000 1.0000000000000000 0.0000000000000000
0.0000000000000000 1.0000000000000000 0.0000000000000000
0.0000000000000000 1.0000000000000000 0.0000000000000000
0.0000000000000000 1.0000000000000000 0.0000000000000000
0.0000000000000000 1.0000000000000000 0.0000000000000000
0.0000000000000000 1.0000000000000000 0.0000000000000000
0.0000000000000000 1.0000000000000000 0.0000000000000000
0.0000000000000000 1.0000000000000000 0.0000000000000000
0.0000000000000000 1.0000000000000000 0.0000000000000000
0.0000000000000000 1.0000000000000000 0.0000000000000000
0.0000000000000000 1.0000000000000000 0.0000000000000000
0.0000000000000000 1.0000000000000000 0.0000000000000000
0.0000000000000000 1.0000000000000000 0.0000000000000000
0.0000000000000000 1.0000000000000000 0.0000000000000000
0.0000000000000000 1.0000000000000000 0.0000000000000000
0.0000000000000000 1.0000000000000000 0.0000000000000000
0.0000000000000000 1.0000000000000000 0.0000000000000000
0.0000000000000000 1.0000000000000000 0.0000000000000000
0.0000000000000000 1.0000000000000000 0.0000000000000000
0.0000000000000000 1.0000000000000000 0.0000000000000000
0.0000000000000000 1.0000000000000000 0.0000000000000000
0.0000000000000000 1.0000000000000000 0.0000000000000000
0.0000000000000000 1.0000000000000000 0.0000000000000000
0.0000000000000000 1.0000000000000000 0.0000000000000000
0.0000000000000000 1.0000000000000000 0.0000000000000000
0.0000000000000000 1.0000000000000000 0.0000000000000000
0.0000000000000000 1.0000000000000000 0.0000000000000000
0.0000000000000000 1.0000000000000000 0.0000000000000000
0.0000000000000000 1.0000000000000000 0.0000000000000000
0.0000000000000000 1.0000000000000000 0.0000000000000000
0.0000000000000000 1.0000000000000000 0.0000000000000000
0.0000000000000000 1.0000000000000000 0.0000000000000000
0.0000000000000000 1.0000000000000000 0.0000000000000000
0.0000000000000000 1.0000000000000000 0.0000000000000000
0.0000000000000000 1.0000000000000000 0.0000000000000000
0.0000000000000000 1.0000000000000000 0.0000000000000000
0.0000000000000000 1.0000000000000000 0.0000000000000000
0.0000000000000000 1.0000000000000000 0.0000000000000000
0.0000000000000000 1.0000000000000000 0.0000000000000000
0.0000000000000000 1.0000000000000000 0.0000000000000000
0.0000000000000000 1.0000000000000000 0.0000000000000000
0.0000000000000000 1.0000000000000000 0.0000000000000000
0.0000000000000000 1.0000000000000000 0.0000000000000000
0.0000000000000000 1.0000000000000000 0.0000000000000000
0.0000000000000000 1.0000000000000000 0.0000000000000000
0.0000000000000000 1.0000000000000000 0.0000000000000000
0.0000000000000000 1.0000000000000000 0.0000000000000000
0.0000000000000000 1.0000000000000000 0.0000000000000000
0.0000000000000000 1.0000000000000000 0.0000000000000000
0.0000000000000000 1.0000000000000000 0.0000000000000000
0.0000000000000000 1.0000000000000000 0.0000000000000000
0.0000000000000000 1.0000000000000000 0.0000000000000000
0.0000000000000000 1.0000000000000000 0.0000000000000000
0.0000000000000000 1.0000000000000000 0.0000000000000000
0.0000000000000000 1.0000000000000000 0.0000000000000000
0.0000000000000000 1.0000000000000000 0.0000000000000000
0.0000000000000000 1.0000000000000000 0.0000000000000000
0.0000000000000000 1.0000000000000000 0.0000000000000000
0.0000000000000000 1.0000000000000000 0.0000000000000000
0.0000000000000000 1.0000000000000000 0.0000000000000000
0.0000000000000000 1.0000000000000000 0.0000000000000000
0.0000000000000000 1.0000000000000000 0.0000000000000000
0.0000000000000000 1.0000000000000000 0.0000000000000000
0.0000000000000000 1.0000000000000000 0.0000000000000000
0.0000000000000000 1.0000000000000000 0.0000000000000000
0.0000000000000000 1.0000000000000000 0.0000000000000000
0.0000000000000000 1.0000000000000000 0.0000000000000000
0.0000000000000000 1.0000000000000000 0.0000000000000000
0.0000000000000000 1.0000000000000000 0.0000000000000000
0.0000000000000000 1.0000000000000000 0.0000000000000000
0.0000000000000000 1.0000000000000000 0.0000000000000000
0.0000000000000000 1.0000000000000000 0.0000000000000000
0.0000000000000000 1.0000000000000000 0.0000000000000000
0.0000000000000000 1.0000000000000000 0.0000000000000000
0.0000000000000000 1.0000000000000000 0.0000000000000000
0.0000000000000000 1.0000000000000000 0.0000000000000000
0.0000000000000000 1.0000000000000000 0.0000000000000000
0.0000000000000000 1.0000000000000000 0.0000000000000000
0.0000000000000000 1.0000000000000000 0.0000000000000000
0.0000000000000000 1.0000000000000000 0.0000000000000000
0.0000000000000000 1.0000000000000000 0.0000000000000000
0.0000000000000000 1.0000000000000000 0.0000000000000000
0.0000000000000000 1.0000000000000000 0.0000000000000000
0.0000000000000000 1.0000000000000000 0.0000000000000000
0.0000000000000000 1.0000000000000000 0.0000000000000000
0.0000000000000000 1.0000000000000000 0.0000000000000000
0.0000000000000000 1.0000000000000000 0.0000000000000000
0.0000000000000000 1.0000000000000000 0.0000000000000000
0.0000000000000000 1.0000000000000000 0.0000000000000000
0.0000000000000000 1.0000000000000000 0.0000000000000000
0.0000000000000000 1.0000000000000000 0.0000000000000000
0.0000000000000000 1.0000000000000000 0.0000000000000000
0.0000000000000000 1.0000000000000000 0.0000000000000000
0.0000000000000000 1.0000000000000000 0.0000000000000000
0.0000000000000000 1.0000000000000000 0.0000000000000000
0.0000000000000000 1.0000000000000000 0.0000000000000000
0.0000000000000000 1.0000000000000000 0.0000000000000000
0.0000000000000000 1.0000000000000000 0.0000000000000000
0.0000000000000000 1.0000000000000000 0.0000000000000000
0.0000000000000000 1.0000000000000000 0.0000000000000000
0.0000000000000000 1.0000000000000000 0.0000000000000000
0.0000000000000000 1.0000000000000000 0.0000000000000000
0.0000000000000000 1.0000000000000000 0.0000000000000000
0.0000000000000000 1.0000000000000000 0.0000000000000000
0.0000000000000000 1.0000000000000000 0.0000000000000000
0.0000000000000000 1.0000000000000000 0.0000000000000000
0.0000000000000000 1.0000000000000000 0.0000000000000000
0.0000000000000000 1.0000000000000000 0.0000000000000000
0.0000000000000000 1.0000000000000000 0.0000000000000000
0.0000000000000000 1.0000000000000000 0.0000000000000000
0.0000000000000000 1.0000000000000000 0.0000000000000000
0.0000000000000000 1.0000000000000000 0.0000000000000000
0.0000000000000000 1.0000000000000000 0.0000000000000000
0.0000000000000000 1.0000000000000000 0.0000000000000000
0.0000000000000000 1.0000000000000000 0.0000000000000000
0.0000000000000000 1.0000000000000000 0.0000000000000000
0.0000000000000000 1.0000000000000000 0.0000000000000000
0.0000000000000000 1.0000000000000000 0.0000000000000000
0.0000000000000000 1.0000000000000000 0.0000000000000000
0.0000000000000000 1.0000000000000000 0.0000000000000000
0.0000000000000000 1.0000000000000000 0.0000000000000000
0.0000000000000000 1.0000000000000000 0.0000000000000000
0.0000000000000000 1.0000000000000000 0.0000000000000000
0.0000000000000000 1.0000000000000000 0.0000000000000000
0.0000000000000000 1.0000000000000000 0.0000000000000000
0.0000000000000000 1.0000000000000000 0.0000000000000000
0.0000000000000000 1.0000000000000000 0.0000000000000000
0.0000000000000000 1.0000000000000000 0.0000000000000000
0.0000000000000000 1.0000000000000000 0.0000000000000000
0.0000000000000000 1.0000000000000000 0.0000000000000000
0.0000000000000000 1.0000000000000000 0.0000000000000000
0.0000000000000000 1.0000000000000000 0.0000000000000000
0.0000000000000000 1.0000000000000000 0.0000000000000000
0.0000000000000000 1.0000000000000000 0.0000000000000000
0.0000000000000000 1.0000000000000000 0.0000000000000000
0.0000000000000000 1.0000000000000000 0.0000000000000000
0.0000000000000000 1.0000000000000000 0.0000000000000000
0.0000000000000000 1.0000000000000000 0.0000000000000000
0.0000000000000000 1.0000000000000000 0.0000000000000000
0.0000000000000000 1.0000000000000000 0.0000000000000000
0.0000000000000000 1.0000000000000000 0.0000000000000000
0.0000000000000000 1.0000000000000000 0.0000000000000000
0.0000000000000000 1.0000000000000000 0.0000000000000000
0.0000000000000000 1.0000000000000000 0.0000000000000000
0.0000000000000000 1.0000000000000000 0.0000000000000000
0.0000000000000000 1.0000000000000000 0.0000000000000000
0.0000000000000000 1.0000000000000000 0.0000000000000000
0.0000000000000000 1.0000000000000000 0.0000000000000000
0.0000000000000000 1.0000000000000000 0.0000000000000000
0.0000000000000000 1.0000000000000000 0.0000000000000000
0.0000000000000000 1.0000000000000000 0.0000000000000000
0.0000000000000000 1.0000000000000000 0.0000000000000000
0.0000000000000000 1.0000000000000000 0.0000000000000000
0.0000000000000000 1.0000000000000000 0.0000000000000000
0.0000000000000000 1.0000000000000000 0.0000000000000000
0.0000000000000000 1.0000000000000000 0.0000000000000000
0.0000000000000000 1.0000000000000000 0.0000000000000000
0.0000000000000000 1.0000000000000000 0.0000000000000000
0.0000000000000000 1.0000000000000000 0.0000000000000000
0.0000000000000000 1.0000000000000000 0.0000000000000000
0.0000000000000000 1.0000000000000000 0.0000000000000000
0.0000000000000000 1.0000000000000000 0.0000000000000000
0.0000000000000000 1.0000000000000000 0.0000000000000000
0.0000000000000000 1.0000000000000000 0.0000000000000000
0.0000000000000000 1.0000000000000000 0.0000000000000000
0.0000000000000000 1.0000000000000000 0.0000000000000000
0.0000000000000000 1.0000000000000000 0.0000000000000000
0.0000000000000000 1.0000000000000000 0.0000000000000000
0.0000000000000000 1.0000000000000000 0.0000000000000000
0.0000000000000000 1.0000000000000000 0.0000000000000000
0.0000000000000000 1.0000000000000000 0.0000000000000000
0.0000000000000000 1.0000000000000000 0.0000000000000000
0.0000000000000000 1.0000000000000000 0.0000000000000000
0.0000000000000000 1.0000000000000000 0.0000000000000000
0.0000000000000000 1.0000000000000000 0.0000000000000000
0.0000000000000000 1.0000000000000000 0.0000000000000000
0.0000000000000000 1.0000000000000000 0.0000000000000000
0.0000000000000000 1.0000000000000000 0.0000000000000000
0.0000000000000000 1.0000000000000000 0.0000000000000000
0.0000000000000000 1.0000000000000000 0.0000000000000000
0.0000000000000000 1.0000000000000000 0.0000000000000000
0.0000000000000000 1.0000000000000000 0.0000000000000000
0.0000000000000000 1.0000000000000000 0.0000000000000000
0.0000000000000000 1.0000000000000000 0.0000000000000000
0.0000000000000000 1.0000000000000000 0.0000000000000000
0.0000000000000000 1.0000000000000000 0.0000000000000000
0.0000000000000000 1.0000000000000000 0.0000000000000000
0.0000000000000000 1.0000000000000000 0.0000000000000000
0.0000000000000000 1.0000000000000000 0.0000000000000000
0.0000000000000000 1.0000000000000000 0.0000000000000000
0.0000000000000000 1.0000000000000000 0.0000000000000000
0.0000000000000000 1.0000000000000000 0.0000000000000000
0.0000000000000000 1.0000000000000000 0.0000000000000000
0.0000000000000000 1.0000000000000000 0.0000000000000000
0.0000000000000000 1.0000000000000000 0.0000000000000000
0.0000000000000000 1.0000000000000000 0.0000000000000000
0.0000000000000000 1.0000000000000000 0.0000000000000000
0.0000000000000000 1.0000000000000000 0.0000000000000000
0.0000000000000000 1.0000000000000000 0.0000000000000000
0.0000000000000000 1.0000000000000000 0.0000000000000000
0.0000000000000000 1.0000000000000000 0.0000000000000000
0.0000000000000000 1.0000000000000000 0.0000000000000000
0.0000000000000000 1.0000000000000000 0.0000000000000000
0.0000000000000000 1.0000000000000000 0.0000000000000000
0.0000000000000000 1.0000000000000000 0.0000000000000000
0.0000000000000000 1.0000000000000000 0.0000000000000000
0.0000000000000000 1.0000000000000000 0.0000000000000000
0.0000000000000000 1.0000000000000000 0.0000000000000000
0.0000000000000000 1.0000000000000000 0.0000000000000000
0.0000000000000000 1.0000000000000000 0.0000000000000000
0.0000000000000000 1.0000000000000000 0.0000000000000000
0.0000000000000000 1.0000000000000000 0.0000000000000000
0.0000000000000000 1.0000000000000000 0.0000000000000000
0.0000000000000000 1.0000000000000000 0.0000000000000000
0.0000000000000000 1.0000000000000000 0.0000000000000000
0.0000000000000000 1.0000000000000000 0.0000000000000000
0.0000000000000000 1.0000000000000000 0.0000000000000000
0.0000000000000000 1.0000000000000000 0.0000000000000000
0.0000000000000000 1.0000000000000000 0.0000000000000000
0.0000000000000000 1.0000000000000000 0.0000000000000000
0.0000000000000000 1.0000000000000000 0.0000000000000000
0.0000000000000000 1.0000000000000000 0.0000000000000000
0.0000000000000000 1.0000000000000000 0.0000000000000000
0.0000000000000000 1.0000000000000000 0.0000000000000000
0.0000000000000000 1.0000000000000000 0.0000000000000000
0.0000000000000000 1.0000000000000000 0.0000000000000000
0.0000000000000000 1.0000000000000000 0.0000000000000000
0.0000000000000000 1.0000000000000000 0.0000000000000000
0.0000000000000000 1.0000000000000000 0.0000000000000000
0.0000000000000000 1.0000000000000000 0.0000000000000000
0.0000000000000000 1.0000000000000000 0.0000000000000000
0.0000000000000000 1.0000000000000000 0.0000000000000000
0.0000000000000000 1.0000000000000000 0.0000000000000000
0.0000000000000000 1.0000000000000000 0.0000000000000000
0.0000000000000000 1.0000000000000000 0.0000000000000000
0.0000000000000000 1.0000000000000000 0.0000000000000000
0.0000000000000000 1.0000000000000000 0.0000000000000000
0.0000000000000000 1.0000000000000000 0.0000000000000000
0.0000000000000000 1.0000000000000000 0.0000000000000000
0.0000000000000000 1.0000000000000000 0.0000000000000000
0.0000000000000000 1.0000000000000000 0.0000000000000000
0.0000000000000000 1.0000000000000000 0.0000000000000000
0.0000000000000000 1.0000000000000000 0.0000000000000000
0.0000000000000000 1.0000000000000000 0.0000000000000000
0.0000000000000000 1.0000000000000000 0.0000000000000000
0.0000000000000000 1.0000000000000000 0.0000000000000000
0.0000000000000000 1.0000000000000000 0.0000000000000000
0.0000000000000000 1.0000000000000000 0.0000000000000000
0.0000000000000000 1.0000000000000000 0.0000000000000000
0.0000000000000000 1.0000000000000000 0.0000000000000000
0.0000000000000000 1.0000000000000000 0.0000000000000000
0.0000000000000000 1.0000000000000000 0.0000000000000000
0.0000000000000000 1.0000000000000000 0.0000000000000000
0.0000000000000000 1.0000000000000000 0.0000000000000000
0.0000000000000000 1.0000000000000000 0.0000000000000000
0.0000000000000000 1.0000000000000000 0.0000000000000000
0.0000000000000000 1.0000000000000000 0.0000000000000000
0.0000000000000000 1.0000000000000000 0.0000000000000000
0.0000000000000000 1.0000000000000000 0.0000000000000000
0.0000000000000000 1.0000000000000000 0.0000000000000000
0.0000000000000000 1.0000000000000000 0.0000000000000000
0.0000000000000000 1.0000000000000000 0.0000000000000000
0.0000000000000000 1.0000000000000000 0.0000000000000000
0.0000000000000000 1.0000000000000000 0.0000000000000000
0.0000000000000000 1.0000000000000000 0.0000000000000000
0.0000000000000000 1.0000000000000000 0.0000000000000000
0.0000000000000000 1.0000000000000000 0.0000000000000000
0.0000000000000000 1.0000000000000000 0.0000000000000000
0.0000000000000000 1.0000000000000000 0.0000000000000000
0.0000000000000000 1.0000000000000000 0.0000000000000000
0.0000000000000000 1.0000000000000000 0.0000000000000000
0.0000000000000000 1.0000000000000000 0.0000000000000000
0.0000000000000000 1.0000000000000000 0.0000000000000000
0.0000000000000000 1.0000000000000000 0.0000000000000000
0.0000000000000000 1.0000000000000000 0.0000000000000000
0.0000000000000000 1.0000000000000000 0.0000000000000000
0.0000000000000000 1.0000000000000000 0.0000000000000000
0.0000000000000000 1.0000000000000000 0.0000000000000000
0.0000000000000000 1.0000000000000000 0.0000000000000000
0.0000000000000000 1.0000000000000000 0.0000000000000000
0.0000000000000000 1.0000000000000000 0.0000000000000000
0.0000000000000000 1.0000000000000000 0.0000000000000000
0.0000000000000000 1.0000000000000000 0.0000000000000000
0.0000000000000000 1.0000000000000000 0.0000000000000000
0.0000000000000000 1.0000000000000000 0.0000000000000000
0.0000000000000000 1.0000000000000000 0.0000000000000000
0.0000000000000000 1.0000000000000000 0.0000000000000000
0.0000000000000000 1.0000000000000000 0.0000000000000000
0.0000000000000000 1.0000000000000000 0.0000000000000000
0.0000000000000000 1.0000000000000000 0.0000000000000000
0.0000000000000000 1.0000000000000000 0.0000000000000000
0.0000000000000000 1.0000000000000000 0.0000000000000000
0.0000000000000000 1.0000000000000000 0.0000000000000000
0.0000000000000000 1.0000000000000000 0.0000000000000000
0.0000000000000000 1.0000000000000000 0.0000000000000000
0.0000000000000000 1.0000000000000000 0.0000000000000000
0.0000000000000000 1.0000000000000000 0.0000000000000000
0.0000000000000000 1.0000000000000000 0.0000000000000000
0.0000000000000000 1.0000000000000000 0.0000000000000000
0.0000000000000000 1.0000000000000000 0.0000000000000000
0.0000000000000000 1.0000000000000000 0.0000000000000000
0.0000000000000000 1.0000000000000000 0.0000000000000000
0.0000000000000000 1.0000000000000000 0.0000000000000000
0.0000000000000000 1.0000000000000000 0.0000000000000000
0.0000000000000000 1.0000000000000000 0.0000000000000000
0.0000000000000000 1.0000000000000000 0.0000000000000000
0.0000000000000000 1.0000000000000000 0.0000000000000000
0.0000000000000000 1.0000000000000000 0.0000000000000000
0.0000000000000000 1.0000000000000000 0.0000000000000000
0.0000000000000000 1.0000000000000000 0.0000000000000000
0.0000000000000000 1.0000000000000000 0.0000000000000000
0.0000000000000000 1.0000000000000000 0.0000000000000000
0.0000000000000000 1.0000000000000000 0.0000000000000000
0.0000000000000000 1.0000000000000000 0.0000000000000000
0.0000000000000000 1.0000000000000000 0.0000000000000000
0.0000000000000000 1.0000000000000000 0.0000000000000000
0.0000000000000000 1.0000000000000000 0.0000000000000000
0.0000000000000000 1.0000000000000000 0.0000000000000000
0.0000000000000000 1.0000000000000000 0.0000000000000000
0.0000000000000000 1.0000000000000000 0.0000000000000000
0.0000000000000000 1.0000000000000000 0.0000000000000000
0.0000000000000000 1.0000000000000000 0.0000000000000000
0.0000000000000000 1.0000000000000000 0.0000000000000000
0.0000000000000000 1.0000000000000000 0.0000000000000000
0.0000000000000000 1.0000000000000000 0.0000000000000000
0.0000000000000000 1.0000000000000000 0.0000000000000000
0.0000000000000000 1.0000000000000000 0.0000000000000000
0.0000000000000000 1.0000000000000000 0.0000000000000000
0.0000000000000000 1.0000000000000000 0.0000000000000000
0.0000000000000000 1.0000000000000000 0.0000000000000000
0.0000000000000000 1.0000000000000000 0.0000000000000000
0.0000000000000000 1.0000000000000000 0.0000000000000000
0.0000000000000000 1.0000000000000000 0.0000000000000000
0.0000000000000000 1.0000000000000000 0.0000000000000000
0.0000000000000000 1.0000000000000000 0.0000000000000000
0.0000000000000000 1.0000000000000000 0.0000000000000000
0.0000000000000000 1.0000000000000000 0.0000000000000000
0.0000000000000000 1.0000000000000000 0.0000000000000000
0.0000000000000000 1.0000000000000000 0.0000000000000000
0.0000000000000000 1.0000000000000000 0.0000000000000000
0.0000000000000000 1.0000000000000000 0.0000000000000000
0.0000000000000000 1.0000000000000000 0.0000000000000000
0.0000000000000000 1.0000000000000000 0.0000000000000000
0.0000000000000000 1.0000000000000000 0.0000000000000000
0.0000000000000000 1.0000000000000000 0.0000000000000000
0.0000000000000000 1.0000000000000000 0.0000000000000000
0.0000000000000000 1.0000000000000000 0.0000000000000000
0.0000000000000000 1.0000000000000000 0.0000000000000000
0.0000000000000000 1.0000000000000000 0.0000000000000000
0.0000000000000000 1.0000000000000000 0.0000000000000000
0.0000000000000000 1.0000000000000000 0.0000000000000000
0.0000000000000000 1.0000000000000000 0.0000000000000000
0.0000000000000000 1.0000000000000000 0.0000000000000000
0.0000000000000000 1.0000000000000000 0.0000000000000000
0.0000000000000000 1.0000000000000000 0.0000000000000000
0.0000000000000000 1.0000000000000000 0.0000000000000000
0.0000000000000000 1.0000000000000000 0.0000000000000000
0.0000000000000000 1.0000000000000000 0.0000000000000000
0.0000000000000000 1.0000000000000000 0.0000000000000000
0.0000000000000000 1.0000000000000000 0.0000000000000000
0.0000000000000000 1.0000000000000000 0.0000000000000000
0.0000000000000000 1.0000000000000000 0.0000000000000000
0.0000000000000000 1.0000000000000000 0.0000000000000000
0.0000000000000000 1.0000000000000000 0.0000000000000000
0.0000000000000000 1.0000000000000000 0.0000000000000000
0.0000000000000000 1.0000000000000000 0.0000000000000000
0.0000000000000000 1.0000000000000000 0.0000000000000000
0.0000000000000000 1.0000000000000000 0.0000000000000000
0.0000000000000000 1.0000000000000000 0.0000000000000000
0.0000000000000000 1.0000000000000000 0.0000000000000000
0.0000000000000000 1.0000000000000000 0.0000000000000000
0.0000000000000000 1.0000000000000000 0.0000000000000000
0.0000000000000000 1.0000000000000000 0.0000000000000000
0.0000000000000000 1.0000000000000000 0.0000000000000000
0.0000000000000000 1.0000000000000000 0.0000000000000000
0.0000000000000000 1.0000000000000000 0.0000000000000000
0.0000000000000000 1.0000000000000000 0.0000000000000000
0.0000000000000000 1.0000000000000000 0.0000000000000000
0.0000000000000000 1.0000000000000000 0.0000000000000000
0.0000000000000000 1.0000000000000000 0.0000000000000000
0.0000000000000000 1.0000000000000000 0.0000000000000000
0.0000000000000000 1.0000000000000000 0.0000000000000000
0.0000000000000000 1.0000000000000000 0.0000000000000000
0.0000000000000000 1.0000000000000000 0.0000000000000000
0.0000000000000000 1.0000000000000000 0.0000000000000000
0.0000000000000000 1.0000000000000000 0.0000000000000000
0.0000000000000000 1.0000000000000000 0.0000000000000000
0.0000000000000000 1.0000000000000000 0.0000000000000000
0.0000000000000000 1.0000000000000000 0.0000000000000000
0.0000000000000000 1.0000000000000000 0.0000000000000000
0.0000000000000000 1.0000000000000000 0.0000000000000000
0.0000000000000000 1.0000000000000000 0.0000000000000000
0.0000000000000000 1.0000000000000000 0.0000000000000000
0.0000000000000000 1.0000000000000000 0.0000000000000000
0.0000000000000000 1.0000000000000000 0.0000000000000000
0.0000000000000000 1.0000000000000000 0.0000000000000000
0.0000000000000000 1.0000000000000000 0.0000000000000000
0.0000000000000000 1.0000000000000000 0.0000000000000000
0.0000000000000000 1.0000000000000000 0.0000000000000000
0.0000000000000000 1.0000000000000000 0.0000000000000000
0.0000000000000000 1.0000000000000000 0.0000000000000000
0.0000000000000000 1.0000000000000000 0.0000000000000000
0.0000000000000000 1.0000000000000000 0.0000000000000000
0.0000000000000000 1.0000000000000000 0.0000000000000000
0.0000000000000000 1.0000000000000000 0.0000000000000000
0.0000000000000000 1.0000000000000000 0.0000000000000000
0.0000000000000000 1.0000000000000000 0.0000000000000000
0.0000000000000000 1.0000000000000000 0.0000000000000000
0.0000000000000000 1.0000000000000000 0.0000000000000000
0.0000000000000000 1.0000000000000000 0.0000000000000000
0.0000000000000000 1.0000000000000000 0.0000000000000000
0.0000000000000000 1.0000000000000000 0.0000000000000000
0.0000000000000000 1.0000000000000000 0.0000000000000000
0.0000000000000000 1.0000000000000000 0.0000000000000000
0.0000000000000000 1.0000000000000000 0.0000000000000000
0.0000000000000000 1.0000000000000000 0.0000000000000000
0.0000000000000000 1.0000000000000000 0.0000000000000000
0.0000000000000000 1.0000000000000000 0.0000000000000000
0.0000000000000000 1.0000000000000000 0.0000000000000000
0.0000000000000000 1.0000000000000000 0.0000000000000000
0.0000000000000000 1.0000000000000000 0.0000000000000000
0.0000000000000000 1.0000000000000000 0.0000000000000000
0.0000000000000000 1.0000000000000000 0.0000000000000000
0.0000000000000000 1.0000000000000000 0.0000000000000000
0.0000000000000000 1.0000000000000000 0.0000000000000000
0.0000000000000000 1.0000000000000000 0.0000000000000000
0.0000000000000000 1.0000000000000000 0.0000000000000000
0.0000000000000000 1.0000000000000000 0.0000000000000000
0.0000000000000000 1.0000000000000000 0.0000000000000000
0.0000000000000000 1.0000000000000000 0.0000000000000000
0.0000000000000000 1.0000000000000000 0.0000000000000000
0.0000000000000000 1.0000000000000000 0.0000000000000000
0.0000000000000000 1.0000000000000000 0.0000000000000000
0.0000000000000000 1.0000000000000000 0.0000000000000000
0.0000000000000000 1.0000000000000000 0.0000000000000000
0.0000000000000000 1.0000000000000000 0.0000000000000000
0.0000000000000000 1.0000000000000000 0.0000000000000000
0.0000000000000000 1.0000000000000000 0.0000000000000000
0.0000000000000000 1.0000000000000000 0.0000000000000000
0.0000000000000000 1.0000000000000000 0.0000000000000000
0.0000000000000000 1.0000000000000000 0.0000000000000000
0.0000000000000000 1.0000000000000000 0.0000000000000000
0.0000000000000000 1.0000000000000000 0.0000000000000000
0.0000000000000000 1.0000000000000000 0.0000000000000000
0.0000000000000000 1.0000000000000000 0.0000000000000000
0.0000000000000000 1.0000000000000000 0.0000000000000000
0.0000000000000000 1.0000000000000000 0.0000000000000000
0.0000000000000000 1.0000000000000000 0.0000000000000000
0.0000000000000000 1.0000000000000000 0.0000000000000000
0.0000000000000000 1.0000000000000000 0.0000000000000000
0.0000000000000000 1.0000000000000000 0.0000000000000000
0.0000000000000000 1.0000000000000000 0.0000000000000000
0.0000000000000000 1.0000000000000000 0.0000000000000000
0.0000000000000000 1.0000000000000000 0.0000000000000000
0.0000000000000000 1.0000000000000000 0.0000000000000000
0.0000000000000000 1.0000000000000000 0.0000000000000000
0.0000000000000000 1.0000000000000000 0.0000000000000000
0.0000000000000000 1.0000000000000000 0.0000000000000000
0.0000000000000000 1.0000000000000000 0.0000000000000000
0.0000000000000000 1.0000000000000000 0.0000000000000000
0.0000000000000000 1.0000000000000000 0.0000000000000000
0.0000000000000000 1.0000000000000000 0.0000000000000000
0.0000000000000000 1.0000000000000000 0.0000000000000000
0.0000000000000000 1.0000000000000000 0.0000000000000000
0.0000000000000000 1.0000000000000000 0.0000000000000000
0.0000000000000000 1.0000000000000000 0.0000000000000000
0.0000000000000000 1.0000000000000000 0.0000000000000000
0.0000000000000000 1.0000000000000000 0.0000000000000000
0.0000000000000000 1.0000000000000000 0.0000000000000000
0.0000000000000000 1.0000000000000000 0.0000000000000000
0.0000000000000000 1.0000000000000000 0.0000000000000000
0.0000000000000000 1.0000000000000000 0.0000000000000000
0.0000000000000000 1.0000000000000000 0.0000000000000000
0.0000000000000000 1.0000000000000000 0.0000000000000000
0.0000000000000000 1.0000000000000000 0.0000000000000000
0.0000000000000000 1.0000000000000000 0.0000000000000000
0.0000000000000000 1.0000000000000000 0.0000000000000000
0.0000000000000000 1.0000000000000000 0.0000000000000000
0.0000000000000000 1.0000000000000000 0.0000000000000000
0.0000000000000000 1.0000000000000000 0.0000000000000000
0.0000000000000000 1.0000000000000000 0.0000000000000000
0.0000000000000000 1.0000000000000000 0.0000000000000000
0.0000000000000000 1.0000000000000000 0.0000000000000000
0.0000000000000000 1.0000000000000000 0.0000000000000000
0.0000000000000000 1.0000000000000000 0.0000000000000000
0.0000000000000000 1.0000000000000000 0.0000000000000000
0.0000000000000000 1.0000000000000000 0.0000000000000000
0.0000000000000000 1.0000000000000000 0.0000000000000000
0.0000000000000000 1.0000000000000000 0.0000000000000000
0.0000000000000000 1.0000000000000000 0.0000000000000000
0.0000000000000000 1.0000000000000000 0.0000000000000000
0.0000000000000000 1.0000000000000000 0.0000000000000000
0.0000000000000000 1.0000000000000000 0.0000000000000000
0.0000000000000000 1.0000000000000000 0.0000000000000000
0.0000000000000000 1.0000000000000000 0.0000000000000000
0.0000000000000000 1.0000000000000000 0.0000000000000000
0.0000000000000000 1.0000000000000000 0.0000000000000000
0.0000000000000000 1.0000000000000000 0.0000000000000000
0.0000000000000000 1.0000000000000000 0.0000000000000000
0.0000000000000000 1.0000000000000000 0.0000000000000000
0.0000000000000000 1.0000000000000000 0.0000000000000000
0.0000000000000000 1.0000000000000000 0.0000000000000000
0.0000000000000000 1.0000000000000000 0.0000000000000000
0.0000000000000000 1.0000000000000000 0.0000000000000000
0.0000000000000000 1.0000000000000000 0.0000000000000000
0.0000000000000000 1.0000000000000000 0.0000000000000000
0.0000000000000000 1.0000000000000000 0.0000000000000000
0.0000000000000000 1.0000000000000000 0.0000000000000000
0.0000000000000000 1.0000000000000000 0.0000000000000000
0.0000000000000000 1.0000000000000000 0.0000000000000000
0.0000000000000000 1.0000000000000000 0.0000000000000000
0.0000000000000000 1.0000000000000000 0.0000000000000000
0.0000000000000000 1.0000000000000000 0.0000000000000000
0.0000000000000000 1.0000000000000000 0.0000000000000000
0.0000000000000000 1.0000000000000000 0.0000000000000000
0.0000000000000000 1.0000000000000000 0.0000000000000000
0.0000000000000000 1.0000000000000000 0.0000000000000000
0.0000000000000000 1.0000000000000000 0.0000000000000000
0.0000000000000000 1.0000000000000000 0.0000000000000000
0.0000000000000000 1.0000000000000000 0.0000000000000000
0.0000000000000000 1.0000000000000000 0.0000000000000000
0.0000000000000000 1.0000000000000000 0.0000000000000000
0.0000000000000000 1.0000000000000000 0.0000000000000000
0.0000000000000000 1.0000000000000000 0.0000000000000000
0.0000000000000000 1.0000000000000000 0.0000000000000000
0.0000000000000000 1.0000000000000000 0.0000000000000000
0.0000000000000000 1.0000000000000000 0.0000000000000000
0.0000000000000000 1.0000000000000000 0.0000000000000000
0.0000000000000000 1.0000000000000000 0.0000000000000000
0.0000000000000000 1.0000000000000000 0.0000000000000000
0.0000000000000000 1.0000000000000000 0.0000000000000000
0.0000000000000000 1.0000000000000000 0.0000000000000000
0.0000000000000000 1.0000000000000000 0.0000000000000000
0.0000000000000000 1.0000000000000000 0.0000000000000000
0.0000000000000000 1.0000000000000000 0.0000000000000000
0.0000000000000000 1.0000000000000000 0.0000000000000000
0.0000000000000000 1.0000000000000000 0.0000000000000000
0.0000000000000000 1.0000000000000000 0.0000000000000000
0.0000000000000000 1.0000000000000000 0.0000000000000000
0.0000000000000000 1.0000000000000000 0.0000000000000000
0.0000000000000000 1.0000000000000000 0.0000000000000000
0.0000000000000000 1.0000000000000000 0.0000000000000000
0.0000000000000000 1.0000000000000000 0.0000000000000000
0.0000000000000000 1.0000000000000000 0.0000000000000000
0.0000000000000000 1.0000000000000000 0.0000000000000000
0.0000000000000000 1.0000000000000000 0.0000000000000000
0.0000000000000000 1.0000000000000000 0.0000000000000000
0.0000000000000000 1.0000000000000000 0.0000000000000000
0.0000000000000000 1.0000000000000000 0.0000000000000000
0.0000000000000000 1.0000000000000000 0.0000000000000000
0.0000000000000000 1.0000000000000000 0.0000000000000000
0.0000000000000000 1.0000000000000000 0.0000000000000000
0.0000000000000000 1.0000000000000000 0.0000000000000000
0.0000000000000000 1.0000000000000000 0.0000000000000000
0.0000000000000000 1.0000000000000000 0.0000000000000000
0.0000000000000000 1.0000000000000000 0.0000000000000000
0.0000000000000000 1.0000000000000000 0.0000000000000000
0.0000000000000000 1.0000000000000000 0.0000000000000000
0.0000000000000000 1.0000000000000000 0.0000000000000000
0.0000000000000000 1.0000000000000000 0.0000000000000000
0.0000000000000000 1.0000000000000000 0.0000000000000000
0.0000000000000000 1.0000000000000000 0.0000000000000000
0.0000000000000000 1.0000000000000000 0.0000000000000000
0.0000000000000000 1.0000000000000000 0.0000000000000000
0.0000000000000000 1.0000000000000000 0.0000000000000000
0.0000000000000000 1.0000000000000000 0.0000000000000000
0.0000000000000000 1.0000000000000000 0.0000000000000000
0.0000000000000000 1.0000000000000000 0.0000000000000000
0.0000000000000000 1.0000000000000000 0.0000000000000000
0.0000000000000000 1.0000000000000000 0.0000000000000000
0.0000000000000000 1.0000000000000000 0.0000000000000000
0.0000000000000000 1.0000000000000000 0.0000000000000000
0.0000000000000000 1.0000000000000000 0.0000000000000000
0.0000000000000000 1.0000000000000000 0.0000000000000000
0.0000000000000000 1.0000000000000000 0.0000000000000000
0.0000000000000000 1.0000000000000000 0.0000000000000000
0.0000000000000000 1.0000000000000000 0.0000000000000000
0.0000000000000000 1.0000000000000000 0.0000000000000000
0.0000000000000000 1.0000000000000000 0.0000000000000000
0.0000000000000000 1.0000000000000000 0.0000000000000000
0.0000000000000000 1.0000000000000000 0.0000000000000000
0.0000000000000000 1.0000000000000000 0.0000000000000000
0.0000000000000000 1.0000000000000000 0.0000000000000000
0.0000000000000000 1.0000000000000000 0.0000000000000000
0.0000000000000000 1.0000000000000000 0.0000000000000000
0.0000000000000000 1.0000000000000000 0.0000000000000000
0.0000000000000000 1.0000000000000000 0.0000000000000000
0.0000000000000000 1.0000000000000000 0.0000000000000000
0.0000000000000000 1.0000000000000000 0.0000000000000000
0.0000000000000000 1.0000000000000000 0.0000000000000000
0.0000000000000000 1.0000000000000000 0.0000000000000000
0.0000000000000000 1.0000000000000000 0.0000000000000000
0.0000000000000000 1.0000000000000000 0.0000000000000000
0.0000000000000000 1.0000000000000000 0.0000000000000000
0.0000000000000000 1.0000000000000000 0.0000000000000000
0.0000000000000000 1.0000000000000000 0.0000000000000000
0.0000000000000000 1.0000000000000000 0.0000000000000000
0.0000000000000000 1.0000000000000000 0.0000000000000000
0.0000000000000000 1.0000000000000000 0.0000000000000000
0.0000000000000000 1.0000000000000000 0.0000000000000000
0.0000000000000000 1.0000000000000000 0.0000000000000000
0.0000000000000000 1.0000000000000000 0.0000000000000000
0.0000000000000000 1.0000000000000000 0.0000000000000000
0.0000000000000000 1.0000000000000000 0.0000000000000000
0.0000000000000000 1.0000000000000000 0.0000000000000000
0.0000000000000000 1.0000000000000000 0.0000000000000000
0.0000000000000000 1.0000000000000000 0.0000000000000000
0.0000000000000000 1.0000000000000000 0.0000000000000000
0.0000000000000000 1.0000000000000000 0.0000000000000000
0.0000000000000000 1.0000000000000000 0.0000000000000000
0.0000000000000000 1.0000000000000000 0.0000000000000000
0.0000000000000000 1.0000000000000000 0.0000000000000000
0.0000000000000000 1.0000000000000000 0.0000000000000000
0.0000000000000000 1.0000000000000000 0.0000000000000000
0.0000000000000000 1.0000000000000000 0.0000000000000000
0.0000000000000000 1.0000000000000000 0.0000000000000000
0.0000000000000000 1.0000000000000000 0.0000000000000000
0.0000000000000000 1.0000000000000000 0.0000000000000000
0.0000000000000000 1.0000000000000000 0.0000000000000000
0.0000000000000000 1.0000000000000000 0.0000000000000000
0.0000000000000000 1.0000000000000000 0.0000000000000000
0.0000000000000000 1.0000000000000000 0.0000000000000000
0.0000000000000000 1.0000000000000000 0.0000000000000000
0.0000000000000000 1.0000000000000000 0.0000000000000000
0.0000000000000000 1.0000000000000000 0.0000000000000000
0.0000000000000000 1.0000000000000000 0.0000000000000000
0.0000000000000000 1.0000000000000000 0.0000000000000000
0.0000000000000000 1.0000000000000000 0.0000000000000000
0.0000000000000000 1.0000000000000000 0.0000000000000000
0.0000000000000000 1.0000000000000000 0.0000000000000000
0.0000000000000000 1.0000000000000000 0.0000000000000000
0.0000000000000000 1.0000000000000000 0.0000000000000000
0.0000000000000000 1.0000000000000000 0.0000000000000000
0.0000000000000000 1.0000000000000000 0.0000000000000000
0.0000000000000000 1.0000000000000000 0.0000000000000000
0.0000000000000000 1.0000000000000000 0.0000000000000000
0.0000000000000000 1.0000000000000000 0.0000000000000000
0.0000000000000000 1.0000000000000000 0.0000000000000000
0.0000000000000000 1.0000000000000000 0.0000000000000000
0.0000000000000000 1.0000000000000000 0.0000000000000000
0.0000000000000000 1.0000000000000000 0.0000000000000000
0.0000000000000000 1.0000000000000000 0.0000000000000000
0.0000000000000000 1.0000000000000000 0.0000000000000000
0.0000000000000000 1.0000000000000000 0.0000000000000000
0.0000000000000000 1.0000000000000000 0.0000000000000000
0.0000000000000000 1.0000000000000000 0.0000000000000000
0.0000000000000000 1.0000000000000000 0.0000000000000000
0.0000000000000000 1.0000000000000000 0.0000000000000000
0.0000000000000000 1.0000000000000000 0.0000000000000000
0.0000000000000000 1.0000000000000000 0.0000000000000000
0.0000000000000000 1.0000000000000000 0.0000000000000000
0.0000000000000000 1.0000000000000000 0.0000000000000000
0.0000000000000000 1.0000000000000000 0.0000000000000000
0.0000000000000000 1.0000000000000000 0.0000000000000000
0.0000000000000000 1.0000000000000000 0.0000000000000000
0.0000000000000000 1.0000000000000000 0.0000000000000000
0.0000000000000000 1.0000000000000000 0.0000000000000000
0.0000000000000000 1.0000000000000000 0.0000000000000000
0.0000000000000000 1.0000000000000000 0.0000000000000000
0.0000000000000000 1.0000000000000000 0.0000000000000000
0.0000000000000000 1.0000000000000000 0.0000000000000000
0.0000000000000000 1.0000000000000000 0.0000000000000000
0.0000000000000000 1.0000000000000000 0.0000000000000000
0.0000000000000000 1.0000000000000000 0.0000000000000000
0.0000000000000000 1.0000000000000000 0.0000000000000000
0.0000000000000000 1.0000000000000000 0.0000000000000000
0.0000000000000000 1.0000000000000000 0.0000000000000000
0.0000000000000000 1.0000000000000000 0.0000000000000000
0.0000000000000000 1.0000000000000000 0.0000000000000000
0.0000000000000000 1.0000000000000000 0.0000000000000000
0.0000000000000000 1.0000000000000000 0.0000000000000000
0.0000000000000000 1.0000000000000000 0.0000000000000000
0.0000000000000000 1.0000000000000000 0.0000000000000000
0.0000000000000000 1.0000000000000000 0.0000000000000000
0.0000000000000000 1.0000000000000000 0.0000000000000000
0.0000000000000000 1.0000000000000000 0.0000000000000000
0.0000000000000000 1.0000000000000000 0.0000000000000000
0.0000000000000000 1.0000000000000000 0.0000000000000000
0.0000000000000000 1.0000000000000000 0.0000000000000000
0.0000000000000000 1.0000000000000000 0.0000000000000000
0.0000000000000000 1.0000000000000000 0.0000000000000000
0.0000000000000000 1.0000000000000000 0.0000000000000000
0.0000000000000000 1.0000000000000000 0.0000000000000000
0.0000000000000000 1.0000000000000000 0.0000000000000000
0.0000000000000000 1.0000000000000000 0.0000000000000000
0.0000000000000000 1.0000000000000000 0.0000000000000000
0.0000000000000000 1.0000000000000000 0.0000000000000000
0.0000000000000000 1.0000000000000000 0.0000000000000000
0.0000000000000000 1.0000000000000000 0.0000000000000000
0.0000000000000000 1.0000000000000000 0.0000000000000000
0.0000000000000000 1.0000000000000000 0.0000000000000000
0.0000000000000000 1.0000000000000000 0.0000000000000000
0.0000000000000000 1.0000000000000000 0.0000000000000000
0.0000000000000000 1.0000000000000000 0.0000000000000000
0.0000000000000000 1.0000000000000000 0.0000000000000000
0.0000000000000000 1.0000000000000000 0.0000000000000000
0.0000000000000000 1.0000000000000000 0.0000000000000000
0.0000000000000000 1.0000000000000000 0.0000000000000000
0.0000000000000000 1.0000000000000000 0.0000000000000000
0.0000000000000000 1.0000000000000000 0.0000000000000000
0.0000000000000000 1.0000000000000000 0.0000000000000000
0.0000000000000000 1.0000000000000000 0.0000000000000000
0.0000000000000000 1.0000000000000000 0.0000000000000000
0.0000000000000000 1.0000000000000000 0.0000000000000000
0.0000000000000000 1.0000000000000000 0.0000000000000000
0.0000000000000000 1.0000000000000000 0.0000000000000000
0.0000000000000000 1.0000000000000000 0.0000000000000000
0.0000000000000000 1.0000000000000000 0.0000000000000000
0.0000000000000000 1.0000000000000000 0.0000000000000000
0.0000000000000000 1.0000000000000000 0.0000000000000000
0.0000000000000000 1.0000000000000000 0.0000000000000000
0.0000000000000000 1.0000000000000000 0.0000000000000000
0.0000000000000000 1.0000000000000000 0.0000000000000000
0.0000000000000000 1.0000000000000000 0.0000000000000000
0.0000000000000000 1.0000000000000000 0.0000000000000000
0.0000000000000000 1.0000000000000000 0.0000000000000000
0.0000000000000000 1.0000000000000000 0.0000000000000000
0.0000000000000000 1.0000000000000000 0.0000000000000000
0.0000000000000000 1.0000000000000000 0.0000000000000000
0.0000000000000000 1.0000000000000000 0.0000000000000000
0.0000000000000000 1.0000000000000000 0.0000000000000000
0.0000000000000000 1.0000000000000000 0.0000000000000000
0.0000000000000000 1.0000000000000000 0.0000000000000000
0.0000000000000000 1.0000000000000000 0.0000000000000000
0.0000000000000000 1.0000000000000000 0.0000000000000000
0.0000000000000000 1.0000000000000000 0.0000000000000000
0.0000000000000000 1.0000000000000000 0.0000000000000000
0.0000000000000000 1.0000000000000000 0.0000000000000000
0.0000000000000000 1.0000000000000000 0.0000000000000000
0.0000000000000000 1.0000000000000000 0.0000000000000000
0.0000000000000000 1.0000000000000000 0.0000000000000000
0.0000000000000000 1.0000000000000000 0.0000000000000000
0.0000000000000000 1.0000000000000000 0.0000000000000000
0.0000000000000000 1.0000000000000000 0.0000000000000000
0.0000000000000000 1.0000000000000000 0.0000000000000000
0.0000000000000000 1.0000000000000000 0.0000000000000000
0.0000000000000000 1.0000000000000000 0.0000000000000000
0.0000000000000000 1.0000000000000000 0.0000000000000000
0.0000000000000000 1.0000000000000000 0.0000000000000000
0.0000000000000000 1.0000000000000000 0.0000000000000000
0.0000000000000000 1.0000000000000000 0.0000000000000000
0.0000000000000000 1.0000000000000000 0.0000000000000000
0.0000000000000000 1.0000000000000000 0.0000000000000000
0.0000000000000000 1.0000000000000000 0.0000000000000000
0.0000000000000000 1.0000000000000000 0.0000000000000000
0.0000000000000000 1.0000000000000000 0.0000000000000000
0.0000000000000000 1.0000000000000000 0.0000000000000000
0.0000000000000000 1.0000000000000000 0.0000000000000000
0.0000000000000000 1.0000000000000000 0.0000000000000000
0.0000000000000000 1.0000000000000000 0.0000000000000000
0.0000000000000000 1.0000000000000000 0.0000000000000000
0.0000000000000000 1.0000000000000000 0.0000000000000000
0.0000000000000000 1.0000000000000000 0.0000000000000000
0.0000000000000000 1.0000000000000000 0.0000000000000000
0.0000000000000000 1.0000000000000000 0.0000000000000000
0.0000000000000000 1.0000000000000000 0.0000000000000000
0.0000000000000000 1.0000000000000000 0.0000000000000000
0.0000000000000000 1.0000000000000000 0.0000000000000000
0.0000000000000000 1.0000000000000000 0.0000000000000000
0.0000000000000000 1.0000000000000000 0.0000000000000000
0.0000000000000000 1.0000000000000000 0.0000000000000000
0.0000000000000000 1.0000000000000000 0.0000000000000000
0.0000000000000000 1.0000000000000000 0.0000000000000000
0.0000000000000000 1.0000000000000000 0.0000000000000000
0.0000000000000000 1.0000000000000000 0.0000000000000000
0.0000000000000000 1.0000000000000000 0.0000000000000000
0.0000000000000000 1.0000000000000000 0.0000000000000000
0.0000000000000000 1.0000000000000000 0.0000000000000000
0.0000000000000000 1.0000000000000000 0.0000000000000000
0.0000000000000000 1.0000000000000000 0.0000000000000000
0.0000000000000000 1.0000000000000000 0.0000000000000000
0.0000000000000000 1.0000000000000000 0.0000000000000000
0.0000000000000000 1.0000000000000000 0.0000000000000000
0.0000000000000000 1.0000000000000000 0.0000000000000000
0.0000000000000000 1.0000000000000000 0.0000000000000000
0.0000000000000000 1.0000000000000000 0.0000000000000000
0.0000000000000000 1.0000000000000000 0.0000000000000000
0.0000000000000000 1.0000000000000000 0.0000000000000000
0.0000000000000000 1.0000000000000000 0.0000000000000000
0.0000000000000000 1.0000000000000000 0.0000000000000000
0.0000000000000000 1.0000000000000000 0.0000000000000000
0.0000000000000000 1.0000000000000000 0.0000000000000000
0.0000000000000000 1.0000000000000000 0.0000000000000000
0.0000000000000000 1.0000000000000000 0.0000000000000000
0.0000000000000000 1.0000000000000000 0.0000000000000000
0.0000000000000000 1.0000000000000000 0.0000000000000000
0.0000000000000000 1.0000000000000000 0.0000000000000000
0.0000000000000000 1.0000000000000000 0.0000000000000000
0.0000000000000000 1.0000000000000000 0.0000000000000000
0.0000000000000000 1.0000000000000000 0.0000000000000000
0.0000000000000000 1.0000000000000000 0.0000000000000000
0.0000000000000000 1.0000000000000000 0.0000000000000000
0.0000000000000000 1.0000000000000000 0.0000000000000000
0.0000000000000000 1.0000000000000000 0.0000000000000000
0.0000000000000000 1.0000000000000000 0.0000000000000000
0.0000000000000000 1.0000000000000000 0.0000000000000000
0.0000000000000000 1.0000000000000000 0.0000000000000000
0.0000000000000000 1.0000000000000000 0.0000000000000000
0.0000000000000000 1.0000000000000000 0.0000000000000000
0.0000000000000000 1.0000000000000000 0.0000000000000000
0.0000000000000000 1.0000000000000000 0.0000000000000000
0.0000000000000000 1.0000000000000000 0.0000000000000000
0.0000000000000000 1.0000000000000000 0.0000000000000000
0.0000000000000000 1.0000000000000000 0.0000000000000000
0.0000000000000000 1.0000000000000000 0.0000000000000000
0.0000000000000000 1.0000000000000000 0.0000000000000000
0.0000000000000000 1.0000000000000000 0.0000000000000000
0.0000000000000000 1.0000000000000000 0.0000000000000000
0.0000000000000000 1.0000000000000000 0.0000000000000000
0.0000000000000000 1.0000000000000000 0.0000000000000000
0.0000000000000000 1.0000000000000000 0.0000000000000000
0.0000000000000000 1.0000000000000000 0.0000000000000000
0.0000000000000000 1.0000000000000000 0.0000000000000000
0.0000000000000000 1.0000000000000000 0.0000000000000000
0.0000000000000000 1.0000000000000000 0.0000000000000000
0.0000000000000000 1.0000000000000000 0.0000000000000000
0.0000000000000000 1.0000000000000000 0.0000000000000000
0.0000000000000000 1.0000000000000000 0.0000000000000000
0.0000000000000000 1.0000000000000000 0.0000000000000000
0.0000000000000000 1.0000000000000000 0.0000000000000000
0.0000000000000000 1.0000000000000000 0.0000000000000000
0.0000000000000000 1.0000000000000000 0.0000000000000000
0.0000000000000000 1.0000000000000000 0.0000000000000000
0.0000000000000000 1.0000000000000000 0.0000000000000000
0.0000000000000000 1.0000000000000000 0.0000000000000000
0.0000000000000000 1.0000000000000000 0.0000000000000000
0.0000000000000000 1.0000000000000000 0.0000000000000000
0.0000000000000000 1.0000000000000000 0.0000000000000000
0.0000000000000000 1.0000000000000000 0.0000000000000000
0.0000000000000000 1.0000000000000000 0.0000000000000000
0.0000000000000000 1.0000000000000000 0.0000000000000000
0.0000000000000000 1.0000000000000000 0.0000000000000000
0.0000000000000000 1.0000000000000000 0.0000000000000000
0.0000000000000000 1.0000000000000000 0.0000000000000000
0.0000000000000000 1.0000000000000000 0.0000000000000000
0.0000000000000000 1.0000000000000000 0.0000000000000000
0.0000000000000000 1.0000000000000000 0.0000000000000000
0.0000000000000000 1.0000000000000000 0.0000000000000000
0.0000000000000000 1.0000000000000000 0.0000000000000000
0.0000000000000000 1.0000000000000000 0.0000000000000000
0.0000000000000000 1.0000000000000000 0.0000000000000000
0.0000000000000000 1.0000000000000000 0.0000000000000000
0.0000000000000000 1.0000000000000000 0.0000000000000000
0.0000000000000000 1.0000000000000000 0.0000000000000000
0.0000000000000000 1.0000000000000000 0.0000000000000000
0.0000000000000000 1.0000000000000000 0.0000000000000000
0.0000000000000000 1.0000000000000000 0.0000000000000000
0.0000000000000000 1.0000000000000000 0.0000000000000000
0.0000000000000000 1.0000000000000000 0.0000000000000000
0.0000000000000000 1.0000000000000000 0.0000000000000000
0.0000000000000000 1.0000000000000000 0.0000000000000000
0.0000000000000000 1.0000000000000000 0.0000000000000000
0.0000000000000000 1.0000000000000000 0.0000000000000000
0.0000000000000000 1.0000000000000000 0.0000000000000000
0.0000000000000000 1.0000000000000000 0.0000000000000000
0.0000000000000000 1.0000000000000000 0.0000000000000000
0.0000000000000000 1.0000000000000000 0.0000000000000000
0.0000000000000000 1.0000000000000000 0.0000000000000000
0.0000000000000000 1.0000000000000000 0.0000000000000000
0.0000000000000000 1.0000000000000000 0.0000000000000000
0.0000000000000000 1.0000000000000000 0.0000000000000000
0.0000000000000000 1.0000000000000000 0.0000000000000000
0.0000000000000000 1.0000000000000000 0.0000000000000000
0.0000000000000000 1.0000000000000000 0.0000000000000000
0.0000000000000000 1.0000000000000000 0.0000000000000000
0.0000000000000000 1.0000000000000000 0.0000000000000000
0.0000000000000000 1.0000000000000000 0.0000000000000000
0.0000000000000000 1.0000000000000000 0.0000000000000000
0.0000000000000000 1.0000000000000000 0.0000000000000000
0.0000000000000000 1.0000000000000000 0.0000000000000000
0.0000000000000000 1.0000000000000000 0.0000000000000000
0.0000000000000000 1.0000000000000000 0.0000000000000000
0.0000000000000000 1.0000000000000000 0.0000000000000000
0.0000000000000000 1.0000000000000000 0.0000000000000000
0.0000000000000000 1.0000000000000000 0.0000000000000000
0.0000000000000000 1.0000000000000000 0.0000000000000000
0.0000000000000000 1.0000000000000000 0.0000000000000000
0.0000000000000000 1.0000000000000000 0.0000000000000000
0.0000000000000000 1.0000000000000000 0.0000000000000000
0.0000000000000000 1.0000000000000000 0.0000000000000000
0.0000000000000000 1.0000000000000000 0.0000000000000000
0.0000000000000000 1.0000000000000000 0.0000000000000000
0.0000000000000000 1.0000000000000000 0.0000000000000000
0.0000000000000000 1.0000000000000000 0.0000000000000000
0.0000000000000000 1.0000000000000000 0.0000000000000000
0.0000000000000000 1.0000000000000000 0.0000000000000000
0.0000000000000000 1.0000000000000000 0.0000000000000000
0.0000000000000000 1.0000000000000000 0.0000000000000000
0.0000000000000000 1.0000000000000000 0.0000000000000000
0.0000000000000000 1.0000000000000000 0.0000000000000000
0.0000000000000000 1.0000000000000000 0.0000000000000000
0.0000000000000000 1.0000000000000000 0.0000000000000000
0.0000000000000000 1.0000000000000000 0.0000000000000000
0.0000000000000000 1.0000000000000000 0.0000000000000000
0.0000000000000000 1.0000000000000000 0.0000000000000000
0.0000000000000000 1.0000000000000000 0.0000000000000000
0.0000000000000000 1.0000000000000000 0.0000000000000000
0.0000000000000000 1.0000000000000000 0.0000000000000000
0.0000000000000000 1.0000000000000000 0.0000000000000000
0.0000000000000000 1.0000000000000000 0.0000000000000000
0.0000000000000000 1.0000000000000000 0.0000000000000000
0.0000000000000000 1.0000000000000000 0.0000000000000000
0.0000000000000000 1.0000000000000000 0.0000000000000000
0.0000000000000000 1.0000000000000000 0.0000000000000000
0.0000000000000000 1.0000000000000000 0.0000000000000000
0.0000000000000000 1.0000000000000000 0.0000000000000000
0.0000000000000000 1.0000000000000000 0.0000000000000000
0.0000000000000000 1.0000000000000000 0.0000000000000000
0.0000000000000000 1.0000000000000000 0.0000000000000000
0.0000000000000000 1.0000000000000000 0.0000000000000000
0.0000000000000000 1.0000000000000000 0.0000000000000000
0.0000000000000000 1.0000000000000000 0.0000000000000000
0.0000000000000000 1.0000000000000000 0.0000000000000000
0.0000000000000000 1.0000000000000000 0.0000000000000000
0.0000000000000000 1.0000000000000000 0.0000000000000000
0.0000000000000000 1.0000000000000000 0.0000000000000000
0.0000000000000000 1.0000000000000000 0.0000000000000000
0.0000000000000000 1.0000000000000000 0.0000000000000000
0.0000000000000000 1.0000000000000000 0.0000000000000000
0.0000000000000000 1.0000000000000000 0.0000000000000000
0.0000000000000000 1.0000000000000000 0.0000000000000000
0.0000000000000000 1.0000000000000000 0.0000000000000000
0.0000000000000000 1.0000000000000000 0.0000000000000000
0.0000000000000000 1.0000000000000000 0.0000000000000000
0.0000000000000000 1.0000000000000000 0.0000000000000000
0.0000000000000000 1.0000000000000000 0.0000000000000000
0.0000000000000000 1.0000000000000000 0.0000000000000000
0.0000000000000000 1.0000000000000000 0.0000000000000000
0.0000000000000000 1.0000000000000000 0.0000000000000000
0.0000000000000000 1.0000000000000000 0.0000000000000000
0.0000000000000000 1.0000000000000000 0.0000000000000000
0.0000000000000000 1.0000000000000000 0.0000000000000000
0.0000000000000000 1.0000000000000000 0.0000000000000000
0.0000000000000000 1.0000000000000000 0.0000000000000000
0.0000000000000000 1.0000000000000000 0.0000000000000000
0.0000000000000000 1.0000000000000000 0.0000000000000000
0.0000000000000000 1.0000000000000000 0.0000000000000000
0.0000000000000000 1.0000000000000000 0.0000000000000000
0.0000000000000000 1.0000000000000000 0.0000000000000000
0.0000000000000000 1.0000000000000000 0.0000000000000000
0.0000000000000000 1.0000000000000000 0.0000000000000000
0.0000000000000000 1.0000000000000000 0.0000000000000000
0.0000000000000000 1.0000000000000000 0.0000000000000000
0.0000000000000000 1.0000000000000000 0.0000000000000000
0.0000000000000000 1.0000000000000000 0.0000000000000000
0.0000000000000000 1.0000000000000000 0.0000000000000000
0.0000000000000000 1.0000000000000000 0.0000000000000000
0.0000000000000000 1.0000000000000000 0.0000000000000000
0.0000000000000000 1.0000000000000000 0.0000000000000000
0.0000000000000000 1.0000000000000000 0.0000000000000000
0.0000000000000000 1.0000000000000000 0.0000000000000000
0.0000000000000000 1.0000000000000000 0.0000000000000000
0.0000000000000000 1.0000000000000000 0.0000000000000000
0.0000000000000000 1.0000000000000000 0.0000000000000000
0.0000000000000000 1.0000000000000000 0.0000000000000000
0.0000000000000000 1.0000000000000000 0.0000000000000000
0.0000000000000000 1.0000000000000000 0.0000000000000000
0.0000000000000000 1.0000000000000000 0.0000000000000000
0.0000000000000000 1.0000000000000000 0.0000000000000000
0.0000000000000000 1.0000000000000000 0.0000000000000000
0.0000000000000000 1.0000000000000000 0.0000000000000000
0.0000000000000000 1.0000000000000000 0.0000000000000000
0.0000000000000000 1.0000000000000000 0.0000000000000000
0.0000000000000000 1.0000000000000000 0.0000000000000000
0.0000000000000000 1.0000000000000000 0.0000000000000000
0.0000000000000000 1.0000000000000000 0.0000000000000000
0.0000000000000000 1.0000000000000000 0.0000000000000000
0.0000000000000000 1.0000000000000000 0.0000000000000000
0.0000000000000000 1.0000000000000000 0.0000000000000000
0.0000000000000000 1.0000000000000000 0.0000000000000000
0.0000000000000000 1.0000000000000000 0.0000000000000000
0.0000000000000000 1.0000000000000000 0.0000000000000000
0.0000000000000000 1.0000000000000000 0.0000000000000000
0.0000000000000000 1.0000000000000000 0.0000000000000000
0.0000000000000000 1.0000000000000000 0.0000000000000000
0.0000000000000000 1.0000000000000000 0.0000000000000000
0.0000000000000000 1.0000000000000000 0.0000000000000000
0.0000000000000000 1.0000000000000000 0.0000000000000000
0.0000000000000000 1.0000000000000000 0.0000000000000000
0.0000000000000000 1.0000000000000000 0.0000000000000000
0.0000000000000000 1.0000000000000000 0.0000000000000000
0.0000000000000000 1.0000000000000000 0.0000000000000000
0.0000000000000000 1.0000000000000000 0.0000000000000000
0.0000000000000000 1.0000000000000000 0.0000000000000000
0.0000000000000000 1.0000000000000000 0.0000000000000000
0.0000000000000000 1.0000000000000000 0.0000000000000000
0.0000000000000000 1.0000000000000000 0.0000000000000000
0.0000000000000000 1.0000000000000000 0.0000000000000000
0.0000000000000000 1.0000000000000000 0.0000000000000000
0.0000000000000000 1.0000000000000000 0.0000000000000000
0.0000000000000000 1.0000000000000000 0.0000000000000000
0.0000000000000000 1.0000000000000000 0.0000000000000000
0.0000000000000000 1.0000000000000000 0.0000000000000000
0.0000000000000000 1.0000000000000000 0.0000000000000000
0.0000000000000000 1.0000000000000000 0.0000000000000000
0.0000000000000000 1.0000000000000000 0.0000000000000000
0.0000000000000000 1.0000000000000000 0.0000000000000000
0.0000000000000000 1.0000000000000000 0.0000000000000000
0.0000000000000000 1.0000000000000000 0.0000000000000000
0.0000000000000000 1.0000000000000000 0.0000000000000000
0.0000000000000000 1.0000000000000000 0.0000000000000000
0.0000000000000000 1.0000000000000000 0.0000000000000000
0.0000000000000000 1.0000000000000000 0.0000000000000000
0.0000000000000000 1.0000000000000000 0.0000000000000000
0.0000000000000000 1.0000000000000000 0.0000000000000000
0.0000000000000000 1.0000000000000000 0.0000000000000000
0.0000000000000000 1.0000000000000000 0.0000000000000000
0.0000000000000000 1.0000000000000000 0.0000000000000000
0.0000000000000000 1.0000000000000000 0.0000000000000000
0.0000000000000000 1.0000000000000000 0.0000000000000000
0.0000000000000000 1.0000000000000000 0.0000000000000000
0.0000000000000000 1.0000000000000000 0.0000000000000000
0.0000000000000000 1.0000000000000000 0.0000000000000000
0.0000000000000000 1.0000000000000000 0.0000000000000000
0.0000000000000000 1.0000000000000000 0.0000000000000000
0.0000000000000000 1.0000000000000000 0.0000000000000000
0.0000000000000000 1.0000000000000000 0.0000000000000000
0.0000000000000000 1.0000000000000000 0.0000000000000000
0.0000000000000000 1.0000000000000000 0.0000000000000000
0.0000000000000000 1.0000000000000000 0.0000000000000000
0.0000000000000000 1.0000000000000000 0.0000000000000000
0.0000000000000000 1.0000000000000000 0.0000000000000000
0.0000000000000000 1.0000000000000000 0.0000000000000000
0.0000000000000000 1.0000000000000000 0.0000000000000000
0.0000000000000000 1.0000000000000000 0.0000000000000000
0.0000000000000000 1.0000000000000000 0.0000000000000000
0.0000000000000000 1.0000000000000000 0.0000000000000000
0.0000000000000000 1.0000000000000000 0.0000000000000000
0.0000000000000000 1.0000000000000000 0.0000000000000000
0.0000000000000000 1.0000000000000000 0.0000000000000000
0.0000000000000000 1.0000000000000000 0.0000000000000000
0.0000000000000000 1.0000000000000000 0.0000000000000000
0.0000000000000000 1.0000000000000000 0.0000000000000000
0.0000000000000000 1.0000000000000000 0.0000000000000000
0.0000000000000000 1.0000000000000000 0.0000000000000000
0.0000000000000000 1.0000000000000000 0.0000000000000000
0.0000000000000000 1.0000000000000000 0.0000000000000000
0.0000000000000000 1.0000000000000000 0.0000000000000000
0.0000000000000000 1.0000000000000000 0.0000000000000000
0.0000000000000000 1.0000000000000000 0.0000000000000000
0.0000000000000000 1.0000000000000000 0.0000000000000000
0.0000000000000000 1.0000000000000000 0.0000000000000000
0.0000000000000000 1.0000000000000000 0.0000000000000000
0.0000000000000000 1.0000000000000000 0.0000000000000000
0.0000000000000000 1.0000000000000000 0.0000000000000000
0.0000000000000000 1.0000000000000000 0.0000000000000000
0.0000000000000000 1.0000000000000000 0.0000000000000000
0.0000000000000000 1.0000000000000000 0.0000000000000000
0.0000000000000000 1.0000000000000000 0.0000000000000000
0.0000000000000000 1.0000000000000000 0.0000000000000000
0.0000000000000000 1.0000000000000000 0.0000000000000000
0.0000000000000000 1.0000000000000000 0.0000000000000000
0.0000000000000000 1.0000000000000000 0.0000000000000000
0.0000000000000000 1.0000000000000000 0.0000000000000000
0.0000000000000000 1.0000000000000000 0.0000000000000000
0.0000000000000000 1.0000000000000000 0.0000000000000000
0.0000000000000000 1.0000000000000000 0.0000000000000000
0.0000000000000000 1.0000000000000000 0.0000000000000000
0.0000000000000000 1.0000000000000000 0.0000000000000000
0.0000000000000000 1.0000000000000000 0.0000000000000000
0.0000000000000000 1.0000000000000000 0.0000000000000000
0.0000000000000000 1.0000000000000000 0.0000000000000000
0.0000000000000000 1.0000000000000000 0.0000000000000000
0.0000000000000000 1.0000000000000000 0.0000000000000000
0.0000000000000000 1.0000000000000000 0.0000000000000000
0.0000000000000000 1.0000000000000000 0.0000000000000000
0.0000000000000000 1.0000000000000000 0.0000000000000000
0.0000000000000000 1.0000000000000000 0.0000000000000000
0.0000000000000000 1.0000000000000000 0.0000000000000000
0.0000000000000000 1.0000000000000000 0.0000000000000000
0.0000000000000000 1.0000000000000000 0.0000000000000000
0.0000000000000000 1.0000000000000000 0.0000000000000000
0.0000000000000000 1.0000000000000000 0.0000000000000000
0.0000000000000000 1.0000000000000000 0.0000000000000000
0.0000000000000000 1.0000000000000000 0.0000000000000000
0.0000000000000000 1.0000000000000000 0.0000000000000000
0.0000000000000000 1.0000000000000000 0.0000000000000000
0.0000000000000000 1.0000000000000000 0.0000000000000000
0.0000000000000000 1.0000000000000000 0.0000000000000000
0.0000000000000000 1.0000000000000000 0.0000000000000000
0.0000000000000000 1.0000000000000000 0.0000000000000000
0.0000000000000000 1.0000000000000000 0.0000000000000000
0.0000000000000000 1.0000000000000000 0.0000000000000000
0.0000000000000000 1.0000000000000000 0.0000000000000000
0.0000000000000000 1.0000000000000000 0.0000000000000000
0.0000000000000000 1.0000000000000000 0.0000000000000000
0.0000000000000000 1.0000000000000000 0.0000000000000000
0.0000000000000000 1.0000000000000000 0.0000000000000000
0.0000000000000000 1.0000000000000000 0.0000000000000000
0.0000000000000000 1.0000000000000000 0.0000000000000000
0.0000000000000000 1.0000000000000000 0.0000000000000000
0.0000000000000000 1.0000000000000000 0.0000000000000000
0.0000000000000000 1.0000000000000000 0.0000000000000000
0.0000000000000000 1.0000000000000000 0.0000000000000000
0.0000000000000000 1.0000000000000000 0.0000000000000000
0.0000000000000000 1.0000000000000000 0.0000000000000000
0.0000000000000000 1.0000000000000000 0.0000000000000000
0.0000000000000000 1.0000000000000000 0.0000000000000000
0.0000000000000000 1.0000000000000000 0.0000000000000000
0.0000000000000000 1.0000000000000000 0.0000000000000000
0.0000000000000000 1.0000000000000000 0.0000000000000000
0.0000000000000000 1.0000000000000000 0.0000000000000000
0.0000000000000000 1.0000000000000000 0.0000000000000000
0.0000000000000000 1.0000000000000000 0.0000000000000000
0.0000000000000000 1.0000000000000000 0.0000000000000000
0.0000000000000000 1.0000000000000000 0.0000000000000000
0.0000000000000000 1.0000000000000000 0.0000000000000000
0.0000000000000000 1.0000000000000000 0.0000000000000000
0.0000000000000000 1.0000000000000000 0.0000000000000000
0.0000000000000000 1.0000000000000000 0.0000000000000000
0.0000000000000000 1.0000000000000000 0.0000000000000000
0.0000000000000000 1.0000000000000000 0.0000000000000000
0.0000000000000000 1.0000000000000000 0.0000000000000000
0.0000000000000000 1.0000000000000000 0.0000000000000000
0.0000000000000000 1.0000000000000000 0.0000000000000000
0.0000000000000000 1.0000000000000000 0.0000000000000000
0.0000000000000000 1.0000000000000000 0.0000000000000000
0.0000000000000000 1.0000000000000000 0.0000000000000000
0.0000000000000000 1.0000000000000000 0.0000000000000000
0.0000000000000000 1.0000000000000000 0.0000000000000000
0.0000000000000000 1.0000000000000000 0.0000000000000000
0.0000000000000000 1.0000000000000000 0.0000000000000000
0.0000000000000000 1.0000000000000000 0.0000000000000000
0.0000000000000000 1.0000000000000000 0.0000000000000000
0.0000000000000000 1.0000000000000000 0.0000000000000000
0.0000000000000000 1.0000000000000000 0.0000000000000000
0.0000000000000000 1.0000000000000000 0.0000000000000000
0.0000000000000000 1.0000000000000000 0.0000000000000000
0.0000000000000000 1.0000000000000000 0.0000000000000000
0.0000000000000000 1.0000000000000000 0.0000000000000000
0.0000000000000000 1.0000000000000000 0.0000000000000000
0.0000000000000000 1.0000000000000000 0.0000000000000000
0.0000000000000000 1.0000000000000000 0.0000000000000000
0.0000000000000000 1.0000000000000000 0.0000000000000000
0.0000000000000000 1.0000000000000000 0.0000000000000000
0.0000000000000000 1.0000000000000000 0.0000000000000000
0.0000000000000000 1.0000000000000000 0.0000000000000000
0.0000000000000000 1.0000000000000000 0.0000000000000000
0.0000000000000000 1.0000000000000000 0.0000000000000000
0.0000000000000000 1.0000000000000000 0.0000000000000000
0.0000000000000000 1.0000000000000000 0.0000000000000000
0.0000000000000000 1.0000000000000000 0.0000000000000000
0.0000000000000000 1.0000000000000000 0.0000000000000000
0.0000000000000000 1.0000000000000000 0.0000000000000000
0.0000000000000000 1.0000000000000000 0.0000000000000000
0.0000000000000000 1.0000000000000000 0.0000000000000000
0.0000000000000000 1.0000000000000000 0.0000000000000000
0.0000000000000000 1.0000000000000000 0.0000000000000000
0.0000000000000000 1.0000000000000000 0.0000000000000000
0.0000000000000000 1.0000000000000000 0.0000000000000000
0.0000000000000000 1.0000000000000000 0.0000000000000000
0.0000000000000000 1.0000000000000000 0.0000000000000000
0.0000000000000000 1.0000000000000000 0.0000000000000000
0.0000000000000000 1.0000000000000000 0.0000000000000000
0.0000000000000000 1.0000000000000000 0.0000000000000000
0.0000000000000000 1.0000000000000000 0.0000000000000000
0.0000000000000000 1.0000000000000000 0.0000000000000000
0.0000000000000000 1.0000000000000000 0.0000000000000000
0.0000000000000000 1.0000000000000000 0.0000000000000000
0.0000000000000000 1.0000000000000000 0.0000000000000000
0.0000000000000000 1.0000000000000000 0.0000000000000000
0.0000000000000000 1.0000000000000000 0.0000000000000000
0.0000000000000000 1.0000000000000000 0.0000000000000000
0.0000000000000000 1.0000000000000000 0.0000000000000000
0.0000000000000000 1.0000000000000000 0.0000000000000000
0.0000000000000000 1.0000000000000000 0.0000000000000000
0.0000000000000000 1.0000000000000000 0.0000000000000000
0.0000000000000000 1.0000000000000000 0.0000000000000000
0.0000000000000000 1.0000000000000000 0.0000000000000000
0.0000000000000000 1.0000000000000000 0.0000000000000000
0.0000000000000000 1.0000000000000000 0.0000000000000000
0.0000000000000000 1.0000000000000000 0.0000000000000000
0.0000000000000000 1.0000000000000000 0.0000000000000000
0.0000000000000000 1.0000000000000000 0.0000000000000000
0.0000000000000000 1.0000000000000000 0.0000000000000000
0.0000000000000000 1.0000000000000000 0.0000000000000000
0.0000000000000000 1.0000000000000000 0.0000000000000000
0.0000000000000000 1.0000000000000000 0.0000000000000000
0.0000000000000000 1.0000000000000000 0.0000000000000000
0.0000000000000000 1.0000000000000000 0.0000000000000000
0.0000000000000000 1.0000000000000000 0.0000000000000000
0.0000000000000000 1.0000000000000000 0.0000000000000000
0.0000000000000000 1.0000000000000000 0.0000000000000000
0.0000000000000000 1.0000000000000000 0.0000000000000000
0.0000000000000000 1.0000000000000000 0.0000000000000000
0.0000000000000000 1.0000000000000000 0.0000000000000000
0.0000000000000000 1.0000000000000000 0.0000000000000000
0.0000000000000000 1.0000000000000000 0.0000000000000000
0.0000000000000000 1.0000000000000000 0.0000000000000000
0.0000000000000000 1.0000000000000000 0.0000000000000000
0.0000000000000000 1.0000000000000000 0.0000000000000000
0.0000000000000000 1.0000000000000000 0.0000000000000000
0.0000000000000000 1.0000000000000000 0.0000000000000000
0.0000000000000000 1.0000000000000000 0.0000000000000000
0.0000000000000000 1.0000000000000000 0.0000000000000000
0.0000000000000000 1.0000000000000000 0.0000000000000000
0.0000000000000000 1.0000000000000000 0.0000000000000000
0.0000000000000000 1.0000000000000000 0.0000000000000000
0.0000000000000000 1.0000000000000000 0.0000000000000000
0.0000000000000000 1.0000000000000000 0.0000000000000000
0.0000000000000000 1.0000000000000000 0.0000000000000000
0.0000000000000000 1.0000000000000000 0.0000000000000000
0.0000000000000000 1.0000000000000000 0.0000000000000000
0.0000000000000000 1.0000000000000000 0.0000000000000000
0.0000000000000000 1.0000000000000000 0.0000000000000000
0.0000000000000000 1.0000000000000000 0.0000000000000000
0.0000000000000000 1.0000000000000000 0.0000000000000000
0.0000000000000000 1.0000000000000000 0.0000000000000000
0.0000000000000000 1.0000000000000000 0.0000000000000000
0.0000000000000000 1.0000000000000000 0.0000000000000000
0.0000000000000000 1.0000000000000000 0.0000000000000000
0.0000000000000000 1.0000000000000000 0.0000000000000000
0.0000000000000000 1.0000000000000000 0.0000000000000000
0.0000000000000000 1.0000000000000000 0.0000000000000000
0.0000000000000000 1.0000000000000000 0.0000000000000000
0.0000000000000000 1.0000000000000000 0.0000000000000000
0.0000000000000000 1.0000000000000000 0.0000000000000000
0.0000000000000000 1.0000000000000000 0.0000000000000000
0.0000000000000000 1.0000000000000000 0.0000000000000000
0.0000000000000000 1.0000000000000000 0.0000000000000000
0.0000000000000000 1.0000000000000000 0.0000000000000000
0.0000000000000000 1.0000000000000000 0.0000000000000000
0.0000000000000000 1.0000000000000000 0.0000000000000000
0.0000000000000000 1.0000000000000000 0.0000000000000000
0.0000000000000000 1.0000000000000000 0.0000000000000000
0.0000000000000000 1.0000000000000000 0.0000000000000000
0.0000000000000000 1.0000000000000000 0.0000000000000000
0.0000000000000000 1.0000000000000000 0.0000000000000000
0.0000000000000000 1.0000000000000000 0.0000000000000000
0.0000000000000000 1.0000000000000000 0.0000000000000000
0.0000000000000000 1.0000000000000000 0.0000000000000000
0.0000000000000000 1.0000000000000000 0.0000000000000000
0.0000000000000000 1.0000000000000000 0.0000000000000000
0.0000000000000000 1.0000000000000000 0.0000000000000000
0.0000000000000000 1.0000000000000000 0.0000000000000000
0.0000000000000000 1.0000000000000000 0.0000000000000000
0.0000000000000000 1.0000000000000000 0.0000000000000000
0.0000000000000000 1.0000000000000000 0.0000000000000000
0.0000000000000000 1.0000000000000000 0.0000000000000000
0.0000000000000000 1.0000000000000000 0.0000000000000000
0.0000000000000000 1.0000000000000000 0.0000000000000000
0.0000000000000000 1.0000000000000000 0.0000000000000000
0.0000000000000000 1.0000000000000000 0.0000000000000000
0.0000000000000000 1.0000000000000000 0.0000000000000000
0.0000000000000000 1.0000000000000000 0.0000000000000000
0.0000000000000000 1.0000000000000000 0.0000000000000000
0.0000000000000000 1.0000000000000000 0.0000000000000000
0.0000000000000000 1.0000000000000000 0.0000000000000000
0.0000000000000000 1.0000000000000000 0.0000000000000000
0.0000000000000000 1.0000000000000000 0.0000000000000000
0.0000000000000000 1.0000000000000000 0.0000000000000000
0.0000000000000000 1.0000000000000000 0.0000000000000000
0.0000000000000000 1.0000000000000000 0.0000000000000000
0.0000000000000000 1.0000000000000000 0.0000000000000000
0.0000000000000000 1.0000000000000000 0.0000000000000000
0.0000000000000000 1.0000000000000000 0.0000000000000000
0.0000000000000000 1.0000000000000000 0.0000000000000000
0.0000000000000000 1.0000000000000000 0.0000000000000000
0.0000000000000000 1.0000000000000000 0.0000000000000000
0.0000000000000000 1.0000000000000000 0.0000000000000000
0.0000000000000000 1.0000000000000000 0.0000000000000000
0.0000000000000000 1.0000000000000000 0.0000000000000000
0.0000000000000000 1.0000000000000000 0.0000000000000000
0.0000000000000000 1.0000000000000000 0.0000000000000000
0.0000000000000000 1.0000000000000000 0.0000000000000000
0.0000000000000000 1.0000000000000000 0.0000000000000000
0.0000000000000000 1.0000000000000000 0.0000000000000000
0.0000000000000000 1.0000000000000000 0.0000000000000000
0.0000000000000000 1.0000000000000000 0.0000000000000000
0.0000000000000000 1.0000000000000000 0.0000000000000000
0.0000000000000000 1.0000000000000000 0.0000000000000000
0.0000000000000000 1.0000000000000000 0.0000000000000000
0.0000000000000000 1.0000000000000000 0.0000000000000000
0.0000000000000000 1.0000000000000000 0.0000000000000000
0.0000000000000000 1.0000000000000000 0.0000000000000000
0.0000000000000000 1.0000000000000000 0.0000000000000000
0.0000000000000000 1.0000000000000000 0.0000000000000000
0.0000000000000000 1.0000000000000000 0.0000000000000000
0.0000000000000000 1.0000000000000000 0.0000000000000000
0.0000000000000000 1.0000000000000000 0.0000000000000000
0.0000000000000000 1.0000000000000000 0.0000000000000000
0.0000000000000000 1.0000000000000000 0.0000000000000000
0.0000000000000000 1.0000000000000000 0.0000000000000000
0.0000000000000000 1.0000000000000000 0.0000000000000000
0.0000000000000000 1.0000000000000000 0.0000000000000000
0.0000000000000000 1.0000000000000000 0.0000000000000000
0.0000000000000000 1.0000000000000000 0.0000000000000000
0.0000000000000000 1.0000000000000000 0.0000000000000000
0.0000000000000000 1.0000000000000000 0.0000000000000000
0.0000000000000000 1.0000000000000000 0.0000000000000000
0.0000000000000000 1.0000000000000000 0.0000000000000000
0.0000000000000000 1.0000000000000000 0.0000000000000000
0.0000000000000000 1.0000000000000000 0.0000000000000000
0.0000000000000000 1.0000000000000000 0.0000000000000000
0.0000000000000000 1.0000000000000000 0.0000000000000000
0.0000000000000000 1.0000000000000000 0.0000000000000000
0.0000000000000000 1.0000000000000000 0.0000000000000000
0.0000000000000000 1.0000000000000000 0.0000000000000000
0.0000000000000000 1.0000000000000000 0.0000000000000000
0.0000000000000000 1.0000000000000000 0.0000000000000000
0.0000000000000000 1.0000000000000000 0.0000000000000000
0.0000000000000000 1.0000000000000000 0.0000000000000000
0.0000000000000000 1.0000000000000000 0.0000000000000000
0.0000000000000000 1.0000000000000000 0.0000000000000000
0.0000000000000000 1.0000000000000000 0.0000000000000000
0.0000000000000000 1.0000000000000000 0.0000000000000000
0.0000000000000000 1.0000000000000000 0.0000000000000000
0.0000000000000000 1.0000000000000000 0.0000000000000000
0.0000000000000000 1.0000000000000000 0.0000000000000000
0.0000000000000000 1.0000000000000000 0.0000000000000000
0.0000000000000000 1.0000000000000000 0.0000000000000000
0.0000000000000000 1.0000000000000000 0.0000000000000000
0.0000000000000000 1.0000000000000000 0.0000000000000000
0.0000000000000000 1.0000000000000000 0.0000000000000000
0.0000000000000000 1.0000000000000000 0.0000000000000000
0.0000000000000000 1.0000000000000000 0.0000000000000000
0.0000000000000000 1.0000000000000000 0.0000000000000000
0.0000000000000000 1.0000000000000000 0.0000000000000000
0.0000000000000000 1.0000000000000000 0.0000000000000000
0.0000000000000000 1.0000000000000000 0.0000000000000000
0.0000000000000000 1.0000000000000000 0.0000000000000000
0.0000000000000000 1.0000000000000000 0.0000000000000000
0.0000000000000000 1.0000000000000000 0.0000000000000000
0.0000000000000000 1.0000000000000000 0.0000000000000000
0.0000000000000000 1.0000000000000000 0.0000000000000000
0.0000000000000000 1.0000000000000000 0.0000000000000000
0.0000000000000000 1.0000000000000000 0.0000000000000000
0.0000000000000000 1.0000000000000000 0.0000000000000000
0.0000000000000000 1.0000000000000000 0.0000000000000000
0.0000000000000000 1.0000000000000000 0.0000000000000000
0.0000000000000000 1.0000000000000000 0.0000000000000000
0.0000000000000000 1.0000000000000000 0.0000000000000000
0.0000000000000000 1.0000000000000000 0.0000000000000000
0.0000000000000000 1.0000000000000000 0.0000000000000000
0.0000000000000000 1.0000000000000000 0.0000000000000000
0.0000000000000000 1.0000000000000000 0.0000000000000000
0.0000000000000000 1.0000000000000000 0.0000000000000000
0.0000000000000000 1.0000000000000000 0.0000000000000000
0.0000000000000000 1.0000000000000000 0.0000000000000000
0.0000000000000000 1.0000000000000000 0.0000000000000000
0.0000000000000000 1.0000000000000000 0.0000000000000000
0.0000000000000000 1.0000000000000000 0.0000000000000000
0.0000000000000000 1.0000000000000000 0.0000000000000000
0.0000000000000000 1.0000000000000000 0.0000000000000000
0.0000000000000000 1.0000000000000000 0.0000000000000000
0.0000000000000000 1.0000000000000000 0.0000000000000000
0.0000000000000000 1.0000000000000000 0.0000000000000000
0.0000000000000000 1.0000000000000000 0.0000000000000000
0.0000000000000000 1.0000000000000000 0.0000000000000000
0.0000000000000000 1.0000000000000000 0.0000000000000000
0.0000000000000000 1.0000000000000000 0.0000000000000000
0.0000000000000000 1.0000000000000000 0.0000000000000000
0.0000000000000000 1.0000000000000000 0.0000000000000000
0.0000000000000000 1.0000000000000000 0.0000000000000000
0.0000000000000000 1.0000000000000000 0.0000000000000000
0.0000000000000000 1.0000000000000000 0.0000000000000000
0.0000000000000000 1.0000000000000000 0.0000000000000000
0.0000000000000000 1.0000000000000000 0.0000000000000000
0.0000000000000000 1.0000000000000000 0.0000000000000000
0.0000000000000000 1.0000000000000000 0.0000000000000000
0.0000000000000000 1.0000000000000000 0.0000000000000000
0.0000000000000000 1.0000000000000000 0.0000000000000000
0.0000000000000000 1.0000000000000000 0.0000000000000000
0.0000000000000000 1.0000000000000000 0.0000000000000000
0.0000000000000000 1.0000000000000000 0.0000000000000000
0.0000000000000000 1.0000000000000000 0.0000000000000000
0.0000000000000000 1.0000000000000000 0.0000000000000000
0.0000000000000000 1.0000000000000000 0.0000000000000000
0.0000000000000000 1.0000000000000000 0.0000000000000000
0.0000000000000000 1.0000000000000000 0.0000000000000000
0.0000000000000000 1.0000000000000000 0.0000000000000000
0.0000000000000000 1.0000000000000000 0.0000000000000000
0.0000000000000000 1.0000000000000000 0.0000000000000000
0.0000000000000000 1.0000000000000000 0.0000000000000000
0.0000000000000000 1.0000000000000000 0.0000000000000000
0.0000000000000000 1.0000000000000000 0.0000000000000000
0.0000000000000000 1.0000000000000000 0.0000000000000000
0.0000000000000000 1.0000000000000000 0.0000000000000000
0.0000000000000000 1.0000000000000000 0.0000000000000000
0.0000000000000000 1.0000000000000000 0.0000000000000000
0.0000000000000000 1.0000000000000000 0.0000000000000000
0.0000000000000000 1.0000000000000000 0.0000000000000000
0.0000000000000000 1.0000000000000000 0.0000000000000000
0.0000000000000000 1.0000000000000000 0.0000000000000000
0.0000000000000000 1.0000000000000000 0.0000000000000000
0.0000000000000000 1.0000000000000000 0.0000000000000000
0.0000000000000000 1.0000000000000000 0.0000000000000000
0.0000000000000000 1.0000000000000000 0.0000000000000000
0.0000000000000000 1.0000000000000000 0.0000000000000000
0.0000000000000000 1.0000000000000000 0.0000000000000000
0.0000000000000000 1.0000000000000000 0.0000000000000000
0.0000000000000000 1.0000000000000000 0.0000000000000000
0.0000000000000000 1.0000000000000000 0.0000000000000000
0.0000000000000000 1.0000000000000000 0.0000000000000000
0.0000000000000000 1.0000000000000000 0.0000000000000000
0.0000000000000000 1.0000000000000000 0.0000000000000000
0.0000000000000000 1.0000000000000000 0.0000000000000000
0.0000000000000000 1.0000000000000000 0.0000000000000000
0.0000000000000000 1.0000000000000000 0.0000000000000000
0.0000000000000000 1.0000000000000000 0.0000000000000000
0.0000000000000000 1.0000000000000000 0.0000000000000000
0.0000000000000000 1.0000000000000000 0.0000000000000000
0.0000000000000000 1.0000000000000000 0.0000000000000000
0.0000000000000000 1.0000000000000000 0.0000000000000000
0.0000000000000000 1.0000000000000000 0.0000000000000000
0.0000000000000000 1.0000000000000000 0.0000000000000000
0.0000000000000000 1.0000000000000000 0.0000000000000000
0.0000000000000000 1.0000000000000000 0.0000000000000000
0.0000000000000000 1.0000000000000000 0.0000000000000000
0.0000000000000000 1.0000000000000000 0.0000000000000000
0.0000000000000000 1.0000000000000000 0.0000000000000000
0.0000000000000000 1.0000000000000000 0.0000000000000000
0.0000000000000000 1.0000000000000000 0.0000000000000000
0.0000000000000000 1.0000000000000000 0.0000000000000000
0.0000000000000000 1.0000000000000000 0.0000000000000000
0.0000000000000000 1.0000000000000000 0.0000000000000000
0.0000000000000000 1.0000000000000000 0.0000000000000000
0.0000000000000000 1.0000000000000000 0.0000000000000000
0.0000000000000000 1.0000000000000000 0.0000000000000000
0.0000000000000000 1.0000000000000000 0.0000000000000000
0.0000000000000000 1.0000000000000000 0.0000000000000000
0.0000000000000000 1.0000000000000000 0.0000000000000000
0.0000000000000000 1.0000000000000000 0.0000000000000000
0.0000000000000000 1.0000000000000000 0.0000000000000000
0.0000000000000000 1.0000000000000000 0.0000000000000000
0.0000000000000000 1.0000000000000000 0.0000000000000000
0.0000000000000000 1.0000000000000000 0.0000000000000000
0.0000000000000000 1.0000000000000000 0.0000000000000000
0.0000000000000000 1.0000000000000000 0.0000000000000000
0.0000000000000000 1.0000000000000000 0.0000000000000000
0.0000000000000000 1.0000000000000000 0.0000000000000000
0.0000000000000000 1.0000000000000000 0.0000000000000000
0.0000000000000000 1.0000000000000000 0.0000000000000000
0.0000000000000000 1.0000000000000000 0.0000000000000000
0.0000000000000000 1.0000000000000000 0.0000000000000000
0.0000000000000000 1.0000000000000000 0.0000000000000000
0.0000000000000000 1.0000000000000000 0.0000000000000000
0.0000000000000000 1.0000000000000000 0.0000000000000000
0.0000000000000000 1.0000000000000000 0.0000000000000000
0.0000000000000000 1.0000000000000000 0.0000000000000000
0.0000000000000000 1.0000000000000000 0.0000000000000000
0.0000000000000000 1.0000000000000000 0.0000000000000000
0.0000000000000000 1.0000000000000000 0.0000000000000000
0.0000000000000000 1.0000000000000000 0.0000000000000000
0.0000000000000000 1.0000000000000000 0.0000000000000000
0.0000000000000000 1.0000000000000000 0.0000000000000000
0.0000000000000000 1.0000000000000000 0.0000000000000000
0.0000000000000000 1.0000000000000000 0.0000000000000000
0.0000000000000000 1.0000000000000000 0.0000000000000000
0.0000000000000000 1.0000000000000000 0.0000000000000000
0.0000000000000000 1.0000000000000000 0.0000000000000000
0.0000000000000000 1.0000000000000000 0.0000000000000000
0.0000000000000000 1.0000000000000000 0.0000000000000000
0.0000000000000000 1.0000000000000000 0.0000000000000000
0.0000000000000000 1.0000000000000000 0.0000000000000000
0.0000000000000000 1.0000000000000000 0.0000000000000000
0.0000000000000000 1.0000000000000000 0.0000000000000000
0.0000000000000000 1.0000000000000000 0.0000000000000000
0.0000000000000000 1.0000000000000000 0.0000000000000000
0.0000000000000000 1.0000000000000000 0.0000000000000000
0.0000000000000000 1.0000000000000000 0.0000000000000000
0.0000000000000000 1.0000000000000000 0.0000000000000000
0.0000000000000000 1.0000000000000000 0.0000000000000000
0.0000000000000000 1.0000000000000000 0.0000000000000000
0.0000000000000000 1.0000000000000000 0.0000000000000000
0.0000000000000000 1.0000000000000000 0.0000000000000000
0.0000000000000000 1.0000000000000000 0.0000000000000000
0.0000000000000000 1.0000000000000000 0.0000000000000000
0.0000000000000000 1.0000000000000000 0.0000000000000000
0.0000000000000000 1.0000000000000000 0.0000000000000000
0.0000000000000000 1.0000000000000000 0.0000000000000000
0.0000000000000000 1.0000000000000000 0.0000000000000000
0.0000000000000000 1.0000000000000000 0.0000000000000000
0.0000000000000000 1.0000000000000000 0.0000000000000000
0.0000000000000000 1.0000000000000000 0.0000000000000000
0.0000000000000000 1.0000000000000000 0.0000000000000000
0.0000000000000000 1.0000000000000000 0.0000000000000000
0.0000000000000000 1.0000000000000000 0.0000000000000000
0.0000000000000000 1.0000000000000000 0.0000000000000000
0.0000000000000000 1.0000000000000000 0.0000000000000000
0.0000000000000000 1.0000000000000000 0.0000000000000000
0.0000000000000000 1.0000000000000000 0.0000000000000000
0.0000000000000000 1.0000000000000000 0.0000000000000000
0.0000000000000000 1.0000000000000000 0.0000000000000000
0.0000000000000000 1.0000000000000000 0.0000000000000000
0.0000000000000000 1.0000000000000000 0.0000000000000000
0.0000000000000000 1.0000000000000000 0.0000000000000000
0.0000000000000000 1.0000000000000000 0.0000000000000000
0.0000000000000000 1.0000000000000000 0.0000000000000000
0.0000000000000000 1.0000000000000000 0.0000000000000000
0.0000000000000000 1.0000000000000000 0.0000000000000000
0.0000000000000000 1.0000000000000000 0.0000000000000000
0.0000000000000000 1.0000000000000000 0.0000000000000000
0.0000000000000000 1.0000000000000000 0.0000000000000000
0.0000000000000000 1.0000000000000000 0.0000000000000000
0.0000000000000000 1.0000000000000000 0.0000000000000000
0.0000000000000000 1.0000000000000000 0.0000000000000000
0.0000000000000000 1.0000000000000000 0.0000000000000000
0.0000000000000000 1.0000000000000000 0.0000000000000000
0.0000000000000000 1.0000000000000000 0.0000000000000000
0.0000000000000000 1.0000000000000000 0.0000000000000000
0.0000000000000000 1.0000000000000000 0.0000000000000000
0.0000000000000000 1.0000000000000000 0.0000000000000000
0.0000000000000000 1.0000000000000000 0.0000000000000000
0.0000000000000000 1.0000000000000000 0.0000000000000000
0.0000000000000000 1.0000000000000000 0.0000000000000000
0.0000000000000000 1.0000000000000000 0.0000000000000000
0.0000000000000000 1.0000000000000000 0.0000000000000000
0.0000000000000000 1.0000000000000000 0.0000000000000000
0.0000000000000000 1.0000000000000000 0.0000000000000000
0.0000000000000000 1.0000000000000000 0.0000000000000000
0.0000000000000000 1.0000000000000000 0.0000000000000000
0.0000000000000000 1.0000000000000000 0.0000000000000000
0.0000000000000000 1.0000000000000000 0.0000000000000000
0.0000000000000000 1.0000000000000000 0.0000000000000000
0.0000000000000000 1.0000000000000000 0.0000000000000000
0.0000000000000000 1.0000000000000000 0.0000000000000000
0.0000000000000000 1.0000000000000000 0.0000000000000000
0.0000000000000000 1.0000000000000000 0.0000000000000000
0.0000000000000000 1.0000000000000000 0.0000000000000000
0.0000000000000000 1.0000000000000000 0.0000000000000000
0.0000000000000000 1.0000000000000000 0.0000000000000000
0.0000000000000000 1.0000000000000000 0.0000000000000000
0.0000000000000000 1.0000000000000000 0.0000000000000000
0.0000000000000000 1.0000000000000000 0.0000000000000000
0.0000000000000000 1.0000000000000000 0.0000000000000000
0.0000000000000000 1.0000000000000000 0.0000000000000000
0.0000000000000000 1.0000000000000000 0.0000000000000000
0.0000000000000000 1.0000000000000000 0.0000000000000000
0.0000000000000000 1.0000000000000000 0.0000000000000000
0.0000000000000000 1.0000000000000000 0.0000000000000000
0.0000000000000000 1.0000000000000000 0.0000000000000000
0.0000000000000000 1.0000000000000000 0.0000000000000000
0.0000000000000000 1.0000000000000000 0.0000000000000000
0.0000000000000000 1.0000000000000000 0.0000000000000000
0.0000000000000000 1.0000000000000000 0.0000000000000000
0.0000000000000000 1.0000000000000000 0.0000000000000000
0.0000000000000000 1.0000000000000000 0.0000000000000000
0.0000000000000000 1.0000000000000000 0.0000000000000000
0.0000000000000000 1.0000000000000000 0.0000000000000000
0.0000000000000000 1.0000000000000000 0.0000000000000000
0.0000000000000000 1.0000000000000000 0.0000000000000000
0.0000000000000000 1.0000000000000000 0.0000000000000000
0.0000000000000000 1.0000000000000000 0.0000000000000000
0.0000000000000000 1.0000000000000000 0.0000000000000000
0.0000000000000000 1.0000000000000000 0.0000000000000000
0.0000000000000000 1.0000000000000000 0.0000000000000000
0.0000000000000000 1.0000000000000000 0.0000000000000000
0.0000000000000000 1.0000000000000000 0.0000000000000000
0.0000000000000000 1.0000000000000000 0.0000000000000000
0.0000000000000000 1.0000000000000000 0.0000000000000000
0.0000000000000000 1.0000000000000000 0.0000000000000000
0.0000000000000000 1.0000000000000000 0.0000000000000000
0.0000000000000000 1.0000000000000000 0.0000000000000000
0.0000000000000000 1.0000000000000000 0.0000000000000000
0.0000000000000000 1.0000000000000000 0.0000000000000000
0.0000000000000000 1.0000000000000000 0.0000000000000000
0.0000000000000000 1.0000000000000000 0.0000000000000000
0.0000000000000000 1.0000000000000000 0.0000000000000000
0.0000000000000000 1.0000000000000000 0.0000000000000000
0.0000000000000000 1.0000000000000000 0.0000000000000000
0.0000000000000000 1.0000000000000000 0.0000000000000000
0.0000000000000000 1.0000000000000000 0.0000000000000000
0.0000000000000000 1.0000000000000000 0.0000000000000000
0.0000000000000000 1.0000000000000000 0.0000000000000000
0.0000000000000000 1.0000000000000000 0.0000000000000000
0.0000000000000000 1.0000000000000000 0.0000000000000000
0.0000000000000000 1.0000000000000000 0.0000000000000000
0.0000000000000000 1.0000000000000000 0.0000000000000000
0.0000000000000000 1.0000000000000000 0.0000000000000000
0.0000000000000000 1.0000000000000000 0.0000000000000000
0.0000000000000000 1.0000000000000000 0.0000000000000000
0.0000000000000000 1.0000000000000000 0.0000000000000000
0.0000000000000000 1.0000000000000000 0.0000000000000000
0.0000000000000000 1.0000000000000000 0.0000000000000000
0.0000000000000000 1.0000000000000000 0.0000000000000000
0.0000000000000000 1.0000000000000000 0.0000000000000000
0.0000000000000000 1.0000000000000000 0.0000000000000000
0.0000000000000000 1.0000000000000000 0.0000000000000000
0.0000000000000000 1.0000000000000000 0.0000000000000000
0.0000000000000000 1.0000000000000000 0.0000000000000000
0.0000000000000000 1.0000000000000000 0.0000000000000000
0.0000000000000000 1.0000000000000000 0.0000000000000000
0.0000000000000000 1.0000000000000000 0.0000000000000000
0.0000000000000000 1.0000000000000000 0.0000000000000000
0.0000000000000000 1.0000000000000000 0.0000000000000000
0.0000000000000000 1.0000000000000000 0.0000000000000000
0.0000000000000000 1.0000000000000000 0.0000000000000000
0.0000000000000000 1.0000000000000000 0.0000000000000000
0.0000000000000000 1.0000000000000000 0.0000000000000000
0.0000000000000000 1.0000000000000000 0.0000000000000000
0.0000000000000000 1.0000000000000000 0.0000000000000000
0.0000000000000000 1.0000000000000000 0.0000000000000000
0.0000000000000000 1.0000000000000000 0.0000000000000000
0.0000000000000000 1.0000000000000000 0.0000000000000000
0.0000000000000000 1.0000000000000000 0.0000000000000000
0.0000000000000000 1.0000000000000000 0.0000000000000000
0.0000000000000000 1.0000000000000000 0.0000000000000000
0.0000000000000000 1.0000000000000000 0.0000000000000000
0.0000000000000000 1.0000000000000000 0.0000000000000000
0.0000000000000000 1.0000000000000000 0.0000000000000000
0.0000000000000000 1.0000000000000000 0.0000000000000000
0.0000000000000000 1.0000000000000000 0.0000000000000000
0.0000000000000000 1.0000000000000000 0.0000000000000000
0.0000000000000000 1.0000000000000000 0.0000000000000000
0.0000000000000000 1.0000000000000000 0.0000000000000000
0.0000000000000000 1.0000000000000000 0.0000000000000000
0.0000000000000000 1.0000000000000000 0.0000000000000000
0.0000000000000000 1.0000000000000000 0.0000000000000000
0.0000000000000000 1.0000000000000000 0.0000000000000000
0.0000000000000000 1.0000000000000000 0.0000000000000000
0.0000000000000000 1.0000000000000000 0.0000000000000000
0.0000000000000000 1.0000000000000000 0.0000000000000000
0.0000000000000000 1.0000000000000000 0.0000000000000000
0.0000000000000000 1.0000000000000000 0.0000000000000000
0.0000000000000000 1.0000000000000000 0.0000000000000000
0.0000000000000000 1.0000000000000000 0.0000000000000000
0.0000000000000000 1.0000000000000000 0.0000000000000000
0.0000000000000000 1.0000000000000000 0.0000000000000000
0.0000000000000000 1.0000000000000000 0.0000000000000000
0.0000000000000000 1.0000000000000000 0.0000000000000000
0.0000000000000000 1.0000000000000000 0.0000000000000000
0.0000000000000000 1.0000000000000000 0.0000000000000000
0.0000000000000000 1.0000000000000000 0.0000000000000000
0.0000000000000000 1.0000000000000000 0.0000000000000000
0.0000000000000000 1.0000000000000000 0.0000000000000000
0.0000000000000000 1.0000000000000000 0.0000000000000000
0.0000000000000000 1.0000000000000000 0.0000000000000000
0.0000000000000000 1.0000000000000000 0.0000000000000000
0.0000000000000000 1.0000000000000000 0.0000000000000000
0.0000000000000000 1.0000000000000000 0.0000000000000000
0.0000000000000000 1.0000000000000000 0.0000000000000000
0.0000000000000000 1.0000000000000000 0.0000000000000000
0.0000000000000000 1.0000000000000000 0.0000000000000000
0.0000000000000000 1.0000000000000000 0.0000000000000000
0.0000000000000000 1.0000000000000000 0.0000000000000000
0.0000000000000000 1.0000000000000000 0.0000000000000000
0.0000000000000000 1.0000000000000000 0.0000000000000000
0.0000000000000000 1.0000000000000000 0.0000000000000000
0.0000000000000000 1.0000000000000000 0.0000000000000000
0.0000000000000000 1.0000000000000000 0.0000000000000000
0.0000000000000000 1.0000000000000000 0.0000000000000000
0.0000000000000000 1.0000000000000000 0.0000000000000000
0.0000000000000000 1.0000000000000000 0.0000000000000000
0.0000000000000000 1.0000000000000000 0.0000000000000000
0.0000000000000000 1.0000000000000000 0.0000000000000000
0.0000000000000000 1.0000000000000000 0.0000000000000000
0.0000000000000000 1.0000000000000000 0.0000000000000000
0.0000000000000000 1.0000000000000000 0.0000000000000000
0.0000000000000000 1.0000000000000000 0.0000000000000000
0.0000000000000000 1.0000000000000000 0.0000000000000000
0.0000000000000000 1.0000000000000000 0.0000000000000000
0.0000000000000000 1.0000000000000000 0.0000000000000000
0.0000000000000000 1.0000000000000000 0.0000000000000000
0.0000000000000000 1.0000000000000000 0.0000000000000000
0.0000000000000000 1.0000000000000000 0.0000000000000000
0.0000000000000000 1.0000000000000000 0.0000000000000000
0.0000000000000000 1.0000000000000000 0.0000000000000000
0.0000000000000000 1.0000000000000000 0.0000000000000000
0.0000000000000000 1.0000000000000000 0.0000000000000000
0.0000000000000000 1.0000000000000000 0.0000000000000000
0.0000000000000000 1.0000000000000000 0.0000000000000000
0.0000000000000000 1.0000000000000000 0.0000000000000000
0.0000000000000000 1.0000000000000000 0.0000000000000000
0.0000000000000000 1.0000000000000000 0.0000000000000000
0.0000000000000000 1.0000000000000000 0.0000000000000000
0.0000000000000000 1.0000000000000000 0.0000000000000000
0.0000000000000000 1.0000000000000000 0.0000000000000000
0.0000000000000000 1.0000000000000000 0.0000000000000000
0.0000000000000000 1.0000000000000000 0.0000000000000000
0.0000000000000000 1.0000000000000000 0.0000000000000000
0.0000000000000000 1.0000000000000000 0.0000000000000000
0.0000000000000000 1.0000000000000000 0.0000000000000000
0.0000000000000000 1.0000000000000000 0.0000000000000000
0.0000000000000000 1.0000000000000000 0.0000000000000000
0.0000000000000000 1.0000000000000000 0.0000000000000000
0.0000000000000000 1.0000000000000000 0.0000000000000000
0.0000000000000000 1.0000000000000000 0.0000000000000000
0.0000000000000000 1.0000000000000000 0.0000000000000000
0.0000000000000000 1.0000000000000000 0.0000000000000000
0.0000000000000000 1.0000000000000000 0.0000000000000000
0.0000000000000000 1.0000000000000000 0.0000000000000000
0.0000000000000000 1.0000000000000000 0.0000000000000000
0.0000000000000000 1.0000000000000000 0.0000000000000000
0.0000000000000000 1.0000000000000000 0.0000000000000000
0.0000000000000000 1.0000000000000000 0.0000000000000000
0.0000000000000000 1.0000000000000000 0.0000000000000000
0.0000000000000000 1.0000000000000000 0.0000000000000000
0.0000000000000000 1.0000000000000000 0.0000000000000000
0.0000000000000000 1.0000000000000000 0.0000000000000000
0.0000000000000000 1.0000000000000000 0.0000000000000000
0.0000000000000000 1.0000000000000000 0.0000000000000000
0.0000000000000000 1.0000000000000000 0.0000000000000000
0.0000000000000000 1.0000000000000000 0.0000000000000000
0.0000000000000000 1.0000000000000000 0.0000000000000000
0.0000000000000000 1.0000000000000000 0.0000000000000000
0.0000000000000000 1.0000000000000000 0.0000000000000000
0.0000000000000000 1.0000000000000000 0.0000000000000000
0.0000000000000000 1.0000000000000000 0.0000000000000000
0.0000000000000000 1.0000000000000000 0.0000000000000000
0.0000000000000000 1.0000000000000000 0.0000000000000000
0.0000000000000000 1.0000000000000000 0.0000000000000000
0.0000000000000000 1.0000000000000000 0.0000000000000000
0.0000000000000000 1.0000000000000000 0.0000000000000000
0.0000000000000000 1.0000000000000000 0.0000000000000000
0.0000000000000000 1.0000000000000000 0.0000000000000000
0.0000000000000000 1.0000000000000000 0.0000000000000000
0.0000000000000000 1.0000000000000000 0.0000000000000000
0.0000000000000000 1.0000000000000000 0.0000000000000000
0.0000000000000000 1.0000000000000000 0.0000000000000000
0.0000000000000000 1.0000000000000000 0.0000000000000000
0.0000000000000000 1.0000000000000000 0.0000000000000000
0.0000000000000000 1.0000000000000000 0.0000000000000000
0.0000000000000000 1.0000000000000000 0.0000000000000000
0.0000000000000000 1.0000000000000000 0.0000000000000000
0.0000000000000000 1.0000000000000000 0.0000000000000000
0.0000000000000000 1.0000000000000000 0.0000000000000000
0.0000000000000000 1.0000000000000000 0.0000000000000000
0.0000000000000000 1.0000000000000000 0.0000000000000000
0.0000000000000000 1.0000000000000000 0.0000000000000000
0.0000000000000000 1.0000000000000000 0.0000000000000000
0.0000000000000000 1.0000000000000000 0.0000000000000000
0.0000000000000000 1.0000000000000000 0.0000000000000000
0.0000000000000000 1.0000000000000000 0.0000000000000000
0.0000000000000000 1.0000000000000000 0.0000000000000000
0.0000000000000000 1.0000000000000000 0.0000000000000000
0.0000000000000000 1.0000000000000000 0.0000000000000000
0.0000000000000000 1.0000000000000000 0.0000000000000000
0.0000000000000000 1.0000000000000000 0.0000000000000000
0.0000000000000000 1.0000000000000000 0.0000000000000000
0.0000000000000000 1.0000000000000000 0.0000000000000000
0.0000000000000000 1.0000000000000000 0.0000000000000000
0.0000000000000000 1.0000000000000000 0.0000000000000000
0.0000000000000000 1.0000000000000000 0.0000000000000000
0.0000000000000000 1.0000000000000000 0.0000000000000000
0.0000000000000000 1.0000000000000000 0.0000000000000000
0.0000000000000000 1.0000000000000000 0.0000000000000000
0.0000000000000000 1.0000000000000000 0.0000000000000000
0.0000000000000000 1.0000000000000000 0.0000000000000000
0.0000000000000000 1.0000000000000000 0.0000000000000000
0.0000000000000000 1.0000000000000000 0.0000000000000000
0.0000000000000000 1.0000000000000000 0.0000000000000000
0.0000000000000000 1.0000000000000000 0.0000000000000000
0.0000000000000000 1.0000000000000000 0.0000000000000000
0.0000000000000000 1.0000000000000000 0.0000000000000000
0.0000000000000000 1.0000000000000000 0.0000000000000000
0.0000000000000000 1.0000000000000000 0.0000000000000000
0.0000000000000000 1.0000000000000000 0.0000000000000000
0.0000000000000000 1.0000000000000000 0.0000000000000000
0.0000000000000000 1.0000000000000000 0.0000000000000000
0.0000000000000000 1.0000000000000000 0.0000000000000000
0.0000000000000000 1.0000000000000000 0.0000000000000000
0.0000000000000000 1.0000000000000000 0.0000000000000000
0.0000000000000000 1.0000000000000000 0.0000000000000000
0.0000000000000000 1.0000000000000000 0.0000000000000000
0.0000000000000000 1.0000000000000000 0.0000000000000000
0.0000000000000000 1.0000000000000000 0.0000000000000000
0.0000000000000000 1.0000000000000000 0.0000000000000000
0.0000000000000000 1.0000000000000000 0.0000000000000000
0.0000000000000000 1.0000000000000000 0.0000000000000000
0.0000000000000000 1.0000000000000000 0.0000000000000000
0.0000000000000000 1.0000000000000000 0.0000000000000000
0.0000000000000000 1.0000000000000000 0.0000000000000000
0.0000000000000000 1.0000000000000000 0.0000000000000000
0.0000000000000000 1.0000000000000000 0.0000000000000000
0.0000000000000000 1.0000000000000000 0.0000000000000000
0.0000000000000000 1.0000000000000000 0.0000000000000000
0.0000000000000000 1.0000000000000000 0.0000000000000000
0.0000000000000000 1.0000000000000000 0.0000000000000000
0.0000000000000000 1.0000000000000000 0.0000000000000000
0.0000000000000000 1.0000000000000000 0.0000000000000000
0.0000000000000000 1.0000000000000000 0.0000000000000000
0.0000000000000000 1.0000000000000000 0.0000000000000000
0.0000000000000000 1.0000000000000000 0.0000000000000000
0.0000000000000000 1.0000000000000000 0.0000000000000000
0.0000000000000000 1.0000000000000000 0.0000000000000000
0.0000000000000000 1.0000000000000000 0.0000000000000000
0.0000000000000000 1.0000000000000000 0.0000000000000000
0.0000000000000000 1.0000000000000000 0.0000000000000000
0.0000000000000000 1.0000000000000000 0.0000000000000000
0.0000000000000000 1.0000000000000000 0.0000000000000000
0.0000000000000000 1.0000000000000000 0.0000000000000000
0.0000000000000000 1.0000000000000000 0.0000000000000000
0.0000000000000000 1.0000000000000000 0.0000000000000000
0.0000000000000000 1.0000000000000000 0.0000000000000000
0.0000000000000000 1.0000000000000000 0.0000000000000000
0.0000000000000000 1.0000000000000000 0.0000000000000000
0.0000000000000000 1.0000000000000000 0.0000000000000000
0.0000000000000000 1.0000000000000000 0.0000000000000000
0.0000000000000000 1.0000000000000000 0.0000000000000000
0.0000000000000000 1.0000000000000000 0.0000000000000000
0.0000000000000000 1.0000000000000000 0.0000000000000000
0.0000000000000000 1.0000000000000000 0.0000000000000000
0.0000000000000000 1.0000000000000000 0.0000000000000000
0.0000000000000000 1.0000000000000000 0.0000000000000000
0.0000000000000000 1.0000000000000000 0.0000000000000000
0.0000000000000000 1.0000000000000000 0.0000000000000000
0.0000000000000000 1.0000000000000000 0.0000000000000000
0.0000000000000000 1.0000000000000000 0.0000000000000000
0.0000000000000000 1.0000000000000000 0.0000000000000000
0.0000000000000000 1.0000000000000000 0.0000000000000000
0.0000000000000000 1.0000000000000000 0.0000000000000000
0.0000000000000000 1.0000000000000000 0.0000000000000000
0.0000000000000000 1.0000000000000000 0.0000000000000000
0.0000000000000000 1.0000000000000000 0.0000000000000000
0.0000000000000000 1.0000000000000000 0.0000000000000000
0.0000000000000000 1.0000000000000000 0.0000000000000000
0.0000000000000000 1.0000000000000000 0.0000000000000000
0.0000000000000000 1.0000000000000000 0.0000000000000000
0.0000000000000000 1.0000000000000000 0.0000000000000000
0.0000000000000000 1.0000000000000000 0.0000000000000000
0.0000000000000000 1.0000000000000000 0.0000000000000000
0.0000000000000000 1.0000000000000000 0.0000000000000000
0.0000000000000000 1.0000000000000000 0.0000000000000000
0.0000000000000000 1.0000000000000000 0.0000000000000000
0.0000000000000000 1.0000000000000000 0.0000000000000000
0.0000000000000000 1.0000000000000000 0.0000000000000000
0.0000000000000000 1.0000000000000000 0.0000000000000000
0.0000000000000000 1.0000000000000000 0.0000000000000000
0.0000000000000000 1.0000000000000000 0.0000000000000000
0.0000000000000000 1.0000000000000000 0.0000000000000000
0.0000000000000000 1.0000000000000000 0.0000000000000000
0.0000000000000000 1.0000000000000000 0.0000000000000000
0.0000000000000000 1.0000000000000000 0.0000000000000000
0.0000000000000000 1.0000000000000000 0.0000000000000000
0.0000000000000000 1.0000000000000000 0.0000000000000000
0.0000000000000000 1.0000000000000000 0.0000000000000000
0.0000000000000000 1.0000000000000000 0.0000000000000000
0.0000000000000000 1.0000000000000000 0.0000000000000000
0.0000000000000000 1.0000000000000000 0.0000000000000000
0.0000000000000000 1.0000000000000000 0.0000000000000000
0.0000000000000000 1.0000000000000000 0.0000000000000000
0.0000000000000000 1.0000000000000000 0.0000000000000000
0.0000000000000000 1.0000000000000000 0.0000000000000000
0.0000000000000000 1.0000000000000000 0.0000000000000000
0.0000000000000000 1.0000000000000000 0.0000000000000000
0.0000000000000000 1.0000000000000000 0.0000000000000000
0.0000000000000000 1.0000000000000000 0.0000000000000000
0.0000000000000000 1.0000000000000000 0.0000000000000000
0.0000000000000000 1.0000000000000000 0.0000000000000000
0.0000000000000000 1.0000000000000000 0.0000000000000000
0.0000000000000000 1.0000000000000000 0.0000000000000000
0.0000000000000000 1.0000000000000000 0.0000000000000000
0.0000000000000000 1.0000000000000000 0.0000000000000000
0.0000000000000000 1.0000000000000000 0.0000000000000000
0.0000000000000000 1.0000000000000000 0.0000000000000000
0.0000000000000000 1.0000000000000000 0.0000000000000000
0.0000000000000000 1.0000000000000000 0.0000000000000000
0.0000000000000000 1.0000000000000000 0.0000000000000000
0.0000000000000000 1.0000000000000000 0.0000000000000000
0.0000000000000000 1.0000000000000000 0.0000000000000000
0.0000000000000000 1.0000000000000000 0.0000000000000000
0.0000000000000000 1.0000000000000000 0.0000000000000000
0.0000000000000000 1.0000000000000000 0.0000000000000000
0.0000000000000000 1.0000000000000000 0.0000000000000000
0.0000000000000000 1.0000000000000000 0.0000000000000000
0.0000000000000000 1.0000000000000000 0.0000000000000000
0.0000000000000000 1.0000000000000000 0.0000000000000000
0.0000000000000000 1.0000000000000000 0.0000000000000000
0.0000000000000000 1.0000000000000000 0.0000000000000000
0.0000000000000000 1.0000000000000000 0.0000000000000000
0.0000000000000000 1.0000000000000000 0.0000000000000000
0.0000000000000000 1.0000000000000000 0.0000000000000000
0.0000000000000000 1.0000000000000000 0.0000000000000000
0.0000000000000000 1.0000000000000000 0.0000000000000000
0.0000000000000000 1.0000000000000000 0.0000000000000000
0.0000000000000000 1.0000000000000000 0.0000000000000000
0.0000000000000000 1.0000000000000000 0.0000000000000000
0.0000000000000000 1.0000000000000000 0.0000000000000000
0.0000000000000000 1.0000000000000000 0.0000000000000000
0.0000000000000000 1.0000000000000000 0.0000000000000000
0.0000000000000000 1.0000000000000000 0.0000000000000000
0.0000000000000000 1.0000000000000000 0.0000000000000000
0.0000000000000000 1.0000000000000000 0.0000000000000000
0.0000000000000000 1.0000000000000000 0.0000000000000000
0.0000000000000000 1.0000000000000000 0.0000000000000000
0.0000000000000000 1.0000000000000000 0.0000000000000000
0.0000000000000000 1.0000000000000000 0.0000000000000000
0.0000000000000000 1.0000000000000000 0.0000000000000000
0.0000000000000000 1.0000000000000000 0.0000000000000000
0.0000000000000000 1.0000000000000000 0.0000000000000000
0.0000000000000000 1.0000000000000000 0.0000000000000000
0.0000000000000000 1.0000000000000000 0.0000000000000000
0.0000000000000000 1.0000000000000000 0.0000000000000000
0.0000000000000000 1.0000000000000000 0.0000000000000000
0.0000000000000000 1.0000000000000000 0.0000000000000000
0.0000000000000000 1.0000000000000000 0.0000000000000000
0.0000000000000000 1.0000000000000000 0.0000000000000000
0.0000000000000000 1.0000000000000000 0.0000000000000000
0.0000000000000000 1.0000000000000000 0.0000000000000000
0.0000000000000000 1.0000000000000000 0.0000000000000000
0.0000000000000000 1.0000000000000000 0.0000000000000000
0.0000000000000000 1.0000000000000000 0.0000000000000000
0.0000000000000000 1.0000000000000000 0.0000000000000000
0.0000000000000000 1.0000000000000000 0.0000000000000000
0.0000000000000000 1.0000000000000000 0.0000000000000000
0.0000000000000000 1.0000000000000000 0.0000000000000000
0.0000000000000000 1.0000000000000000 0.0000000000000000
0.0000000000000000 1.0000000000000000 0.0000000000000000
0.0000000000000000 1.0000000000000000 0.0000000000000000
0.0000000000000000 1.0000000000000000 0.0000000000000000
0.0000000000000000 1.0000000000000000 0.0000000000000000
0.0000000000000000 1.0000000000000000 0.0000000000000000
0.0000000000000000 1.0000000000000000 0.0000000000000000
0.0000000000000000 1.0000000000000000 0.0000000000000000
0.0000000000000000 1.0000000000000000 0.0000000000000000
0.0000000000000000 1.0000000000000000 0.0000000000000000
0.0000000000000000 1.0000000000000000 0.0000000000000000
0.0000000000000000 1.0000000000000000 0.0000000000000000
0.0000000000000000 1.0000000000000000 0.0000000000000000
0.0000000000000000 1.0000000000000000 0.0000000000000000
0.0000000000000000 1.0000000000000000 0.0000000000000000
0.0000000000000000 1.0000000000000000 0.0000000000000000
0.0000000000000000 1.0000000000000000 0.0000000000000000
0.0000000000000000 1.0000000000000000 0.0000000000000000
0.0000000000000000 1.0000000000000000 0.0000000000000000
0.0000000000000000 1.0000000000000000 0.0000000000000000
0.0000000000000000 1.0000000000000000 0.0000000000000000
0.0000000000000000 1.0000000000000000 0.0000000000000000
0.0000000000000000 1.0000000000000000 0.0000000000000000
0.0000000000000000 1.0000000000000000 0.0000000000000000
0.0000000000000000 1.0000000000000000 0.0000000000000000
0.0000000000000000 1.0000000000000000 0.0000000000000000
0.0000000000000000 1.0000000000000000 0.0000000000000000
0.0000000000000000 1.0000000000000000 0.0000000000000000
0.0000000000000000 1.0000000000000000 0.0000000000000000
0.0000000000000000 1.0000000000000000 0.0000000000000000
0.0000000000000000 1.0000000000000000 0.0000000000000000
0.0000000000000000 1.0000000000000000 0.0000000000000000
0.0000000000000000 1.0000000000000000 0.0000000000000000
0.0000000000000000 1.0000000000000000 0.0000000000000000
0.0000000000000000 1.0000000000000000 0.0000000000000000
0.0000000000000000 1.0000000000000000 0.0000000000000000
0.0000000000000000 1.0000000000000000 0.0000000000000000
0.0000000000000000 1.0000000000000000 0.0000000000000000
0.0000000000000000 1.0000000000000000 0.0000000000000000
0.0000000000000000 1.0000000000000000 0.0000000000000000
0.0000000000000000 1.0000000000000000 0.0000000000000000
0.0000000000000000 1.0000000000000000 0.0000000000000000
0.0000000000000000 1.0000000000000000 0.0000000000000000
0.0000000000000000 1.0000000000000000 0.0000000000000000
0.0000000000000000 1.0000000000000000 0.0000000000000000
0.0000000000000000 1.0000000000000000 0.0000000000000000
0.0000000000000000 1.0000000000000000 0.0000000000000000
0.0000000000000000 1.0000000000000000 0.0000000000000000
0.0000000000000000 1.0000000000000000 0.0000000000000000
0.0000000000000000 1.0000000000000000 0.0000000000000000
0.0000000000000000 1.0000000000000000 0.0000000000000000
0.0000000000000000 1.0000000000000000 0.0000000000000000
0.0000000000000000 1.0000000000000000 0.0000000000000000
0.0000000000000000 1.0000000000000000 0.0000000000000000
0.0000000000000000 1.0000000000000000 0.0000000000000000
0.0000000000000000 1.0000000000000000 0.0000000000000000
0.0000000000000000 1.0000000000000000 0.0000000000000000
0.0000000000000000 1.0000000000000000 0.0000000000000000
0.0000000000000000 1.0000000000000000 0.0000000000000000
0.0000000000000000 1.0000000000000000 0.0000000000000000
0.0000000000000000 1.0000000000000000 0.0000000000000000
0.0000000000000000 1.0000000000000000 0.0000000000000000
0.0000000000000000 1.0000000000000000 0.0000000000000000
0.0000000000000000 1.0000000000000000 0.0000000000000000
0.0000000000000000 1.0000000000000000 0.0000000000000000
0.0000000000000000 1.0000000000000000 0.0000000000000000
0.0000000000000000 1.0000000000000000 0.0000000000000000
0.0000000000000000 1.0000000000000000 0.0000000000000000
0.0000000000000000 1.0000000000000000 0.0000000000000000
0.0000000000000000 1.0000000000000000 0.0000000000000000
0.0000000000000000 1.0000000000000000 0.0000000000000000
0.0000000000000000 1.0000000000000000 0.0000000000000000
0.0000000000000000 1.0000000000000000 0.0000000000000000
0.0000000000000000 1.0000000000000000 0.0000000000000000
0.0000000000000000 1.0000000000000000 0.0000000000000000
0.0000000000000000 1.0000000000000000 0.0000000000000000
0.0000000000000000 1.0000000000000000 0.0000000000000000
0.0000000000000000 1.0000000000000000 0.0000000000000000
0.0000000000000000 1.0000000000000000 0.0000000000000000
0.0000000000000000 1.0000000000000000 0.0000000000000000
0.0000000000000000 1.0000000000000000 0.0000000000000000
0.0000000000000000 1.0000000000000000 0.0000000000000000
0.0000000000000000 1.0000000000000000 0.0000000000000000
0.0000000000000000 1.0000000000000000 0.0000000000000000
0.0000000000000000 1.0000000000000000 0.0000000000000000
0.0000000000000000 1.0000000000000000 0.0000000000000000
0.0000000000000000 1.0000000000000000 0.0000000000000000
0.0000000000000000 1.0000000000000000 0.0000000000000000
0.0000000000000000 1.0000000000000000 0.0000000000000000
0.0000000000000000 1.0000000000000000 0.0000000000000000
0.0000000000000000 1.0000000000000000 0.0000000000000000
0.0000000000000000 1.0000000000000000 0.0000000000000000
0.0000000000000000 1.0000000000000000 0.0000000000000000
0.0000000000000000 1.0000000000000000 0.0000000000000000
0.0000000000000000 1.0000000000000000 0.0000000000000000
0.0000000000000000 1.0000000000000000 0.0000000000000000
0.0000000000000000 1.0000000000000000 0.0000000000000000
0.0000000000000000 1.0000000000000000 0.0000000000000000
0.0000000000000000 1.0000000000000000 0.0000000000000000
0.0000000000000000 1.0000000000000000 0.0000000000000000
0.0000000000000000 1.0000000000000000 0.0000000000000000
0.0000000000000000 1.0000000000000000 0.0000000000000000
0.0000000000000000 1.0000000000000000 0.0000000000000000
0.0000000000000000 1.0000000000000000 0.0000000000000000
0.0000000000000000 1.0000000000000000 0.0000000000000000
0.0000000000000000 1.0000000000000000 0.0000000000000000
0.0000000000000000 1.0000000000000000 0.0000000000000000
0.0000000000000000 1.0000000000000000 0.0000000000000000
0.0000000000000000 1.0000000000000000 0.0000000000000000
0.0000000000000000 1.0000000000000000 0.0000000000000000
0.0000000000000000 1.0000000000000000 0.0000000000000000
0.0000000000000000 1.0000000000000000 0.0000000000000000
0.0000000000000000 1.0000000000000000 0.0000000000000000
0.0000000000000000 1.0000000000000000 0.0000000000000000
0.0000000000000000 1.0000000000000000 0.0000000000000000
0.0000000000000000 1.0000000000000000 0.0000000000000000
0.0000000000000000 1.0000000000000000 0.0000000000000000
0.0000000000000000 1.0000000000000000 0.0000000000000000
0.0000000000000000 1.0000000000000000 0.0000000000000000
0.0000000000000000 1.0000000000000000 0.0000000000000000
0.0000000000000000 1.0000000000000000 0.0000000000000000
0.0000000000000000 1.0000000000000000 0.0000000000000000
0.0000000000000000 1.0000000000000000 0.0000000000000000
0.0000000000000000 1.0000000000000000 0.0000000000000000
0.0000000000000000 1.0000000000000000 0.0000000000000000
0.0000000000000000 1.0000000000000000 0.0000000000000000
0.0000000000000000 1.0000000000000000 0.0000000000000000
0.0000000000000000 1.0000000000000000 0.0000000000000000
0.0000000000000000 1.0000000000000000 0.0000000000000000
0.0000000000000000 1.0000000000000000 0.0000000000000000
0.0000000000000000 1.0000000000000000 0.0000000000000000
0.0000000000000000 1.0000000000000000 0.0000000000000000
0.0000000000000000 1.0000000000000000 0.0000000000000000
0.0000000000000000 1.0000000000000000 0.0000000000000000
0.0000000000000000 1.0000000000000000 0.0000000000000000
0.0000000000000000 1.0000000000000000 0.0000000000000000
0.0000000000000000 1.0000000000000000 0.0000000000000000
0.0000000000000000 1.0000000000000000 0.0000000000000000
0.0000000000000000 1.0000000000000000 0.0000000000000000
0.0000000000000000 1.0000000000000000 0.0000000000000000
0.0000000000000000 1.0000000000000000 0.0000000000000000
0.0000000000000000 1.0000000000000000 0.0000000000000000
0.0000000000000000 1.0000000000000000 0.0000000000000000
0.0000000000000000 1.0000000000000000 0.0000000000000000
0.0000000000000000 1.0000000000000000 0.0000000000000000
0.0000000000000000 1.0000000000000000 0.0000000000000000
0.0000000000000000 1.0000000000000000 0.0000000000000000
0.0000000000000000 1.0000000000000000 0.0000000000000000
0.0000000000000000 1.0000000000000000 0.0000000000000000
0.0000000000000000 1.0000000000000000 0.0000000000000000
0.0000000000000000 1.0000000000000000 0.0000000000000000
0.0000000000000000 1.0000000000000000 0.0000000000000000
0.0000000000000000 1.0000000000000000 0.0000000000000000
0.0000000000000000 1.0000000000000000 0.0000000000000000
0.0000000000000000 1.0000000000000000 0.0000000000000000
0.0000000000000000 1.0000000000000000 0.0000000000000000
0.0000000000000000 1.0000000000000000 0.0000000000000000
0.0000000000000000 1.0000000000000000 0.0000000000000000
0.0000000000000000 1.0000000000000000 0.0000000000000000
0.0000000000000000 1.0000000000000000 0.0000000000000000
0.0000000000000000 1.0000000000000000 0.0000000000000000
0.0000000000000000 1.0000000000000000 0.0000000000000000
0.0000000000000000 1.0000000000000000 0.0000000000000000
0.0000000000000000 1.0000000000000000 0.0000000000000000
0.0000000000000000 1.0000000000000000 0.0000000000000000
0.0000000000000000 1.0000000000000000 0.0000000000000000
0.0000000000000000 1.0000000000000000 0.0000000000000000
0.0000000000000000 1.0000000000000000 0.0000000000000000
0.0000000000000000 1.0000000000000000 0.0000000000000000
0.0000000000000000 1.0000000000000000 0.0000000000000000
0.0000000000000000 1.0000000000000000 0.0000000000000000
0.0000000000000000 1.0000000000000000 0.0000000000000000
0.0000000000000000 1.0000000000000000 0.0000000000000000
0.0000000000000000 1.0000000000000000 0.0000000000000000
0.0000000000000000 1.0000000000000000 0.0000000000000000
0.0000000000000000 1.0000000000000000 0.0000000000000000
0.0000000000000000 1.0000000000000000 0.0000000000000000
0.0000000000000000 1.0000000000000000 0.0000000000000000
0.0000000000000000 1.0000000000000000 0.0000000000000000
0.0000000000000000 1.0000000000000000 0.0000000000000000
0.0000000000000000 1.0000000000000000 0.0000000000000000
0.0000000000000000 1.0000000000000000 0.0000000000000000
0.0000000000000000 1.0000000000000000 0.0000000000000000
0.0000000000000000 1.0000000000000000 0.0000000000000000
0.0000000000000000 1.0000000000000000 0.0000000000000000
0.0000000000000000 1.0000000000000000 0.0000000000000000
0.0000000000000000 1.0000000000000000 0.0000000000000000
0.0000000000000000 1.0000000000000000 0.0000000000000000
0.0000000000000000 1.0000000000000000 0.0000000000000000
0.0000000000000000 1.0000000000000000 0.0000000000000000
0.0000000000000000 1.0000000000000000 0.0000000000000000
0.0000000000000000 1.0000000000000000 0.0000000000000000
0.0000000000000000 1.0000000000000000 0.0000000000000000
0.0000000000000000 1.0000000000000000 0.0000000000000000
0.0000000000000000 1.0000000000000000 0.0000000000000000
0.0000000000000000 1.0000000000000000 0.0000000000000000
0.0000000000000000 1.0000000000000000 0.0000000000000000
0.0000000000000000 1.0000000000000000 0.0000000000000000
0.0000000000000000 1.0000000000000000 0.0000000000000000
0.0000000000000000 1.0000000000000000 0.0000000000000000
0.0000000000000000 1.0000000000000000 0.0000000000000000
0.0000000000000000 1.0000000000000000 0.0000000000000000
0.0000000000000000 1.0000000000000000 0.0000000000000000
0.0000000000000000 1.0000000000000000 0.0000000000000000
0.0000000000000000 1.0000000000000000 0.0000000000000000
0.0000000000000000 1.0000000000000000 0.0000000000000000
0.0000000000000000 1.0000000000000000 0.0000000000000000
0.0000000000000000 1.0000000000000000 0.0000000000000000
0.0000000000000000 1.0000000000000000 0.0000000000000000
0.0000000000000000 1.0000000000000000 0.0000000000000000
0.0000000000000000 1.0000000000000000 0.0000000000000000
0.0000000000000000 1.0000000000000000 0.0000000000000000
0.0000000000000000 1.0000000000000000 0.0000000000000000
0.0000000000000000 1.0000000000000000 0.0000000000000000
0.0000000000000000 1.0000000000000000 0.0000000000000000
0.0000000000000000 1.0000000000000000 0.0000000000000000
0.0000000000000000 1.0000000000000000 0.0000000000000000
0.0000000000000000 1.0000000000000000 0.0000000000000000
0.0000000000000000 1.0000000000000000 0.0000000000000000
0.0000000000000000 1.0000000000000000 0.0000000000000000
0.0000000000000000 1.0000000000000000 0.0000000000000000
0.0000000000000000 1.0000000000000000 0.0000000000000000
0.0000000000000000 1.0000000000000000 0.0000000000000000
0.0000000000000000 1.0000000000000000 0.0000000000000000
0.0000000000000000 1.0000000000000000 0.0000000000000000
0.0000000000000000 1.0000000000000000 0.0000000000000000
0.0000000000000000 1.0000000000000000 0.0000000000000000
0.0000000000000000 1.0000000000000000 0.0000000000000000
0.0000000000000000 1.0000000000000000 0.0000000000000000
0.0000000000000000 1.0000000000000000 0.0000000000000000
0.0000000000000000 1.0000000000000000 0.0000000000000000
0.0000000000000000 1.0000000000000000 0.0000000000000000
0.0000000000000000 1.0000000000000000 0.0000000000000000
0.0000000000000000 1.0000000000000000 0.0000000000000000
0.0000000000000000 1.0000000000000000 0.0000000000000000
0.0000000000000000 1.0000000000000000 0.0000000000000000
0.0000000000000000 1.0000000000000000 0.0000000000000000
0.0000000000000000 1.0000000000000000 0.0000000000000000
0.0000000000000000 1.0000000000000000 0.0000000000000000
0.0000000000000000 1.0000000000000000 0.0000000000000000
0.0000000000000000 1.0000000000000000 0.0000000000000000
0.0000000000000000 1.0000000000000000 0.0000000000000000
0.0000000000000000 1.0000000000000000 0.0000000000000000
0.0000000000000000 1.0000000000000000 0.0000000000000000
0.0000000000000000 1.0000000000000000 0.0000000000000000
0.0000000000000000 1.0000000000000000 0.0000000000000000
0.0000000000000000 1.0000000000000000 0.0000000000000000
0.0000000000000000 1.0000000000000000 0.0000000000000000
0.0000000000000000 1.0000000000000000 0.0000000000000000
0.0000000000000000 1.0000000000000000 0.0000000000000000
0.0000000000000000 1.0000000000000000 0.0000000000000000
0.0000000000000000 1.0000000000000000 0.0000000000000000
0.0000000000000000 1.0000000000000000 0.0000000000000000
0.0000000000000000 1.0000000000000000 0.0000000000000000
0.0000000000000000 1.0000000000000000 0.0000000000000000
0.0000000000000000 1.0000000000000000 0.0000000000000000
0.0000000000000000 1.0000000000000000 0.0000000000000000
0.0000000000000000 1.0000000000000000 0.0000000000000000
0.0000000000000000 1.0000000000000000 0.0000000000000000
0.0000000000000000 1.0000000000000000 0.0000000000000000
0.0000000000000000 1.0000000000000000 0.0000000000000000
0.0000000000000000 1.0000000000000000 0.0000000000000000
0.0000000000000000 1.0000000000000000 0.0000000000000000
0.0000000000000000 1.0000000000000000 0.0000000000000000
0.0000000000000000 1.0000000000000000 0.0000000000000000
0.0000000000000000 1.0000000000000000 0.0000000000000000
0.0000000000000000 1.0000000000000000 0.0000000000000000
0.0000000000000000 1.0000000000000000 0.0000000000000000
0.0000000000000000 1.0000000000000000 0.0000000000000000
0.0000000000000000 1.0000000000000000 0.0000000000000000
0.0000000000000000 1.0000000000000000 0.0000000000000000
0.0000000000000000 1.0000000000000000 0.0000000000000000
0.0000000000000000 1.0000000000000000 0.0000000000000000
0.0000000000000000 1.0000000000000000 0.0000000000000000
0.0000000000000000 1.0000000000000000 0.0000000000000000
0.0000000000000000 1.0000000000000000 0.0000000000000000
0.0000000000000000 1.0000000000000000 0.0000000000000000
0.0000000000000000 1.0000000000000000 0.0000000000000000
0.0000000000000000 1.0000000000000000 0.0000000000000000
0.0000000000000000 1.0000000000000000 0.0000000000000000
0.0000000000000000 1.0000000000000000 0.0000000000000000
0.0000000000000000 1.0000000000000000 0.0000000000000000
0.0000000000000000 1.0000000000000000 0.0000000000000000
0.0000000000000000 1.0000000000000000 0.0000000000000000
0.0000000000000000 1.0000000000000000 0.0000000000000000
0.0000000000000000 1.0000000000000000 0.0000000000000000
0.0000000000000000 1.0000000000000000 0.0000000000000000
0.0000000000000000 1.0000000000000000 0.0000000000000000
0.0000000000000000 1.0000000000000000 0.0000000000000000
0.0000000000000000 1.0000000000000000 0.0000000000000000
0.0000000000000000 1.0000000000000000 0.0000000000000000
0.0000000000000000 1.0000000000000000 0.0000000000000000
0.0000000000000000 1.0000000000000000 0.0000000000000000
0.0000000000000000 1.0000000000000000 0.0000000000000000
0.0000000000000000 1.0000000000000000 0.0000000000000000
0.0000000000000000 1.0000000000000000 0.0000000000000000
0.0000000000000000 1.0000000000000000 0.0000000000000000
0.0000000000000000 1.0000000000000000 0.0000000000000000
0.0000000000000000 1.0000000000000000 0.0000000000000000
0.0000000000000000 1.0000000000000000 0.0000000000000000
0.0000000000000000 1.0000000000000000 0.0000000000000000
0.0000000000000000 1.0000000000000000 0.0000000000000000
0.0000000000000000 1.0000000000000000 0.0000000000000000
0.0000000000000000 1.0000000000000000 0.0000000000000000
0.0000000000000000 1.0000000000000000 0.0000000000000000
0.0000000000000000 1.0000000000000000 0.0000000000000000
0.0000000000000000 1.0000000000000000 0.0000000000000000
0.0000000000000000 1.0000000000000000 0.0000000000000000
0.0000000000000000 1.0000000000000000 0.0000000000000000
0.0000000000000000 1.0000000000000000 0.0000000000000000
0.0000000000000000 1.0000000000000000 0.0000000000000000
0.0000000000000000 1.0000000000000000 0.0000000000000000
0.0000000000000000 1.0000000000000000 0.0000000000000000
0.0000000000000000 1.0000000000000000 0.0000000000000000
0.0000000000000000 1.0000000000000000 0.0000000000000000
0.0000000000000000 1.0000000000000000 0.0000000000000000
0.0000000000000000 1.0000000000000000 0.0000000000000000
0.0000000000000000 1.0000000000000000 0.0000000000000000
0.0000000000000000 1.0000000000000000 0.0000000000000000
0.0000000000000000 1.0000000000000000 0.0000000000000000
0.0000000000000000 1.0000000000000000 0.0000000000000000
0.0000000000000000 1.0000000000000000 0.0000000000000000
0.0000000000000000 1.0000000000000000 0.0000000000000000
0.0000000000000000 1.0000000000000000 0.0000000000000000
0.0000000000000000 1.0000000000000000 0.0000000000000000
0.0000000000000000 1.0000000000000000 0.0000000000000000
0.0000000000000000 1.0000000000000000 0.0000000000000000
0.0000000000000000 1.0000000000000000 0.0000000000000000
0.0000000000000000 1.0000000000000000 0.0000000000000000
0.0000000000000000 1.0000000000000000 0.0000000000000000
0.0000000000000000 1.0000000000000000 0.0000000000000000
0.0000000000000000 1.0000000000000000 0.0000000000000000
0.0000000000000000 1.0000000000000000 0.0000000000000000
0.0000000000000000 1.0000000000000000 0.0000000000000000
0.0000000000000000 1.0000000000000000 0.0000000000000000
0.0000000000000000 1.0000000000000000 0.0000000000000000
0.0000000000000000 1.0000000000000000 0.0000000000000000
0.0000000000000000 1.0000000000000000 0.0000000000000000
0.0000000000000000 1.0000000000000000 0.0000000000000000
0.0000000000000000 1.0000000000000000 0.0000000000000000
0.0000000000000000 1.0000000000000000 0.0000000000000000
0.0000000000000000 1.0000000000000000 0.0000000000000000
0.0000000000000000 1.0000000000000000 0.0000000000000000
0.0000000000000000 1.0000000000000000 0.0000000000000000
0.0000000000000000 1.0000000000000000 0.0000000000000000
0.0000000000000000 1.0000000000000000 0.0000000000000000
0.0000000000000000 1.0000000000000000 0.0000000000000000
0.0000000000000000 1.0000000000000000 0.0000000000000000
0.0000000000000000 1.0000000000000000 0.0000000000000000
0.0000000000000000 1.0000000000000000 0.0000000000000000
0.0000000000000000 1.0000000000000000 0.0000000000000000
0.0000000000000000 1.0000000000000000 0.0000000000000000
0.0000000000000000 1.0000000000000000 0.0000000000000000
0.0000000000000000 1.0000000000000000 0.0000000000000000
0.0000000000000000 1.0000000000000000 0.0000000000000000
0.0000000000000000 1.0000000000000000 0.0000000000000000
0.0000000000000000 1.0000000000000000 0.0000000000000000
0.0000000000000000 1.0000000000000000 0.0000000000000000
0.0000000000000000 1.0000000000000000 0.0000000000000000
0.0000000000000000 1.0000000000000000 0.0000000000000000
0.0000000000000000 1.0000000000000000 0.0000000000000000
0.0000000000000000 1.0000000000000000 0.0000000000000000
0.0000000000000000 1.0000000000000000 0.0000000000000000
0.0000000000000000 1.0000000000000000 0.0000000000000000
0.0000000000000000 1.0000000000000000 0.0000000000000000
0.0000000000000000 1.0000000000000000 0.0000000000000000
0.0000000000000000 1.0000000000000000 0.0000000000000000
0.0000000000000000 1.0000000000000000 0.0000000000000000
0.0000000000000000 1.0000000000000000 0.0000000000000000
0.0000000000000000 1.0000000000000000 0.0000000000000000
0.0000000000000000 1.0000000000000000 0.0000000000000000
0.0000000000000000 1.0000000000000000 0.0000000000000000
0.0000000000000000 1.0000000000000000 0.0000000000000000
0.0000000000000000 1.0000000000000000 0.0000000000000000
0.0000000000000000 1.0000000000000000 0.0000000000000000
0.0000000000000000 1.0000000000000000 0.0000000000000000
0.0000000000000000 1.0000000000000000 0.0000000000000000
0.0000000000000000 1.0000000000000000 0.0000000000000000
0.0000000000000000 1.0000000000000000 0.0000000000000000
0.0000000000000000 1.0000000000000000 0.0000000000000000
0.0000000000000000 1.0000000000000000 0.0000000000000000
0.0000000000000000 1.0000000000000000 0.0000000000000000
0.0000000000000000 1.0000000000000000 0.0000000000000000
0.0000000000000000 1.0000000000000000 0.0000000000000000
0.0000000000000000 1.0000000000000000 0.0000000000000000
0.0000000000000000 1.0000000000000000 0.0000000000000000
0.0000000000000000 1.0000000000000000 0.0000000000000000
0.0000000000000000 1.0000000000000000 0.0000000000000000
0.0000000000000000 1.0000000000000000 0.0000000000000000
0.0000000000000000 1.0000000000000000 0.0000000000000000
0.0000000000000000 1.0000000000000000 0.0000000000000000
0.0000000000000000 1.0000000000000000 0.0000000000000000
0.0000000000000000 1.0000000000000000 0.0000000000000000
0.0000000000000000 1.0000000000000000 0.0000000000000000
0.0000000000000000 1.0000000000000000 0.0000000000000000
0.0000000000000000 1.0000000000000000 0.0000000000000000
0.0000000000000000 1.0000000000000000 0.0000000000000000
0.0000000000000000 1.0000000000000000 0.0000000000000000
0.0000000000000000 1.0000000000000000 0.0000000000000000
0.0000000000000000 1.0000000000000000 0.0000000000000000
0.0000000000000000 1.0000000000000000 0.0000000000000000
0.0000000000000000 1.0000000000000000 0.0000000000000000
0.0000000000000000 1.0000000000000000 0.0000000000000000
0.0000000000000000 1.0000000000000000 0.0000000000000000
0.0000000000000000 1.0000000000000000 0.0000000000000000
0.0000000000000000 1.0000000000000000 0.0000000000000000
0.0000000000000000 1.0000000000000000 0.0000000000000000
0.0000000000000000 1.0000000000000000 0.0000000000000000
0.0000000000000000 1.0000000000000000 0.0000000000000000
0.0000000000000000 1.0000000000000000 0.0000000000000000
0.0000000000000000 1.0000000000000000 0.0000000000000000
0.0000000000000000 1.0000000000000000 0.0000000000000000
0.0000000000000000 1.0000000000000000 0.0000000000000000
0.0000000000000000 1.0000000000000000 0.0000000000000000
0.0000000000000000 1.0000000000000000 0.0000000000000000
0.0000000000000000 1.0000000000000000 0.0000000000000000
0.0000000000000000 1.0000000000000000 0.0000000000000000
0.0000000000000000 1.0000000000000000 0.0000000000000000
0.0000000000000000 1.0000000000000000 0.0000000000000000
0.0000000000000000 1.0000000000000000 0.0000000000000000
0.0000000000000000 1.0000000000000000 0.0000000000000000
0.0000000000000000 1.0000000000000000 0.0000000000000000
0.0000000000000000 1.0000000000000000 0.0000000000000000
0.0000000000000000 1.0000000000000000 0.0000000000000000
0.0000000000000000 1.0000000000000000 0.0000000000000000
0.0000000000000000 1.0000000000000000 0.0000000000000000
0.0000000000000000 1.0000000000000000 0.0000000000000000
0.0000000000000000 1.0000000000000000 0.0000000000000000
0.0000000000000000 1.0000000000000000 0.0000000000000000
0.0000000000000000 1.0000000000000000 0.0000000000000000
0.0000000000000000 1.0000000000000000 0.0000000000000000
0.0000000000000000 1.0000000000000000 0.0000000000000000
0.0000000000000000 1.0000000000000000 0.0000000000000000
0.0000000000000000 1.0000000000000000 0.0000000000000000
0.0000000000000000 1.0000000000000000 0.0000000000000000
0.0000000000000000 1.0000000000000000 0.0000000000000000
0.0000000000000000 1.0000000000000000 0.0000000000000000
0.0000000000000000 1.0000000000000000 0.0000000000000000
0.0000000000000000 1.0000000000000000 0.0000000000000000
0.0000000000000000 1.0000000000000000 0.0000000000000000
0.0000000000000000 1.0000000000000000 0.0000000000000000
0.0000000000000000 1.0000000000000000 0.0000000000000000
0.0000000000000000 1.0000000000000000 0.0000000000000000
0.0000000000000000 1.0000000000000000 0.0000000000000000
0.0000000000000000 1.0000000000000000 0.0000000000000000
0.0000000000000000 1.0000000000000000 0.0000000000000000
0.0000000000000000 1.0000000000000000 0.0000000000000000
0.0000000000000000 1.0000000000000000 0.0000000000000000
0.0000000000000000 1.0000000000000000 0.0000000000000000
0.0000000000000000 1.0000000000000000 0.0000000000000000
0.0000000000000000 1.0000000000000000 0.0000000000000000
0.0000000000000000 1.0000000000000000 0.0000000000000000
0.0000000000000000 1.0000000000000000 0.0000000000000000
0.0000000000000000 1.0000000000000000 0.0000000000000000
0.0000000000000000 1.0000000000000000 0.0000000000000000
0.0000000000000000 1.0000000000000000 0.0000000000000000
0.0000000000000000 1.0000000000000000 0.0000000000000000
0.0000000000000000 1.0000000000000000 0.0000000000000000
0.0000000000000000 1.0000000000000000 0.0000000000000000
0.0000000000000000 1.0000000000000000 0.0000000000000000
0.0000000000000000 1.0000000000000000 0.0000000000000000
0.0000000000000000 1.0000000000000000 0.0000000000000000
0.0000000000000000 1.0000000000000000 0.0000000000000000
0.0000000000000000 1.0000000000000000 0.0000000000000000
0.0000000000000000 1.0000000000000000 0.0000000000000000
0.0000000000000000 1.0000000000000000 0.0000000000000000
0.0000000000000000 1.0000000000000000 0.0000000000000000
0.0000000000000000 1.0000000000000000 0.0000000000000000
0.0000000000000000 1.0000000000000000 0.0000000000000000
0.0000000000000000 1.0000000000000000 0.0000000000000000
0.0000000000000000 1.0000000000000000 0.0000000000000000
0.0000000000000000 1.0000000000000000 0.0000000000000000
0.0000000000000000 1.0000000000000000 0.0000000000000000
0.0000000000000000 1.0000000000000000 0.0000000000000000
0.0000000000000000 1.0000000000000000 0.0000000000000000
0.0000000000000000 1.0000000000000000 0.0000000000000000
0.0000000000000000 1.0000000000000000 0.0000000000000000
0.0000000000000000 1.0000000000000000 0.0000000000000000
0.0000000000000000 1.0000000000000000 0.0000000000000000
0.0000000000000000 1.0000000000000000 0.0000000000000000
0.0000000000000000 1.0000000000000000 0.0000000000000000
0.0000000000000000 1.0000000000000000 0.0000000000000000
0.0000000000000000 1.0000000000000000 0.0000000000000000
0.0000000000000000 1.0000000000000000 0.0000000000000000
0.0000000000000000 1.0000000000000000 0.0000000000000000
0.0000000000000000 1.0000000000000000 0.0000000000000000
0.0000000000000000 1.0000000000000000 0.0000000000000000
0.0000000000000000 1.0000000000000000 0.0000000000000000
0.0000000000000000 1.0000000000000000 0.0000000000000000
0.0000000000000000 1.0000000000000000 0.0000000000000000
0.0000000000000000 1.0000000000000000 0.0000000000000000
0.0000000000000000 1.0000000000000000 0.0000000000000000
0.0000000000000000 1.0000000000000000 0.0000000000000000
0.0000000000000000 1.0000000000000000 0.0000000000000000
0.0000000000000000 1.0000000000000000 0.0000000000000000
0.0000000000000000 1.0000000000000000 0.0000000000000000
0.0000000000000000 1.0000000000000000 0.0000000000000000
0.0000000000000000 1.0000000000000000 0.0000000000000000
0.0000000000000000 1.0000000000000000 0.0000000000000000
0.0000000000000000 1.0000000000000000 0.0000000000000000
0.0000000000000000 1.0000000000000000 0.0000000000000000
0.0000000000000000 1.0000000000000000 0.0000000000000000
0.0000000000000000 1.0000000000000000 0.0000000000000000
0.0000000000000000 1.0000000000000000 0.0000000000000000
0.0000000000000000 1.0000000000000000 0.0000000000000000
0.0000000000000000 1.0000000000000000 0.0000000000000000
0.0000000000000000 1.0000000000000000 0.0000000000000000
0.0000000000000000 1.0000000000000000 0.0000000000000000
0.0000000000000000 1.0000000000000000 0.0000000000000000
0.0000000000000000 1.0000000000000000 0.0000000000000000
0.0000000000000000 1.0000000000000000 0.0000000000000000
0.0000000000000000 1.0000000000000000 0.0000000000000000
0.0000000000000000 1.0000000000000000 0.0000000000000000
0.0000000000000000 1.0000000000000000 0.0000000000000000
0.0000000000000000 1.0000000000000000 0.0000000000000000
0.0000000000000000 1.0000000000000000 0.0000000000000000
0.0000000000000000 1.0000000000000000 0.0000000000000000
0.0000000000000000 1.0000000000000000 0.0000000000000000
0.0000000000000000 1.0000000000000000 0.0000000000000000
0.0000000000000000 1.0000000000000000 0.0000000000000000
0.0000000000000000 1.0000000000000000 0.0000000000000000
0.0000000000000000 1.0000000000000000 0.0000000000000000
0.0000000000000000 1.0000000000000000 0.0000000000000000
0.0000000000000000 1.0000000000000000 0.0000000000000000
0.0000000000000000 1.0000000000000000 0.0000000000000000
0.0000000000000000 1.0000000000000000 0.0000000000000000
0.0000000000000000 1.0000000000000000 0.0000000000000000
0.0000000000000000 1.0000000000000000 0.0000000000000000
0.0000000000000000 1.0000000000000000 0.0000000000000000
0.0000000000000000 1.0000000000000000 0.0000000000000000
0.0000000000000000 1.0000000000000000 0.0000000000000000
0.0000000000000000 1.0000000000000000 0.0000000000000000
0.0000000000000000 1.0000000000000000 0.0000000000000000
0.0000000000000000 1.0000000000000000 0.0000000000000000
0.0000000000000000 1.0000000000000000 0.0000000000000000
0.0000000000000000 1.0000000000000000 0.0000000000000000
0.0000000000000000 1.0000000000000000 0.0000000000000000
0.0000000000000000 1.0000000000000000 0.0000000000000000
0.0000000000000000 1.0000000000000000 0.0000000000000000
0.0000000000000000 1.0000000000000000 0.0000000000000000
0.0000000000000000 1.0000000000000000 0.0000000000000000
0.0000000000000000 1.0000000000000000 0.0000000000000000
0.0000000000000000 1.0000000000000000 0.0000000000000000
0.0000000000000000 1.0000000000000000 0.0000000000000000
0.0000000000000000 1.0000000000000000 0.0000000000000000
0.0000000000000000 1.0000000000000000 0.0000000000000000
0.0000000000000000 1.0000000000000000 0.0000000000000000
0.0000000000000000 1.0000000000000000 0.0000000000000000
0.0000000000000000 1.0000000000000000 0.0000000000000000
0.0000000000000000 1.0000000000000000 0.0000000000000000
0.0000000000000000 1.0000000000000000 0.0000000000000000
0.0000000000000000 1.0000000000000000 0.0000000000000000
0.0000000000000000 1.0000000000000000 0.0000000000000000
0.0000000000000000 1.0000000000000000 0.0000000000000000
0.0000000000000000 1.0000000000000000 0.0000000000000000
0.0000000000000000 1.0000000000000000 0.0000000000000000
0.0000000000000000 1.0000000000000000 0.0000000000000000
0.0000000000000000 1.0000000000000000 0.0000000000000000
0.0000000000000000 1.0000000000000000 0.0000000000000000
0.0000000000000000 1.0000000000000000 0.0000000000000000
0.0000000000000000 1.0000000000000000 0.0000000000000000
0.0000000000000000 1.0000000000000000 0.0000000000000000
0.0000000000000000 1.0000000000000000 0.0000000000000000
0.0000000000000000 1.0000000000000000 0.0000000000000000
0.0000000000000000 1.0000000000000000 0.0000000000000000
0.0000000000000000 1.0000000000000000 0.0000000000000000
0.0000000000000000 1.0000000000000000 0.0000000000000000
0.0000000000000000 1.0000000000000000 0.0000000000000000
0.0000000000000000 1.0000000000000000 0.0000000000000000
0.0000000000000000 1.0000000000000000 0.0000000000000000
0.0000000000000000 1.0000000000000000 0.0000000000000000
0.0000000000000000 1.0000000000000000 0.0000000000000000
0.0000000000000000 1.0000000000000000 0.0000000000000000
0.0000000000000000 1.0000000000000000 0.0000000000000000
0.0000000000000000 1.0000000000000000 0.0000000000000000
0.0000000000000000 1.0000000000000000 0.0000000000000000
0.0000000000000000 1.0000000000000000 0.0000000000000000
0.0000000000000000 1.0000000000000000 0.0000000000000000
0.0000000000000000 1.0000000000000000 0.0000000000000000
0.0000000000000000 1.0000000000000000 0.0000000000000000
0.0000000000000000 1.0000000000000000 0.0000000000000000
0.0000000000000000 1.0000000000000000 0.0000000000000000
0.0000000000000000 1.0000000000000000 0.0000000000000000
0.0000000000000000 1.0000000000000000 0.0000000000000000
0.0000000000000000 1.0000000000000000 0.0000000000000000
0.0000000000000000 1.0000000000000000 0.0000000000000000
0.0000000000000000 1.0000000000000000 0.0000000000000000
0.0000000000000000 1.0000000000000000 0.0000000000000000
0.0000000000000000 1.0000000000000000 0.0000000000000000
0.0000000000000000 1.0000000000000000 0.0000000000000000
0.0000000000000000 1.0000000000000000 0.0000000000000000
0.0000000000000000 1.0000000000000000 0.0000000000000000
0.0000000000000000 1.0000000000000000 0.0000000000000000
0.0000000000000000 1.0000000000000000 0.0000000000000000
0.0000000000000000 1.0000000000000000 0.0000000000000000
0.0000000000000000 1.0000000000000000 0.0000000000000000
0.0000000000000000 1.0000000000000000 0.0000000000000000
0.0000000000000000 1.0000000000000000 0.0000000000000000
0.0000000000000000 1.0000000000000000 0.0000000000000000
0.0000000000000000 1.0000000000000000 0.0000000000000000
0.0000000000000000 1.0000000000000000 0.0000000000000000
0.0000000000000000 1.0000000000000000 0.0000000000000000
0.0000000000000000 1.0000000000000000 0.0000000000000000
0.0000000000000000 1.0000000000000000 0.0000000000000000
0.0000000000000000 1.0000000000000000 0.0000000000000000
0.0000000000000000 1.0000000000000000 0.0000000000000000
0.0000000000000000 1.0000000000000000 0.0000000000000000
0.0000000000000000 1.0000000000000000 0.0000000000000000
0.0000000000000000 1.0000000000000000 0.0000000000000000
0.0000000000000000 1.0000000000000000 0.0000000000000000
0.0000000000000000 1.0000000000000000 0.0000000000000000
0.0000000000000000 1.0000000000000000 0.0000000000000000
0.0000000000000000 1.0000000000000000 0.0000000000000000
0.0000000000000000 1.0000000000000000 0.0000000000000000
0.0000000000000000 1.0000000000000000 0.0000000000000000
0.0000000000000000 1.0000000000000000 0.0000000000000000
0.0000000000000000 1.0000000000000000 0.0000000000000000
0.0000000000000000 1.0000000000000000 0.0000000000000000
0.0000000000000000 1.0000000000000000 0.0000000000000000
0.0000000000000000 1.0000000000000000 0.0000000000000000
0.0000000000000000 1.0000000000000000 0.0000000000000000
0.0000000000000000 1.0000000000000000 0.0000000000000000
0.0000000000000000 1.0000000000000000 0.0000000000000000
0.0000000000000000 1.0000000000000000 0.0000000000000000
0.0000000000000000 1.0000000000000000 0.0000000000000000
0.0000000000000000 1.0000000000000000 0.0000000000000000
0.0000000000000000 1.0000000000000000 0.0000000000000000
0.0000000000000000 1.0000000000000000 0.0000000000000000
0.0000000000000000 1.0000000000000000 0.0000000000000000
0.0000000000000000 1.0000000000000000 0.0000000000000000
0.0000000000000000 1.0000000000000000 0.0000000000000000
0.0000000000000000 1.0000000000000000 0.0000000000000000
0.0000000000000000 1.0000000000000000 0.0000000000000000
0.0000000000000000 1.0000000000000000 0.0000000000000000
0.0000000000000000 1.0000000000000000 0.0000000000000000
0.0000000000000000 1.0000000000000000 0.0000000000000000
0.0000000000000000 1.0000000000000000 0.0000000000000000
0.0000000000000000 1.0000000000000000 0.0000000000000000
0.0000000000000000 1.0000000000000000 0.0000000000000000
0.0000000000000000 1.0000000000000000 0.0000000000000000
0.0000000000000000 1.0000000000000000 0.0000000000000000
0.0000000000000000 1.0000000000000000 0.0000000000000000
0.0000000000000000 1.0000000000000000 0.0000000000000000
0.0000000000000000 1.0000000000000000 0.0000000000000000
0.0000000000000000 1.0000000000000000 0.0000000000000000
0.0000000000000000 1.0000000000000000 0.0000000000000000
0.0000000000000000 1.0000000000000000 0.0000000000000000
0.0000000000000000 1.0000000000000000 0.0000000000000000
0.0000000000000000 1.0000000000000000 0.0000000000000000
0.0000000000000000 1.0000000000000000 0.0000000000000000
0.0000000000000000 1.0000000000000000 0.0000000000000000
0.0000000000000000 1.0000000000000000 0.0000000000000000
0.0000000000000000 1.0000000000000000 0.0000000000000000
0.0000000000000000 1.0000000000000000 0.0000000000000000
0.0000000000000000 1.0000000000000000 0.0000000000000000
0.0000000000000000 1.0000000000000000 0.0000000000000000
0.0000000000000000 1.0000000000000000 0.0000000000000000
0.0000000000000000 1.0000000000000000 0.0000000000000000
0.0000000000000000 1.0000000000000000 0.0000000000000000
0.0000000000000000 1.0000000000000000 0.0000000000000000
0.0000000000000000 1.0000000000000000 0.0000000000000000
0.0000000000000000 1.0000000000000000 0.0000000000000000
0.0000000000000000 1.0000000000000000 0.0000000000000000
0.0000000000000000 1.0000000000000000 0.0000000000000000
0.0000000000000000 1.0000000000000000 0.0000000000000000
0.0000000000000000 1.0000000000000000 0.0000000000000000
0.0000000000000000 1.0000000000000000 0.0000000000000000
0.0000000000000000 1.0000000000000000 0.0000000000000000
0.0000000000000000 1.0000000000000000 0.0000000000000000
0.0000000000000000 1.0000000000000000 0.0000000000000000
0.0000000000000000 1.0000000000000000 0.0000000000000000
0.0000000000000000 1.0000000000000000 0.0000000000000000
0.0000000000000000 1.0000000000000000 0.0000000000000000
0.0000000000000000 1.0000000000000000 0.0000000000000000
0.0000000000000000 1.0000000000000000 0.0000000000000000
0.0000000000000000 1.0000000000000000 0.0000000000000000
0.0000000000000000 1.0000000000000000 0.0000000000000000
0.0000000000000000 1.0000000000000000 0.0000000000000000
0.0000000000000000 1.0000000000000000 0.0000000000000000
0.0000000000000000 1.0000000000000000 0.0000000000000000
0.0000000000000000 1.0000000000000000 0.0000000000000000
0.0000000000000000 1.0000000000000000 0.0000000000000000
0.0000000000000000 1.0000000000000000 0.0000000000000000
0.0000000000000000 1.0000000000000000 0.0000000000000000
0.0000000000000000 1.0000000000000000 0.0000000000000000
0.0000000000000000 1.0000000000000000 0.0000000000000000
0.0000000000000000 1.0000000000000000 0.0000000000000000
0.0000000000000000 1.0000000000000000 0.0000000000000000
0.0000000000000000 1.0000000000000000 0.0000000000000000
0.0000000000000000 1.0000000000000000 0.0000000000000000
0.0000000000000000 1.0000000000000000 0.0000000000000000
0.0000000000000000 1.0000000000000000 0.0000000000000000
0.0000000000000000 1.0000000000000000 0.0000000000000000
0.0000000000000000 1.0000000000000000 0.0000000000000000
0.0000000000000000 1.0000000000000000 0.0000000000000000
0.0000000000000000 1.0000000000000000 0.0000000000000000
0.0000000000000000 1.0000000000000000 0.0000000000000000
0.0000000000000000 1.0000000000000000 0.0000000000000000
0.0000000000000000 1.0000000000000000 0.0000000000000000
0.0000000000000000 1.0000000000000000 0.0000000000000000
0.0000000000000000 1.0000000000000000 0.0000000000000000
0.0000000000000000 1.0000000000000000 0.0000000000000000
0.0000000000000000 1.0000000000000000 0.0000000000000000
0.0000000000000000 1.0000000000000000 0.0000000000000000
0.0000000000000000 1.0000000000000000 0.0000000000000000
0.0000000000000000 1.0000000000000000 0.0000000000000000
0.0000000000000000 1.0000000000000000 0.0000000000000000
0.0000000000000000 1.0000000000000000 0.0000000000000000
0.0000000000000000 1.0000000000000000 0.0000000000000000
0.0000000000000000 1.0000000000000000 0.0000000000000000
0.0000000000000000 1.0000000000000000 0.0000000000000000
0.0000000000000000 1.0000000000000000 0.0000000000000000
0.0000000000000000 1.0000000000000000 0.0000000000000000
0.0000000000000000 1.0000000000000000 0.0000000000000000
0.0000000000000000 1.0000000000000000 0.0000000000000000
0.0000000000000000 1.0000000000000000 0.0000000000000000
0.0000000000000000 1.0000000000000000 0.0000000000000000
0.0000000000000000 1.0000000000000000 0.0000000000000000
0.0000000000000000 1.0000000000000000 0.0000000000000000
0.0000000000000000 1.0000000000000000 0.0000000000000000
0.0000000000000000 1.0000000000000000 0.0000000000000000
0.0000000000000000 1.0000000000000000 0.0000000000000000
0.0000000000000000 1.0000000000000000 0.0000000000000000
0.0000000000000000 1.0000000000000000 0.0000000000000000
0.0000000000000000 1.0000000000000000 0.0000000000000000
0.0000000000000000 1.0000000000000000 0.0000000000000000
0.0000000000000000 1.0000000000000000 0.0000000000000000
0.0000000000000000 1.0000000000000000 0.0000000000000000
0.0000000000000000 1.0000000000000000 0.0000000000000000
0.0000000000000000 1.0000000000000000 0.0000000000000000
0.0000000000000000 1.0000000000000000 0.0000000000000000
0.0000000000000000 1.0000000000000000 0.0000000000000000
0.0000000000000000 1.0000000000000000 0.0000000000000000
0.0000000000000000 1.0000000000000000 0.0000000000000000
0.0000000000000000 1.0000000000000000 0.0000000000000000
0.0000000000000000 1.0000000000000000 0.0000000000000000
0.0000000000000000 1.0000000000000000 0.0000000000000000
0.0000000000000000 1.0000000000000000 0.0000000000000000
0.0000000000000000 1.0000000000000000 0.0000000000000000
0.0000000000000000 1.0000000000000000 0.0000000000000000
0.0000000000000000 1.0000000000000000 0.0000000000000000
0.0000000000000000 1.0000000000000000 0.0000000000000000
0.0000000000000000 1.0000000000000000 0.0000000000000000
0.0000000000000000 1.0000000000000000 0.0000000000000000
0.0000000000000000 1.0000000000000000 0.0000000000000000
0.0000000000000000 1.0000000000000000 0.0000000000000000
0.0000000000000000 1.0000000000000000 0.0000000000000000
0.0000000000000000 1.0000000000000000 0.0000000000000000
0.0000000000000000 1.0000000000000000 0.0000000000000000
0.0000000000000000 1.0000000000000000 0.0000000000000000
0.0000000000000000 1.0000000000000000 0.0000000000000000
0.0000000000000000 1.0000000000000000 0.0000000000000000
0.0000000000000000 1.0000000000000000 0.0000000000000000
0.0000000000000000 1.0000000000000000 0.0000000000000000
0.0000000000000000 1.0000000000000000 0.0000000000000000
0.0000000000000000 1.0000000000000000 0.0000000000000000
0.0000000000000000 1.0000000000000000 0.0000000000000000
0.0000000000000000 1.0000000000000000 0.0000000000000000
0.0000000000000000 1.0000000000000000 0.0000000000000000
0.0000000000000000 1.0000000000000000 0.0000000000000000
0.0000000000000000 1.0000000000000000 0.0000000000000000
0.0000000000000000 1.0000000000000000 0.0000000000000000
0.0000000000000000 1.0000000000000000 0.0000000000000000
0.0000000000000000 1.0000000000000000 0.0000000000000000
0.0000000000000000 1.0000000000000000 0.0000000000000000
0.0000000000000000 1.0000000000000000 0.0000000000000000
0.0000000000000000 1.0000000000000000 0.0000000000000000
0.0000000000000000 1.0000000000000000 0.0000000000000000
0.0000000000000000 1.0000000000000000 0.0000000000000000
0.0000000000000000 1.0000000000000000 0.0000000000000000
0.0000000000000000 1.0000000000000000 0.0000000000000000
0.0000000000000000 1.0000000000000000 0.0000000000000000
0.0000000000000000 1.0000000000000000 0.0000000000000000
0.0000000000000000 1.0000000000000000 0.0000000000000000
0.0000000000000000 1.0000000000000000 0.0000000000000000
0.0000000000000000 1.0000000000000000 0.0000000000000000
0.0000000000000000 1.0000000000000000 0.0000000000000000
0.0000000000000000 1.0000000000000000 0.0000000000000000
0.0000000000000000 1.0000000000000000 0.0000000000000000
0.0000000000000000 1.0000000000000000 0.0000000000000000
0.0000000000000000 1.0000000000000000 0.0000000000000000
0.0000000000000000 1.0000000000000000 0.0000000000000000
0.0000000000000000 1.0000000000000000 0.0000000000000000
0.0000000000000000 1.0000000000000000 0.0000000000000000
0.0000000000000000 1.0000000000000000 0.0000000000000000
0.0000000000000000 1.0000000000000000 0.0000000000000000
0.0000000000000000 1.0000000000000000 0.0000000000000000
0.0000000000000000 1.0000000000000000 0.0000000000000000
0.0000000000000000 1.0000000000000000 0.0000000000000000
0.0000000000000000 1.0000000000000000 0.0000000000000000
0.0000000000000000 1.0000000000000000 0.0000000000000000
0.0000000000000000 1.0000000000000000 0.0000000000000000
0.0000000000000000 1.0000000000000000 0.0000000000000000
0.0000000000000000 1.0000000000000000 0.0000000000000000
0.0000000000000000 1.0000000000000000 0.0000000000000000
0.0000000000000000 1.0000000000000000 0.0000000000000000
0.0000000000000000 1.0000000000000000 0.0000000000000000
0.0000000000000000 1.0000000000000000 0.0000000000000000
0.0000000000000000 1.0000000000000000 0.0000000000000000
0.0000000000000000 1.0000000000000000 0.0000000000000000
0.0000000000000000 1.0000000000000000 0.0000000000000000
0.0000000000000000 1.0000000000000000 0.0000000000000000
0.0000000000000000 1.0000000000000000 0.0000000000000000
0.0000000000000000 1.0000000000000000 0.0000000000000000
0.0000000000000000 1.0000000000000000 0.0000000000000000
0.0000000000000000 1.0000000000000000 0.0000000000000000
0.0000000000000000 1.0000000000000000 0.0000000000000000
0.0000000000000000 1.0000000000000000 0.0000000000000000
0.0000000000000000 1.0000000000000000 0.0000000000000000
0.0000000000000000 1.0000000000000000 0.0000000000000000
0.0000000000000000 1.0000000000000000 0.0000000000000000
0.0000000000000000 1.0000000000000000 0.0000000000000000
0.0000000000000000 1.0000000000000000 0.0000000000000000
0.0000000000000000 1.0000000000000000 0.0000000000000000
0.0000000000000000 1.0000000000000000 0.0000000000000000
0.0000000000000000 1.0000000000000000 0.0000000000000000
0.0000000000000000 1.0000000000000000 0.0000000000000000
0.0000000000000000 1.0000000000000000 0.0000000000000000
0.0000000000000000 1.0000000000000000 0.0000000000000000
0.0000000000000000 1.0000000000000000 0.0000000000000000
0.0000000000000000 1.0000000000000000 0.0000000000000000
0.0000000000000000 1.0000000000000000 0.0000000000000000
0.0000000000000000 1.0000000000000000 0.0000000000000000
0.0000000000000000 1.0000000000000000 0.0000000000000000
0.0000000000000000 1.0000000000000000 0.0000000000000000
0.0000000000000000 1.0000000000000000 0.0000000000000000
0.0000000000000000 1.0000000000000000 0.0000000000000000
0.0000000000000000 1.0000000000000000 0.0000000000000000
0.0000000000000000 1.0000000000000000 0.0000000000000000
0.0000000000000000 1.0000000000000000 0.0000000000000000
0.0000000000000000 1.0000000000000000 0.0000000000000000
0.0000000000000000 1.0000000000000000 0.0000000000000000
0.0000000000000000 1.0000000000000000 0.0000000000000000
0.0000000000000000 1.0000000000000000 0.0000000000000000
0.0000000000000000 1.0000000000000000 0.0000000000000000
0.0000000000000000 1.0000000000000000 0.0000000000000000
0.0000000000000000 1.0000000000000000 0.0000000000000000
0.0000000000000000 1.0000000000000000 0.0000000000000000
0.0000000000000000 1.0000000000000000 0.0000000000000000
0.0000000000000000 1.0000000000000000 0.0000000000000000
0.0000000000000000 1.0000000000000000 0.0000000000000000
0.0000000000000000 1.0000000000000000 0.0000000000000000
0.0000000000000000 1.0000000000000000 0.0000000000000000
0.0000000000000000 1.0000000000000000 0.0000000000000000
0.0000000000000000 1.0000000000000000 0.0000000000000000
0.0000000000000000 1.0000000000000000 0.0000000000000000
0.0000000000000000 1.0000000000000000 0.0000000000000000
0.0000000000000000 1.0000000000000000 0.0000000000000000
0.0000000000000000 1.0000000000000000 0.0000000000000000
0.0000000000000000 1.0000000000000000 0.0000000000000000
0.0000000000000000 1.0000000000000000 0.0000000000000000
0.0000000000000000 1.0000000000000000 0.0000000000000000
0.0000000000000000 1.0000000000000000 0.0000000000000000
0.0000000000000000 1.0000000000000000 0.0000000000000000
0.0000000000000000 1.0000000000000000 0.0000000000000000
0.0000000000000000 1.0000000000000000 0.0000000000000000
0.0000000000000000 1.0000000000000000 0.0000000000000000
0.0000000000000000 1.0000000000000000 0.0000000000000000
0.0000000000000000 1.0000000000000000 0.0000000000000000
0.0000000000000000 1.0000000000000000 0.0000000000000000
0.0000000000000000 1.0000000000000000 0.0000000000000000
0.0000000000000000 1.0000000000000000 0.0000000000000000
0.0000000000000000 1.0000000000000000 0.0000000000000000
0.0000000000000000 1.0000000000000000 0.0000000000000000
0.0000000000000000 1.0000000000000000 0.0000000000000000
0.0000000000000000 1.0000000000000000 0.0000000000000000
0.0000000000000000 1.0000000000000000 0.0000000000000000
0.0000000000000000 1.0000000000000000 0.0000000000000000
0.0000000000000000 1.0000000000000000 0.0000000000000000
0.0000000000000000 1.0000000000000000 0.0000000000000000
0.0000000000000000 1.0000000000000000 0.0000000000000000
0.0000000000000000 1.0000000000000000 0.0000000000000000
0.0000000000000000 1.0000000000000000 0.0000000000000000
0.0000000000000000 1.0000000000000000 0.0000000000000000
0.0000000000000000 1.0000000000000000 0.0000000000000000
0.0000000000000000 1.0000000000000000 0.0000000000000000
0.0000000000000000 1.0000000000000000 0.0000000000000000
0.0000000000000000 1.0000000000000000 0.0000000000000000
0.0000000000000000 1.0000000000000000 0.0000000000000000
0.0000000000000000 1.0000000000000000 0.0000000000000000
0.0000000000000000 1.0000000000000000 0.0000000000000000
0.0000000000000000 1.0000000000000000 0.0000000000000000
0.0000000000000000 1.0000000000000000 0.0000000000000000
0.0000000000000000 1.0000000000000000 0.0000000000000000
0.0000000000000000 1.0000000000000000 0.0000000000000000
0.0000000000000000 1.0000000000000000 0.0000000000000000
0.0000000000000000 1.0000000000000000 0.0000000000000000
0.0000000000000000 1.0000000000000000 0.0000000000000000
0.0000000000000000 1.0000000000000000 0.0000000000000000
0.0000000000000000 1.0000000000000000 0.0000000000000000
0.0000000000000000 1.0000000000000000 0.0000000000000000
0.0000000000000000 1.0000000000000000 0.0000000000000000
0.0000000000000000 1.0000000000000000 0.0000000000000000
0.0000000000000000 1.0000000000000000 0.0000000000000000
0.0000000000000000 1.0000000000000000 0.0000000000000000
0.0000000000000000 1.0000000000000000 0.0000000000000000
0.0000000000000000 1.0000000000000000 0.0000000000000000
0.0000000000000000 1.0000000000000000 0.0000000000000000
0.0000000000000000 1.0000000000000000 0.0000000000000000
0.0000000000000000 1.0000000000000000 0.0000000000000000
0.0000000000000000 1.0000000000000000 0.0000000000000000
0.0000000000000000 1.0000000000000000 0.0000000000000000
0.0000000000000000 1.0000000000000000 0.0000000000000000
0.0000000000000000 1.0000000000000000 0.0000000000000000
0.0000000000000000 1.0000000000000000 0.0000000000000000
0.0000000000000000 1.0000000000000000 0.0000000000000000
0.0000000000000000 1.0000000000000000 0.0000000000000000
0.0000000000000000 1.0000000000000000 0.0000000000000000
0.0000000000000000 1.0000000000000000 0.0000000000000000
0.0000000000000000 1.0000000000000000 0.0000000000000000
0.0000000000000000 1.0000000000000000 0.0000000000000000
0.0000000000000000 1.0000000000000000 0.0000000000000000
0.0000000000000000 1.0000000000000000 0.0000000000000000
0.0000000000000000 1.0000000000000000 0.0000000000000000
0.0000000000000000 1.0000000000000000 0.0000000000000000
0.0000000000000000 1.0000000000000000 0.0000000000000000
0.0000000000000000 1.0000000000000000 0.0000000000000000
0.0000000000000000 1.0000000000000000 0.0000000000000000
0.0000000000000000 1.0000000000000000 0.0000000000000000
0.0000000000000000 1.0000000000000000 0.0000000000000000
0.0000000000000000 1.0000000000000000 0.0000000000000000
0.0000000000000000 1.0000000000000000 0.0000000000000000
0.0000000000000000 1.0000000000000000 0.0000000000000000
0.0000000000000000 1.0000000000000000 0.0000000000000000
0.0000000000000000 1.0000000000000000 0.0000000000000000
0.0000000000000000 1.0000000000000000 0.0000000000000000
0.0000000000000000 1.0000000000000000 0.0000000000000000
0.0000000000000000 1.0000000000000000 0.0000000000000000
0.0000000000000000 1.0000000000000000 0.0000000000000000
0.0000000000000000 1.0000000000000000 0.0000000000000000
0.0000000000000000 1.0000000000000000 0.0000000000000000
0.0000000000000000 1.0000000000000000 0.0000000000000000
0.0000000000000000 1.0000000000000000 0.0000000000000000
0.0000000000000000 1.0000000000000000 0.0000000000000000
0.0000000000000000 1.0000000000000000 0.0000000000000000
0.0000000000000000 1.0000000000000000 0.0000000000000000
0.0000000000000000 1.0000000000000000 0.0000000000000000
0.0000000000000000 1.0000000000000000 0.0000000000000000
0.0000000000000000 1.0000000000000000 0.0000000000000000
0.0000000000000000 1.0000000000000000 0.0000000000000000
0.0000000000000000 1.0000000000000000 0.0000000000000000
0.0000000000000000 1.0000000000000000 0.0000000000000000
0.0000000000000000 1.0000000000000000 0.0000000000000000
0.0000000000000000 1.0000000000000000 0.0000000000000000
0.0000000000000000 1.0000000000000000 0.0000000000000000
0.0000000000000000 1.0000000000000000 0.0000000000000000
0.0000000000000000 1.0000000000000000 0.0000000000000000
0.0000000000000000 1.0000000000000000 0.0000000000000000
0.0000000000000000 1.0000000000000000 0.0000000000000000
0.0000000000000000 1.0000000000000000 0.0000000000000000
0.0000000000000000 1.0000000000000000 0.0000000000000000
0.0000000000000000 1.0000000000000000 0.0000000000000000
0.0000000000000000 1.0000000000000000 0.0000000000000000
0.0000000000000000 1.0000000000000000 0.0000000000000000
0.0000000000000000 1.0000000000000000 0.0000000000000000
0.0000000000000000 1.0000000000000000 0.0000000000000000
0.0000000000000000 1.0000000000000000 0.0000000000000000
0.0000000000000000 1.0000000000000000 0.0000000000000000
0.0000000000000000 1.0000000000000000 0.0000000000000000
0.0000000000000000 1.0000000000000000 0.0000000000000000
0.0000000000000000 1.0000000000000000 0.0000000000000000
0.0000000000000000 1.0000000000000000 0.0000000000000000
0.0000000000000000 1.0000000000000000 0.0000000000000000
0.0000000000000000 1.0000000000000000 0.0000000000000000
0.0000000000000000 1.0000000000000000 0.0000000000000000
0.0000000000000000 1.0000000000000000 0.0000000000000000
0.0000000000000000 1.0000000000000000 0.0000000000000000
0.0000000000000000 1.0000000000000000 0.0000000000000000
0.0000000000000000 1.0000000000000000 0.0000000000000000
0.0000000000000000 1.0000000000000000 0.0000000000000000
0.0000000000000000 1.0000000000000000 0.0000000000000000
0.0000000000000000 1.0000000000000000 0.0000000000000000
0.0000000000000000 1.0000000000000000 0.0000000000000000
0.0000000000000000 1.0000000000000000 0.0000000000000000
0.0000000000000000 1.0000000000000000 0.0000000000000000
0.0000000000000000 1.0000000000000000 0.0000000000000000
0.0000000000000000 1.0000000000000000 0.0000000000000000
0.0000000000000000 1.0000000000000000 0.0000000000000000
0.0000000000000000 1.0000000000000000 0.0000000000000000
0.0000000000000000 1.0000000000000000 0.0000000000000000
0.0000000000000000 1.0000000000000000 0.0000000000000000
0.0000000000000000 1.0000000000000000 0.0000000000000000
0.0000000000000000 1.0000000000000000 0.0000000000000000
0.0000000000000000 1.0000000000000000 0.0000000000000000
0.0000000000000000 1.0000000000000000 0.0000000000000000
0.0000000000000000 1.0000000000000000 0.0000000000000000
0.0000000000000000 1.0000000000000000 0.0000000000000000
0.0000000000000000 1.0000000000000000 0.0000000000000000
0.0000000000000000 1.0000000000000000 0.0000000000000000
0.0000000000000000 1.0000000000000000 0.0000000000000000
0.0000000000000000 1.0000000000000000 0.0000000000000000
0.0000000000000000 1.0000000000000000 0.0000000000000000
0.0000000000000000 1.0000000000000000 0.0000000000000000
0.0000000000000000 1.0000000000000000 0.0000000000000000
0.0000000000000000 1.0000000000000000 0.0000000000000000
0.0000000000000000 1.0000000000000000 0.0000000000000000
0.0000000000000000 1.0000000000000000 0.0000000000000000
0.0000000000000000 1.0000000000000000 0.0000000000000000
0.0000000000000000 1.0000000000000000 0.0000000000000000
0.0000000000000000 1.0000000000000000 0.0000000000000000
0.0000000000000000 1.0000000000000000 0.0000000000000000
0.0000000000000000 1.0000000000000000 0.0000000000000000
0.0000000000000000 1.0000000000000000 0.0000000000000000
0.0000000000000000 1.0000000000000000 0.0000000000000000
0.0000000000000000 1.0000000000000000 0.0000000000000000
0.0000000000000000 1.0000000000000000 0.0000000000000000
0.0000000000000000 1.0000000000000000 0.0000000000000000
0.0000000000000000 1.0000000000000000 0.0000000000000000
0.0000000000000000 1.0000000000000000 0.0000000000000000
0.0000000000000000 1.0000000000000000 0.0000000000000000
0.0000000000000000 1.0000000000000000 0.0000000000000000
0.0000000000000000 1.0000000000000000 0.0000000000000000
0.0000000000000000 1.0000000000000000 0.0000000000000000
0.0000000000000000 1.0000000000000000 0.0000000000000000
0.0000000000000000 1.0000000000000000 0.0000000000000000
0.0000000000000000 1.0000000000000000 0.0000000000000000
0.0000000000000000 1.0000000000000000 0.0000000000000000
0.0000000000000000 1.0000000000000000 0.0000000000000000
0.0000000000000000 1.0000000000000000 0.0000000000000000
0.0000000000000000 1.0000000000000000 0.0000000000000000
0.0000000000000000 1.0000000000000000 0.0000000000000000
0.0000000000000000 1.0000000000000000 0.0000000000000000
0.0000000000000000 1.0000000000000000 0.0000000000000000
0.0000000000000000 1.0000000000000000 0.0000000000000000
0.0000000000000000 1.0000000000000000 0.0000000000000000
0.0000000000000000 1.0000000000000000 0.0000000000000000
0.0000000000000000 1.0000000000000000 0.0000000000000000
0.0000000000000000 1.0000000000000000 0.0000000000000000
0.0000000000000000 1.0000000000000000 0.0000000000000000
0.0000000000000000 1.0000000000000000 0.0000000000000000
0.0000000000000000 1.0000000000000000 0.0000000000000000
0.0000000000000000 1.0000000000000000 0.0000000000000000
0.0000000000000000 1.0000000000000000 0.0000000000000000
0.0000000000000000 1.0000000000000000 0.0000000000000000
0.0000000000000000 1.0000000000000000 0.0000000000000000
0.0000000000000000 1.0000000000000000 0.0000000000000000
0.0000000000000000 1.0000000000000000 0.0000000000000000
0.0000000000000000 1.0000000000000000 0.0000000000000000
0.0000000000000000 1.0000000000000000 0.0000000000000000
0.0000000000000000 1.0000000000000000 0.0000000000000000
0.0000000000000000 1.0000000000000000 0.0000000000000000
0.0000000000000000 1.0000000000000000 0.0000000000000000
0.0000000000000000 1.0000000000000000 0.0000000000000000
0.0000000000000000 1.0000000000000000 0.0000000000000000
0.0000000000000000 1.0000000000000000 0.0000000000000000
0.0000000000000000 1.0000000000000000 0.0000000000000000
0.0000000000000000 1.0000000000000000 0.0000000000000000
0.0000000000000000 1.0000000000000000 0.0000000000000000
0.0000000000000000 1.0000000000000000 0.0000000000000000
0.0000000000000000 1.0000000000000000 0.0000000000000000
0.0000000000000000 1.0000000000000000 0.0000000000000000
0.0000000000000000 1.0000000000000000 0.0000000000000000
0.0000000000000000 1.0000000000000000 0.0000000000000000
0.0000000000000000 1.0000000000000000 0.0000000000000000
0.0000000000000000 1.0000000000000000 0.0000000000000000
0.0000000000000000 1.0000000000000000 0.0000000000000000
0.0000000000000000 1.0000000000000000 0.0000000000000000
0.0000000000000000 1.0000000000000000 0.0000000000000000
0.0000000000000000 1.0000000000000000 0.0000000000000000
0.0000000000000000 1.0000000000000000 0.0000000000000000
0.0000000000000000 1.0000000000000000 0.0000000000000000
0.0000000000000000 1.0000000000000000 0.0000000000000000
0.0000000000000000 1.0000000000000000 0.0000000000000000
0.0000000000000000 1.0000000000000000 0.0000000000000000
0.0000000000000000 1.0000000000000000 0.0000000000000000
0.0000000000000000 1.0000000000000000 0.0000000000000000
0.0000000000000000 1.0000000000000000 0.0000000000000000
0.0000000000000000 1.0000000000000000 0.0000000000000000
0.0000000000000000 1.0000000000000000 0.0000000000000000
0.0000000000000000 1.0000000000000000 0.0000000000000000
0.0000000000000000 1.0000000000000000 0.0000000000000000
0.0000000000000000 1.0000000000000000 0.0000000000000000
0.0000000000000000 1.0000000000000000 0.0000000000000000
0.0000000000000000 1.0000000000000000 0.0000000000000000
0.0000000000000000 1.0000000000000000 0.0000000000000000
0.0000000000000000 1.0000000000000000 0.0000000000000000
0.0000000000000000 1.0000000000000000 0.0000000000000000
0.0000000000000000 1.0000000000000000 0.0000000000000000
0.0000000000000000 1.0000000000000000 0.0000000000000000
0.0000000000000000 1.0000000000000000 0.0000000000000000
0.0000000000000000 1.0000000000000000 0.0000000000000000
0.0000000000000000 1.0000000000000000 0.0000000000000000
0.0000000000000000 1.0000000000000000 0.0000000000000000
0.0000000000000000 1.0000000000000000 0.0000000000000000
0.0000000000000000 1.0000000000000000 0.0000000000000000
0.0000000000000000 1.0000000000000000 0.0000000000000000
0.0000000000000000 1.0000000000000000 0.0000000000000000
0.0000000000000000 1.0000000000000000 0.0000000000000000
0.0000000000000000 1.0000000000000000 0.0000000000000000
0.0000000000000000 1.0000000000000000 0.0000000000000000
0.0000000000000000 1.0000000000000000 0.0000000000000000
0.0000000000000000 1.0000000000000000 0.0000000000000000
0.0000000000000000 1.0000000000000000 0.0000000000000000
0.0000000000000000 1.0000000000000000 0.0000000000000000
0.0000000000000000 1.0000000000000000 0.0000000000000000
0.0000000000000000 1.0000000000000000 0.0000000000000000
0.0000000000000000 1.0000000000000000 0.0000000000000000
0.0000000000000000 1.0000000000000000 0.0000000000000000
0.0000000000000000 1.0000000000000000 0.0000000000000000
0.0000000000000000 1.0000000000000000 0.0000000000000000
0.0000000000000000 1.0000000000000000 0.0000000000000000
0.0000000000000000 1.0000000000000000 0.0000000000000000
0.0000000000000000 1.0000000000000000 0.0000000000000000
0.0000000000000000 1.0000000000000000 0.0000000000000000
0.0000000000000000 1.0000000000000000 0.0000000000000000
0.0000000000000000 1.0000000000000000 0.0000000000000000
0.0000000000000000 1.0000000000000000 0.0000000000000000
0.0000000000000000 1.0000000000000000 0.0000000000000000
0.0000000000000000 1.0000000000000000 0.0000000000000000
0.0000000000000000 1.0000000000000000 0.0000000000000000
0.0000000000000000 1.0000000000000000 0.0000000000000000
0.0000000000000000 1.0000000000000000 0.0000000000000000
0.0000000000000000 1.0000000000000000 0.0000000000000000
0.0000000000000000 1.0000000000000000 0.0000000000000000
0.0000000000000000 1.0000000000000000 0.0000000000000000
0.0000000000000000 1.0000000000000000 0.0000000000000000
0.0000000000000000 1.0000000000000000 0.0000000000000000
0.0000000000000000 1.0000000000000000 0.0000000000000000
0.0000000000000000 1.0000000000000000 0.0000000000000000
0.0000000000000000 1.0000000000000000 0.0000000000000000
0.0000000000000000 1.0000000000000000 0.0000000000000000
0.0000000000000000 1.0000000000000000 0.0000000000000000
0.0000000000000000 1.0000000000000000 0.0000000000000000
0.0000000000000000 1.0000000000000000 0.0000000000000000
0.0000000000000000 1.0000000000000000 0.0000000000000000
0.0000000000000000 1.0000000000000000 0.0000000000000000
0.0000000000000000 1.0000000000000000 0.0000000000000000
0.0000000000000000 1.0000000000000000 0.0000000000000000
0.0000000000000000 1.0000000000000000 0.0000000000000000
0.0000000000000000 1.0000000000000000 0.0000000000000000
0.0000000000000000 1.0000000000000000 0.0000000000000000
0.0000000000000000 1.0000000000000000 0.0000000000000000
0.0000000000000000 1.0000000000000000 0.0000000000000000
0.0000000000000000 1.0000000000000000 0.0000000000000000
0.0000000000000000 1.0000000000000000 0.0000000000000000
0.0000000000000000 1.0000000000000000 0.0000000000000000
0.0000000000000000 1.0000000000000000 0.0000000000000000
0.0000000000000000 1.0000000000000000 0.0000000000000000
0.0000000000000000 1.0000000000000000 0.0000000000000000
0.0000000000000000 1.0000000000000000 0.0000000000000000
0.0000000000000000 1.0000000000000000 0.0000000000000000
0.0000000000000000 1.0000000000000000 0.0000000000000000
0.0000000000000000 1.0000000000000000 0.0000000000000000
0.0000000000000000 1.0000000000000000 0.0000000000000000
0.0000000000000000 1.0000000000000000 0.0000000000000000
0.0000000000000000 1.0000000000000000 0.0000000000000000
0.0000000000000000 1.0000000000000000 0.0000000000000000
0.0000000000000000 1.0000000000000000 0.0000000000000000
0.0000000000000000 1.0000000000000000 0.0000000000000000
0.0000000000000000 1.0000000000000000 0.0000000000000000
0.0000000000000000 1.0000000000000000 0.0000000000000000
0.0000000000000000 1.0000000000000000 0.0000000000000000
0.0000000000000000 1.0000000000000000 0.0000000000000000
0.0000000000000000 1.0000000000000000 0.0000000000000000
0.0000000000000000 1.0000000000000000 0.0000000000000000
0.0000000000000000 1.0000000000000000 0.0000000000000000
0.0000000000000000 1.0000000000000000 0.0000000000000000
0.0000000000000000 1.0000000000000000 0.0000000000000000
0.0000000000000000 1.0000000000000000 0.0000000000000000
0.0000000000000000 1.0000000000000000 0.0000000000000000
0.0000000000000000 1.0000000000000000 0.0000000000000000
0.0000000000000000 1.0000000000000000 0.0000000000000000
0.0000000000000000 1.0000000000000000 0.0000000000000000
0.0000000000000000 1.0000000000000000 0.0000000000000000
0.0000000000000000 1.0000000000000000 0.0000000000000000
0.0000000000000000 1.0000000000000000 0.0000000000000000
0.0000000000000000 1.0000000000000000 0.0000000000000000
0.0000000000000000 1.0000000000000000 0.0000000000000000
0.0000000000000000 1.0000000000000000 0.0000000000000000
0.0000000000000000 1.0000000000000000 0.0000000000000000
0.0000000000000000 1.0000000000000000 0.0000000000000000
0.0000000000000000 1.0000000000000000 0.0000000000000000
0.0000000000000000 1.0000000000000000 0.0000000000000000
0.0000000000000000 1.0000000000000000 0.0000000000000000
0.0000000000000000 1.0000000000000000 0.0000000000000000
0.0000000000000000 1.0000000000000000 0.0000000000000000
0.0000000000000000 1.0000000000000000 0.0000000000000000
0.0000000000000000 1.0000000000000000 0.0000000000000000
0.0000000000000000 1.0000000000000000 0.0000000000000000
0.0000000000000000 1.0000000000000000 0.0000000000000000
0.0000000000000000 1.0000000000000000 0.0000000000000000
0.0000000000000000 1.0000000000000000 0.0000000000000000
0.0000000000000000 1.0000000000000000 0.0000000000000000
0.0000000000000000 1.0000000000000000 0.0000000000000000
0.0000000000000000 1.0000000000000000 0.0000000000000000
0.0000000000000000 1.0000000000000000 0.0000000000000000
0.0000000000000000 1.0000000000000000 0.0000000000000000
0.0000000000000000 1.0000000000000000 0.0000000000000000
0.0000000000000000 1.0000000000000000 0.0000000000000000
0.0000000000000000 1.0000000000000000 0.0000000000000000
0.0000000000000000 1.0000000000000000 0.0000000000000000
0.0000000000000000 1.0000000000000000 0.0000000000000000
0.0000000000000000 1.0000000000000000 0.0000000000000000
0.0000000000000000 1.0000000000000000 0.0000000000000000
0.0000000000000000 1.0000000000000000 0.0000000000000000
0.0000000000000000 1.0000000000000000 0.0000000000000000
0.0000000000000000 1.0000000000000000 0.0000000000000000
0.0000000000000000 1.0000000000000000 0.0000000000000000
0.0000000000000000 1.0000000000000000 0.0000000000000000
0.0000000000000000 1.0000000000000000 0.0000000000000000
0.0000000000000000 1.0000000000000000 0.0000000000000000
0.0000000000000000 1.0000000000000000 0.0000000000000000
0.0000000000000000 1.0000000000000000 0.0000000000000000
0.0000000000000000 1.0000000000000000 0.0000000000000000
0.0000000000000000 1.0000000000000000 0.0000000000000000
0.0000000000000000 1.0000000000000000 0.0000000000000000
0.0000000000000000 1.0000000000000000 0.0000000000000000
0.0000000000000000 1.0000000000000000 0.0000000000000000
0.0000000000000000 1.0000000000000000 0.0000000000000000
0.0000000000000000 1.0000000000000000 0.0000000000000000
0.0000000000000000 1.0000000000000000 0.0000000000000000
0.0000000000000000 1.0000000000000000 0.0000000000000000
0.0000000000000000 1.0000000000000000 0.0000000000000000
0.0000000000000000 1.0000000000000000 0.0000000000000000
0.0000000000000000 1.0000000000000000 0.0000000000000000
0.0000000000000000 1.0000000000000000 0.0000000000000000
0.0000000000000000 1.0000000000000000 0.0000000000000000
0.0000000000000000 1.0000000000000000 0.0000000000000000
0.0000000000000000 1.0000000000000000 0.0000000000000000
0.0000000000000000 1.0000000000000000 0.0000000000000000
0.0000000000000000 1.0000000000000000 0.0000000000000000
0.0000000000000000 1.0000000000000000 0.0000000000000000
0.0000000000000000 1.0000000000000000 0.0000000000000000
0.0000000000000000 1.0000000000000000 0.0000000000000000
0.0000000000000000 1.0000000000000000 0.0000000000000000
0.0000000000000000 1.0000000000000000 0.0000000000000000
0.0000000000000000 1.0000000000000000 0.0000000000000000
0.0000000000000000 1.0000000000000000 0.0000000000000000
0.0000000000000000 1.0000000000000000 0.0000000000000000
0.0000000000000000 1.0000000000000000 0.0000000000000000
0.0000000000000000 1.0000000000000000 0.0000000000000000
0.0000000000000000 1.0000000000000000 0.0000000000000000
0.0000000000000000 1.0000000000000000 0.0000000000000000
0.0000000000000000 1.0000000000000000 0.0000000000000000
0.0000000000000000 1.0000000000000000 0.0000000000000000
0.0000000000000000 1.0000000000000000 0.0000000000000000
0.0000000000000000 1.0000000000000000 0.0000000000000000
0.0000000000000000 1.0000000000000000 0.0000000000000000
0.0000000000000000 1.0000000000000000 0.0000000000000000
0.0000000000000000 1.0000000000000000 0.0000000000000000
0.0000000000000000 1.0000000000000000 0.0000000000000000
0.0000000000000000 1.0000000000000000 0.0000000000000000
0.0000000000000000 1.0000000000000000 0.0000000000000000
0.0000000000000000 1.0000000000000000 0.0000000000000000
0.0000000000000000 1.0000000000000000 0.0000000000000000
0.0000000000000000 1.0000000000000000 0.0000000000000000
0.0000000000000000 1.0000000000000000 0.0000000000000000
0.0000000000000000 1.0000000000000000 0.0000000000000000
0.0000000000000000 1.0000000000000000 0.0000000000000000
0.0000000000000000 1.0000000000000000 0.0000000000000000
0.0000000000000000 1.0000000000000000 0.0000000000000000
0.0000000000000000 1.0000000000000000 0.0000000000000000
0.0000000000000000 1.0000000000000000 0.0000000000000000
0.0000000000000000 1.0000000000000000 0.0000000000000000
0.0000000000000000 1.0000000000000000 0.0000000000000000
0.0000000000000000 1.0000000000000000 0.0000000000000000
0.0000000000000000 1.0000000000000000 0.0000000000000000
0.0000000000000000 1.0000000000000000 0.0000000000000000
0.0000000000000000 1.0000000000000000 0.0000000000000000
0.0000000000000000 1.0000000000000000 0.0000000000000000
0.0000000000000000 1.0000000000000000 0.0000000000000000
0.0000000000000000 1.0000000000000000 0.0000000000000000
0.0000000000000000 1.0000000000000000 0.0000000000000000
0.0000000000000000 1.0000000000000000 0.0000000000000000
0.0000000000000000 1.0000000000000000 0.0000000000000000
0.0000000000000000 1.0000000000000000 0.0000000000000000
0.0000000000000000 1.0000000000000000 0.0000000000000000
0.0000000000000000 1.0000000000000000 0.0000000000000000
0.0000000000000000 1.0000000000000000 0.0000000000000000
0.0000000000000000 1.0000000000000000 0.0000000000000000
0.0000000000000000 1.0000000000000000 0.0000000000000000
0.0000000000000000 1.0000000000000000 0.0000000000000000
0.0000000000000000 1.0000000000000000 0.0000000000000000
0.0000000000000000 1.0000000000000000 0.0000000000000000
0.0000000000000000 1.0000000000000000 0.0000000000000000
0.0000000000000000 1.0000000000000000 0.0000000000000000
0.0000000000000000 1.0000000000000000 0.0000000000000000
0.0000000000000000 1.0000000000000000 0.0000000000000000
0.0000000000000000 1.0000000000000000 0.0000000000000000
0.0000000000000000 1.0000000000000000 0.0000000000000000
0.0000000000000000 1.0000000000000000 0.0000000000000000
0.0000000000000000 1.0000000000000000 0.0000000000000000
0.0000000000000000 1.0000000000000000 0.0000000000000000
0.0000000000000000 1.0000000000000000 0.0000000000000000
0.0000000000000000 1.0000000000000000 0.0000000000000000
0.0000000000000000 1.0000000000000000 0.0000000000000000
0.0000000000000000 1.0000000000000000 0.0000000000000000
0.0000000000000000 1.0000000000000000 0.0000000000000000
0.0000000000000000 1.0000000000000000 0.0000000000000000
0.0000000000000000 1.0000000000000000 0.0000000000000000
0.0000000000000000 1.0000000000000000 0.0000000000000000
0.0000000000000000 1.0000000000000000 0.0000000000000000
0.0000000000000000 1.0000000000000000 0.0000000000000000
0.0000000000000000 1.0000000000000000 0.0000000000000000
0.0000000000000000 1.0000000000000000 0.0000000000000000
0.0000000000000000 1.0000000000000000 0.0000000000000000
0.0000000000000000 1.0000000000000000 0.0000000000000000
0.0000000000000000 1.0000000000000000 0.0000000000000000
0.0000000000000000 1.0000000000000000 0.0000000000000000
0.0000000000000000 1.0000000000000000 0.0000000000000000
0.0000000000000000 1.0000000000000000 0.0000000000000000
0.0000000000000000 1.0000000000000000 0.0000000000000000
0.0000000000000000 1.0000000000000000 0.0000000000000000
0.0000000000000000 1.0000000000000000 0.0000000000000000
0.0000000000000000 1.0000000000000000 0.0000000000000000
0.0000000000000000 1.0000000000000000 0.0000000000000000
0.0000000000000000 1.0000000000000000 0.0000000000000000
0.0000000000000000 1.0000000000000000 0.0000000000000000
0.0000000000000000 1.0000000000000000 0.0000000000000000
0.0000000000000000 1.0000000000000000 0.0000000000000000
0.0000000000000000 1.0000000000000000 0.0000000000000000
0.0000000000000000 1.0000000000000000 0.0000000000000000
0.0000000000000000 1.0000000000000000 0.0000000000000000
0.0000000000000000 1.0000000000000000 0.0000000000000000
0.0000000000000000 1.0000000000000000 0.0000000000000000
0.0000000000000000 1.0000000000000000 0.0000000000000000
0.0000000000000000 1.0000000000000000 0.0000000000000000
0.0000000000000000 1.0000000000000000 0.0000000000000000
0.0000000000000000 1.0000000000000000 0.0000000000000000
0.0000000000000000 1.0000000000000000 0.0000000000000000
0.0000000000000000 1.0000000000000000 0.0000000000000000
0.0000000000000000 1.0000000000000000 0.0000000000000000
0.0000000000000000 1.0000000000000000 0.0000000000000000
0.0000000000000000 1.0000000000000000 0.0000000000000000
0.0000000000000000 1.0000000000000000 0.0000000000000000
0.0000000000000000 1.0000000000000000 0.0000000000000000
0.0000000000000000 1.0000000000000000 0.0000000000000000
0.0000000000000000 1.0000000000000000 0.0000000000000000
0.0000000000000000 1.0000000000000000 0.0000000000000000
0.0000000000000000 1.0000000000000000 0.0000000000000000
0.0000000000000000 1.0000000000000000 0.0000000000000000
0.0000000000000000 1.0000000000000000 0.0000000000000000
0.0000000000000000 1.0000000000000000 0.0000000000000000
0.0000000000000000 1.0000000000000000 0.0000000000000000
0.0000000000000000 1.0000000000000000 0.0000000000000000
0.0000000000000000 1.0000000000000000 0.0000000000000000
0.0000000000000000 1.0000000000000000 0.0000000000000000
0.0000000000000000 1.0000000000000000 0.0000000000000000
0.0000000000000000 1.0000000000000000 0.0000000000000000
0.0000000000000000 1.0000000000000000 0.0000000000000000
0.0000000000000000 1.0000000000000000 0.0000000000000000
0.0000000000000000 1.0000000000000000 0.0000000000000000
0.0000000000000000 1.0000000000000000 0.0000000000000000
0.0000000000000000 1.0000000000000000 0.0000000000000000
0.0000000000000000 1.0000000000000000 0.0000000000000000
0.0000000000000000 1.0000000000000000 0.0000000000000000
0.0000000000000000 1.0000000000000000 0.0000000000000000
0.0000000000000000 1.0000000000000000 0.0000000000000000
0.0000000000000000 1.0000000000000000 0.0000000000000000
0.0000000000000000 1.0000000000000000 0.0000000000000000
0.0000000000000000 1.0000000000000000 0.0000000000000000
0.0000000000000000 1.0000000000000000 0.0000000000000000
0.0000000000000000 1.0000000000000000 0.0000000000000000
0.0000000000000000 1.0000000000000000 0.0000000000000000
0.0000000000000000 1.0000000000000000 0.0000000000000000
0.0000000000000000 1.0000000000000000 0.0000000000000000
0.0000000000000000 1.0000000000000000 0.0000000000000000
0.0000000000000000 1.0000000000000000 0.0000000000000000
0.0000000000000000 1.0000000000000000 0.0000000000000000
0.0000000000000000 1.0000000000000000 0.0000000000000000
0.0000000000000000 1.0000000000000000 0.0000000000000000
0.0000000000000000 1.0000000000000000 0.0000000000000000
0.0000000000000000 1.0000000000000000 0.0000000000000000
0.0000000000000000 1.0000000000000000 0.0000000000000000
0.0000000000000000 1.0000000000000000 0.0000000000000000
0.0000000000000000 1.0000000000000000 0.0000000000000000
0.0000000000000000 1.0000000000000000 0.0000000000000000
0.0000000000000000 1.0000000000000000 0.0000000000000000
0.0000000000000000 1.0000000000000000 0.0000000000000000
0.0000000000000000 1.0000000000000000 0.0000000000000000
0.0000000000000000 1.0000000000000000 0.0000000000000000
0.0000000000000000 1.0000000000000000 0.0000000000000000
0.0000000000000000 1.0000000000000000 0.0000000000000000
0.0000000000000000 1.0000000000000000 0.0000000000000000
0.0000000000000000 1.0000000000000000 0.0000000000000000
0.0000000000000000 1.0000000000000000 0.0000000000000000
0.0000000000000000 1.0000000000000000 0.0000000000000000
0.0000000000000000 1.0000000000000000 0.0000000000000000
0.0000000000000000 1.0000000000000000 0.0000000000000000
0.0000000000000000 1.0000000000000000 0.0000000000000000
0.0000000000000000 1.0000000000000000 0.0000000000000000
0.0000000000000000 1.0000000000000000 0.0000000000000000
0.0000000000000000 1.0000000000000000 0.0000000000000000
0.0000000000000000 1.0000000000000000 0.0000000000000000
0.0000000000000000 1.0000000000000000 0.0000000000000000
0.0000000000000000 1.0000000000000000 0.0000000000000000
0.0000000000000000 1.0000000000000000 0.0000000000000000
0.0000000000000000 1.0000000000000000 0.0000000000000000
0.0000000000000000 1.0000000000000000 0.0000000000000000
0.0000000000000000 1.0000000000000000 0.0000000000000000
0.0000000000000000 1.0000000000000000 0.0000000000000000
0.0000000000000000 1.0000000000000000 0.0000000000000000
0.0000000000000000 1.0000000000000000 0.0000000000000000
0.0000000000000000 1.0000000000000000 0.0000000000000000
0.0000000000000000 1.0000000000000000 0.0000000000000000
0.0000000000000000 1.0000000000000000 0.0000000000000000
0.0000000000000000 1.0000000000000000 0.0000000000000000
0.0000000000000000 1.0000000000000000 0.0000000000000000
0.0000000000000000 1.0000000000000000 0.0000000000000000
0.0000000000000000 1.0000000000000000 0.0000000000000000
0.0000000000000000 1.0000000000000000 0.0000000000000000
0.0000000000000000 1.0000000000000000 0.0000000000000000
0.0000000000000000 1.0000000000000000 0.0000000000000000
0.0000000000000000 1.0000000000000000 0.0000000000000000
0.0000000000000000 1.0000000000000000 0.0000000000000000
0.0000000000000000 1.0000000000000000 0.0000000000000000
0.0000000000000000 1.0000000000000000 0.0000000000000000
0.0000000000000000 1.0000000000000000 0.0000000000000000
0.0000000000000000 1.0000000000000000 0.0000000000000000
0.0000000000000000 1.0000000000000000 0.0000000000000000
0.0000000000000000 1.0000000000000000 0.0000000000000000
0.0000000000000000 1.0000000000000000 0.0000000000000000
0.0000000000000000 1.0000000000000000 0.0000000000000000
0.0000000000000000 1.0000000000000000 0.0000000000000000
0.0000000000000000 1.0000000000000000 0.0000000000000000
0.0000000000000000 1.0000000000000000 0.0000000000000000
0.0000000000000000 1.0000000000000000 0.0000000000000000
0.0000000000000000 1.0000000000000000 0.0000000000000000
0.0000000000000000 1.0000000000000000 0.0000000000000000
0.0000000000000000 1.0000000000000000 0.0000000000000000
0.0000000000000000 1.0000000000000000 0.0000000000000000
0.0000000000000000 1.0000000000000000 0.0000000000000000
0.0000000000000000 1.0000000000000000 0.0000000000000000
0.0000000000000000 1.0000000000000000 0.0000000000000000
0.0000000000000000 1.0000000000000000 0.0000000000000000
0.0000000000000000 1.0000000000000000 0.0000000000000000
0.0000000000000000 1.0000000000000000 0.0000000000000000
0.0000000000000000 1.0000000000000000 0.0000000000000000
0.0000000000000000 1.0000000000000000 0.0000000000000000
0.0000000000000000 1.0000000000000000 0.0000000000000000
0.0000000000000000 1.0000000000000000 0.0000000000000000
0.0000000000000000 1.0000000000000000 0.0000000000000000
0.0000000000000000 1.0000000000000000 0.0000000000000000
0.0000000000000000 1.0000000000000000 0.0000000000000000
0.0000000000000000 1.0000000000000000 0.0000000000000000
0.0000000000000000 1.0000000000000000 0.0000000000000000
0.0000000000000000 1.0000000000000000 0.0000000000000000
0.0000000000000000 1.0000000000000000 0.0000000000000000
0.0000000000000000 1.0000000000000000 0.0000000000000000
0.0000000000000000 1.0000000000000000 0.0000000000000000
0.0000000000000000 1.0000000000000000 0.0000000000000000
0.0000000000000000 1.0000000000000000 0.0000000000000000
0.0000000000000000 1.0000000000000000 0.0000000000000000
0.0000000000000000 1.0000000000000000 0.0000000000000000
0.0000000000000000 1.0000000000000000 0.0000000000000000
0.0000000000000000 1.0000000000000000 0.0000000000000000
0.0000000000000000 1.0000000000000000 0.0000000000000000
0.0000000000000000 1.0000000000000000 0.0000000000000000
0.0000000000000000 1.0000000000000000 0.0000000000000000
0.0000000000000000 1.0000000000000000 0.0000000000000000
0.0000000000000000 1.0000000000000000 0.0000000000000000
0.0000000000000000 1.0000000000000000 0.0000000000000000
0.0000000000000000 1.0000000000000000 0.0000000000000000
0.0000000000000000 1.0000000000000000 0.0000000000000000
0.0000000000000000 1.0000000000000000 0.0000000000000000
0.0000000000000000 1.0000000000000000 0.0000000000000000
0.0000000000000000 1.0000000000000000 0.0000000000000000
0.0000000000000000 1.0000000000000000 0.0000000000000000
0.0000000000000000 1.0000000000000000 0.0000000000000000
0.0000000000000000 1.0000000000000000 0.0000000000000000
0.0000000000000000 1.0000000000000000 0.0000000000000000
0.0000000000000000 1.0000000000000000 0.0000000000000000
0.0000000000000000 1.0000000000000000 0.0000000000000000
0.0000000000000000 1.0000000000000000 0.0000000000000000
0.0000000000000000 1.0000000000000000 0.0000000000000000
0.0000000000000000 1.0000000000000000 0.0000000000000000
0.0000000000000000 1.0000000000000000 0.0000000000000000
0.0000000000000000 1.0000000000000000 0.0000000000000000
0.0000000000000000 1.0000000000000000 0.0000000000000000
0.0000000000000000 1.0000000000000000 0.0000000000000000
0.0000000000000000 1.0000000000000000 0.0000000000000000
0.0000000000000000 1.0000000000000000 0.0000000000000000
0.0000000000000000 1.0000000000000000 0.0000000000000000
0.0000000000000000 1.0000000000000000 0.0000000000000000
0.0000000000000000 1.0000000000000000 0.0000000000000000
0.0000000000000000 1.0000000000000000 0.0000000000000000
0.0000000000000000 1.0000000000000000 0.0000000000000000
0.0000000000000000 1.0000000000000000 0.0000000000000000
0.0000000000000000 1.0000000000000000 0.0000000000000000
0.0000000000000000 1.0000000000000000 0.0000000000000000
0.0000000000000000 1.0000000000000000 0.0000000000000000
0.0000000000000000 1.0000000000000000 0.0000000000000000
0.0000000000000000 1.0000000000000000 0.0000000000000000
0.0000000000000000 1.0000000000000000 0.0000000000000000
0.0000000000000000 1.0000000000000000 0.0000000000000000
0.0000000000000000 1.0000000000000000 0.0000000000000000
0.0000000000000000 1.0000000000000000 0.0000000000000000
0.0000000000000000 1.0000000000000000 0.0000000000000000
0.0000000000000000 1.0000000000000000 0.0000000000000000
0.0000000000000000 1.0000000000000000 0.0000000000000000
0.0000000000000000 1.0000000000000000 0.0000000000000000
0.0000000000000000 1.0000000000000000 0.0000000000000000
0.0000000000000000 1.0000000000000000 0.0000000000000000
0.0000000000000000 1.0000000000000000 0.0000000000000000
0.0000000000000000 1.0000000000000000 0.0000000000000000
0.0000000000000000 1.0000000000000000 0.0000000000000000
0.0000000000000000 1.0000000000000000 0.0000000000000000
0.0000000000000000 1.0000000000000000 0.0000000000000000
0.0000000000000000 1.0000000000000000 0.0000000000000000
0.0000000000000000 1.0000000000000000 0.0000000000000000
0.0000000000000000 1.0000000000000000 0.0000000000000000
0.0000000000000000 1.0000000000000000 0.0000000000000000
0.0000000000000000 1.0000000000000000 0.0000000000000000
0.0000000000000000 1.0000000000000000 0.0000000000000000
0.0000000000000000 1.0000000000000000 0.0000000000000000
0.0000000000000000 1.0000000000000000 0.0000000000000000
0.0000000000000000 1.0000000000000000 0.0000000000000000
0.0000000000000000 1.0000000000000000 0.0000000000000000
0.0000000000000000 1.0000000000000000 0.0000000000000000
0.0000000000000000 1.0000000000000000 0.0000000000000000
0.0000000000000000 1.0000000000000000 0.0000000000000000
0.0000000000000000 1.0000000000000000 0.0000000000000000
0.0000000000000000 1.0000000000000000 0.0000000000000000
0.0000000000000000 1.0000000000000000 0.0000000000000000
0.0000000000000000 1.0000000000000000 0.0000000000000000
0.0000000000000000 1.0000000000000000 0.0000000000000000
0.0000000000000000 1.0000000000000000 0.0000000000000000
0.0000000000000000 1.0000000000000000 0.0000000000000000
0.0000000000000000 1.0000000000000000 0.0000000000000000
0.0000000000000000 1.0000000000000000 0.0000000000000000
0.0000000000000000 1.0000000000000000 0.0000000000000000
0.0000000000000000 1.0000000000000000 0.0000000000000000
0.0000000000000000 1.0000000000000000 0.0000000000000000
0.0000000000000000 1.0000000000000000 0.0000000000000000
0.0000000000000000 1.0000000000000000 0.0000000000000000
0.0000000000000000 1.0000000000000000 0.0000000000000000
0.0000000000000000 1.0000000000000000 0.0000000000000000
0.0000000000000000 1.0000000000000000 0.0000000000000000
0.0000000000000000 1.0000000000000000 0.0000000000000000
0.0000000000000000 1.0000000000000000 0.0000000000000000
0.0000000000000000 1.0000000000000000 0.0000000000000000
0.0000000000000000 1.0000000000000000 0.0000000000000000
0.0000000000000000 1.0000000000000000 0.0000000000000000
0.0000000000000000 1.0000000000000000 0.0000000000000000
0.0000000000000000 1.0000000000000000 0.0000000000000000
0.0000000000000000 1.0000000000000000 0.0000000000000000
0.0000000000000000 1.0000000000000000 0.0000000000000000
0.0000000000000000 1.0000000000000000 0.0000000000000000
0.0000000000000000 1.0000000000000000 0.0000000000000000
0.0000000000000000 1.0000000000000000 0.0000000000000000
0.0000000000000000 1.0000000000000000 0.0000000000000000
0.0000000000000000 1.0000000000000000 0.0000000000000000
0.0000000000000000 1.0000000000000000 0.0000000000000000
0.0000000000000000 1.0000000000000000 0.0000000000000000
0.0000000000000000 1.0000000000000000 0.0000000000000000
0.0000000000000000 1.0000000000000000 0.0000000000000000
0.0000000000000000 1.0000000000000000 0.0000000000000000
0.0000000000000000 1.0000000000000000 0.0000000000000000
0.0000000000000000 1.0000000000000000 0.0000000000000000
0.0000000000000000 1.0000000000000000 0.0000000000000000
0.0000000000000000 1.0000000000000000 0.0000000000000000
0.0000000000000000 1.0000000000000000 0.0000000000000000
0.0000000000000000 1.0000000000000000 0.0000000000000000
0.0000000000000000 1.0000000000000000 0.0000000000000000
0.0000000000000000 1.0000000000000000 0.0000000000000000
0.0000000000000000 1.0000000000000000 0.0000000000000000
0.0000000000000000 1.0000000000000000 0.0000000000000000
0.0000000000000000 1.0000000000000000 0.0000000000000000
0.0000000000000000 1.0000000000000000 0.0000000000000000
0.0000000000000000 1.0000000000000000 0.0000000000000000
0.0000000000000000 1.0000000000000000 0.0000000000000000
0.0000000000000000 1.0000000000000000 0.0000000000000000
0.0000000000000000 1.0000000000000000 0.0000000000000000
0.0000000000000000 1.0000000000000000 0.0000000000000000
0.0000000000000000 1.0000000000000000 0.0000000000000000
0.0000000000000000 1.0000000000000000 0.0000000000000000
0.0000000000000000 1.0000000000000000 0.0000000000000000
0.0000000000000000 1.0000000000000000 0.0000000000000000
0.0000000000000000 1.0000000000000000 0.0000000000000000
0.0000000000000000 1.0000000000000000 0.0000000000000000
0.0000000000000000 1.0000000000000000 0.0000000000000000
0.0000000000000000 1.0000000000000000 0.0000000000000000
0.0000000000000000 1.0000000000000000 0.0000000000000000
0.0000000000000000 1.0000000000000000 0.0000000000000000
0.0000000000000000 1.0000000000000000 0.0000000000000000
0.0000000000000000 1.0000000000000000 0.0000000000000000
0.0000000000000000 1.0000000000000000 0.0000000000000000
0.0000000000000000 1.0000000000000000 0.0000000000000000
0.0000000000000000 1.0000000000000000 0.0000000000000000
0.0000000000000000 1.0000000000000000 0.0000000000000000
0.0000000000000000 1.0000000000000000 0.0000000000000000
0.0000000000000000 1.0000000000000000 0.0000000000000000
0.0000000000000000 1.0000000000000000 0.0000000000000000
0.0000000000000000 1.0000000000000000 0.0000000000000000
0.0000000000000000 1.0000000000000000 0.0000000000000000
0.0000000000000000 1.0000000000000000 0.0000000000000000
0.0000000000000000 1.0000000000000000 0.0000000000000000
0.0000000000000000 1.0000000000000000 0.0000000000000000
0.0000000000000000 1.0000000000000000 0.0000000000000000
0.0000000000000000 1.0000000000000000 0.0000000000000000
0.0000000000000000 1.0000000000000000 0.0000000000000000
0.0000000000000000 1.0000000000000000 0.0000000000000000
0.0000000000000000 1.0000000000000000 0.0000000000000000
0.0000000000000000 1.0000000000000000 0.0000000000000000
0.0000000000000000 1.0000000000000000 0.0000000000000000
0.0000000000000000 1.0000000000000000 0.0000000000000000
0.0000000000000000 1.0000000000000000 0.0000000000000000
0.0000000000000000 1.0000000000000000 0.0000000000000000
0.0000000000000000 1.0000000000000000 0.0000000000000000
0.0000000000000000 1.0000000000000000 0.0000000000000000
0.0000000000000000 1.0000000000000000 0.0000000000000000
0.0000000000000000 1.0000000000000000 0.0000000000000000
0.0000000000000000 1.0000000000000000 0.0000000000000000
0.0000000000000000 1.0000000000000000 0.0000000000000000
0.0000000000000000 1.0000000000000000 0.0000000000000000
0.0000000000000000 1.0000000000000000 0.0000000000000000
0.0000000000000000 1.0000000000000000 0.0000000000000000
0.0000000000000000 1.0000000000000000 0.0000000000000000
0.0000000000000000 1.0000000000000000 0.0000000000000000
0.0000000000000000 1.0000000000000000 0.0000000000000000
0.0000000000000000 1.0000000000000000 0.0000000000000000
0.0000000000000000 1.0000000000000000 0.0000000000000000
0.0000000000000000 1.0000000000000000 0.0000000000000000
0.0000000000000000 1.0000000000000000 0.0000000000000000
0.0000000000000000 1.0000000000000000 0.0000000000000000
0.0000000000000000 1.0000000000000000 0.0000000000000000
0.0000000000000000 1.0000000000000000 0.0000000000000000
0.0000000000000000 1.0000000000000000 0.0000000000000000
0.0000000000000000 1.0000000000000000 0.0000000000000000
0.0000000000000000 1.0000000000000000 0.0000000000000000
0.0000000000000000 1.0000000000000000 0.0000000000000000
0.0000000000000000 1.0000000000000000 0.0000000000000000
0.0000000000000000 1.0000000000000000 0.0000000000000000
0.0000000000000000 1.0000000000000000 0.0000000000000000
0.0000000000000000 1.0000000000000000 0.0000000000000000
0.0000000000000000 1.0000000000000000 0.0000000000000000
0.0000000000000000 1.0000000000000000 0.0000000000000000
0.0000000000000000 1.0000000000000000 0.0000000000000000
0.0000000000000000 1.0000000000000000 0.0000000000000000
0.0000000000000000 1.0000000000000000 0.0000000000000000
0.0000000000000000 1.0000000000000000 0.0000000000000000
0.0000000000000000 1.0000000000000000 0.0000000000000000
0.0000000000000000 1.0000000000000000 0.0000000000000000
0.0000000000000000 1.0000000000000000 0.0000000000000000
0.0000000000000000 1.0000000000000000 0.0000000000000000
0.0000000000000000 1.0000000000000000 0.0000000000000000
0.0000000000000000 1.0000000000000000 0.0000000000000000
0.0000000000000000 1.0000000000000000 0.0000000000000000
0.0000000000000000 1.0000000000000000 0.0000000000000000
0.0000000000000000 1.0000000000000000 0.0000000000000000
0.0000000000000000 1.0000000000000000 0.0000000000000000
0.0000000000000000 1.0000000000000000 0.0000000000000000
0.0000000000000000 1.0000000000000000 0.0000000000000000
0.0000000000000000 1.0000000000000000 0.0000000000000000
0.0000000000000000 1.0000000000000000 0.0000000000000000
0.0000000000000000 1.0000000000000000 0.0000000000000000
0.0000000000000000 1.0000000000000000 0.0000000000000000
0.0000000000000000 1.0000000000000000 0.0000000000000000
0.0000000000000000 1.0000000000000000 0.0000000000000000
0.0000000000000000 1.0000000000000000 0.0000000000000000
0.0000000000000000 1.0000000000000000 0.0000000000000000
0.0000000000000000 1.0000000000000000 0.0000000000000000
0.0000000000000000 1.0000000000000000 0.0000000000000000
0.0000000000000000 1.0000000000000000 0.0000000000000000
0.0000000000000000 1.0000000000000000 0.0000000000000000
0.0000000000000000 1.0000000000000000 0.0000000000000000
0.0000000000000000 1.0000000000000000 0.0000000000000000
0.0000000000000000 1.0000000000000000 0.0000000000000000
0.0000000000000000 1.0000000000000000 0.0000000000000000
0.0000000000000000 1.0000000000000000 0.0000000000000000
0.0000000000000000 1.0000000000000000 0.0000000000000000
0.0000000000000000 1.0000000000000000 0.0000000000000000
0.0000000000000000 1.0000000000000000 0.0000000000000000
0.0000000000000000 1.0000000000000000 0.0000000000000000
0.0000000000000000 1.0000000000000000 0.0000000000000000
0.0000000000000000 1.0000000000000000 0.0000000000000000
0.0000000000000000 1.0000000000000000 0.0000000000000000
0.0000000000000000 1.0000000000000000 0.0000000000000000
0.0000000000000000 1.0000000000000000 0.0000000000000000
0.0000000000000000 1.0000000000000000 0.0000000000000000
0.0000000000000000 1.0000000000000000 0.0000000000000000
0.0000000000000000 1.0000000000000000 0.0000000000000000
0.0000000000000000 1.0000000000000000 0.0000000000000000
0.0000000000000000 1.0000000000000000 0.0000000000000000
0.0000000000000000 1.0000000000000000 0.0000000000000000
0.0000000000000000 1.0000000000000000 0.0000000000000000
0.0000000000000000 1.0000000000000000 0.0000000000000000
0.0000000000000000 1.0000000000000000 0.0000000000000000
0.0000000000000000 1.0000000000000000 0.0000000000000000
0.0000000000000000 1.0000000000000000 0.0000000000000000
0.0000000000000000 1.0000000000000000 0.0000000000000000
0.0000000000000000 1.0000000000000000 0.0000000000000000
0.0000000000000000 1.0000000000000000 0.0000000000000000
0.0000000000000000 1.0000000000000000 0.0000000000000000
0.0000000000000000 1.0000000000000000 0.0000000000000000
0.0000000000000000 1.0000000000000000 0.0000000000000000
0.0000000000000000 1.0000000000000000 0.0000000000000000
0.0000000000000000 1.0000000000000000 0.0000000000000000
0.0000000000000000 1.0000000000000000 0.0000000000000000
0.0000000000000000 1.0000000000000000 0.0000000000000000
0.0000000000000000 1.0000000000000000 0.0000000000000000
0.0000000000000000 1.0000000000000000 0.0000000000000000
0.0000000000000000 1.0000000000000000 0.0000000000000000
0.0000000000000000 1.0000000000000000 0.0000000000000000
0.0000000000000000 1.0000000000000000 0.0000000000000000
0.0000000000000000 1.0000000000000000 0.0000000000000000
0.0000000000000000 1.0000000000000000 0.0000000000000000
0.0000000000000000 1.0000000000000000 0.0000000000000000
0.0000000000000000 1.0000000000000000 0.0000000000000000
0.0000000000000000 1.0000000000000000 0.0000000000000000
0.0000000000000000 1.0000000000000000 0.0000000000000000
0.0000000000000000 1.0000000000000000 0.0000000000000000
0.0000000000000000 1.0000000000000000 0.0000000000000000
0.0000000000000000 1.0000000000000000 0.0000000000000000
0.0000000000000000 1.0000000000000000 0.0000000000000000
0.0000000000000000 1.0000000000000000 0.0000000000000000
0.0000000000000000 1.0000000000000000 0.0000000000000000
0.0000000000000000 1.0000000000000000 0.0000000000000000
0.0000000000000000 1.0000000000000000 0.0000000000000000
0.0000000000000000 1.0000000000000000 0.0000000000000000
0.0000000000000000 1.0000000000000000 0.0000000000000000
0.0000000000000000 1.0000000000000000 0.0000000000000000
0.0000000000000000 1.0000000000000000 0.0000000000000000
0.0000000000000000 1.0000000000000000 0.0000000000000000
0.0000000000000000 1.0000000000000000 0.0000000000000000
0.0000000000000000 1.0000000000000000 0.0000000000000000
0.0000000000000000 1.0000000000000000 0.0000000000000000
0.0000000000000000 1.0000000000000000 0.0000000000000000
0.0000000000000000 1.0000000000000000 0.0000000000000000
0.0000000000000000 1.0000000000000000 0.0000000000000000
0.0000000000000000 1.0000000000000000 0.0000000000000000
0.0000000000000000 1.0000000000000000 0.0000000000000000
0.0000000000000000 1.0000000000000000 0.0000000000000000
0.0000000000000000 1.0000000000000000 0.0000000000000000
0.0000000000000000 1.0000000000000000 0.0000000000000000
0.0000000000000000 1.0000000000000000 0.0000000000000000
0.0000000000000000 1.0000000000000000 0.0000000000000000
0.0000000000000000 1.0000000000000000 0.0000000000000000
0.0000000000000000 1.0000000000000000 0.0000000000000000
0.0000000000000000 1.0000000000000000 0.0000000000000000
0.0000000000000000 1.0000000000000000 0.0000000000000000
0.0000000000000000 1.0000000000000000 0.0000000000000000
0.0000000000000000 1.0000000000000000 0.0000000000000000
0.0000000000000000 1.0000000000000000 0.0000000000000000
0.0000000000000000 1.0000000000000000 0.0000000000000000
0.0000000000000000 1.0000000000000000 0.0000000000000000
0.0000000000000000 1.0000000000000000 0.0000000000000000
0.0000000000000000 1.0000000000000000 0.0000000000000000
0.0000000000000000 1.0000000000000000 0.0000000000000000
0.0000000000000000 1.0000000000000000 0.0000000000000000
0.0000000000000000 1.0000000000000000 0.0000000000000000
0.0000000000000000 1.0000000000000000 0.0000000000000000
0.0000000000000000 1.0000000000000000 0.0000000000000000
0.0000000000000000 1.0000000000000000 0.0000000000000000
0.0000000000000000 1.0000000000000000 0.0000000000000000
0.0000000000000000 1.0000000000000000 0.0000000000000000
0.0000000000000000 1.0000000000000000 0.0000000000000000
0.0000000000000000 1.0000000000000000 0.0000000000000000
0.0000000000000000 1.0000000000000000 0.0000000000000000
0.0000000000000000 1.0000000000000000 0.0000000000000000
0.0000000000000000 1.0000000000000000 0.0000000000000000
0.0000000000000000 1.0000000000000000 0.0000000000000000
0.0000000000000000 1.0000000000000000 0.0000000000000000
0.0000000000000000 1.0000000000000000 0.0000000000000000
0.0000000000000000 1.0000000000000000 0.0000000000000000
0.0000000000000000 1.0000000000000000 0.0000000000000000
0.0000000000000000 1.0000000000000000 0.0000000000000000
0.0000000000000000 1.0000000000000000 0.0000000000000000
0.0000000000000000 1.0000000000000000 0.0000000000000000
0.0000000000000000 1.0000000000000000 0.0000000000000000
0.0000000000000000 1.0000000000000000 0.0000000000000000
0.0000000000000000 1.0000000000000000 0.0000000000000000
0.0000000000000000 1.0000000000000000 0.0000000000000000
0.0000000000000000 1.0000000000000000 0.0000000000000000
0.0000000000000000 1.0000000000000000 0.0000000000000000
0.0000000000000000 1.0000000000000000 0.0000000000000000
0.0000000000000000 1.0000000000000000 0.0000000000000000
0.0000000000000000 1.0000000000000000 0.0000000000000000
0.0000000000000000 1.0000000000000000 0.0000000000000000
0.0000000000000000 1.0000000000000000 0.0000000000000000
0.0000000000000000 1.0000000000000000 0.0000000000000000
0.0000000000000000 1.0000000000000000 0.0000000000000000
0.0000000000000000 1.0000000000000000 0.0000000000000000
0.0000000000000000 1.0000000000000000 0.0000000000000000
0.0000000000000000 1.0000000000000000 0.0000000000000000
0.0000000000000000 1.0000000000000000 0.0000000000000000
0.0000000000000000 1.0000000000000000 0.0000000000000000
0.0000000000000000 1.0000000000000000 0.0000000000000000
0.0000000000000000 1.0000000000000000 0.0000000000000000
0.0000000000000000 1.0000000000000000 0.0000000000000000
0.0000000000000000 1.0000000000000000 0.0000000000000000
0.0000000000000000 1.0000000000000000 0.0000000000000000
0.0000000000000000 1.0000000000000000 0.0000000000000000
0.0000000000000000 1.0000000000000000 0.0000000000000000
0.0000000000000000 1.0000000000000000 0.0000000000000000
0.0000000000000000 1.0000000000000000 0.0000000000000000
0.0000000000000000 1.0000000000000000 0.0000000000000000
0.0000000000000000 1.0000000000000000 0.0000000000000000
0.0000000000000000 1.0000000000000000 0.0000000000000000
0.0000000000000000 1.0000000000000000 0.0000000000000000
0.0000000000000000 1.0000000000000000 0.0000000000000000
0.0000000000000000 1.0000000000000000 0.0000000000000000
0.0000000000000000 1.0000000000000000 0.0000000000000000
0.0000000000000000 1.0000000000000000 0.0000000000000000
0.0000000000000000 1.0000000000000000 0.0000000000000000
0.0000000000000000 1.0000000000000000 0.0000000000000000
0.0000000000000000 1.0000000000000000 0.0000000000000000
0.0000000000000000 1.0000000000000000 0.0000000000000000
0.0000000000000000 1.0000000000000000 0.0000000000000000
0.0000000000000000 1.0000000000000000 0.0000000000000000
0.0000000000000000 1.0000000000000000 0.0000000000000000
0.0000000000000000 1.0000000000000000 0.0000000000000000
0.0000000000000000 1.0000000000000000 0.0000000000000000
0.0000000000000000 1.0000000000000000 0.0000000000000000
0.0000000000000000 1.0000000000000000 0.0000000000000000
0.0000000000000000 1.0000000000000000 0.0000000000000000
0.0000000000000000 1.0000000000000000 0.0000000000000000
0.0000000000000000 1.0000000000000000 0.0000000000000000
0.0000000000000000 1.0000000000000000 0.0000000000000000
0.0000000000000000 1.0000000000000000 0.0000000000000000
0.0000000000000000 1.0000000000000000 0.0000000000000000
0.0000000000000000 1.0000000000000000 0.0000000000000000
0.0000000000000000 1.0000000000000000 0.0000000000000000
0.0000000000000000 1.0000000000000000 0.0000000000000000
0.0000000000000000 1.0000000000000000 0.0000000000000000
0.0000000000000000 1.0000000000000000 0.0000000000000000
0.0000000000000000 1.0000000000000000 0.0000000000000000
0.0000000000000000 1.0000000000000000 0.0000000000000000
0.0000000000000000 1.0000000000000000 0.0000000000000000
0.0000000000000000 1.0000000000000000 0.0000000000000000
0.0000000000000000 1.0000000000000000 0.0000000000000000
0.0000000000000000 1.0000000000000000 0.0000000000000000
0.0000000000000000 1.0000000000000000 0.0000000000000000
0.0000000000000000 1.0000000000000000 0.0000000000000000
0.0000000000000000 1.0000000000000000 0.0000000000000000
0.0000000000000000 1.0000000000000000 0.0000000000000000
0.0000000000000000 1.0000000000000000 0.0000000000000000
0.0000000000000000 1.0000000000000000 0.0000000000000000
0.0000000000000000 1.0000000000000000 0.0000000000000000
0.0000000000000000 1.0000000000000000 0.0000000000000000
0.0000000000000000 1.0000000000000000 0.0000000000000000
0.0000000000000000 1.0000000000000000 0.0000000000000000
0.0000000000000000 1.0000000000000000 0.0000000000000000
0.0000000000000000 1.0000000000000000 0.0000000000000000
0.0000000000000000 1.0000000000000000 0.0000000000000000
0.0000000000000000 1.0000000000000000 0.0000000000000000
0.0000000000000000 1.0000000000000000 0.0000000000000000
0.0000000000000000 1.0000000000000000 0.0000000000000000
0.0000000000000000 1.0000000000000000 0.0000000000000000
0.0000000000000000 1.0000000000000000 0.0000000000000000
0.0000000000000000 1.0000000000000000 0.0000000000000000
0.0000000000000000 1.0000000000000000 0.0000000000000000
0.0000000000000000 1.0000000000000000 0.0000000000000000
0.0000000000000000 1.0000000000000000 0.0000000000000000
0.0000000000000000 1.0000000000000000 0.0000000000000000
0.0000000000000000 1.0000000000000000 0.0000000000000000
0.0000000000000000 1.0000000000000000 0.0000000000000000
0.0000000000000000 1.0000000000000000 0.0000000000000000
0.0000000000000000 1.0000000000000000 0.0000000000000000
0.0000000000000000 1.0000000000000000 0.0000000000000000
0.0000000000000000 1.0000000000000000 0.0000000000000000
0.0000000000000000 1.0000000000000000 0.0000000000000000
0.0000000000000000 1.0000000000000000 0.0000000000000000
0.0000000000000000 1.0000000000000000 0.0000000000000000
0.0000000000000000 1.0000000000000000 0.0000000000000000
0.0000000000000000 1.0000000000000000 0.0000000000000000
0.0000000000000000 1.0000000000000000 0.0000000000000000
0.0000000000000000 1.0000000000000000 0.0000000000000000
0.0000000000000000 1.0000000000000000 0.0000000000000000
0.0000000000000000 1.0000000000000000 0.0000000000000000
0.0000000000000000 1.0000000000000000 0.0000000000000000
0.0000000000000000 1.0000000000000000 0.0000000000000000
0.0000000000000000 1.0000000000000000 0.0000000000000000
0.0000000000000000 1.0000000000000000 0.0000000000000000
0.0000000000000000 1.0000000000000000 0.0000000000000000
0.0000000000000000 1.0000000000000000 0.0000000000000000
0.0000000000000000 1.0000000000000000 0.0000000000000000
0.0000000000000000 1.0000000000000000 0.0000000000000000
0.0000000000000000 1.0000000000000000 0.0000000000000000
0.0000000000000000 1.0000000000000000 0.0000000000000000
0.0000000000000000 1.0000000000000000 0.0000000000000000
0.0000000000000000 1.0000000000000000 0.0000000000000000
0.0000000000000000 1.0000000000000000 0.0000000000000000
0.0000000000000000 1.0000000000000000 0.0000000000000000
0.0000000000000000 1.0000000000000000 0.0000000000000000
0.0000000000000000 1.0000000000000000 0.0000000000000000
0.0000000000000000 1.0000000000000000 0.0000000000000000
0.0000000000000000 1.0000000000000000 0.0000000000000000
0.0000000000000000 1.0000000000000000 0.0000000000000000
0.0000000000000000 1.0000000000000000 0.0000000000000000
0.0000000000000000 1.0000000000000000 0.0000000000000000
0.0000000000000000 1.0000000000000000 0.0000000000000000
0.0000000000000000 1.0000000000000000 0.0000000000000000
0.0000000000000000 1.0000000000000000 0.0000000000000000
0.0000000000000000 1.0000000000000000 0.0000000000000000
0.0000000000000000 1.0000000000000000 0.0000000000000000
0.0000000000000000 1.0000000000000000 0.0000000000000000
0.0000000000000000 1.0000000000000000 0.0000000000000000
0.0000000000000000 1.0000000000000000 0.0000000000000000
0.0000000000000000 1.0000000000000000 0.0000000000000000
0.0000000000000000 1.0000000000000000 0.0000000000000000
0.0000000000000000 1.0000000000000000 0.0000000000000000
0.0000000000000000 1.0000000000000000 0.0000000000000000
0.0000000000000000 1.0000000000000000 0.0000000000000000
0.0000000000000000 1.0000000000000000 0.0000000000000000
0.0000000000000000 1.0000000000000000 0.0000000000000000
0.0000000000000000 1.0000000000000000 0.0000000000000000
0.0000000000000000 1.0000000000000000 0.0000000000000000
0.0000000000000000 1.0000000000000000 0.0000000000000000
0.0000000000000000 1.0000000000000000 0.0000000000000000
0.0000000000000000 1.0000000000000000 0.0000000000000000
0.0000000000000000 1.0000000000000000 0.0000000000000000
0.0000000000000000 1.0000000000000000 0.0000000000000000
0.0000000000000000 1.0000000000000000 0.0000000000000000
0.0000000000000000 1.0000000000000000 0.0000000000000000
0.0000000000000000 1.0000000000000000 0.0000000000000000
0.0000000000000000 1.0000000000000000 0.0000000000000000
0.0000000000000000 1.0000000000000000 0.0000000000000000
0.0000000000000000 1.0000000000000000 0.0000000000000000
0.0000000000000000 1.0000000000000000 0.0000000000000000
0.0000000000000000 1.0000000000000000 0.0000000000000000
0.0000000000000000 1.0000000000000000 0.0000000000000000
0.0000000000000000 1.0000000000000000 0.0000000000000000
0.0000000000000000 1.0000000000000000 0.0000000000000000
0.0000000000000000 1.0000000000000000 0.0000000000000000
0.0000000000000000 1.0000000000000000 0.0000000000000000
0.0000000000000000 1.0000000000000000 0.0000000000000000
0.0000000000000000 1.0000000000000000 0.0000000000000000
0.0000000000000000 1.0000000000000000 0.0000000000000000
0.0000000000000000 1.0000000000000000 0.0000000000000000
0.0000000000000000 1.0000000000000000 0.0000000000000000
0.0000000000000000 1.0000000000000000 0.0000000000000000
0.0000000000000000 1.0000000000000000 0.0000000000000000
0.0000000000000000 1.0000000000000000 0.0000000000000000
0.0000000000000000 1.0000000000000000 0.0000000000000000
0.0000000000000000 1.0000000000000000 0.0000000000000000
0.0000000000000000 1.0000000000000000 0.0000000000000000
0.0000000000000000 1.0000000000000000 0.0000000000000000
0.0000000000000000 1.0000000000000000 0.0000000000000000
0.0000000000000000 1.0000000000000000 0.0000000000000000
0.0000000000000000 1.0000000000000000 0.0000000000000000
0.0000000000000000 1.0000000000000000 0.0000000000000000
0.0000000000000000 1.0000000000000000 0.0000000000000000
0.0000000000000000 1.0000000000000000 0.0000000000000000
0.0000000000000000 1.0000000000000000 0.0000000000000000
0.0000000000000000 1.0000000000000000 0.0000000000000000
0.0000000000000000 1.0000000000000000 0.0000000000000000
0.0000000000000000 1.0000000000000000 0.0000000000000000
0.0000000000000000 1.0000000000000000 0.0000000000000000
0.0000000000000000 1.0000000000000000 0.0000000000000000
0.0000000000000000 1.0000000000000000 0.0000000000000000
0.0000000000000000 1.0000000000000000 0.0000000000000000
0.0000000000000000 1.0000000000000000 0.0000000000000000
0.0000000000000000 1.0000000000000000 0.0000000000000000
0.0000000000000000 1.0000000000000000 0.0000000000000000
0.0000000000000000 1.0000000000000000 0.0000000000000000
0.0000000000000000 1.0000000000000000 0.0000000000000000
0.0000000000000000 1.0000000000000000 0.0000000000000000
0.0000000000000000 1.0000000000000000 0.0000000000000000
0.0000000000000000 1.0000000000000000 0.0000000000000000
0.0000000000000000 1.0000000000000000 0.0000000000000000
0.0000000000000000 1.0000000000000000 0.0000000000000000
0.0000000000000000 1.0000000000000000 0.0000000000000000
0.0000000000000000 1.0000000000000000 0.0000000000000000
0.0000000000000000 1.0000000000000000 0.0000000000000000
0.0000000000000000 1.0000000000000000 0.0000000000000000
0.0000000000000000 1.0000000000000000 0.0000000000000000
0.0000000000000000 1.0000000000000000 0.0000000000000000
0.0000000000000000 1.0000000000000000 0.0000000000000000
0.0000000000000000 1.0000000000000000 0.0000000000000000
0.0000000000000000 1.0000000000000000 0.0000000000000000
0.0000000000000000 1.0000000000000000 0.0000000000000000
0.0000000000000000 1.0000000000000000 0.0000000000000000
0.0000000000000000 1.0000000000000000 0.0000000000000000
0.0000000000000000 1.0000000000000000 0.0000000000000000
0.0000000000000000 1.0000000000000000 0.0000000000000000
0.0000000000000000 1.0000000000000000 0.0000000000000000
0.0000000000000000 1.0000000000000000 0.0000000000000000
0.0000000000000000 1.0000000000000000 0.0000000000000000
0.0000000000000000 1.0000000000000000 0.0000000000000000
0.0000000000000000 1.0000000000000000 0.0000000000000000
0.0000000000000000 1.0000000000000000 0.0000000000000000
0.0000000000000000 1.0000000000000000 0.0000000000000000
0.0000000000000000 1.0000000000000000 0.0000000000000000
0.0000000000000000 1.0000000000000000 0.0000000000000000
0.0000000000000000 1.0000000000000000 0.0000000000000000
0.0000000000000000 1.0000000000000000 0.0000000000000000
0.0000000000000000 1.0000000000000000 0.0000000000000000
0.0000000000000000 1.0000000000000000 0.0000000000000000
0.0000000000000000 1.0000000000000000 0.0000000000000000
0.0000000000000000 1.0000000000000000 0.0000000000000000
0.0000000000000000 1.0000000000000000 0.0000000000000000
0.0000000000000000 1.0000000000000000 0.0000000000000000
0.0000000000000000 1.0000000000000000 0.0000000000000000
0.0000000000000000 1.0000000000000000 0.0000000000000000
0.0000000000000000 1.0000000000000000 0.0000000000000000
0.0000000000000000 1.0000000000000000 0.0000000000000000
0.0000000000000000 1.0000000000000000 0.0000000000000000
0.0000000000000000 1.0000000000000000 0.0000000000000000
0.0000000000000000 1.0000000000000000 0.0000000000000000
0.0000000000000000 1.0000000000000000 0.0000000000000000
0.0000000000000000 1.0000000000000000 0.0000000000000000
0.0000000000000000 1.0000000000000000 0.0000000000000000
0.0000000000000000 1.0000000000000000 0.0000000000000000
0.0000000000000000 1.0000000000000000 0.0000000000000000
0.0000000000000000 1.0000000000000000 0.0000000000000000
0.0000000000000000 1.0000000000000000 0.0000000000000000
0.0000000000000000 1.0000000000000000 0.0000000000000000
0.0000000000000000 1.0000000000000000 0.0000000000000000
0.0000000000000000 1.0000000000000000 0.0000000000000000
0.0000000000000000 1.0000000000000000 0.0000000000000000
0.0000000000000000 1.0000000000000000 0.0000000000000000
0.0000000000000000 1.0000000000000000 0.0000000000000000
0.0000000000000000 1.0000000000000000 0.0000000000000000
0.0000000000000000 1.0000000000000000 0.0000000000000000
0.0000000000000000 1.0000000000000000 0.0000000000000000
0.0000000000000000 1.0000000000000000 0.0000000000000000
0.0000000000000000 1.0000000000000000 0.0000000000000000
0.0000000000000000 1.0000000000000000 0.0000000000000000
0.0000000000000000 1.0000000000000000 0.0000000000000000
0.0000000000000000 1.0000000000000000 0.0000000000000000
0.0000000000000000 1.0000000000000000 0.0000000000000000
0.0000000000000000 1.0000000000000000 0.0000000000000000
0.0000000000000000 1.0000000000000000 0.0000000000000000
0.0000000000000000 1.0000000000000000 0.0000000000000000
0.0000000000000000 1.0000000000000000 0.0000000000000000
0.0000000000000000 1.0000000000000000 0.0000000000000000
0.0000000000000000 1.0000000000000000 0.0000000000000000
0.0000000000000000 1.0000000000000000 0.0000000000000000
0.0000000000000000 1.0000000000000000 0.0000000000000000
0.0000000000000000 1.0000000000000000 0.0000000000000000
0.0000000000000000 1.0000000000000000 0.0000000000000000
0.0000000000000000 1.0000000000000000 0.0000000000000000
0.0000000000000000 1.0000000000000000 0.0000000000000000
0.0000000000000000 1.0000000000000000 0.0000000000000000
0.0000000000000000 1.0000000000000000 0.0000000000000000
0.0000000000000000 1.0000000000000000 0.0000000000000000
0.0000000000000000 1.0000000000000000 0.0000000000000000
0.0000000000000000 1.0000000000000000 0.0000000000000000
0.0000000000000000 1.0000000000000000 0.0000000000000000
0.0000000000000000 1.0000000000000000 0.0000000000000000
0.0000000000000000 1.0000000000000000 0.0000000000000000
0.0000000000000000 1.0000000000000000 0.0000000000000000
0.0000000000000000 1.0000000000000000 0.0000000000000000
0.0000000000000000 1.0000000000000000 0.0000000000000000
0.0000000000000000 1.0000000000000000 0.0000000000000000
0.0000000000000000 1.0000000000000000 0.0000000000000000
0.0000000000000000 1.0000000000000000 0.0000000000000000
0.0000000000000000 1.0000000000000000 0.0000000000000000
0.0000000000000000 1.0000000000000000 0.0000000000000000
0.0000000000000000 1.0000000000000000 0.0000000000000000
0.0000000000000000 1.0000000000000000 0.0000000000000000
0.0000000000000000 1.0000000000000000 0.0000000000000000
0.0000000000000000 1.0000000000000000 0.0000000000000000
0.0000000000000000 1.0000000000000000 0.0000000000000000
0.0000000000000000 1.0000000000000000 0.0000000000000000
0.0000000000000000 1.0000000000000000 0.0000000000000000
0.0000000000000000 1.0000000000000000 0.0000000000000000
0.0000000000000000 1.0000000000000000 0.0000000000000000
0.0000000000000000 1.0000000000000000 0.0000000000000000
0.0000000000000000 1.0000000000000000 0.0000000000000000
0.0000000000000000 1.0000000000000000 0.0000000000000000
0.0000000000000000 1.0000000000000000 0.0000000000000000
0.0000000000000000 1.0000000000000000 0.0000000000000000
0.0000000000000000 1.0000000000000000 0.0000000000000000
0.0000000000000000 1.0000000000000000 0.0000000000000000
0.0000000000000000 1.0000000000000000 0.0000000000000000
0.0000000000000000 1.0000000000000000 0.0000000000000000
0.0000000000000000 1.0000000000000000 0.0000000000000000
0.0000000000000000 1.0000000000000000 0.0000000000000000
0.0000000000000000 1.0000000000000000 0.0000000000000000
0.0000000000000000 1.0000000000000000 0.0000000000000000
0.0000000000000000 1.0000000000000000 0.0000000000000000
0.0000000000000000 1.0000000000000000 0.0000000000000000
0.0000000000000000 1.0000000000000000 0.0000000000000000
0.0000000000000000 1.0000000000000000 0.0000000000000000
0.0000000000000000 1.0000000000000000 0.0000000000000000
0.0000000000000000 1.0000000000000000 0.0000000000000000
0.0000000000000000 1.0000000000000000 0.0000000000000000
0.0000000000000000 1.0000000000000000 0.0000000000000000
0.0000000000000000 1.0000000000000000 0.0000000000000000
0.0000000000000000 1.0000000000000000 0.0000000000000000
0.0000000000000000 1.0000000000000000 0.0000000000000000
0.0000000000000000 1.0000000000000000 0.0000000000000000
0.0000000000000000 1.0000000000000000 0.0000000000000000
0.0000000000000000 1.0000000000000000 0.0000000000000000
0.0000000000000000 1.0000000000000000 0.0000000000000000
0.0000000000000000 1.0000000000000000 0.0000000000000000
0.0000000000000000 1.0000000000000000 0.0000000000000000
0.0000000000000000 1.0000000000000000 0.0000000000000000
0.0000000000000000 1.0000000000000000 0.0000000000000000
0.0000000000000000 1.0000000000000000 0.0000000000000000
0.0000000000000000 1.0000000000000000 0.0000000000000000
0.0000000000000000 1.0000000000000000 0.0000000000000000
0.0000000000000000 1.0000000000000000 0.0000000000000000
0.0000000000000000 1.0000000000000000 0.0000000000000000
0.0000000000000000 1.0000000000000000 0.0000000000000000
0.0000000000000000 1.0000000000000000 0.0000000000000000
0.0000000000000000 1.0000000000000000 0.0000000000000000
0.0000000000000000 1.0000000000000000 0.0000000000000000
0.0000000000000000 1.0000000000000000 0.0000000000000000
0.0000000000000000 1.0000000000000000 0.0000000000000000
0.0000000000000000 1.0000000000000000 0.0000000000000000
0.0000000000000000 1.0000000000000000 0.0000000000000000
0.0000000000000000 1.0000000000000000 0.0000000000000000
0.0000000000000000 1.0000000000000000 0.0000000000000000
0.0000000000000000 1.0000000000000000 0.0000000000000000
0.0000000000000000 1.0000000000000000 0.0000000000000000
0.0000000000000000 1.0000000000000000 0.0000000000000000
0.0000000000000000 1.0000000000000000 0.0000000000000000
0.0000000000000000 1.0000000000000000 0.0000000000000000
0.0000000000000000 1.0000000000000000 0.0000000000000000
0.0000000000000000 1.0000000000000000 0.0000000000000000
0.0000000000000000 1.0000000000000000 0.0000000000000000
0.0000000000000000 1.0000000000000000 0.0000000000000000
0.0000000000000000 1.0000000000000000 0.0000000000000000
0.0000000000000000 1.0000000000000000 0.0000000000000000
0.0000000000000000 1.0000000000000000 0.0000000000000000
0.0000000000000000 1.0000000000000000 0.0000000000000000
0.0000000000000000 1.0000000000000000 0.0000000000000000
0.0000000000000000 1.0000000000000000 0.0000000000000000
0.0000000000000000 1.0000000000000000 0.0000000000000000
0.0000000000000000 1.0000000000000000 0.0000000000000000
0.0000000000000000 1.0000000000000000 0.0000000000000000
0.0000000000000000 1.0000000000000000 0.0000000000000000
0.0000000000000000 1.0000000000000000 0.0000000000000000
0.0000000000000000 1.0000000000000000 0.0000000000000000
0.0000000000000000 1.0000000000000000 0.0000000000000000
0.0000000000000000 1.0000000000000000 0.0000000000000000
0.0000000000000000 1.0000000000000000 0.0000000000000000
0.0000000000000000 1.0000000000000000 0.0000000000000000
0.0000000000000000 1.0000000000000000 0.0000000000000000
0.0000000000000000 1.0000000000000000 0.0000000000000000
0.0000000000000000 1.0000000000000000 0.0000000000000000
0.0000000000000000 1.0000000000000000 0.0000000000000000
0.0000000000000000 1.0000000000000000 0.0000000000000000
0.0000000000000000 1.0000000000000000 0.0000000000000000
0.0000000000000000 1.0000000000000000 0.0000000000000000
0.0000000000000000 1.0000000000000000 0.0000000000000000
0.0000000000000000 1.0000000000000000 0.0000000000000000
0.0000000000000000 1.0000000000000000 0.0000000000000000
0.0000000000000000 1.0000000000000000 0.0000000000000000
0.0000000000000000 1.0000000000000000 0.0000000000000000
0.0000000000000000 1.0000000000000000 0.0000000000000000
0.0000000000000000 1.0000000000000000 0.0000000000000000
0.0000000000000000 1.0000000000000000 0.0000000000000000
0.0000000000000000 1.0000000000000000 0.0000000000000000
0.0000000000000000 1.0000000000000000 0.0000000000000000
0.0000000000000000 1.0000000000000000 0.0000000000000000
0.0000000000000000 1.0000000000000000 0.0000000000000000
0.0000000000000000 1.0000000000000000 0.0000000000000000
0.0000000000000000 1.0000000000000000 0.0000000000000000
0.0000000000000000 1.0000000000000000 0.0000000000000000
0.0000000000000000 1.0000000000000000 0.0000000000000000
0.0000000000000000 1.0000000000000000 0.0000000000000000
0.0000000000000000 1.0000000000000000 0.0000000000000000
0.0000000000000000 1.0000000000000000 0.0000000000000000
0.0000000000000000 1.0000000000000000 0.0000000000000000
0.0000000000000000 1.0000000000000000 0.0000000000000000
0.0000000000000000 1.0000000000000000 0.0000000000000000
0.0000000000000000 1.0000000000000000 0.0000000000000000
0.0000000000000000 1.0000000000000000 0.0000000000000000
0.0000000000000000 1.0000000000000000 0.0000000000000000
0.0000000000000000 1.0000000000000000 0.0000000000000000
0.0000000000000000 1.0000000000000000 0.0000000000000000
0.0000000000000000 1.0000000000000000 0.0000000000000000
0.0000000000000000 1.0000000000000000 0.0000000000000000
0.0000000000000000 1.0000000000000000 0.0000000000000000
0.0000000000000000 1.0000000000000000 0.0000000000000000
0.0000000000000000 1.0000000000000000 0.0000000000000000
0.0000000000000000 1.0000000000000000 0.0000000000000000
0.0000000000000000 1.0000000000000000 0.0000000000000000
0.0000000000000000 1.0000000000000000 0.0000000000000000
0.0000000000000000 1.0000000000000000 0.0000000000000000
0.0000000000000000 1.0000000000000000 0.0000000000000000
0.0000000000000000 1.0000000000000000 0.0000000000000000
0.0000000000000000 1.0000000000000000 0.0000000000000000
0.0000000000000000 1.0000000000000000 0.0000000000000000
0.0000000000000000 1.0000000000000000 0.0000000000000000
0.0000000000000000 1.0000000000000000 0.0000000000000000
0.0000000000000000 1.0000000000000000 0.0000000000000000
0.0000000000000000 1.0000000000000000 0.0000000000000000
0.0000000000000000 1.0000000000000000 0.0000000000000000
0.0000000000000000 1.0000000000000000 0.0000000000000000
0.0000000000000000 1.0000000000000000 0.0000000000000000
0.0000000000000000 1.0000000000000000 0.0000000000000000
0.0000000000000000 1.0000000000000000 0.0000000000000000
0.0000000000000000 1.0000000000000000 0.0000000000000000
0.0000000000000000 1.0000000000000000 0.0000000000000000
0.0000000000000000 1.0000000000000000 0.0000000000000000
0.0000000000000000 1.0000000000000000 0.0000000000000000
0.0000000000000000 1.0000000000000000 0.0000000000000000
0.0000000000000000 1.0000000000000000 0.0000000000000000
0.0000000000000000 1.0000000000000000 0.0000000000000000
0.0000000000000000 1.0000000000000000 0.0000000000000000
0.0000000000000000 1.0000000000000000 0.0000000000000000
0.0000000000000000 1.0000000000000000 0.0000000000000000
0.0000000000000000 1.0000000000000000 0.0000000000000000
0.0000000000000000 1.0000000000000000 0.0000000000000000
0.0000000000000000 1.0000000000000000 0.0000000000000000
0.0000000000000000 1.0000000000000000 0.0000000000000000
0.0000000000000000 1.0000000000000000 0.0000000000000000
0.0000000000000000 1.0000000000000000 0.0000000000000000
0.0000000000000000 1.0000000000000000 0.0000000000000000
0.0000000000000000 1.0000000000000000 0.0000000000000000
0.0000000000000000 1.0000000000000000 0.0000000000000000
0.0000000000000000 1.0000000000000000 0.0000000000000000
0.0000000000000000 1.0000000000000000 0.0000000000000000
0.0000000000000000 1.0000000000000000 0.0000000000000000
0.0000000000000000 1.0000000000000000 0.0000000000000000
0.0000000000000000 1.0000000000000000 0.0000000000000000
0.0000000000000000 1.0000000000000000 0.0000000000000000
0.0000000000000000 1.0000000000000000 0.0000000000000000
0.0000000000000000 1.0000000000000000 0.0000000000000000
0.0000000000000000 1.0000000000000000 0.0000000000000000
0.0000000000000000 1.0000000000000000 0.0000000000000000
0.0000000000000000 1.0000000000000000 0.0000000000000000
0.0000000000000000 1.0000000000000000 0.0000000000000000
0.0000000000000000 1.0000000000000000 0.0000000000000000
0.0000000000000000 1.0000000000000000 0.0000000000000000
0.0000000000000000 1.0000000000000000 0.0000000000000000
0.0000000000000000 1.0000000000000000 0.0000000000000000
0.0000000000000000 1.0000000000000000 0.0000000000000000
0.0000000000000000 1.0000000000000000 0.0000000000000000
0.0000000000000000 1.0000000000000000 0.0000000000000000
0.0000000000000000 1.0000000000000000 0.0000000000000000
0.0000000000000000 1.0000000000000000 0.0000000000000000
0.0000000000000000 1.0000000000000000 0.0000000000000000
0.0000000000000000 1.0000000000000000 0.0000000000000000
0.0000000000000000 1.0000000000000000 0.0000000000000000
0.0000000000000000 1.0000000000000000 0.0000000000000000
0.0000000000000000 1.0000000000000000 0.0000000000000000
0.0000000000000000 1.0000000000000000 0.0000000000000000
0.0000000000000000 1.0000000000000000 0.0000000000000000
0.0000000000000000 1.0000000000000000 0.0000000000000000
0.0000000000000000 1.0000000000000000 0.0000000000000000
0.0000000000000000 1.0000000000000000 0.0000000000000000
0.0000000000000000 1.0000000000000000 0.0000000000000000
0.0000000000000000 1.0000000000000000 0.0000000000000000
0.0000000000000000 1.0000000000000000 0.0000000000000000
0.0000000000000000 1.0000000000000000 0.0000000000000000
0.0000000000000000 1.0000000000000000 0.0000000000000000
0.0000000000000000 1.0000000000000000 0.0000000000000000
0.0000000000000000 1.0000000000000000 0.0000000000000000
0.0000000000000000 1.0000000000000000 0.0000000000000000
0.0000000000000000 1.0000000000000000 0.0000000000000000
0.0000000000000000 1.0000000000000000 0.0000000000000000
0.0000000000000000 1.0000000000000000 0.0000000000000000
0.0000000000000000 1.0000000000000000 0.0000000000000000
0.0000000000000000 1.0000000000000000 0.0000000000000000
0.0000000000000000 1.0000000000000000 0.0000000000000000
0.0000000000000000 1.0000000000000000 0.0000000000000000
0.0000000000000000 1.0000000000000000 0.0000000000000000
0.0000000000000000 1.0000000000000000 0.0000000000000000
0.0000000000000000 1.0000000000000000 0.0000000000000000
0.0000000000000000 1.0000000000000000 0.0000000000000000
0.0000000000000000 1.0000000000000000 0.0000000000000000
0.0000000000000000 1.0000000000000000 0.0000000000000000
0.0000000000000000 1.0000000000000000 0.0000000000000000
0.0000000000000000 1.0000000000000000 0.0000000000000000
0.0000000000000000 1.0000000000000000 0.0000000000000000
0.0000000000000000 1.0000000000000000 0.0000000000000000
0.0000000000000000 1.0000000000000000 0.0000000000000000
0.0000000000000000 1.0000000000000000 0.0000000000000000
0.0000000000000000 1.0000000000000000 0.0000000000000000
0.0000000000000000 1.0000000000000000 0.0000000000000000
0.0000000000000000 1.0000000000000000 0.0000000000000000
0.0000000000000000 1.0000000000000000 0.0000000000000000
0.0000000000000000 1.0000000000000000 0.0000000000000000
0.0000000000000000 1.0000000000000000 0.0000000000000000
0.0000000000000000 1.0000000000000000 0.0000000000000000
0.0000000000000000 1.0000000000000000 0.0000000000000000
0.0000000000000000 1.0000000000000000 0.0000000000000000
0.0000000000000000 1.0000000000000000 0.0000000000000000
0.0000000000000000 1.0000000000000000 0.0000000000000000
0.0000000000000000 1.0000000000000000 0.0000000000000000
0.0000000000000000 1.0000000000000000 0.0000000000000000
0.0000000000000000 1.0000000000000000 0.0000000000000000
0.0000000000000000 1.0000000000000000 0.0000000000000000
0.0000000000000000 1.0000000000000000 0.0000000000000000
0.0000000000000000 1.0000000000000000 0.0000000000000000
0.0000000000000000 1.0000000000000000 0.0000000000000000
0.0000000000000000 1.0000000000000000 0.0000000000000000
0.0000000000000000 1.0000000000000000 0.0000000000000000
0.0000000000000000 1.0000000000000000 0.0000000000000000
0.0000000000000000 1.0000000000000000 0.0000000000000000
0.0000000000000000 1.0000000000000000 0.0000000000000000
0.0000000000000000 1.0000000000000000 0.0000000000000000
0.0000000000000000 1.0000000000000000 0.0000000000000000
0.0000000000000000 1.0000000000000000 0.0000000000000000
0.0000000000000000 1.0000000000000000 0.0000000000000000
0.0000000000000000 1.0000000000000000 0.0000000000000000
0.0000000000000000 1.0000000000000000 0.0000000000000000
0.0000000000000000 1.0000000000000000 0.0000000000000000
0.0000000000000000 1.0000000000000000 0.0000000000000000
0.0000000000000000 1.0000000000000000 0.0000000000000000
0.0000000000000000 1.0000000000000000 0.0000000000000000
0.0000000000000000 1.0000000000000000 0.0000000000000000
0.0000000000000000 1.0000000000000000 0.0000000000000000
0.0000000000000000 1.0000000000000000 0.0000000000000000
0.0000000000000000 1.0000000000000000 0.0000000000000000
0.0000000000000000 1.0000000000000000 0.0000000000000000
0.0000000000000000 1.0000000000000000 0.0000000000000000
0.0000000000000000 1.0000000000000000 0.0000000000000000
0.0000000000000000 1.0000000000000000 0.0000000000000000
0.0000000000000000 1.0000000000000000 0.0000000000000000
0.0000000000000000 1.0000000000000000 0.0000000000000000
0.0000000000000000 1.0000000000000000 0.0000000000000000
0.0000000000000000 1.0000000000000000 0.0000000000000000
0.0000000000000000 1.0000000000000000 0.0000000000000000
0.0000000000000000 1.0000000000000000 0.0000000000000000
0.0000000000000000 1.0000000000000000 0.0000000000000000
0.0000000000000000 1.0000000000000000 0.0000000000000000
0.0000000000000000 1.0000000000000000 0.0000000000000000
0.0000000000000000 1.0000000000000000 0.0000000000000000
0.0000000000000000 1.0000000000000000 0.0000000000000000

SCALARS f:fiber_s double 3
LOOKUP_TABLE default
1.0000000000000000 0.0000000000000000 0.0000000000000000
1.0000000000000000 0.0000000000000000 0.0000000000000000
1.0000000000000000 0.0000000000000000 0.0000000000000000
1.0000000000000000 0.0000000000000000 0.0000000000000000
1.0000000000000000 0.0000000000000000 0.0000000000000000
1.0000000000000000 0.0000000000000000 0.0000000000000000
1.0000000000000000 0.0000000000000000 0.0000000000000000
1.0000000000000000 0.0000000000000000 0.0000000000000000
1.0000000000000000 0.0000000000000000 0.0000000000000000
1.0000000000000000 0.0000000000000000 0.0000000000000000
1.0000000000000000 0.0000000000000000 0.0000000000000000
1.0000000000000000 0.0000000000000000 0.0000000000000000
1.0000000000000000 0.0000000000000000 0.0000000000000000
1.0000000000000000 0.0000000000000000 0.0000000000000000
1.0000000000000000 0.0000000000000000 0.0000000000000000
1.0000000000000000 0.0000000000000000 0.0000000000000000
1.0000000000000000 0.0000000000000000 0.0000000000000000
1.0000000000000000 0.0000000000000000 0.0000000000000000
1.0000000000000000 0.0000000000000000 0.0000000000000000
1.0000000000000000 0.0000000000000000 0.0000000000000000
1.0000000000000000 0.0000000000000000 0.0000000000000000
1.0000000000000000 0.0000000000000000 0.0000000000000000
1.0000000000000000 0.0000000000000000 0.0000000000000000
1.0000000000000000 0.0000000000000000 0.0000000000000000
1.0000000000000000 0.0000000000000000 0.0000000000000000
1.0000000000000000 0.0000000000000000 0.0000000000000000
1.0000000000000000 0.0000000000000000 0.0000000000000000
1.0000000000000000 0.0000000000000000 0.0000000000000000
1.0000000000000000 0.0000000000000000 0.0000000000000000
1.0000000000000000 0.0000000000000000 0.0000000000000000
1.0000000000000000 0.0000000000000000 0.0000000000000000
1.0000000000000000 0.0000000000000000 0.0000000000000000
1.0000000000000000 0.0000000000000000 0.0000000000000000
1.0000000000000000 0.0000000000000000 0.0000000000000000
1.0000000000000000 0.0000000000000000 0.0000000000000000
1.0000000000000000 0.0000000000000000 0.0000000000000000
1.0000000000000000 0.0000000000000000 0.0000000000000000
1.0000000000000000 0.0000000000000000 0.0000000000000000
1.0000000000000000 0.0000000000000000 0.0000000000000000
1.0000000000000000 0.0000000000000000 0.0000000000000000
1.0000000000000000 0.0000000000000000 0.0000000000000000
1.0000000000000000 0.0000000000000000 0.0000000000000000
1.0000000000000000 0.0000000000000000 0.0000000000000000
1.0000000000000000 0.0000000000000000 0.0000000000000000
1.0000000000000000 0.0000000000000000 0.0000000000000000
1.0000000000000000 0.0000000000000000 0.0000000000000000
1.0000000000000000 0.0000000000000000 0.0000000000000000
1.0000000000000000 0.0000000000000000 0.0000000000000000
1.0000000000000000 0.0000000000000000 0.0000000000000000
1.0000000000000000 0.0000000000000000 0.0000000000000000
1.0000000000000000 0.0000000000000000 0.0000000000000000
1.0000000000000000 0.0000000000000000 0.0000000000000000
1.0000000000000000 0.0000000000000000 0.0000000000000000
1.0000000000000000 0.0000000000000000 0.0000000000000000
1.0000000000000000 0.0000000000000000 0.0000000000000000
1.0000000000000000 0.0000000000000000 0.0000000000000000
1.0000000000000000 0.0000000000000000 0.0000000000000000
1.0000000000000000 0.0000000000000000 0.0000000000000000
1.0000000000000000 0.0000000000000000 0.0000000000000000
1.0000000000000000 0.0000000000000000 0.0000000000000000
1.0000000000000000 0.0000000000000000 0.0000000000000000
1.0000000000000000 0.0000000000000000 0.0000000000000000
1.0000000000000000 0.0000000000000000 0.0000000000000000
1.0000000000000000 0.0000000000000000 0.0000000000000000
1.0000000000000000 0.0000000000000000 0.0000000000000000
1.0000000000000000 0.0000000000000000 0.0000000000000000
1.0000000000000000 0.0000000000000000 0.0000000000000000
1.0000000000000000 0.0000000000000000 0.0000000000000000
1.0000000000000000 0.0000000000000000 0.0000000000000000
1.0000000000000000 0.0000000000000000 0.0000000000000000
1.0000000000000000 0.0000000000000000 0.0000000000000000
1.0000000000000000 0.0000000000000000 0.0000000000000000
1.0000000000000000 0.0000000000000000 0.0000000000000000
1.0000000000000000 0.0000000000000000 0.0000000000000000
1.0000000000000000 0.0000000000000000 0.0000000000000000
1.0000000000000000 0.0000000000000000 0.0000000000000000
1.0000000000000000 0.0000000000000000 0.0000000000000000
1.0000000000000000 0.0000000000000000 0.0000000000000000
1.0000000000000000 0.0000000000000000 0.0000000000000000
1.0000000000000000 0.0000000000000000 0.0000000000000000
1.0000000000000000 0.0000000000000000 0.0000000000000000
1.0000000000000000 0.0000000000000000 0.0000000000000000
1.0000000000000000 0.0000000000000000 0.0000000000000000
1.0000000000000000 0.0000000000000000 0.0000000000000000
1.0000000000000000 0.0000000000000000 0.0000000000000000
1.0000000000000000 0.0000000000000000 0.0000000000000000
1.0000000000000000 0.0000000000000000 0.0000000000000000
1.0000000000000000 0.0000000000000000 0.0000000000000000
1.0000000000000000 0.0000000000000000 0.0000000000000000
1.0000000000000000 0.0000000000000000 0.0000000000000000
1.0000000000000000 0.0000000000000000 0.0000000000000000
1.0000000000000000 0.0000000000000000 0.0000000000000000
1.0000000000000000 0.0000000000000000 0.0000000000000000
1.0000000000000000 0.0000000000000000 0.0000000000000000
1.0000000000000000 0.0000000000000000 0.0000000000000000
1.0000000000000000 0.0000000000000000 0.0000000000000000
1.0000000000000000 0.0000000000000000 0.0000000000000000
1.0000000000000000 0.0000000000000000 0.0000000000000000
1.0000000000000000 0.0000000000000000 0.0000000000000000
1.0000000000000000 0.0000000000000000 0.0000000000000000
1.0000000000000000 0.0000000000000000 0.0000000000000000
1.0000000000000000 0.0000000000000000 0.0000000000000000
1.0000000000000000 0.0000000000000000 0.0000000000000000
1.0000000000000000 0.0000000000000000 0.0000000000000000
1.0000000000000000 0.0000000000000000 0.0000000000000000
1.0000000000000000 0.0000000000000000 0.0000000000000000
1.0000000000000000 0.0000000000000000 0.0000000000000000
1.0000000000000000 0.0000000000000000 0.0000000000000000
1.0000000000000000 0.0000000000000000 0.0000000000000000
1.0000000000000000 0.0000000000000000 0.0000000000000000
1.0000000000000000 0.0000000000000000 0.0000000000000000
1.0000000000000000 0.0000000000000000 0.0000000000000000
1.0000000000000000 0.0000000000000000 0.0000000000000000
1.0000000000000000 0.0000000000000000 0.0000000000000000
1.0000000000000000 0.0000000000000000 0.0000000000000000
1.0000000000000000 0.0000000000000000 0.0000000000000000
1.0000000000000000 0.0000000000000000 0.0000000000000000
1.0000000000000000 0.0000000000000000 0.0000000000000000
1.0000000000000000 0.0000000000000000 0.0000000000000000
1.0000000000000000 0.0000000000000000 0.0000000000000000
1.0000000000000000 0.0000000000000000 0.0000000000000000
1.0000000000000000 0.0000000000000000 0.0000000000000000
1.0000000000000000 0.0000000000000000 0.0000000000000000
1.0000000000000000 0.0000000000000000 0.0000000000000000
1.0000000000000000 0.0000000000000000 0.0000000000000000
1.0000000000000000 0.0000000000000000 0.0000000000000000
1.0000000000000000 0.0000000000000000 0.0000000000000000
1.0000000000000000 0.0000000000000000 0.0000000000000000
1.0000000000000000 0.0000000000000000 0.0000000000000000
1.0000000000000000 0.0000000000000000 0.0000000000000000
1.0000000000000000 0.0000000000000000 0.0000000000000000
1.0000000000000000 0.0000000000000000 0.0000000000000000
1.0000000000000000 0.0000000000000000 0.0000000000000000
1.0000000000000000 0.0000000000000000 0.0000000000000000
1.0000000000000000 0.0000000000000000 0.0000000000000000
1.0000000000000000 0.0000000000000000 0.0000000000000000
1.0000000000000000 0.0000000000000000 0.0000000000000000
1.0000000000000000 0.0000000000000000 0.0000000000000000
1.0000000000000000 0.0000000000000000 0.0000000000000000
1.0000000000000000 0.0000000000000000 0.0000000000000000
1.0000000000000000 0.0000000000000000 0.0000000000000000
1.0000000000000000 0.0000000000000000 0.0000000000000000
1.0000000000000000 0.0000000000000000 0.0000000000000000
1.0000000000000000 0.0000000000000000 0.0000000000000000
1.0000000000000000 0.0000000000000000 0.0000000000000000
1.0000000000000000 0.0000000000000000 0.0000000000000000
1.0000000000000000 0.0000000000000000 0.0000000000000000
1.0000000000000000 0.0000000000000000 0.0000000000000000
1.0000000000000000 0.0000000000000000 0.0000000000000000
1.0000000000000000 0.0000000000000000 0.0000000000000000
1.0000000000000000 0.0000000000000000 0.0000000000000000
1.0000000000000000 0.0000000000000000 0.0000000000000000
1.0000000000000000 0.0000000000000000 0.0000000000000000
1.0000000000000000 0.0000000000000000 0.0000000000000000
1.0000000000000000 0.0000000000000000 0.0000000000000000
1.0000000000000000 0.0000000000000000 0.0000000000000000
1.0000000000000000 0.0000000000000000 0.0000000000000000
1.0000000000000000 0.0000000000000000 0.0000000000000000
1.0000000000000000 0.0000000000000000 0.0000000000000000
1.0000000000000000 0.0000000000000000 0.0000000000000000
1.0000000000000000 0.0000000000000000 0.0000000000000000
1.0000000000000000 0.0000000000000000 0.0000000000000000
1.0000000000000000 0.0000000000000000 0.0000000000000000
1.0000000000000000 0.0000000000000000 0.0000000000000000
1.0000000000000000 0.0000000000000000 0.0000000000000000
1.0000000000000000 0.0000000000000000 0.0000000000000000
1.0000000000000000 0.0000000000000000 0.0000000000000000
1.0000000000000000 0.0000000000000000 0.0000000000000000
1.0000000000000000 0.0000000000000000 0.0000000000000000
1.0000000000000000 0.0000000000000000 0.0000000000000000
1.0000000000000000 0.0000000000000000 0.0000000000000000
1.0000000000000000 0.0000000000000000 0.0000000000000000
1.0000000000000000 0.0000000000000000 0.0000000000000000
1.0000000000000000 0.0000000000000000 0.0000000000000000
1.0000000000000000 0.0000000000000000 0.0000000000000000
1.0000000000000000 0.0000000000000000 0.0000000000000000
1.0000000000000000 0.0000000000000000 0.0000000000000000
1.0000000000000000 0.0000000000000000 0.0000000000000000
1.0000000000000000 0.0000000000000000 0.0000000000000000
1.0000000000000000 0.0000000000000000 0.0000000000000000
1.0000000000000000 0.0000000000000000 0.0000000000000000
1.0000000000000000 0.0000000000000000 0.0000000000000000
1.0000000000000000 0.0000000000000000 0.0000000000000000
1.0000000000000000 0.0000000000000000 0.0000000000000000
1.0000000000000000 0.0000000000000000 0.0000000000000000
1.0000000000000000 0.0000000000000000 0.0000000000000000
1.0000000000000000 0.0000000000000000 0.0000000000000000
1.0000000000000000 0.0000000000000000 0.0000000000000000
1.0000000000000000 0.0000000000000000 0.0000000000000000
1.0000000000000000 0.0000000000000000 0.0000000000000000
1.0000000000000000 0.0000000000000000 0.0000000000000000
1.0000000000000000 0.0000000000000000 0.0000000000000000
1.0000000000000000 0.0000000000000000 0.0000000000000000
1.0000000000000000 0.0000000000000000 0.0000000000000000
1.0000000000000000 0.0000000000000000 0.0000000000000000
1.0000000000000000 0.0000000000000000 0.0000000000000000
1.0000000000000000 0.0000000000000000 0.0000000000000000
1.0000000000000000 0.0000000000000000 0.0000000000000000
1.0000000000000000 0.0000000000000000 0.0000000000000000
1.0000000000000000 0.0000000000000000 0.0000000000000000
1.0000000000000000 0.0000000000000000 0.0000000000000000
1.0000000000000000 0.0000000000000000 0.0000000000000000
1.0000000000000000 0.0000000000000000 0.0000000000000000
1.0000000000000000 0.0000000000000000 0.0000000000000000
1.0000000000000000 0.0000000000000000 0.0000000000000000
1.0000000000000000 0.0000000000000000 0.0000000000000000
1.0000000000000000 0.0000000000000000 0.0000000000000000
1.0000000000000000 0.0000000000000000 0.0000000000000000
1.0000000000000000 0.0000000000000000 0.0000000000000000
1.0000000000000000 0.0000000000000000 0.0000000000000000
1.0000000000000000 0.0000000000000000 0.0000000000000000
1.0000000000000000 0.0000000000000000 0.0000000000000000
1.0000000000000000 0.0000000000000000 0.0000000000000000
1.0000000000000000 0.0000000000000000 0.0000000000000000
1.0000000000000000 0.0000000000000000 0.0000000000000000
1.0000000000000000 0.0000000000000000 0.0000000000000000
1.0000000000000000 0.0000000000000000 0.0000000000000000
1.0000000000000000 0.0000000000000000 0.0000000000000000
1.0000000000000000 0.0000000000000000 0.0000000000000000
1.0000000000000000 0.0000000000000000 0.0000000000000000
1.0000000000000000 0.0000000000000000 0.0000000000000000
1.0000000000000000 0.0000000000000000 0.0000000000000000
1.0000000000000000 0.0000000000000000 0.0000000000000000
1.0000000000000000 0.0000000000000000 0.0000000000000000
1.0000000000000000 0.0000000000000000 0.0000000000000000
1.0000000000000000 0.0000000000000000 0.0000000000000000
1.0000000000000000 0.0000000000000000 0.0000000000000000
1.0000000000000000 0.0000000000000000 0.0000000000000000
1.0000000000000000 0.0000000000000000 0.0000000000000000
1.0000000000000000 0.0000000000000000 0.0000000000000000
1.0000000000000000 0.0000000000000000 0.0000000000000000
1.0000000000000000 0.0000000000000000 0.0000000000000000
1.0000000000000000 0.0000000000000000 0.0000000000000000
1.0000000000000000 0.0000000000000000 0.0000000000000000
1.0000000000000000 0.0000000000000000 0.0000000000000000
1.0000000000000000 0.0000000000000000 0.0000000000000000
1.0000000000000000 0.0000000000000000 0.0000000000000000
1.0000000000000000 0.0000000000000000 0.0000000000000000
1.0000000000000000 0.0000000000000000 0.0000000000000000
1.0000000000000000 0.0000000000000000 0.0000000000000000
1.0000000000000000 0.0000000000000000 0.0000000000000000
1.0000000000000000 0.0000000000000000 0.0000000000000000
1.0000000000000000 0.0000000000000000 0.0000000000000000
1.0000000000000000 0.0000000000000000 0.0000000000000000
1.0000000000000000 0.0000000000000000 0.0000000000000000
1.0000000000000000 0.0000000000000000 0.0000000000000000
1.0000000000000000 0.0000000000000000 0.0000000000000000
1.0000000000000000 0.0000000000000000 0.0000000000000000
1.0000000000000000 0.0000000000000000 0.0000000000000000
1.0000000000000000 0.0000000000000000 0.0000000000000000
1.0000000000000000 0.0000000000000000 0.0000000000000000
1.0000000000000000 0.0000000000000000 0.0000000000000000
1.0000000000000000 0.0000000000000000 0.0000000000000000
1.0000000000000000 0.0000000000000000 0.0000000000000000
1.0000000000000000 0.0000000000000000 0.0000000000000000
1.0000000000000000 0.0000000000000000 0.0000000000000000
1.0000000000000000 0.0000000000000000 0.0000000000000000
1.0000000000000000 0.0000000000000000 0.0000000000000000
1.0000000000000000 0.0000000000000000 0.0000000000000000
1.0000000000000000 0.0000000000000000 0.0000000000000000
1.0000000000000000 0.0000000000000000 0.0000000000000000
1.0000000000000000 0.0000000000000000 0.0000000000000000
1.0000000000000000 0.0000000000000000 0.0000000000000000
1.0000000000000000 0.0000000000000000 0.0000000000000000
1.0000000000000000 0.0000000000000000 0.0000000000000000
1.0000000000000000 0.0000000000000000 0.0000000000000000
1.0000000000000000 0.0000000000000000 0.0000000000000000
1.0000000000000000 0.0000000000000000 0.0000000000000000
1.0000000000000000 0.0000000000000000 0.0000000000000000
1.0000000000000000 0.0000000000000000 0.0000000000000000
1.0000000000000000 0.0000000000000000 0.0000000000000000
1.0000000000000000 0.0000000000000000 0.0000000000000000
1.0000000000000000 0.0000000000000000 0.0000000000000000
1.0000000000000000 0.0000000000000000 0.0000000000000000
1.0000000000000000 0.0000000000000000 0.0000000000000000
1.0000000000000000 0.0000000000000000 0.0000000000000000
1.0000000000000000 0.0000000000000000 0.0000000000000000
1.0000000000000000 0.0000000000000000 0.0000000000000000
1.0000000000000000 0.0000000000000000 0.0000000000000000
1.0000000000000000 0.0000000000000000 0.0000000000000000
1.0000000000000000 0.0000000000000000 0.0000000000000000
1.0000000000000000 0.0000000000000000 0.0000000000000000
1.0000000000000000 0.0000000000000000 0.0000000000000000
1.0000000000000000 0.0000000000000000 0.0000000000000000
1.0000000000000000 0.0000000000000000 0.0000000000000000
1.0000000000000000 0.0000000000000000 0.0000000000000000
1.0000000000000000 0.0000000000000000 0.0000000000000000
1.0000000000000000 0.0000000000000000 0.0000000000000000
1.0000000000000000 0.0000000000000000 0.0000000000000000
1.0000000000000000 0.0000000000000000 0.0000000000000000
1.0000000000000000 0.0000000000000000 0.0000000000000000
1.0000000000000000 0.0000000000000000 0.0000000000000000
1.0000000000000000 0.0000000000000000 0.0000000000000000
1.0000000000000000 0.0000000000000000 0.0000000000000000
1.0000000000000000 0.0000000000000000 0.0000000000000000
1.0000000000000000 0.0000000000000000 0.0000000000000000
1.0000000000000000 0.0000000000000000 0.0000000000000000
1.0000000000000000 0.0000000000000000 0.0000000000000000
1.0000000000000000 0.0000000000000000 0.0000000000000000
1.0000000000000000 0.0000000000000000 0.0000000000000000
1.0000000000000000 0.0000000000000000 0.0000000000000000
1.0000000000000000 0.0000000000000000 0.0000000000000000
1.0000000000000000 0.0000000000000000 0.0000000000000000
1.0000000000000000 0.0000000000000000 0.0000000000000000
1.0000000000000000 0.0000000000000000 0.0000000000000000
1.0000000000000000 0.0000000000000000 0.0000000000000000
1.0000000000000000 0.0000000000000000 0.0000000000000000
1.0000000000000000 0.0000000000000000 0.0000000000000000
1.0000000000000000 0.0000000000000000 0.0000000000000000
1.0000000000000000 0.0000000000000000 0.0000000000000000
1.0000000000000000 0.0000000000000000 0.0000000000000000
1.0000000000000000 0.0000000000000000 0.0000000000000000
1.0000000000000000 0.0000000000000000 0.0000000000000000
1.0000000000000000 0.0000000000000000 0.0000000000000000
1.0000000000000000 0.0000000000000000 0.0000000000000000
1.0000000000000000 0.0000000000000000 0.0000000000000000
1.0000000000000000 0.0000000000000000 0.0000000000000000
1.0000000000000000 0.0000000000000000 0.0000000000000000
1.0000000000000000 0.0000000000000000 0.0000000000000000
1.0000000000000000 0.0000000000000000 0.0000000000000000
1.0000000000000000 0.0000000000000000 0.0000000000000000
1.0000000000000000 0.0000000000000000 0.0000000000000000
1.0000000000000000 0.0000000000000000 0.0000000000000000
1.0000000000000000 0.0000000000000000 0.0000000000000000
1.0000000000000000 0.0000000000000000 0.0000000000000000
1.0000000000000000 0.0000000000000000 0.0000000000000000
1.0000000000000000 0.0000000000000000 0.0000000000000000
1.0000000000000000 0.0000000000000000 0.0000000000000000
1.0000000000000000 0.0000000000000000 0.0000000000000000
1.0000000000000000 0.0000000000000000 0.0000000000000000
1.0000000000000000 0.0000000000000000 0.0000000000000000
1.0000000000000000 0.0000000000000000 0.0000000000000000
1.0000000000000000 0.0000000000000000 0.0000000000000000
1.0000000000000000 0.0000000000000000 0.0000000000000000
1.0000000000000000 0.0000000000000000 0.0000000000000000
1.0000000000000000 0.0000000000000000 0.0000000000000000
1.0000000000000000 0.0000000000000000 0.0000000000000000
1.0000000000000000 0.0000000000000000 0.0000000000000000
1.0000000000000000 0.0000000000000000 0.0000000000000000
1.0000000000000000 0.0000000000000000 0.0000000000000000
1.0000000000000000 0.0000000000000000 0.0000000000000000
1.0000000000000000 0.0000000000000000 0.0000000000000000
1.0000000000000000 0.0000000000000000 0.0000000000000000
1.0000000000000000 0.0000000000000000 0.0000000000000000
1.0000000000000000 0.0000000000000000 0.0000000000000000
1.0000000000000000 0.0000000000000000 0.0000000000000000
1.0000000000000000 0.0000000000000000 0.0000000000000000
1.0000000000000000 0.0000000000000000 0.0000000000000000
1.0000000000000000 0.0000000000000000 0.0000000000000000
1.0000000000000000 0.0000000000000000 0.0000000000000000
1.0000000000000000 0.0000000000000000 0.0000000000000000
1.0000000000000000 0.0000000000000000 0.0000000000000000
1.0000000000000000 0.0000000000000000 0.0000000000000000
1.0000000000000000 0.0000000000000000 0.0000000000000000
1.0000000000000000 0.0000000000000000 0.0000000000000000
1.0000000000000000 0.0000000000000000 0.0000000000000000
1.0000000000000000 0.0000000000000000 0.0000000000000000
1.0000000000000000 0.0000000000000000 0.0000000000000000
1.0000000000000000 0.0000000000000000 0.0000000000000000
1.0000000000000000 0.0000000000000000 0.0000000000000000
1.0000000000000000 0.0000000000000000 0.0000000000000000
1.0000000000000000 0.0000000000000000 0.0000000000000000
1.0000000000000000 0.0000000000000000 0.0000000000000000
1.0000000000000000 0.0000000000000000 0.0000000000000000
1.0000000000000000 0.0000000000000000 0.0000000000000000
1.0000000000000000 0.0000000000000000 0.0000000000000000
1.0000000000000000 0.0000000000000000 0.0000000000000000
1.0000000000000000 0.0000000000000000 0.0000000000000000
1.0000000000000000 0.0000000000000000 0.0000000000000000
1.0000000000000000 0.0000000000000000 0.0000000000000000
1.0000000000000000 0.0000000000000000 0.0000000000000000
1.0000000000000000 0.0000000000000000 0.0000000000000000
1.0000000000000000 0.0000000000000000 0.0000000000000000
1.0000000000000000 0.0000000000000000 0.0000000000000000
1.0000000000000000 0.0000000000000000 0.0000000000000000
1.0000000000000000 0.0000000000000000 0.0000000000000000
1.0000000000000000 0.0000000000000000 0.0000000000000000
1.0000000000000000 0.0000000000000000 0.0000000000000000
1.0000000000000000 0.0000000000000000 0.0000000000000000
1.0000000000000000 0.0000000000000000 0.0000000000000000
1.0000000000000000 0.0000000000000000 0.0000000000000000
1.0000000000000000 0.0000000000000000 0.0000000000000000
1.0000000000000000 0.0000000000000000 0.0000000000000000
1.0000000000000000 0.0000000000000000 0.0000000000000000
1.0000000000000000 0.0000000000000000 0.0000000000000000
1.0000000000000000 0.0000000000000000 0.0000000000000000
1.0000000000000000 0.0000000000000000 0.0000000000000000
1.0000000000000000 0.0000000000000000 0.0000000000000000
1.0000000000000000 0.0000000000000000 0.0000000000000000
1.0000000000000000 0.0000000000000000 0.0000000000000000
1.0000000000000000 0.0000000000000000 0.0000000000000000
1.0000000000000000 0.0000000000000000 0.0000000000000000
1.0000000000000000 0.0000000000000000 0.0000000000000000
1.0000000000000000 0.0000000000000000 0.0000000000000000
1.0000000000000000 0.0000000000000000 0.0000000000000000
1.0000000000000000 0.0000000000000000 0.0000000000000000
1.0000000000000000 0.0000000000000000 0.0000000000000000
1.0000000000000000 0.0000000000000000 0.0000000000000000
1.0000000000000000 0.0000000000000000 0.0000000000000000
1.0000000000000000 0.0000000000000000 0.0000000000000000
1.0000000000000000 0.0000000000000000 0.0000000000000000
1.0000000000000000 0.0000000000000000 0.0000000000000000
1.0000000000000000 0.0000000000000000 0.0000000000000000
1.0000000000000000 0.0000000000000000 0.0000000000000000
1.0000000000000000 0.0000000000000000 0.0000000000000000
1.0000000000000000 0.0000000000000000 0.0000000000000000
1.0000000000000000 0.0000000000000000 0.0000000000000000
1.0000000000000000 0.0000000000000000 0.0000000000000000
1.0000000000000000 0.0000000000000000 0.0000000000000000
1.0000000000000000 0.0000000000000000 0.0000000000000000
1.0000000000000000 0.0000000000000000 0.0000000000000000
1.0000000000000000 0.0000000000000000 0.0000000000000000
1.0000000000000000 0.0000000000000000 0.0000000000000000
1.0000000000000000 0.0000000000000000 0.0000000000000000
1.0000000000000000 0.0000000000000000 0.0000000000000000
1.0000000000000000 0.0000000000000000 0.0000000000000000
1.0000000000000000 0.0000000000000000 0.0000000000000000
1.0000000000000000 0.0000000000000000 0.0000000000000000
1.0000000000000000 0.0000000000000000 0.0000000000000000
1.0000000000000000 0.0000000000000000 0.0000000000000000
1.0000000000000000 0.0000000000000000 0.0000000000000000
1.0000000000000000 0.0000000000000000 0.0000000000000000
1.0000000000000000 0.0000000000000000 0.0000000000000000
1.0000000000000000 0.0000000000000000 0.0000000000000000
1.0000000000000000 0.0000000000000000 0.0000000000000000
1.0000000000000000 0.0000000000000000 0.0000000000000000
1.0000000000000000 0.0000000000000000 0.0000000000000000
1.0000000000000000 0.0000000000000000 0.0000000000000000
1.0000000000000000 0.0000000000000000 0.0000000000000000
1.0000000000000000 0.0000000000000000 0.0000000000000000
1.0000000000000000 0.0000000000000000 0.0000000000000000
1.0000000000000000 0.0000000000000000 0.0000000000000000
1.0000000000000000 0.0000000000000000 0.0000000000000000
1.0000000000000000 0.0000000000000000 0.0000000000000000
1.0000000000000000 0.0000000000000000 0.0000000000000000
1.0000000000000000 0.0000000000000000 0.0000000000000000
1.0000000000000000 0.0000000000000000 0.0000000000000000
1.0000000000000000 0.0000000000000000 0.0000000000000000
1.0000000000000000 0.0000000000000000 0.0000000000000000
1.0000000000000000 0.0000000000000000 0.0000000000000000
1.0000000000000000 0.0000000000000000 0.0000000000000000
1.0000000000000000 0.0000000000000000 0.0000000000000000
1.0000000000000000 0.0000000000000000 0.0000000000000000
1.0000000000000000 0.0000000000000000 0.0000000000000000
1.0000000000000000 0.0000000000000000 0.0000000000000000
1.0000000000000000 0.0000000000000000 0.0000000000000000
1.0000000000000000 0.0000000000000000 0.0000000000000000
1.0000000000000000 0.0000000000000000 0.0000000000000000
1.0000000000000000 0.0000000000000000 0.0000000000000000
1.0000000000000000 0.0000000000000000 0.0000000000000000
1.0000000000000000 0.0000000000000000 0.0000000000000000
1.0000000000000000 0.0000000000000000 0.0000000000000000
1.0000000000000000 0.0000000000000000 0.0000000000000000
1.0000000000000000 0.0000000000000000 0.0000000000000000
1.0000000000000000 0.0000000000000000 0.0000000000000000
1.0000000000000000 0.0000000000000000 0.0000000000000000
1.0000000000000000 0.0000000000000000 0.0000000000000000
1.0000000000000000 0.0000000000000000 0.0000000000000000
1.0000000000000000 0.0000000000000000 0.0000000000000000
1.0000000000000000 0.0000000000000000 0.0000000000000000
1.0000000000000000 0.0000000000000000 0.0000000000000000
1.0000000000000000 0.0000000000000000 0.0000000000000000
1.0000000000000000 0.0000000000000000 0.0000000000000000
1.0000000000000000 0.0000000000000000 0.0000000000000000
1.0000000000000000 0.0000000000000000 0.0000000000000000
1.0000000000000000 0.0000000000000000 0.0000000000000000
1.0000000000000000 0.0000000000000000 0.0000000000000000
1.0000000000000000 0.0000000000000000 0.0000000000000000
1.0000000000000000 0.0000000000000000 0.0000000000000000
1.0000000000000000 0.0000000000000000 0.0000000000000000
1.0000000000000000 0.0000000000000000 0.0000000000000000
1.0000000000000000 0.0000000000000000 0.0000000000000000
1.0000000000000000 0.0000000000000000 0.0000000000000000
1.0000000000000000 0.0000000000000000 0.0000000000000000
1.0000000000000000 0.0000000000000000 0.0000000000000000
1.0000000000000000 0.0000000000000000 0.0000000000000000
1.0000000000000000 0.0000000000000000 0.0000000000000000
1.0000000000000000 0.0000000000000000 0.0000000000000000
1.0000000000000000 0.0000000000000000 0.0000000000000000
1.0000000000000000 0.0000000000000000 0.0000000000000000
1.0000000000000000 0.0000000000000000 0.0000000000000000
1.0000000000000000 0.0000000000000000 0.0000000000000000
1.0000000000000000 0.0000000000000000 0.0000000000000000
1.0000000000000000 0.0000000000000000 0.0000000000000000
1.0000000000000000 0.0000000000000000 0.0000000000000000
1.0000000000000000 0.0000000000000000 0.0000000000000000
1.0000000000000000 0.0000000000000000 0.0000000000000000
1.0000000000000000 0.0000000000000000 0.0000000000000000
1.0000000000000000 0.0000000000000000 0.0000000000000000
1.0000000000000000 0.0000000000000000 0.0000000000000000
1.0000000000000000 0.0000000000000000 0.0000000000000000
1.0000000000000000 0.0000000000000000 0.0000000000000000
1.0000000000000000 0.0000000000000000 0.0000000000000000
1.0000000000000000 0.0000000000000000 0.0000000000000000
1.0000000000000000 0.0000000000000000 0.0000000000000000
1.0000000000000000 0.0000000000000000 0.0000000000000000
1.0000000000000000 0.0000000000000000 0.0000000000000000
1.0000000000000000 0.0000000000000000 0.0000000000000000
1.0000000000000000 0.0000000000000000 0.0000000000000000
1.0000000000000000 0.0000000000000000 0.0000000000000000
1.0000000000000000 0.0000000000000000 0.0000000000000000
1.0000000000000000 0.0000000000000000 0.0000000000000000
1.0000000000000000 0.0000000000000000 0.0000000000000000
1.0000000000000000 0.0000000000000000 0.0000000000000000
1.0000000000000000 0.0000000000000000 0.0000000000000000
1.0000000000000000 0.0000000000000000 0.0000000000000000
1.0000000000000000 0.0000000000000000 0.0000000000000000
1.0000000000000000 0.0000000000000000 0.0000000000000000
1.0000000000000000 0.0000000000000000 0.0000000000000000
1.0000000000000000 0.0000000000000000 0.0000000000000000
1.0000000000000000 0.0000000000000000 0.0000000000000000
1.0000000000000000 0.0000000000000000 0.0000000000000000
1.0000000000000000 0.0000000000000000 0.0000000000000000
1.0000000000000000 0.0000000000000000 0.0000000000000000
1.0000000000000000 0.0000000000000000 0.0000000000000000
1.0000000000000000 0.0000000000000000 0.0000000000000000
1.0000000000000000 0.0000000000000000 0.0000000000000000
1.0000000000000000 0.0000000000000000 0.0000000000000000
1.0000000000000000 0.0000000000000000 0.0000000000000000
1.0000000000000000 0.0000000000000000 0.0000000000000000
1.0000000000000000 0.0000000000000000 0.0000000000000000
1.0000000000000000 0.0000000000000000 0.0000000000000000
1.0000000000000000 0.0000000000000000 0.0000000000000000
1.0000000000000000 0.0000000000000000 0.0000000000000000
1.0000000000000000 0.0000000000000000 0.0000000000000000
1.0000000000000000 0.0000000000000000 0.0000000000000000
1.0000000000000000 0.0000000000000000 0.0000000000000000
1.0000000000000000 0.0000000000000000 0.0000000000000000
1.0000000000000000 0.0000000000000000 0.0000000000000000
1.0000000000000000 0.0000000000000000 0.0000000000000000
1.0000000000000000 0.0000000000000000 0.0000000000000000
1.0000000000000000 0.0000000000000000 0.0000000000000000
1.0000000000000000 0.0000000000000000 0.0000000000000000
1.0000000000000000 0.0000000000000000 0.0000000000000000
1.0000000000000000 0.0000000000000000 0.0000000000000000
1.0000000000000000 0.0000000000000000 0.0000000000000000
1.0000000000000000 0.0000000000000000 0.0000000000000000
1.0000000000000000 0.0000000000000000 0.0000000000000000
1.0000000000000000 0.0000000000000000 0.0000000000000000
1.0000000000000000 0.0000000000000000 0.0000000000000000
1.0000000000000000 0.0000000000000000 0.0000000000000000
1.0000000000000000 0.0000000000000000 0.0000000000000000
1.0000000000000000 0.0000000000000000 0.0000000000000000
1.0000000000000000 0.0000000000000000 0.0000000000000000
1.0000000000000000 0.0000000000000000 0.0000000000000000
1.0000000000000000 0.0000000000000000 0.0000000000000000
1.0000000000000000 0.0000000000000000 0.0000000000000000
1.0000000000000000 0.0000000000000000 0.0000000000000000
1.0000000000000000 0.0000000000000000 0.0000000000000000
1.0000000000000000 0.0000000000000000 0.0000000000000000
1.0000000000000000 0.0000000000000000 0.0000000000000000
1.0000000000000000 0.0000000000000000 0.0000000000000000
1.0000000000000000 0.0000000000000000 0.0000000000000000
1.0000000000000000 0.0000000000000000 0.0000000000000000
1.0000000000000000 0.0000000000000000 0.0000000000000000
1.0000000000000000 0.0000000000000000 0.0000000000000000
1.0000000000000000 0.0000000000000000 0.0000000000000000
1.0000000000000000 0.0000000000000000 0.0000000000000000
1.0000000000000000 0.0000000000000000 0.0000000000000000
1.0000000000000000 0.0000000000000000 0.0000000000000000
1.0000000000000000 0.0000000000000000 0.0000000000000000
1.0000000000000000 0.0000000000000000 0.0000000000000000
1.0000000000000000 0.0000000000000000 0.0000000000000000
1.0000000000000000 0.0000000000000000 0.0000000000000000
1.0000000000000000 0.0000000000000000 0.0000000000000000
1.0000000000000000 0.0000000000000000 0.0000000000000000
1.0000000000000000 0.0000000000000000 0.0000000000000000
1.0000000000000000 0.0000000000000000 0.0000000000000000
1.0000000000000000 0.0000000000000000 0.0000000000000000
1.0000000000000000 0.0000000000000000 0.0000000000000000
1.0000000000000000 0.0000000000000000 0.0000000000000000
1.0000000000000000 0.0000000000000000 0.0000000000000000
1.0000000000000000 0.0000000000000000 0.0000000000000000
1.0000000000000000 0.0000000000000000 0.0000000000000000
1.0000000000000000 0.0000000000000000 0.0000000000000000
1.0000000000000000 0.0000000000000000 0.0000000000000000
1.0000000000000000 0.0000000000000000 0.0000000000000000
1.0000000000000000 0.0000000000000000 0.0000000000000000
1.0000000000000000 0.0000000000000000 0.0000000000000000
1.0000000000000000 0.0000000000000000 0.0000000000000000
1.0000000000000000 0.0000000000000000 0.0000000000000000
1.0000000000000000 0.0000000000000000 0.0000000000000000
1.0000000000000000 0.0000000000000000 0.0000000000000000
1.0000000000000000 0.0000000000000000 0.0000000000000000
1.0000000000000000 0.0000000000000000 0.0000000000000000
1.0000000000000000 0.0000000000000000 0.0000000000000000
1.0000000000000000 0.0000000000000000 0.0000000000000000
1.0000000000000000 0.0000000000000000 0.0000000000000000
1.0000000000000000 0.0000000000000000 0.0000000000000000
1.0000000000000000 0.0000000000000000 0.0000000000000000
1.0000000000000000 0.0000000000000000 0.0000000000000000
1.0000000000000000 0.0000000000000000 0.0000000000000000
1.0000000000000000 0.0000000000000000 0.0000000000000000
1.0000000000000000 0.0000000000000000 0.0000000000000000
1.0000000000000000 0.0000000000000000 0.0000000000000000
1.0000000000000000 0.0000000000000000 0.0000000000000000
1.0000000000000000 0.0000000000000000 0.0000000000000000
1.0000000000000000 0.0000000000000000 0.0000000000000000
1.0000000000000000 0.0000000000000000 0.0000000000000000
1.0000000000000000 0.0000000000000000 0.0000000000000000
1.0000000000000000 0.0000000000000000 0.0000000000000000
1.0000000000000000 0.0000000000000000 0.0000000000000000
1.0000000000000000 0.0000000000000000 0.0000000000000000
1.0000000000000000 0.0000000000000000 0.0000000000000000
1.0000000000000000 0.0000000000000000 0.0000000000000000
1.0000000000000000 0.0000000000000000 0.0000000000000000
1.0000000000000000 0.0000000000000000 0.0000000000000000
1.0000000000000000 0.0000000000000000 0.0000000000000000
1.0000000000000000 0.0000000000000000 0.0000000000000000
1.0000000000000000 0.0000000000000000 0.0000000000000000
1.0000000000000000 0.0000000000000000 0.0000000000000000
1.0000000000000000 0.0000000000000000 0.0000000000000000
1.0000000000000000 0.0000000000000000 0.0000000000000000
1.0000000000000000 0.0000000000000000 0.0000000000000000
1.0000000000000000 0.0000000000000000 0.0000000000000000
1.0000000000000000 0.0000000000000000 0.0000000000000000
1.0000000000000000 0.0000000000000000 0.0000000000000000
1.0000000000000000 0.0000000000000000 0.0000000000000000
1.0000000000000000 0.0000000000000000 0.0000000000000000
1.0000000000000000 0.0000000000000000 0.0000000000000000
1.0000000000000000 0.0000000000000000 0.0000000000000000
1.0000000000000000 0.0000000000000000 0.0000000000000000
1.0000000000000000 0.0000000000000000 0.0000000000000000
1.0000000000000000 0.0000000000000000 0.0000000000000000
1.0000000000000000 0.0000000000000000 0.0000000000000000
1.0000000000000000 0.0000000000000000 0.0000000000000000
1.0000000000000000 0.0000000000000000 0.0000000000000000
1.0000000000000000 0.0000000000000000 0.0000000000000000
1.0000000000000000 0.0000000000000000 0.0000000000000000
1.0000000000000000 0.0000000000000000 0.0000000000000000
1.0000000000000000 0.0000000000000000 0.0000000000000000
1.0000000000000000 0.0000000000000000 0.0000000000000000
1.0000000000000000 0.0000000000000000 0.0000000000000000
1.0000000000000000 0.0000000000000000 0.0000000000000000
1.0000000000000000 0.0000000000000000 0.0000000000000000
1.0000000000000000 0.0000000000000000 0.0000000000000000
1.0000000000000000 0.0000000000000000 0.0000000000000000
1.0000000000000000 0.0000000000000000 0.0000000000000000
1.0000000000000000 0.0000000000000000 0.0000000000000000
1.0000000000000000 0.0000000000000000 0.0000000000000000
1.0000000000000000 0.0000000000000000 0.0000000000000000
1.0000000000000000 0.0000000000000000 0.0000000000000000
1.0000000000000000 0.0000000000000000 0.0000000000000000
1.0000000000000000 0.0000000000000000 0.0000000000000000
1.0000000000000000 0.0000000000000000 0.0000000000000000
1.0000000000000000 0.0000000000000000 0.0000000000000000
1.0000000000000000 0.0000000000000000 0.0000000000000000
1.0000000000000000 0.0000000000000000 0.0000000000000000
1.0000000000000000 0.0000000000000000 0.0000000000000000
1.0000000000000000 0.0000000000000000 0.0000000000000000
1.0000000000000000 0.0000000000000000 0.0000000000000000
1.0000000000000000 0.0000000000000000 0.0000000000000000
1.0000000000000000 0.0000000000000000 0.0000000000000000
1.0000000000000000 0.0000000000000000 0.0000000000000000
1.0000000000000000 0.0000000000000000 0.0000000000000000
1.0000000000000000 0.0000000000000000 0.0000000000000000
1.0000000000000000 0.0000000000000000 0.0000000000000000
1.0000000000000000 0.0000000000000000 0.0000000000000000
1.0000000000000000 0.0000000000000000 0.0000000000000000
1.0000000000000000 0.0000000000000000 0.0000000000000000
1.0000000000000000 0.0000000000000000 0.0000000000000000
1.0000000000000000 0.0000000000000000 0.0000000000000000
1.0000000000000000 0.0000000000000000 0.0000000000000000
1.0000000000000000 0.0000000000000000 0.0000000000000000
1.0000000000000000 0.0000000000000000 0.0000000000000000
1.0000000000000000 0.0000000000000000 0.0000000000000000
1.0000000000000000 0.0000000000000000 0.0000000000000000
1.0000000000000000 0.0000000000000000 0.0000000000000000
1.0000000000000000 0.0000000000000000 0.0000000000000000
1.0000000000000000 0.0000000000000000 0.0000000000000000
1.0000000000000000 0.0000000000000000 0.0000000000000000
1.0000000000000000 0.0000000000000000 0.0000000000000000
1.0000000000000000 0.0000000000000000 0.0000000000000000
1.0000000000000000 0.0000000000000000 0.0000000000000000
1.0000000000000000 0.0000000000000000 0.0000000000000000
1.0000000000000000 0.0000000000000000 0.0000000000000000
1.0000000000000000 0.0000000000000000 0.0000000000000000
1.0000000000000000 0.0000000000000000 0.0000000000000000
1.0000000000000000 0.0000000000000000 0.0000000000000000
1.0000000000000000 0.0000000000000000 0.0000000000000000
1.0000000000000000 0.0000000000000000 0.0000000000000000
1.0000000000000000 0.0000000000000000 0.0000000000000000
1.0000000000000000 0.0000000000000000 0.0000000000000000
1.0000000000000000 0.0000000000000000 0.0000000000000000
1.0000000000000000 0.0000000000000000 0.0000000000000000
1.0000000000000000 0.0000000000000000 0.0000000000000000
1.0000000000000000 0.0000000000000000 0.0000000000000000
1.0000000000000000 0.0000000000000000 0.0000000000000000
1.0000000000000000 0.0000000000000000 0.0000000000000000
1.0000000000000000 0.0000000000000000 0.0000000000000000
1.0000000000000000 0.0000000000000000 0.0000000000000000
1.0000000000000000 0.0000000000000000 0.0000000000000000
1.0000000000000000 0.0000000000000000 0.0000000000000000
1.0000000000000000 0.0000000000000000 0.0000000000000000
1.0000000000000000 0.0000000000000000 0.0000000000000000
1.0000000000000000 0.0000000000000000 0.0000000000000000
1.0000000000000000 0.0000000000000000 0.0000000000000000
1.0000000000000000 0.0000000000000000 0.0000000000000000
1.0000000000000000 0.0000000000000000 0.0000000000000000
1.0000000000000000 0.0000000000000000 0.0000000000000000
1.0000000000000000 0.0000000000000000 0.0000000000000000
1.0000000000000000 0.0000000000000000 0.0000000000000000
1.0000000000000000 0.0000000000000000 0.0000000000000000
1.0000000000000000 0.0000000000000000 0.0000000000000000
1.0000000000000000 0.0000000000000000 0.0000000000000000
1.0000000000000000 0.0000000000000000 0.0000000000000000
1.0000000000000000 0.0000000000000000 0.0000000000000000
1.0000000000000000 0.0000000000000000 0.0000000000000000
1.0000000000000000 0.0000000000000000 0.0000000000000000
1.0000000000000000 0.0000000000000000 0.0000000000000000
1.0000000000000000 0.0000000000000000 0.0000000000000000
1.0000000000000000 0.0000000000000000 0.0000000000000000
1.0000000000000000 0.0000000000000000 0.0000000000000000
1.0000000000000000 0.0000000000000000 0.0000000000000000
1.0000000000000000 0.0000000000000000 0.0000000000000000
1.0000000000000000 0.0000000000000000 0.0000000000000000
1.0000000000000000 0.0000000000000000 0.0000000000000000
1.0000000000000000 0.0000000000000000 0.0000000000000000
1.0000000000000000 0.0000000000000000 0.0000000000000000
1.0000000000000000 0.0000000000000000 0.0000000000000000
1.0000000000000000 0.0000000000000000 0.0000000000000000
1.0000000000000000 0.0000000000000000 0.0000000000000000
1.0000000000000000 0.0000000000000000 0.0000000000000000
1.0000000000000000 0.0000000000000000 0.0000000000000000
1.0000000000000000 0.0000000000000000 0.0000000000000000
1.0000000000000000 0.0000000000000000 0.0000000000000000
1.0000000000000000 0.0000000000000000 0.0000000000000000
1.0000000000000000 0.0000000000000000 0.0000000000000000
1.0000000000000000 0.0000000000000000 0.0000000000000000
1.0000000000000000 0.0000000000000000 0.0000000000000000
1.0000000000000000 0.0000000000000000 0.0000000000000000
1.0000000000000000 0.0000000000000000 0.0000000000000000
1.0000000000000000 0.0000000000000000 0.0000000000000000
1.0000000000000000 0.0000000000000000 0.0000000000000000
1.0000000000000000 0.0000000000000000 0.0000000000000000
1.0000000000000000 0.0000000000000000 0.0000000000000000
1.0000000000000000 0.0000000000000000 0.0000000000000000
1.0000000000000000 0.0000000000000000 0.0000000000000000
1.0000000000000000 0.0000000000000000 0.0000000000000000
1.0000000000000000 0.0000000000000000 0.0000000000000000
1.0000000000000000 0.0000000000000000 0.0000000000000000
1.0000000000000000 0.0000000000000000 0.0000000000000000
1.0000000000000000 0.0000000000000000 0.0000000000000000
1.0000000000000000 0.0000000000000000 0.0000000000000000
1.0000000000000000 0.0000000000000000 0.0000000000000000
1.0000000000000000 0.0000000000000000 0.0000000000000000
1.0000000000000000 0.0000000000000000 0.0000000000000000
1.0000000000000000 0.0000000000000000 0.0000000000000000
1.0000000000000000 0.0000000000000000 0.0000000000000000
1.0000000000000000 0.0000000000000000 0.0000000000000000
1.0000000000000000 0.0000000000000000 0.0000000000000000
1.0000000000000000 0.0000000000000000 0.0000000000000000
1.0000000000000000 0.0000000000000000 0.0000000000000000
1.0000000000000000 0.0000000000000000 0.0000000000000000
1.0000000000000000 0.0000000000000000 0.0000000000000000
1.0000000000000000 0.0000000000000000 0.0000000000000000
1.0000000000000000 0.0000000000000000 0.0000000000000000
1.0000000000000000 0.0000000000000000 0.0000000000000000
1.0000000000000000 0.0000000000000000 0.0000000000000000
1.0000000000000000 0.0000000000000000 0.0000000000000000
1.0000000000000000 0.0000000000000000 0.0000000000000000
1.0000000000000000 0.0000000000000000 0.0000000000000000
1.0000000000000000 0.0000000000000000 0.0000000000000000
1.0000000000000000 0.0000000000000000 0.0000000000000000
1.0000000000000000 0.0000000000000000 0.0000000000000000
1.0000000000000000 0.0000000000000000 0.0000000000000000
1.0000000000000000 0.0000000000000000 0.0000000000000000
1.0000000000000000 0.0000000000000000 0.0000000000000000
1.0000000000000000 0.0000000000000000 0.0000000000000000
1.0000000000000000 0.0000000000000000 0.0000000000000000
1.0000000000000000 0.0000000000000000 0.0000000000000000
1.0000000000000000 0.0000000000000000 0.0000000000000000
1.0000000000000000 0.0000000000000000 0.0000000000000000
1.0000000000000000 0.0000000000000000 0.0000000000000000
1.0000000000000000 0.0000000000000000 0.0000000000000000
1.0000000000000000 0.0000000000000000 0.0000000000000000
1.0000000000000000 0.0000000000000000 0.0000000000000000
1.0000000000000000 0.0000000000000000 0.0000000000000000
1.0000000000000000 0.0000000000000000 0.0000000000000000
1.0000000000000000 0.0000000000000000 0.0000000000000000
1.0000000000000000 0.0000000000000000 0.0000000000000000
1.0000000000000000 0.0000000000000000 0.0000000000000000
1.0000000000000000 0.0000000000000000 0.0000000000000000
1.0000000000000000 0.0000000000000000 0.0000000000000000
1.0000000000000000 0.0000000000000000 0.0000000000000000
1.0000000000000000 0.0000000000000000 0.0000000000000000
1.0000000000000000 0.0000000000000000 0.0000000000000000
1.0000000000000000 0.0000000000000000 0.0000000000000000
1.0000000000000000 0.0000000000000000 0.0000000000000000
1.0000000000000000 0.0000000000000000 0.0000000000000000
1.0000000000000000 0.0000000000000000 0.0000000000000000
1.0000000000000000 0.0000000000000000 0.0000000000000000
1.0000000000000000 0.0000000000000000 0.0000000000000000
1.0000000000000000 0.0000000000000000 0.0000000000000000
1.0000000000000000 0.0000000000000000 0.0000000000000000
1.0000000000000000 0.0000000000000000 0.0000000000000000
1.0000000000000000 0.0000000000000000 0.0000000000000000
1.0000000000000000 0.0000000000000000 0.0000000000000000
1.0000000000000000 0.0000000000000000 0.0000000000000000
1.0000000000000000 0.0000000000000000 0.0000000000000000
1.0000000000000000 0.0000000000000000 0.0000000000000000
1.0000000000000000 0.0000000000000000 0.0000000000000000
1.0000000000000000 0.0000000000000000 0.0000000000000000
1.0000000000000000 0.0000000000000000 0.0000000000000000
1.0000000000000000 0.0000000000000000 0.0000000000000000
1.0000000000000000 0.0000000000000000 0.0000000000000000
1.0000000000000000 0.0000000000000000 0.0000000000000000
1.0000000000000000 0.0000000000000000 0.0000000000000000
1.0000000000000000 0.0000000000000000 0.0000000000000000
1.0000000000000000 0.0000000000000000 0.0000000000000000
1.0000000000000000 0.0000000000000000 0.0000000000000000
1.0000000000000000 0.0000000000000000 0.0000000000000000
1.0000000000000000 0.0000000000000000 0.0000000000000000
1.0000000000000000 0.0000000000000000 0.0000000000000000
1.0000000000000000 0.0000000000000000 0.0000000000000000
1.0000000000000000 0.0000000000000000 0.0000000000000000
1.0000000000000000 0.0000000000000000 0.0000000000000000
1.0000000000000000 0.0000000000000000 0.0000000000000000
1.0000000000000000 0.0000000000000000 0.0000000000000000
1.0000000000000000 0.0000000000000000 0.0000000000000000
1.0000000000000000 0.0000000000000000 0.0000000000000000
1.0000000000000000 0.0000000000000000 0.0000000000000000
1.0000000000000000 0.0000000000000000 0.0000000000000000
1.0000000000000000 0.0000000000000000 0.0000000000000000
1.0000000000000000 0.0000000000000000 0.0000000000000000
1.0000000000000000 0.0000000000000000 0.0000000000000000
1.0000000000000000 0.0000000000000000 0.0000000000000000
1.0000000000000000 0.0000000000000000 0.0000000000000000
1.0000000000000000 0.0000000000000000 0.0000000000000000
1.0000000000000000 0.0000000000000000 0.0000000000000000
1.0000000000000000 0.0000000000000000 0.0000000000000000
1.0000000000000000 0.0000000000000000 0.0000000000000000
1.0000000000000000 0.0000000000000000 0.0000000000000000
1.0000000000000000 0.0000000000000000 0.0000000000000000
1.0000000000000000 0.0000000000000000 0.0000000000000000
1.0000000000000000 0.0000000000000000 0.0000000000000000
1.0000000000000000 0.0000000000000000 0.0000000000000000
1.0000000000000000 0.0000000000000000 0.0000000000000000
1.0000000000000000 0.0000000000000000 0.0000000000000000
1.0000000000000000 0.0000000000000000 0.0000000000000000
1.0000000000000000 0.0000000000000000 0.0000000000000000
1.0000000000000000 0.0000000000000000 0.0000000000000000
1.0000000000000000 0.0000000000000000 0.0000000000000000
1.0000000000000000 0.0000000000000000 0.0000000000000000
1.0000000000000000 0.0000000000000000 0.0000000000000000
1.0000000000000000 0.0000000000000000 0.0000000000000000
1.0000000000000000 0.0000000000000000 0.0000000000000000
1.0000000000000000 0.0000000000000000 0.0000000000000000
1.0000000000000000 0.0000000000000000 0.0000000000000000
1.0000000000000000 0.0000000000000000 0.0000000000000000
1.0000000000000000 0.0000000000000000 0.0000000000000000
1.0000000000000000 0.0000000000000000 0.0000000000000000
1.0000000000000000 0.0000000000000000 0.0000000000000000
1.0000000000000000 0.0000000000000000 0.0000000000000000
1.0000000000000000 0.0000000000000000 0.0000000000000000
1.0000000000000000 0.0000000000000000 0.0000000000000000
1.0000000000000000 0.0000000000000000 0.0000000000000000
1.0000000000000000 0.0000000000000000 0.0000000000000000
1.0000000000000000 0.0000000000000000 0.0000000000000000
1.0000000000000000 0.0000000000000000 0.0000000000000000
1.0000000000000000 0.0000000000000000 0.0000000000000000
1.0000000000000000 0.0000000000000000 0.0000000000000000
1.0000000000000000 0.0000000000000000 0.0000000000000000
1.0000000000000000 0.0000000000000000 0.0000000000000000
1.0000000000000000 0.0000000000000000 0.0000000000000000
1.0000000000000000 0.0000000000000000 0.0000000000000000
1.0000000000000000 0.0000000000000000 0.0000000000000000
1.0000000000000000 0.0000000000000000 0.0000000000000000
1.0000000000000000 0.0000000000000000 0.0000000000000000
1.0000000000000000 0.0000000000000000 0.0000000000000000
1.0000000000000000 0.0000000000000000 0.0000000000000000
1.0000000000000000 0.0000000000000000 0.0000000000000000
1.0000000000000000 0.0000000000000000 0.0000000000000000
1.0000000000000000 0.0000000000000000 0.0000000000000000
1.0000000000000000 0.0000000000000000 0.0000000000000000
1.0000000000000000 0.0000000000000000 0.0000000000000000
1.0000000000000000 0.0000000000000000 0.0000000000000000
1.0000000000000000 0.0000000000000000 0.0000000000000000
1.0000000000000000 0.0000000000000000 0.0000000000000000
1.0000000000000000 0.0000000000000000 0.0000000000000000
1.0000000000000000 0.0000000000000000 0.0000000000000000
1.0000000000000000 0.0000000000000000 0.0000000000000000
1.0000000000000000 0.0000000000000000 0.0000000000000000
1.0000000000000000 0.0000000000000000 0.0000000000000000
1.0000000000000000 0.0000000000000000 0.0000000000000000
1.0000000000000000 0.0000000000000000 0.0000000000000000
1.0000000000000000 0.0000000000000000 0.0000000000000000
1.0000000000000000 0.0000000000000000 0.0000000000000000
1.0000000000000000 0.0000000000000000 0.0000000000000000
1.0000000000000000 0.0000000000000000 0.0000000000000000
1.0000000000000000 0.0000000000000000 0.0000000000000000
1.0000000000000000 0.0000000000000000 0.0000000000000000
1.0000000000000000 0.0000000000000000 0.0000000000000000
1.0000000000000000 0.0000000000000000 0.0000000000000000
1.0000000000000000 0.0000000000000000 0.0000000000000000
1.0000000000000000 0.0000000000000000 0.0000000000000000
1.0000000000000000 0.0000000000000000 0.0000000000000000
1.0000000000000000 0.0000000000000000 0.0000000000000000
1.0000000000000000 0.0000000000000000 0.0000000000000000
1.0000000000000000 0.0000000000000000 0.0000000000000000
1.0000000000000000 0.0000000000000000 0.0000000000000000
1.0000000000000000 0.0000000000000000 0.0000000000000000
1.0000000000000000 0.0000000000000000 0.0000000000000000
1.0000000000000000 0.0000000000000000 0.0000000000000000
1.0000000000000000 0.0000000000000000 0.0000000000000000
1.0000000000000000 0.0000000000000000 0.0000000000000000
1.0000000000000000 0.0000000000000000 0.0000000000000000
1.0000000000000000 0.0000000000000000 0.0000000000000000
1.0000000000000000 0.0000000000000000 0.0000000000000000
1.0000000000000000 0.0000000000000000 0.0000000000000000
1.0000000000000000 0.0000000000000000 0.0000000000000000
1.0000000000000000 0.0000000000000000 0.0000000000000000
1.0000000000000000 0.0000000000000000 0.0000000000000000
1.0000000000000000 0.0000000000000000 0.0000000000000000
1.0000000000000000 0.0000000000000000 0.0000000000000000
1.0000000000000000 0.0000000000000000 0.0000000000000000
1.0000000000000000 0.0000000000000000 0.0000000000000000
1.0000000000000000 0.0000000000000000 0.0000000000000000
1.0000000000000000 0.0000000000000000 0.0000000000000000
1.0000000000000000 0.0000000000000000 0.0000000000000000
1.0000000000000000 0.0000000000000000 0.0000000000000000
1.0000000000000000 0.0000000000000000 0.0000000000000000
1.0000000000000000 0.0000000000000000 0.0000000000000000
1.0000000000000000 0.0000000000000000 0.0000000000000000
1.0000000000000000 0.0000000000000000 0.0000000000000000
1.0000000000000000 0.0000000000000000 0.0000000000000000
1.0000000000000000 0.0000000000000000 0.0000000000000000
1.0000000000000000 0.0000000000000000 0.0000000000000000
1.0000000000000000 0.0000000000000000 0.0000000000000000
1.0000000000000000 0.0000000000000000 0.0000000000000000
1.0000000000000000 0.0000000000000000 0.0000000000000000
1.0000000000000000 0.0000000000000000 0.0000000000000000
1.0000000000000000 0.0000000000000000 0.0000000000000000
1.0000000000000000 0.0000000000000000 0.0000000000000000
1.0000000000000000 0.0000000000000000 0.0000000000000000
1.0000000000000000 0.0000000000000000 0.0000000000000000
1.0000000000000000 0.0000000000000000 0.0000000000000000
1.0000000000000000 0.0000000000000000 0.0000000000000000
1.0000000000000000 0.0000000000000000 0.0000000000000000
1.0000000000000000 0.0000000000000000 0.0000000000000000
1.0000000000000000 0.0000000000000000 0.0000000000000000
1.0000000000000000 0.0000000000000000 0.0000000000000000
1.0000000000000000 0.0000000000000000 0.0000000000000000
1.0000000000000000 0.0000000000000000 0.0000000000000000
1.0000000000000000 0.0000000000000000 0.0000000000000000
1.0000000000000000 0.0000000000000000 0.0000000000000000
1.0000000000000000 0.0000000000000000 0.0000000000000000
1.0000000000000000 0.0000000000000000 0.0000000000000000
1.0000000000000000 0.0000000000000000 0.0000000000000000
1.0000000000000000 0.0000000000000000 0.0000000000000000
1.0000000000000000 0.0000000000000000 0.0000000000000000
1.0000000000000000 0.0000000000000000 0.0000000000000000
1.0000000000000000 0.0000000000000000 0.0000000000000000
1.0000000000000000 0.0000000000000000 0.0000000000000000
1.0000000000000000 0.0000000000000000 0.0000000000000000
1.0000000000000000 0.0000000000000000 0.0000000000000000
1.0000000000000000 0.0000000000000000 0.0000000000000000
1.0000000000000000 0.0000000000000000 0.0000000000000000
1.0000000000000000 0.0000000000000000 0.0000000000000000
1.0000000000000000 0.0000000000000000 0.0000000000000000
1.0000000000000000 0.0000000000000000 0.0000000000000000
1.0000000000000000 0.0000000000000000 0.0000000000000000
1.0000000000000000 0.0000000000000000 0.0000000000000000
1.0000000000000000 0.0000000000000000 0.0000000000000000
1.0000000000000000 0.0000000000000000 0.0000000000000000
1.0000000000000000 0.0000000000000000 0.0000000000000000
1.0000000000000000 0.0000000000000000 0.0000000000000000
1.0000000000000000 0.0000000000000000 0.0000000000000000
1.0000000000000000 0.0000000000000000 0.0000000000000000
1.0000000000000000 0.0000000000000000 0.0000000000000000
1.0000000000000000 0.0000000000000000 0.0000000000000000
1.0000000000000000 0.0000000000000000 0.0000000000000000
1.0000000000000000 0.0000000000000000 0.0000000000000000
1.0000000000000000 0.0000000000000000 0.0000000000000000
1.0000000000000000 0.0000000000000000 0.0000000000000000
1.0000000000000000 0.0000000000000000 0.0000000000000000
1.0000000000000000 0.0000000000000000 0.0000000000000000
1.0000000000000000 0.0000000000000000 0.0000000000000000
1.0000000000000000 0.0000000000000000 0.0000000000000000
1.0000000000000000 0.0000000000000000 0.0000000000000000
1.0000000000000000 0.0000000000000000 0.0000000000000000
1.0000000000000000 0.0000000000000000 0.0000000000000000
1.0000000000000000 0.0000000000000000 0.0000000000000000
1.0000000000000000 0.0000000000000000 0.0000000000000000
1.0000000000000000 0.0000000000000000 0.0000000000000000
1.0000000000000000 0.0000000000000000 0.0000000000000000
1.0000000000000000 0.0000000000000000 0.0000000000000000
1.0000000000000000 0.0000000000000000 0.0000000000000000
1.0000000000000000 0.0000000000000000 0.0000000000000000
1.0000000000000000 0.0000000000000000 0.0000000000000000
1.0000000000000000 0.0000000000000000 0.0000000000000000
1.0000000000000000 0.0000000000000000 0.0000000000000000
1.0000000000000000 0.0000000000000000 0.0000000000000000
1.0000000000000000 0.0000000000000000 0.0000000000000000
1.0000000000000000 0.0000000000000000 0.0000000000000000
1.0000000000000000 0.0000000000000000 0.0000000000000000
1.0000000000000000 0.0000000000000000 0.0000000000000000
1.0000000000000000 0.0000000000000000 0.0000000000000000
1.0000000000000000 0.0000000000000000 0.0000000000000000
1.0000000000000000 0.0000000000000000 0.0000000000000000
1.0000000000000000 0.0000000000000000 0.0000000000000000
1.0000000000000000 0.0000000000000000 0.0000000000000000
1.0000000000000000 0.0000000000000000 0.0000000000000000
1.0000000000000000 0.0000000000000000 0.0000000000000000
1.0000000000000000 0.0000000000000000 0.0000000000000000
1.0000000000000000 0.0000000000000000 0.0000000000000000
1.0000000000000000 0.0000000000000000 0.0000000000000000
1.0000000000000000 0.0000000000000000 0.0000000000000000
1.0000000000000000 0.0000000000000000 0.0000000000000000
1.0000000000000000 0.0000000000000000 0.0000000000000000
1.0000000000000000 0.0000000000000000 0.0000000000000000
1.0000000000000000 0.0000000000000000 0.0000000000000000
1.0000000000000000 0.0000000000000000 0.0000000000000000
1.0000000000000000 0.0000000000000000 0.0000000000000000
1.0000000000000000 0.0000000000000000 0.0000000000000000
1.0000000000000000 0.0000000000000000 0.0000000000000000
1.0000000000000000 0.0000000000000000 0.0000000000000000
1.0000000000000000 0.0000000000000000 0.0000000000000000
1.0000000000000000 0.0000000000000000 0.0000000000000000
1.0000000000000000 0.0000000000000000 0.0000000000000000
1.0000000000000000 0.0000000000000000 0.0000000000000000
1.0000000000000000 0.0000000000000000 0.0000000000000000
1.0000000000000000 0.0000000000000000 0.0000000000000000
1.0000000000000000 0.0000000000000000 0.0000000000000000
1.0000000000000000 0.0000000000000000 0.0000000000000000
1.0000000000000000 0.0000000000000000 0.0000000000000000
1.0000000000000000 0.0000000000000000 0.0000000000000000
1.0000000000000000 0.0000000000000000 0.0000000000000000
1.0000000000000000 0.0000000000000000 0.0000000000000000
1.0000000000000000 0.0000000000000000 0.0000000000000000
1.0000000000000000 0.0000000000000000 0.0000000000000000
1.0000000000000000 0.0000000000000000 0.0000000000000000
1.0000000000000000 0.0000000000000000 0.0000000000000000
1.0000000000000000 0.0000000000000000 0.0000000000000000
1.0000000000000000 0.0000000000000000 0.0000000000000000
1.0000000000000000 0.0000000000000000 0.0000000000000000
1.0000000000000000 0.0000000000000000 0.0000000000000000
1.0000000000000000 0.0000000000000000 0.0000000000000000
1.0000000000000000 0.0000000000000000 0.0000000000000000
1.0000000000000000 0.0000000000000000 0.0000000000000000
1.0000000000000000 0.0000000000000000 0.0000000000000000
1.0000000000000000 0.0000000000000000 0.0000000000000000
1.0000000000000000 0.0000000000000000 0.0000000000000000
1.0000000000000000 0.0000000000000000 0.0000000000000000
1.0000000000000000 0.0000000000000000 0.0000000000000000
1.0000000000000000 0.0000000000000000 0.0000000000000000
1.0000000000000000 0.0000000000000000 0.0000000000000000
1.0000000000000000 0.0000000000000000 0.0000000000000000
1.0000000000000000 0.0000000000000000 0.0000000000000000
1.0000000000000000 0.0000000000000000 0.0000000000000000
1.0000000000000000 0.0000000000000000 0.0000000000000000
1.0000000000000000 0.0000000000000000 0.0000000000000000
1.0000000000000000 0.0000000000000000 0.0000000000000000
1.0000000000000000 0.0000000000000000 0.0000000000000000
1.0000000000000000 0.0000000000000000 0.0000000000000000
1.0000000000000000 0.0000000000000000 0.0000000000000000
1.0000000000000000 0.0000000000000000 0.0000000000000000
1.0000000000000000 0.0000000000000000 0.0000000000000000
1.0000000000000000 0.0000000000000000 0.0000000000000000
1.0000000000000000 0.0000000000000000 0.0000000000000000
1.0000000000000000 0.0000000000000000 0.0000000000000000
1.0000000000000000 0.0000000000000000 0.0000000000000000
1.0000000000000000 0.0000000000000000 0.0000000000000000
1.0000000000000000 0.0000000000000000 0.0000000000000000
1.0000000000000000 0.0000000000000000 0.0000000000000000
1.0000000000000000 0.0000000000000000 0.0000000000000000
1.0000000000000000 0.0000000000000000 0.0000000000000000
1.0000000000000000 0.0000000000000000 0.0000000000000000
1.0000000000000000 0.0000000000000000 0.0000000000000000
1.0000000000000000 0.0000000000000000 0.0000000000000000
1.0000000000000000 0.0000000000000000 0.0000000000000000
1.0000000000000000 0.0000000000000000 0.0000000000000000
1.0000000000000000 0.0000000000000000 0.0000000000000000
1.0000000000000000 0.0000000000000000 0.0000000000000000
1.0000000000000000 0.0000000000000000 0.0000000000000000
1.0000000000000000 0.0000000000000000 0.0000000000000000
1.0000000000000000 0.0000000000000000 0.0000000000000000
1.0000000000000000 0.0000000000000000 0.0000000000000000
1.0000000000000000 0.0000000000000000 0.0000000000000000
1.0000000000000000 0.0000000000000000 0.0000000000000000
1.0000000000000000 0.0000000000000000 0.0000000000000000
1.0000000000000000 0.0000000000000000 0.0000000000000000
1.0000000000000000 0.0000000000000000 0.0000000000000000
1.0000000000000000 0.0000000000000000 0.0000000000000000
1.0000000000000000 0.0000000000000000 0.0000000000000000
1.0000000000000000 0.0000000000000000 0.0000000000000000
1.0000000000000000 0.0000000000000000 0.0000000000000000
1.0000000000000000 0.0000000000000000 0.0000000000000000
1.0000000000000000 0.0000000000000000 0.0000000000000000
1.0000000000000000 0.0000000000000000 0.0000000000000000
1.0000000000000000 0.0000000000000000 0.0000000000000000
1.0000000000000000 0.0000000000000000 0.0000000000000000
1.0000000000000000 0.0000000000000000 0.0000000000000000
1.0000000000000000 0.0000000000000000 0.0000000000000000
1.0000000000000000 0.0000000000000000 0.0000000000000000
1.0000000000000000 0.0000000000000000 0.0000000000000000
1.0000000000000000 0.0000000000000000 0.0000000000000000
1.0000000000000000 0.0000000000000000 0.0000000000000000
1.0000000000000000 0.0000000000000000 0.0000000000000000
1.0000000000000000 0.0000000000000000 0.0000000000000000
1.0000000000000000 0.0000000000000000 0.0000000000000000
1.0000000000000000 0.0000000000000000 0.0000000000000000
1.0000000000000000 0.0000000000000000 0.0000000000000000
1.0000000000000000 0.0000000000000000 0.0000000000000000
1.0000000000000000 0.0000000000000000 0.0000000000000000
1.0000000000000000 0.0000000000000000 0.0000000000000000
1.0000000000000000 0.0000000000000000 0.0000000000000000
1.0000000000000000 0.0000000000000000 0.0000000000000000
1.0000000000000000 0.0000000000000000 0.0000000000000000
1.0000000000000000 0.0000000000000000 0.0000000000000000
1.0000000000000000 0.0000000000000000 0.0000000000000000
1.0000000000000000 0.0000000000000000 0.0000000000000000
1.0000000000000000 0.0000000000000000 0.0000000000000000
1.0000000000000000 0.0000000000000000 0.0000000000000000
1.0000000000000000 0.0000000000000000 0.0000000000000000
1.0000000000000000 0.0000000000000000 0.0000000000000000
1.0000000000000000 0.0000000000000000 0.0000000000000000
1.0000000000000000 0.0000000000000000 0.0000000000000000
1.0000000000000000 0.0000000000000000 0.0000000000000000
1.0000000000000000 0.0000000000000000 0.0000000000000000
1.0000000000000000 0.0000000000000000 0.0000000000000000
1.0000000000000000 0.0000000000000000 0.0000000000000000
1.0000000000000000 0.0000000000000000 0.0000000000000000
1.0000000000000000 0.0000000000000000 0.0000000000000000
1.0000000000000000 0.0000000000000000 0.0000000000000000
1.0000000000000000 0.0000000000000000 0.0000000000000000
1.0000000000000000 0.0000000000000000 0.0000000000000000
1.0000000000000000 0.0000000000000000 0.0000000000000000
1.0000000000000000 0.0000000000000000 0.0000000000000000
1.0000000000000000 0.0000000000000000 0.0000000000000000
1.0000000000000000 0.0000000000000000 0.0000000000000000
1.0000000000000000 0.0000000000000000 0.0000000000000000
1.0000000000000000 0.0000000000000000 0.0000000000000000
1.0000000000000000 0.0000000000000000 0.0000000000000000
1.0000000000000000 0.0000000000000000 0.0000000000000000
1.0000000000000000 0.0000000000000000 0.0000000000000000
1.0000000000000000 0.0000000000000000 0.0000000000000000
1.0000000000000000 0.0000000000000000 0.0000000000000000
1.0000000000000000 0.0000000000000000 0.0000000000000000
1.0000000000000000 0.0000000000000000 0.0000000000000000
1.0000000000000000 0.0000000000000000 0.0000000000000000
1.0000000000000000 0.0000000000000000 0.0000000000000000
1.0000000000000000 0.0000000000000000 0.0000000000000000
1.0000000000000000 0.0000000000000000 0.0000000000000000
1.0000000000000000 0.0000000000000000 0.0000000000000000
1.0000000000000000 0.0000000000000000 0.0000000000000000
1.0000000000000000 0.0000000000000000 0.0000000000000000
1.0000000000000000 0.0000000000000000 0.0000000000000000
1.0000000000000000 0.0000000000000000 0.0000000000000000
1.0000000000000000 0.0000000000000000 0.0000000000000000
1.0000000000000000 0.0000000000000000 0.0000000000000000
1.0000000000000000 0.0000000000000000 0.0000000000000000
1.0000000000000000 0.0000000000000000 0.0000000000000000
1.0000000000000000 0.0000000000000000 0.0000000000000000
1.0000000000000000 0.0000000000000000 0.0000000000000000
1.0000000000000000 0.0000000000000000 0.0000000000000000
1.0000000000000000 0.0000000000000000 0.0000000000000000
1.0000000000000000 0.0000000000000000 0.0000000000000000
1.0000000000000000 0.0000000000000000 0.0000000000000000
1.0000000000000000 0.0000000000000000 0.0000000000000000
1.0000000000000000 0.0000000000000000 0.0000000000000000
1.0000000000000000 0.0000000000000000 0.0000000000000000
1.0000000000000000 0.0000000000000000 0.0000000000000000
1.0000000000000000 0.0000000000000000 0.0000000000000000
1.0000000000000000 0.0000000000000000 0.0000000000000000
1.0000000000000000 0.0000000000000000 0.0000000000000000
1.0000000000000000 0.0000000000000000 0.0000000000000000
1.0000000000000000 0.0000000000000000 0.0000000000000000
1.0000000000000000 0.0000000000000000 0.0000000000000000
1.0000000000000000 0.0000000000000000 0.0000000000000000
1.0000000000000000 0.0000000000000000 0.0000000000000000
1.0000000000000000 0.0000000000000000 0.0000000000000000
1.0000000000000000 0.0000000000000000 0.0000000000000000
1.0000000000000000 0.0000000000000000 0.0000000000000000
1.0000000000000000 0.0000000000000000 0.0000000000000000
1.0000000000000000 0.0000000000000000 0.0000000000000000
1.0000000000000000 0.0000000000000000 0.0000000000000000
1.0000000000000000 0.0000000000000000 0.0000000000000000
1.0000000000000000 0.0000000000000000 0.0000000000000000
1.0000000000000000 0.0000000000000000 0.0000000000000000
1.0000000000000000 0.0000000000000000 0.0000000000000000
1.0000000000000000 0.0000000000000000 0.0000000000000000
1.0000000000000000 0.0000000000000000 0.0000000000000000
1.0000000000000000 0.0000000000000000 0.0000000000000000
1.0000000000000000 0.0000000000000000 0.0000000000000000
1.0000000000000000 0.0000000000000000 0.0000000000000000
1.0000000000000000 0.0000000000000000 0.0000000000000000
1.0000000000000000 0.0000000000000000 0.0000000000000000
1.0000000000000000 0.0000000000000000 0.0000000000000000
1.0000000000000000 0.0000000000000000 0.0000000000000000
1.0000000000000000 0.0000000000000000 0.0000000000000000
1.0000000000000000 0.0000000000000000 0.0000000000000000
1.0000000000000000 0.0000000000000000 0.0000000000000000
1.0000000000000000 0.0000000000000000 0.0000000000000000
1.0000000000000000 0.0000000000000000 0.0000000000000000
1.0000000000000000 0.0000000000000000 0.0000000000000000
1.0000000000000000 0.0000000000000000 0.0000000000000000
1.0000000000000000 0.0000000000000000 0.0000000000000000
1.0000000000000000 0.0000000000000000 0.0000000000000000
1.0000000000000000 0.0000000000000000 0.0000000000000000
1.0000000000000000 0.0000000000000000 0.0000000000000000
1.0000000000000000 0.0000000000000000 0.0000000000000000
1.0000000000000000 0.0000000000000000 0.0000000000000000
1.0000000000000000 0.0000000000000000 0.0000000000000000
1.0000000000000000 0.0000000000000000 0.0000000000000000
1.0000000000000000 0.0000000000000000 0.0000000000000000
1.0000000000000000 0.0000000000000000 0.0000000000000000
1.0000000000000000 0.0000000000000000 0.0000000000000000
1.0000000000000000 0.0000000000000000 0.0000000000000000
1.0000000000000000 0.0000000000000000 0.0000000000000000
1.0000000000000000 0.0000000000000000 0.0000000000000000
1.0000000000000000 0.0000000000000000 0.0000000000000000
1.0000000000000000 0.0000000000000000 0.0000000000000000
1.0000000000000000 0.0000000000000000 0.0000000000000000
1.0000000000000000 0.0000000000000000 0.0000000000000000
1.0000000000000000 0.0000000000000000 0.0000000000000000
1.0000000000000000 0.0000000000000000 0.0000000000000000
1.0000000000000000 0.0000000000000000 0.0000000000000000
1.0000000000000000 0.0000000000000000 0.0000000000000000
1.0000000000000000 0.0000000000000000 0.0000000000000000
1.0000000000000000 0.0000000000000000 0.0000000000000000
1.0000000000000000 0.0000000000000000 0.0000000000000000
1.0000000000000000 0.0000000000000000 0.0000000000000000
1.0000000000000000 0.0000000000000000 0.0000000000000000
1.0000000000000000 0.0000000000000000 0.0000000000000000
1.0000000000000000 0.0000000000000000 0.0000000000000000
1.0000000000000000 0.0000000000000000 0.0000000000000000
1.0000000000000000 0.0000000000000000 0.0000000000000000
1.0000000000000000 0.0000000000000000 0.0000000000000000
1.0000000000000000 0.0000000000000000 0.0000000000000000
1.0000000000000000 0.0000000000000000 0.0000000000000000
1.0000000000000000 0.0000000000000000 0.0000000000000000
1.0000000000000000 0.0000000000000000 0.0000000000000000
1.0000000000000000 0.0000000000000000 0.0000000000000000
1.0000000000000000 0.0000000000000000 0.0000000000000000
1.0000000000000000 0.0000000000000000 0.0000000000000000
1.0000000000000000 0.0000000000000000 0.0000000000000000
1.0000000000000000 0.0000000000000000 0.0000000000000000
1.0000000000000000 0.0000000000000000 0.0000000000000000
1.0000000000000000 0.0000000000000000 0.0000000000000000
1.0000000000000000 0.0000000000000000 0.0000000000000000
1.0000000000000000 0.0000000000000000 0.0000000000000000
1.0000000000000000 0.0000000000000000 0.0000000000000000
1.0000000000000000 0.0000000000000000 0.0000000000000000
1.0000000000000000 0.0000000000000000 0.0000000000000000
1.0000000000000000 0.0000000000000000 0.0000000000000000
1.0000000000000000 0.0000000000000000 0.0000000000000000
1.0000000000000000 0.0000000000000000 0.0000000000000000
1.0000000000000000 0.0000000000000000 0.0000000000000000
1.0000000000000000 0.0000000000000000 0.0000000000000000
1.0000000000000000 0.0000000000000000 0.0000000000000000
1.0000000000000000 0.0000000000000000 0.0000000000000000
1.0000000000000000 0.0000000000000000 0.0000000000000000
1.0000000000000000 0.0000000000000000 0.0000000000000000
1.0000000000000000 0.0000000000000000 0.0000000000000000
1.0000000000000000 0.0000000000000000 0.0000000000000000
1.0000000000000000 0.0000000000000000 0.0000000000000000
1.0000000000000000 0.0000000000000000 0.0000000000000000
1.0000000000000000 0.0000000000000000 0.0000000000000000
1.0000000000000000 0.0000000000000000 0.0000000000000000
1.0000000000000000 0.0000000000000000 0.0000000000000000
1.0000000000000000 0.0000000000000000 0.0000000000000000
1.0000000000000000 0.0000000000000000 0.0000000000000000
1.0000000000000000 0.0000000000000000 0.0000000000000000
1.0000000000000000 0.0000000000000000 0.0000000000000000
1.0000000000000000 0.0000000000000000 0.0000000000000000
1.0000000000000000 0.0000000000000000 0.0000000000000000
1.0000000000000000 0.0000000000000000 0.0000000000000000
1.0000000000000000 0.0000000000000000 0.0000000000000000
1.0000000000000000 0.0000000000000000 0.0000000000000000
1.0000000000000000 0.0000000000000000 0.0000000000000000
1.0000000000000000 0.0000000000000000 0.0000000000000000
1.0000000000000000 0.0000000000000000 0.0000000000000000
1.0000000000000000 0.0000000000000000 0.0000000000000000
1.0000000000000000 0.0000000000000000 0.0000000000000000
1.0000000000000000 0.0000000000000000 0.0000000000000000
1.0000000000000000 0.0000000000000000 0.0000000000000000
1.0000000000000000 0.0000000000000000 0.0000000000000000
1.0000000000000000 0.0000000000000000 0.0000000000000000
1.0000000000000000 0.0000000000000000 0.0000000000000000
1.0000000000000000 0.0000000000000000 0.0000000000000000
1.0000000000000000 0.0000000000000000 0.0000000000000000
1.0000000000000000 0.0000000000000000 0.0000000000000000
1.0000000000000000 0.0000000000000000 0.0000000000000000
1.0000000000000000 0.0000000000000000 0.0000000000000000
1.0000000000000000 0.0000000000000000 0.0000000000000000
1.0000000000000000 0.0000000000000000 0.0000000000000000
1.0000000000000000 0.0000000000000000 0.0000000000000000
1.0000000000000000 0.0000000000000000 0.0000000000000000
1.0000000000000000 0.0000000000000000 0.0000000000000000
1.0000000000000000 0.0000000000000000 0.0000000000000000
1.0000000000000000 0.0000000000000000 0.0000000000000000
1.0000000000000000 0.0000000000000000 0.0000000000000000
1.0000000000000000 0.0000000000000000 0.0000000000000000
1.0000000000000000 0.0000000000000000 0.0000000000000000
1.0000000000000000 0.0000000000000000 0.0000000000000000
1.0000000000000000 0.0000000000000000 0.0000000000000000
1.0000000000000000 0.0000000000000000 0.0000000000000000
1.0000000000000000 0.0000000000000000 0.0000000000000000
1.0000000000000000 0.0000000000000000 0.0000000000000000
1.0000000000000000 0.0000000000000000 0.0000000000000000
1.0000000000000000 0.0000000000000000 0.0000000000000000
1.0000000000000000 0.0000000000000000 0.0000000000000000
1.0000000000000000 0.0000000000000000 0.0000000000000000
1.0000000000000000 0.0000000000000000 0.0000000000000000
1.0000000000000000 0.0000000000000000 0.0000000000000000
1.0000000000000000 0.0000000000000000 0.0000000000000000
1.0000000000000000 0.0000000000000000 0.0000000000000000
1.0000000000000000 0.0000000000000000 0.0000000000000000
1.0000000000000000 0.0000000000000000 0.0000000000000000
1.0000000000000000 0.0000000000000000 0.0000000000000000
1.0000000000000000 0.0000000000000000 0.0000000000000000
1.0000000000000000 0.0000000000000000 0.0000000000000000
1.0000000000000000 0.0000000000000000 0.0000000000000000
1.0000000000000000 0.0000000000000000 0.0000000000000000
1.0000000000000000 0.0000000000000000 0.0000000000000000
1.0000000000000000 0.0000000000000000 0.0000000000000000
1.0000000000000000 0.0000000000000000 0.0000000000000000
1.0000000000000000 0.0000000000000000 0.0000000000000000
1.0000000000000000 0.0000000000000000 0.0000000000000000
1.0000000000000000 0.0000000000000000 0.0000000000000000
1.0000000000000000 0.0000000000000000 0.0000000000000000
1.0000000000000000 0.0000000000000000 0.0000000000000000
1.0000000000000000 0.0000000000000000 0.0000000000000000
1.0000000000000000 0.0000000000000000 0.0000000000000000
1.0000000000000000 0.0000000000000000 0.0000000000000000
1.0000000000000000 0.0000000000000000 0.0000000000000000
1.0000000000000000 0.0000000000000000 0.0000000000000000
1.0000000000000000 0.0000000000000000 0.0000000000000000
1.0000000000000000 0.0000000000000000 0.0000000000000000
1.0000000000000000 0.0000000000000000 0.0000000000000000
1.0000000000000000 0.0000000000000000 0.0000000000000000
1.0000000000000000 0.0000000000000000 0.0000000000000000
1.0000000000000000 0.0000000000000000 0.0000000000000000
1.0000000000000000 0.0000000000000000 0.0000000000000000
1.0000000000000000 0.0000000000000000 0.0000000000000000
1.0000000000000000 0.0000000000000000 0.0000000000000000
1.0000000000000000 0.0000000000000000 0.0000000000000000
1.0000000000000000 0.0000000000000000 0.0000000000000000
1.0000000000000000 0.0000000000000000 0.0000000000000000
1.0000000000000000 0.0000000000000000 0.0000000000000000
1.0000000000000000 0.0000000000000000 0.0000000000000000
1.0000000000000000 0.0000000000000000 0.0000000000000000
1.0000000000000000 0.0000000000000000 0.0000000000000000
1.0000000000000000 0.0000000000000000 0.0000000000000000
1.0000000000000000 0.0000000000000000 0.0000000000000000
1.0000000000000000 0.0000000000000000 0.0000000000000000
1.0000000000000000 0.0000000000000000 0.0000000000000000
1.0000000000000000 0.0000000000000000 0.0000000000000000
1.0000000000000000 0.0000000000000000 0.0000000000000000
1.0000000000000000 0.0000000000000000 0.0000000000000000
1.0000000000000000 0.0000000000000000 0.0000000000000000
1.0000000000000000 0.0000000000000000 0.0000000000000000
1.0000000000000000 0.0000000000000000 0.0000000000000000
1.0000000000000000 0.0000000000000000 0.0000000000000000
1.0000000000000000 0.0000000000000000 0.0000000000000000
1.0000000000000000 0.0000000000000000 0.0000000000000000
1.0000000000000000 0.0000000000000000 0.0000000000000000
1.0000000000000000 0.0000000000000000 0.0000000000000000
1.0000000000000000 0.0000000000000000 0.0000000000000000
1.0000000000000000 0.0000000000000000 0.0000000000000000
1.0000000000000000 0.0000000000000000 0.0000000000000000
1.0000000000000000 0.0000000000000000 0.0000000000000000
1.0000000000000000 0.0000000000000000 0.0000000000000000
1.0000000000000000 0.0000000000000000 0.0000000000000000
1.0000000000000000 0.0000000000000000 0.0000000000000000
1.0000000000000000 0.0000000000000000 0.0000000000000000
1.0000000000000000 0.0000000000000000 0.0000000000000000
1.0000000000000000 0.0000000000000000 0.0000000000000000
1.0000000000000000 0.0000000000000000 0.0000000000000000
1.0000000000000000 0.0000000000000000 0.0000000000000000
1.0000000000000000 0.0000000000000000 0.0000000000000000
1.0000000000000000 0.0000000000000000 0.0000000000000000
1.0000000000000000 0.0000000000000000 0.0000000000000000
1.0000000000000000 0.0000000000000000 0.0000000000000000
1.0000000000000000 0.0000000000000000 0.0000000000000000
1.0000000000000000 0.0000000000000000 0.0000000000000000
1.0000000000000000 0.0000000000000000 0.0000000000000000
1.0000000000000000 0.0000000000000000 0.0000000000000000
1.0000000000000000 0.0000000000000000 0.0000000000000000
1.0000000000000000 0.0000000000000000 0.0000000000000000
1.0000000000000000 0.0000000000000000 0.0000000000000000
1.0000000000000000 0.0000000000000000 0.0000000000000000
1.0000000000000000 0.0000000000000000 0.0000000000000000
1.0000000000000000 0.0000000000000000 0.0000000000000000
1.0000000000000000 0.0000000000000000 0.0000000000000000
1.0000000000000000 0.0000000000000000 0.0000000000000000
1.0000000000000000 0.0000000000000000 0.0000000000000000
1.0000000000000000 0.0000000000000000 0.0000000000000000
1.0000000000000000 0.0000000000000000 0.0000000000000000
1.0000000000000000 0.0000000000000000 0.0000000000000000
1.0000000000000000 0.0000000000000000 0.0000000000000000
1.0000000000000000 0.0000000000000000 0.0000000000000000
1.0000000000000000 0.0000000000000000 0.0000000000000000
1.0000000000000000 0.0000000000000000 0.0000000000000000
1.0000000000000000 0.0000000000000000 0.0000000000000000
1.0000000000000000 0.0000000000000000 0.0000000000000000
1.0000000000000000 0.0000000000000000 0.0000000000000000
1.0000000000000000 0.0000000000000000 0.0000000000000000
1.0000000000000000 0.0000000000000000 0.0000000000000000
1.0000000000000000 0.0000000000000000 0.0000000000000000
1.0000000000000000 0.0000000000000000 0.0000000000000000
1.0000000000000000 0.0000000000000000 0.0000000000000000
1.0000000000000000 0.0000000000000000 0.0000000000000000
1.0000000000000000 0.0000000000000000 0.0000000000000000
1.0000000000000000 0.0000000000000000 0.0000000000000000
1.0000000000000000 0.0000000000000000 0.0000000000000000
1.0000000000000000 0.0000000000000000 0.0000000000000000
1.0000000000000000 0.0000000000000000 0.0000000000000000
1.0000000000000000 0.0000000000000000 0.0000000000000000
1.0000000000000000 0.0000000000000000 0.0000000000000000
1.0000000000000000 0.0000000000000000 0.0000000000000000
1.0000000000000000 0.0000000000000000 0.0000000000000000
1.0000000000000000 0.0000000000000000 0.0000000000000000
1.0000000000000000 0.0000000000000000 0.0000000000000000
1.0000000000000000 0.0000000000000000 0.0000000000000000
1.0000000000000000 0.0000000000000000 0.0000000000000000
1.0000000000000000 0.0000000000000000 0.0000000000000000
1.0000000000000000 0.0000000000000000 0.0000000000000000
1.0000000000000000 0.0000000000000000 0.0000000000000000
1.0000000000000000 0.0000000000000000 0.0000000000000000
1.0000000000000000 0.0000000000000000 0.0000000000000000
1.0000000000000000 0.0000000000000000 0.0000000000000000
1.0000000000000000 0.0000000000000000 0.0000000000000000
1.0000000000000000 0.0000000000000000 0.0000000000000000
1.0000000000000000 0.0000000000000000 0.0000000000000000
1.0000000000000000 0.0000000000000000 0.0000000000000000
1.0000000000000000 0.0000000000000000 0.0000000000000000
1.0000000000000000 0.0000000000000000 0.0000000000000000
1.0000000000000000 0.0000000000000000 0.0000000000000000
1.0000000000000000 0.0000000000000000 0.0000000000000000
1.0000000000000000 0.0000000000000000 0.0000000000000000
1.0000000000000000 0.0000000000000000 0.0000000000000000
1.0000000000000000 0.0000000000000000 0.0000000000000000
1.0000000000000000 0.0000000000000000 0.0000000000000000
1.0000000000000000 0.0000000000000000 0.0000000000000000
1.0000000000000000 0.0000000000000000 0.0000000000000000
1.0000000000000000 0.0000000000000000 0.0000000000000000
1.0000000000000000 0.0000000000000000 0.0000000000000000
1.0000000000000000 0.0000000000000000 0.0000000000000000
1.0000000000000000 0.0000000000000000 0.0000000000000000
1.0000000000000000 0.0000000000000000 0.0000000000000000
1.0000000000000000 0.0000000000000000 0.0000000000000000
1.0000000000000000 0.0000000000000000 0.0000000000000000
1.0000000000000000 0.0000000000000000 0.0000000000000000
1.0000000000000000 0.0000000000000000 0.0000000000000000
1.0000000000000000 0.0000000000000000 0.0000000000000000
1.0000000000000000 0.0000000000000000 0.0000000000000000
1.0000000000000000 0.0000000000000000 0.0000000000000000
1.0000000000000000 0.0000000000000000 0.0000000000000000
1.0000000000000000 0.0000000000000000 0.0000000000000000
1.0000000000000000 0.0000000000000000 0.0000000000000000
1.0000000000000000 0.0000000000000000 0.0000000000000000
1.0000000000000000 0.0000000000000000 0.0000000000000000
1.0000000000000000 0.0000000000000000 0.0000000000000000
1.0000000000000000 0.0000000000000000 0.0000000000000000
1.0000000000000000 0.0000000000000000 0.0000000000000000
1.0000000000000000 0.0000000000000000 0.0000000000000000
1.0000000000000000 0.0000000000000000 0.0000000000000000
1.0000000000000000 0.0000000000000000 0.0000000000000000
1.0000000000000000 0.0000000000000000 0.0000000000000000
1.0000000000000000 0.0000000000000000 0.0000000000000000
1.0000000000000000 0.0000000000000000 0.0000000000000000
1.0000000000000000 0.0000000000000000 0.0000000000000000
1.0000000000000000 0.0000000000000000 0.0000000000000000
1.0000000000000000 0.0000000000000000 0.0000000000000000
1.0000000000000000 0.0000000000000000 0.0000000000000000
1.0000000000000000 0.0000000000000000 0.0000000000000000
1.0000000000000000 0.0000000000000000 0.0000000000000000
1.0000000000000000 0.0000000000000000 0.0000000000000000
1.0000000000000000 0.0000000000000000 0.0000000000000000
1.0000000000000000 0.0000000000000000 0.0000000000000000
1.0000000000000000 0.0000000000000000 0.0000000000000000
1.0000000000000000 0.0000000000000000 0.0000000000000000
1.0000000000000000 0.0000000000000000 0.0000000000000000
1.0000000000000000 0.0000000000000000 0.0000000000000000
1.0000000000000000 0.0000000000000000 0.0000000000000000
1.0000000000000000 0.0000000000000000 0.0000000000000000
1.0000000000000000 0.0000000000000000 0.0000000000000000
1.0000000000000000 0.0000000000000000 0.0000000000000000
1.0000000000000000 0.0000000000000000 0.0000000000000000
1.0000000000000000 0.0000000000000000 0.0000000000000000
1.0000000000000000 0.0000000000000000 0.0000000000000000
1.0000000000000000 0.0000000000000000 0.0000000000000000
1.0000000000000000 0.0000000000000000 0.0000000000000000
1.0000000000000000 0.0000000000000000 0.0000000000000000
1.0000000000000000 0.0000000000000000 0.0000000000000000
1.0000000000000000 0.0000000000000000 0.0000000000000000
1.0000000000000000 0.0000000000000000 0.0000000000000000
1.0000000000000000 0.0000000000000000 0.0000000000000000
1.0000000000000000 0.0000000000000000 0.0000000000000000
1.0000000000000000 0.0000000000000000 0.0000000000000000
1.0000000000000000 0.0000000000000000 0.0000000000000000
1.0000000000000000 0.0000000000000000 0.0000000000000000
1.0000000000000000 0.0000000000000000 0.0000000000000000
1.0000000000000000 0.0000000000000000 0.0000000000000000
1.0000000000000000 0.0000000000000000 0.0000000000000000
1.0000000000000000 0.0000000000000000 0.0000000000000000
1.0000000000000000 0.0000000000000000 0.0000000000000000
1.0000000000000000 0.0000000000000000 0.0000000000000000
1.0000000000000000 0.0000000000000000 0.0000000000000000
1.0000000000000000 0.0000000000000000 0.0000000000000000
1.0000000000000000 0.0000000000000000 0.0000000000000000
1.0000000000000000 0.0000000000000000 0.0000000000000000
1.0000000000000000 0.0000000000000000 0.0000000000000000
1.0000000000000000 0.0000000000000000 0.0000000000000000
1.0000000000000000 0.0000000000000000 0.0000000000000000
1.0000000000000000 0.0000000000000000 0.0000000000000000
1.0000000000000000 0.0000000000000000 0.0000000000000000
1.0000000000000000 0.0000000000000000 0.0000000000000000
1.0000000000000000 0.0000000000000000 0.0000000000000000
1.0000000000000000 0.0000000000000000 0.0000000000000000
1.0000000000000000 0.0000000000000000 0.0000000000000000
1.0000000000000000 0.0000000000000000 0.0000000000000000
1.0000000000000000 0.0000000000000000 0.0000000000000000
1.0000000000000000 0.0000000000000000 0.0000000000000000
1.0000000000000000 0.0000000000000000 0.0000000000000000
1.0000000000000000 0.0000000000000000 0.0000000000000000
1.0000000000000000 0.0000000000000000 0.0000000000000000
1.0000000000000000 0.0000000000000000 0.0000000000000000
1.0000000000000000 0.0000000000000000 0.0000000000000000
1.0000000000000000 0.0000000000000000 0.0000000000000000
1.0000000000000000 0.0000000000000000 0.0000000000000000
1.0000000000000000 0.0000000000000000 0.0000000000000000
1.0000000000000000 0.0000000000000000 0.0000000000000000
1.0000000000000000 0.0000000000000000 0.0000000000000000
1.0000000000000000 0.0000000000000000 0.0000000000000000
1.0000000000000000 0.0000000000000000 0.0000000000000000
1.0000000000000000 0.0000000000000000 0.0000000000000000
1.0000000000000000 0.0000000000000000 0.0000000000000000
1.0000000000000000 0.0000000000000000 0.0000000000000000
1.0000000000000000 0.0000000000000000 0.0000000000000000
1.0000000000000000 0.0000000000000000 0.0000000000000000
1.0000000000000000 0.0000000000000000 0.0000000000000000
1.0000000000000000 0.0000000000000000 0.0000000000000000
1.0000000000000000 0.0000000000000000 0.0000000000000000
1.0000000000000000 0.0000000000000000 0.0000000000000000
1.0000000000000000 0.0000000000000000 0.0000000000000000
1.0000000000000000 0.0000000000000000 0.0000000000000000
1.0000000000000000 0.0000000000000000 0.0000000000000000
1.0000000000000000 0.0000000000000000 0.0000000000000000
1.0000000000000000 0.0000000000000000 0.0000000000000000
1.0000000000000000 0.0000000000000000 0.0000000000000000
1.0000000000000000 0.0000000000000000 0.0000000000000000
1.0000000000000000 0.0000000000000000 0.0000000000000000
1.0000000000000000 0.0000000000000000 0.0000000000000000
1.0000000000000000 0.0000000000000000 0.0000000000000000
1.0000000000000000 0.0000000000000000 0.0000000000000000
1.0000000000000000 0.0000000000000000 0.0000000000000000
1.0000000000000000 0.0000000000000000 0.0000000000000000
1.0000000000000000 0.0000000000000000 0.0000000000000000
1.0000000000000000 0.0000000000000000 0.0000000000000000
1.0000000000000000 0.0000000000000000 0.0000000000000000
1.0000000000000000 0.0000000000000000 0.0000000000000000
1.0000000000000000 0.0000000000000000 0.0000000000000000
1.0000000000000000 0.0000000000000000 0.0000000000000000
1.0000000000000000 0.0000000000000000 0.0000000000000000
1.0000000000000000 0.0000000000000000 0.0000000000000000
1.0000000000000000 0.0000000000000000 0.0000000000000000
1.0000000000000000 0.0000000000000000 0.0000000000000000
1.0000000000000000 0.0000000000000000 0.0000000000000000
1.0000000000000000 0.0000000000000000 0.0000000000000000
1.0000000000000000 0.0000000000000000 0.0000000000000000
1.0000000000000000 0.0000000000000000 0.0000000000000000
1.0000000000000000 0.0000000000000000 0.0000000000000000
1.0000000000000000 0.0000000000000000 0.0000000000000000
1.0000000000000000 0.0000000000000000 0.0000000000000000
1.0000000000000000 0.0000000000000000 0.0000000000000000
1.0000000000000000 0.0000000000000000 0.0000000000000000
1.0000000000000000 0.0000000000000000 0.0000000000000000
1.0000000000000000 0.0000000000000000 0.0000000000000000
1.0000000000000000 0.0000000000000000 0.0000000000000000
1.0000000000000000 0.0000000000000000 0.0000000000000000
1.0000000000000000 0.0000000000000000 0.0000000000000000
1.0000000000000000 0.0000000000000000 0.0000000000000000
1.0000000000000000 0.0000000000000000 0.0000000000000000
1.0000000000000000 0.0000000000000000 0.0000000000000000
1.0000000000000000 0.0000000000000000 0.0000000000000000
1.0000000000000000 0.0000000000000000 0.0000000000000000
1.0000000000000000 0.0000000000000000 0.0000000000000000
1.0000000000000000 0.0000000000000000 0.0000000000000000
1.0000000000000000 0.0000000000000000 0.0000000000000000
1.0000000000000000 0.0000000000000000 0.0000000000000000
1.0000000000000000 0.0000000000000000 0.0000000000000000
1.0000000000000000 0.0000000000000000 0.0000000000000000
1.0000000000000000 0.0000000000000000 0.0000000000000000
1.0000000000000000 0.0000000000000000 0.0000000000000000
1.0000000000000000 0.0000000000000000 0.0000000000000000
1.0000000000000000 0.0000000000000000 0.0000000000000000
1.0000000000000000 0.0000000000000000 0.0000000000000000
1.0000000000000000 0.0000000000000000 0.0000000000000000
1.0000000000000000 0.0000000000000000 0.0000000000000000
1.0000000000000000 0.0000000000000000 0.0000000000000000
1.0000000000000000 0.0000000000000000 0.0000000000000000
1.0000000000000000 0.0000000000000000 0.0000000000000000
1.0000000000000000 0.0000000000000000 0.0000000000000000
1.0000000000000000 0.0000000000000000 0.0000000000000000
1.0000000000000000 0.0000000000000000 0.0000000000000000
1.0000000000000000 0.0000000000000000 0.0000000000000000
1.0000000000000000 0.0000000000000000 0.0000000000000000
1.0000000000000000 0.0000000000000000 0.0000000000000000
1.0000000000000000 0.0000000000000000 0.0000000000000000
1.0000000000000000 0.0000000000000000 0.0000000000000000
1.0000000000000000 0.0000000000000000 0.0000000000000000
1.0000000000000000 0.0000000000000000 0.0000000000000000
1.0000000000000000 0.0000000000000000 0.0000000000000000
1.0000000000000000 0.0000000000000000 0.0000000000000000
1.0000000000000000 0.0000000000000000 0.0000000000000000
1.0000000000000000 0.0000000000000000 0.0000000000000000
1.0000000000000000 0.0000000000000000 0.0000000000000000
1.0000000000000000 0.0000000000000000 0.0000000000000000
1.0000000000000000 0.0000000000000000 0.0000000000000000
1.0000000000000000 0.0000000000000000 0.0000000000000000
1.0000000000000000 0.0000000000000000 0.0000000000000000
1.0000000000000000 0.0000000000000000 0.0000000000000000
1.0000000000000000 0.0000000000000000 0.0000000000000000
1.0000000000000000 0.0000000000000000 0.0000000000000000
1.0000000000000000 0.0000000000000000 0.0000000000000000
1.0000000000000000 0.0000000000000000 0.0000000000000000
1.0000000000000000 0.0000000000000000 0.0000000000000000
1.0000000000000000 0.0000000000000000 0.0000000000000000
1.0000000000000000 0.0000000000000000 0.0000000000000000
1.0000000000000000 0.0000000000000000 0.0000000000000000
1.0000000000000000 0.0000000000000000 0.0000000000000000
1.0000000000000000 0.0000000000000000 0.0000000000000000
1.0000000000000000 0.0000000000000000 0.0000000000000000
1.0000000000000000 0.0000000000000000 0.0000000000000000
1.0000000000000000 0.0000000000000000 0.0000000000000000
1.0000000000000000 0.0000000000000000 0.0000000000000000
1.0000000000000000 0.0000000000000000 0.0000000000000000
1.0000000000000000 0.0000000000000000 0.0000000000000000
1.0000000000000000 0.0000000000000000 0.0000000000000000
1.0000000000000000 0.0000000000000000 0.0000000000000000
1.0000000000000000 0.0000000000000000 0.0000000000000000
1.0000000000000000 0.0000000000000000 0.0000000000000000
1.0000000000000000 0.0000000000000000 0.0000000000000000
1.0000000000000000 0.0000000000000000 0.0000000000000000
1.0000000000000000 0.0000000000000000 0.0000000000000000
1.0000000000000000 0.0000000000000000 0.0000000000000000
1.0000000000000000 0.0000000000000000 0.0000000000000000
1.0000000000000000 0.0000000000000000 0.0000000000000000
1.0000000000000000 0.0000000000000000 0.0000000000000000
1.0000000000000000 0.0000000000000000 0.0000000000000000
1.0000000000000000 0.0000000000000000 0.0000000000000000
1.0000000000000000 0.0000000000000000 0.0000000000000000
1.0000000000000000 0.0000000000000000 0.0000000000000000
1.0000000000000000 0.0000000000000000 0.0000000000000000
1.0000000000000000 0.0000000000000000 0.0000000000000000
1.0000000000000000 0.0000000000000000 0.0000000000000000
1.0000000000000000 0.0000000000000000 0.0000000000000000
1.0000000000000000 0.0000000000000000 0.0000000000000000
1.0000000000000000 0.0000000000000000 0.0000000000000000
1.0000000000000000 0.0000000000000000 0.0000000000000000
1.0000000000000000 0.0000000000000000 0.0000000000000000
1.0000000000000000 0.0000000000000000 0.0000000000000000
1.0000000000000000 0.0000000000000000 0.0000000000000000
1.0000000000000000 0.0000000000000000 0.0000000000000000
1.0000000000000000 0.0000000000000000 0.0000000000000000
1.0000000000000000 0.0000000000000000 0.0000000000000000
1.0000000000000000 0.0000000000000000 0.0000000000000000
1.0000000000000000 0.0000000000000000 0.0000000000000000
1.0000000000000000 0.0000000000000000 0.0000000000000000
1.0000000000000000 0.0000000000000000 0.0000000000000000
1.0000000000000000 0.0000000000000000 0.0000000000000000
1.0000000000000000 0.0000000000000000 0.0000000000000000
1.0000000000000000 0.0000000000000000 0.0000000000000000
1.0000000000000000 0.0000000000000000 0.0000000000000000
1.0000000000000000 0.0000000000000000 0.0000000000000000
1.0000000000000000 0.0000000000000000 0.0000000000000000
1.0000000000000000 0.0000000000000000 0.0000000000000000
1.0000000000000000 0.0000000000000000 0.0000000000000000
1.0000000000000000 0.0000000000000000 0.0000000000000000
1.0000000000000000 0.0000000000000000 0.0000000000000000
1.0000000000000000 0.0000000000000000 0.0000000000000000
1.0000000000000000 0.0000000000000000 0.0000000000000000
1.0000000000000000 0.0000000000000000 0.0000000000000000
1.0000000000000000 0.0000000000000000 0.0000000000000000
1.0000000000000000 0.0000000000000000 0.0000000000000000
1.0000000000000000 0.0000000000000000 0.0000000000000000
1.0000000000000000 0.0000000000000000 0.0000000000000000
1.0000000000000000 0.0000000000000000 0.0000000000000000
1.0000000000000000 0.0000000000000000 0.0000000000000000
1.0000000000000000 0.0000000000000000 0.0000000000000000
1.0000000000000000 0.0000000000000000 0.0000000000000000
1.0000000000000000 0.0000000000000000 0.0000000000000000
1.0000000000000000 0.0000000000000000 0.0000000000000000
1.0000000000000000 0.0000000000000000 0.0000000000000000
1.0000000000000000 0.0000000000000000 0.0000000000000000
1.0000000000000000 0.0000000000000000 0.0000000000000000
1.0000000000000000 0.0000000000000000 0.0000000000000000
1.0000000000000000 0.0000000000000000 0.0000000000000000
1.0000000000000000 0.0000000000000000 0.0000000000000000
1.0000000000000000 0.0000000000000000 0.0000000000000000
1.0000000000000000 0.0000000000000000 0.0000000000000000
1.0000000000000000 0.0000000000000000 0.0000000000000000
1.0000000000000000 0.0000000000000000 0.0000000000000000
1.0000000000000000 0.0000000000000000 0.0000000000000000
1.0000000000000000 0.0000000000000000 0.0000000000000000
1.0000000000000000 0.0000000000000000 0.0000000000000000
1.0000000000000000 0.0000000000000000 0.0000000000000000
1.0000000000000000 0.0000000000000000 0.0000000000000000
1.0000000000000000 0.0000000000000000 0.0000000000000000
1.0000000000000000 0.0000000000000000 0.0000000000000000
1.0000000000000000 0.0000000000000000 0.0000000000000000
1.0000000000000000 0.0000000000000000 0.0000000000000000
1.0000000000000000 0.0000000000000000 0.0000000000000000
1.0000000000000000 0.0000000000000000 0.0000000000000000
1.0000000000000000 0.0000000000000000 0.0000000000000000
1.0000000000000000 0.0000000000000000 0.0000000000000000
1.0000000000000000 0.0000000000000000 0.0000000000000000
1.0000000000000000 0.0000000000000000 0.0000000000000000
1.0000000000000000 0.0000000000000000 0.0000000000000000
1.0000000000000000 0.0000000000000000 0.0000000000000000
1.0000000000000000 0.0000000000000000 0.0000000000000000
1.0000000000000000 0.0000000000000000 0.0000000000000000
1.0000000000000000 0.0000000000000000 0.0000000000000000
1.0000000000000000 0.0000000000000000 0.0000000000000000
1.0000000000000000 0.0000000000000000 0.0000000000000000
1.0000000000000000 0.0000000000000000 0.0000000000000000
1.0000000000000000 0.0000000000000000 0.0000000000000000
1.0000000000000000 0.0000000000000000 0.0000000000000000
1.0000000000000000 0.0000000000000000 0.0000000000000000
1.0000000000000000 0.0000000000000000 0.0000000000000000
1.0000000000000000 0.0000000000000000 0.0000000000000000
1.0000000000000000 0.0000000000000000 0.0000000000000000
1.0000000000000000 0.0000000000000000 0.0000000000000000
1.0000000000000000 0.0000000000000000 0.0000000000000000
1.0000000000000000 0.0000000000000000 0.0000000000000000
1.0000000000000000 0.0000000000000000 0.0000000000000000
1.0000000000000000 0.0000000000000000 0.0000000000000000
1.0000000000000000 0.0000000000000000 0.0000000000000000
1.0000000000000000 0.0000000000000000 0.0000000000000000
1.0000000000000000 0.0000000000000000 0.0000000000000000
1.0000000000000000 0.0000000000000000 0.0000000000000000
1.0000000000000000 0.0000000000000000 0.0000000000000000
1.0000000000000000 0.0000000000000000 0.0000000000000000
1.0000000000000000 0.0000000000000000 0.0000000000000000
1.0000000000000000 0.0000000000000000 0.0000000000000000
1.0000000000000000 0.0000000000000000 0.0000000000000000
1.0000000000000000 0.0000000000000000 0.0000000000000000
1.0000000000000000 0.0000000000000000 0.0000000000000000
1.0000000000000000 0.0000000000000000 0.0000000000000000
1.0000000000000000 0.0000000000000000 0.0000000000000000
1.0000000000000000 0.0000000000000000 0.0000000000000000
1.0000000000000000 0.0000000000000000 0.0000000000000000
1.0000000000000000 0.0000000000000000 0.0000000000000000
1.0000000000000000 0.0000000000000000 0.0000000000000000
1.0000000000000000 0.0000000000000000 0.0000000000000000
1.0000000000000000 0.0000000000000000 0.0000000000000000
1.0000000000000000 0.0000000000000000 0.0000000000000000
1.0000000000000000 0.0000000000000000 0.0000000000000000
1.0000000000000000 0.0000000000000000 0.0000000000000000
1.0000000000000000 0.0000000000000000 0.0000000000000000
1.0000000000000000 0.0000000000000000 0.0000000000000000
1.0000000000000000 0.0000000000000000 0.0000000000000000
1.0000000000000000 0.0000000000000000 0.0000000000000000
1.0000000000000000 0.0000000000000000 0.0000000000000000
1.0000000000000000 0.0000000000000000 0.0000000000000000
1.0000000000000000 0.0000000000000000 0.0000000000000000
1.0000000000000000 0.0000000000000000 0.0000000000000000
1.0000000000000000 0.0000000000000000 0.0000000000000000
1.0000000000000000 0.0000000000000000 0.0000000000000000
1.0000000000000000 0.0000000000000000 0.0000000000000000
1.0000000000000000 0.0000000000000000 0.0000000000000000
1.0000000000000000 0.0000000000000000 0.0000000000000000
1.0000000000000000 0.0000000000000000 0.0000000000000000
1.0000000000000000 0.0000000000000000 0.0000000000000000
1.0000000000000000 0.0000000000000000 0.0000000000000000
1.0000000000000000 0.0000000000000000 0.0000000000000000
1.0000000000000000 0.0000000000000000 0.0000000000000000
1.0000000000000000 0.0000000000000000 0.0000000000000000
1.0000000000000000 0.0000000000000000 0.0000000000000000
1.0000000000000000 0.0000000000000000 0.0000000000000000
1.0000000000000000 0.0000000000000000 0.0000000000000000
1.0000000000000000 0.0000000000000000 0.0000000000000000
1.0000000000000000 0.0000000000000000 0.0000000000000000
1.0000000000000000 0.0000000000000000 0.0000000000000000
1.0000000000000000 0.0000000000000000 0.0000000000000000
1.0000000000000000 0.0000000000000000 0.0000000000000000
1.0000000000000000 0.0000000000000000 0.0000000000000000
1.0000000000000000 0.0000000000000000 0.0000000000000000
1.0000000000000000 0.0000000000000000 0.0000000000000000
1.0000000000000000 0.0000000000000000 0.0000000000000000
1.0000000000000000 0.0000000000000000 0.0000000000000000
1.0000000000000000 0.0000000000000000 0.0000000000000000
1.0000000000000000 0.0000000000000000 0.0000000000000000
1.0000000000000000 0.0000000000000000 0.0000000000000000
1.0000000000000000 0.0000000000000000 0.0000000000000000
1.0000000000000000 0.0000000000000000 0.0000000000000000
1.0000000000000000 0.0000000000000000 0.0000000000000000
1.0000000000000000 0.0000000000000000 0.0000000000000000
1.0000000000000000 0.0000000000000000 0.0000000000000000
1.0000000000000000 0.0000000000000000 0.0000000000000000
1.0000000000000000 0.0000000000000000 0.0000000000000000
1.0000000000000000 0.0000000000000000 0.0000000000000000
1.0000000000000000 0.0000000000000000 0.0000000000000000
1.0000000000000000 0.0000000000000000 0.0000000000000000
1.0000000000000000 0.0000000000000000 0.0000000000000000
1.0000000000000000 0.0000000000000000 0.0000000000000000
1.0000000000000000 0.0000000000000000 0.0000000000000000
1.0000000000000000 0.0000000000000000 0.0000000000000000
1.0000000000000000 0.0000000000000000 0.0000000000000000
1.0000000000000000 0.0000000000000000 0.0000000000000000
1.0000000000000000 0.0000000000000000 0.0000000000000000
1.0000000000000000 0.0000000000000000 0.0000000000000000
1.0000000000000000 0.0000000000000000 0.0000000000000000
1.0000000000000000 0.0000000000000000 0.0000000000000000
1.0000000000000000 0.0000000000000000 0.0000000000000000
1.0000000000000000 0.0000000000000000 0.0000000000000000
1.0000000000000000 0.0000000000000000 0.0000000000000000
1.0000000000000000 0.0000000000000000 0.0000000000000000
1.0000000000000000 0.0000000000000000 0.0000000000000000
1.0000000000000000 0.0000000000000000 0.0000000000000000
1.0000000000000000 0.0000000000000000 0.0000000000000000
1.0000000000000000 0.0000000000000000 0.0000000000000000
1.0000000000000000 0.0000000000000000 0.0000000000000000
1.0000000000000000 0.0000000000000000 0.0000000000000000
1.0000000000000000 0.0000000000000000 0.0000000000000000
1.0000000000000000 0.0000000000000000 0.0000000000000000
1.0000000000000000 0.0000000000000000 0.0000000000000000
1.0000000000000000 0.0000000000000000 0.0000000000000000
1.0000000000000000 0.0000000000000000 0.0000000000000000
1.0000000000000000 0.0000000000000000 0.0000000000000000
1.0000000000000000 0.0000000000000000 0.0000000000000000
1.0000000000000000 0.0000000000000000 0.0000000000000000
1.0000000000000000 0.0000000000000000 0.0000000000000000
1.0000000000000000 0.0000000000000000 0.0000000000000000
1.0000000000000000 0.0000000000000000 0.0000000000000000
1.0000000000000000 0.0000000000000000 0.0000000000000000
1.0000000000000000 0.0000000000000000 0.0000000000000000
1.0000000000000000 0.0000000000000000 0.0000000000000000
1.0000000000000000 0.0000000000000000 0.0000000000000000
1.0000000000000000 0.0000000000000000 0.0000000000000000
1.0000000000000000 0.0000000000000000 0.0000000000000000
1.0000000000000000 0.0000000000000000 0.0000000000000000
1.0000000000000000 0.0000000000000000 0.0000000000000000
1.0000000000000000 0.0000000000000000 0.0000000000000000
1.0000000000000000 0.0000000000000000 0.0000000000000000
1.0000000000000000 0.0000000000000000 0.0000000000000000
1.0000000000000000 0.0000000000000000 0.0000000000000000
1.0000000000000000 0.0000000000000000 0.0000000000000000
1.0000000000000000 0.0000000000000000 0.0000000000000000
1.0000000000000000 0.0000000000000000 0.0000000000000000
1.0000000000000000 0.0000000000000000 0.0000000000000000
1.0000000000000000 0.0000000000000000 0.0000000000000000
1.0000000000000000 0.0000000000000000 0.0000000000000000
1.0000000000000000 0.0000000000000000 0.0000000000000000
1.0000000000000000 0.0000000000000000 0.0000000000000000
1.0000000000000000 0.0000000000000000 0.0000000000000000
1.0000000000000000 0.0000000000000000 0.0000000000000000
1.0000000000000000 0.0000000000000000 0.0000000000000000
1.0000000000000000 0.0000000000000000 0.0000000000000000
1.0000000000000000 0.0000000000000000 0.0000000000000000
1.0000000000000000 0.0000000000000000 0.0000000000000000
1.0000000000000000 0.0000000000000000 0.0000000000000000
1.0000000000000000 0.0000000000000000 0.0000000000000000
1.0000000000000000 0.0000000000000000 0.0000000000000000
1.0000000000000000 0.0000000000000000 0.0000000000000000
1.0000000000000000 0.0000000000000000 0.0000000000000000
1.0000000000000000 0.0000000000000000 0.0000000000000000
1.0000000000000000 0.0000000000000000 0.0000000000000000
1.0000000000000000 0.0000000000000000 0.0000000000000000
1.0000000000000000 0.0000000000000000 0.0000000000000000
1.0000000000000000 0.0000000000000000 0.0000000000000000
1.0000000000000000 0.0000000000000000 0.0000000000000000
1.0000000000000000 0.0000000000000000 0.0000000000000000
1.0000000000000000 0.0000000000000000 0.0000000000000000
1.0000000000000000 0.0000000000000000 0.0000000000000000
1.0000000000000000 0.0000000000000000 0.0000000000000000
1.0000000000000000 0.0000000000000000 0.0000000000000000
1.0000000000000000 0.0000000000000000 0.0000000000000000
1.0000000000000000 0.0000000000000000 0.0000000000000000
1.0000000000000000 0.0000000000000000 0.0000000000000000
1.0000000000000000 0.0000000000000000 0.0000000000000000
1.0000000000000000 0.0000000000000000 0.0000000000000000
1.0000000000000000 0.0000000000000000 0.0000000000000000
1.0000000000000000 0.0000000000000000 0.0000000000000000
1.0000000000000000 0.0000000000000000 0.0000000000000000
1.0000000000000000 0.0000000000000000 0.0000000000000000
1.0000000000000000 0.0000000000000000 0.0000000000000000
1.0000000000000000 0.0000000000000000 0.0000000000000000
1.0000000000000000 0.0000000000000000 0.0000000000000000
1.0000000000000000 0.0000000000000000 0.0000000000000000
1.0000000000000000 0.0000000000000000 0.0000000000000000
1.0000000000000000 0.0000000000000000 0.0000000000000000
1.0000000000000000 0.0000000000000000 0.0000000000000000
1.0000000000000000 0.0000000000000000 0.0000000000000000
1.0000000000000000 0.0000000000000000 0.0000000000000000
1.0000000000000000 0.0000000000000000 0.0000000000000000
1.0000000000000000 0.0000000000000000 0.0000000000000000
1.0000000000000000 0.0000000000000000 0.0000000000000000
1.0000000000000000 0.0000000000000000 0.0000000000000000
1.0000000000000000 0.0000000000000000 0.0000000000000000
1.0000000000000000 0.0000000000000000 0.0000000000000000
1.0000000000000000 0.0000000000000000 0.0000000000000000
1.0000000000000000 0.0000000000000000 0.0000000000000000
1.0000000000000000 0.0000000000000000 0.0000000000000000
1.0000000000000000 0.0000000000000000 0.0000000000000000
1.0000000000000000 0.0000000000000000 0.0000000000000000
1.0000000000000000 0.0000000000000000 0.0000000000000000
1.0000000000000000 0.0000000000000000 0.0000000000000000
1.0000000000000000 0.0000000000000000 0.0000000000000000
1.0000000000000000 0.0000000000000000 0.0000000000000000
1.0000000000000000 0.0000000000000000 0.0000000000000000
1.0000000000000000 0.0000000000000000 0.0000000000000000
1.0000000000000000 0.0000000000000000 0.0000000000000000
1.0000000000000000 0.0000000000000000 0.0000000000000000
1.0000000000000000 0.0000000000000000 0.0000000000000000
1.0000000000000000 0.0000000000000000 0.0000000000000000
1.0000000000000000 0.0000000000000000 0.0000000000000000
1.0000000000000000 0.0000000000000000 0.0000000000000000
1.0000000000000000 0.0000000000000000 0.0000000000000000
1.0000000000000000 0.0000000000000000 0.0000000000000000
1.0000000000000000 0.0000000000000000 0.0000000000000000
1.0000000000000000 0.0000000000000000 0.0000000000000000
1.0000000000000000 0.0000000000000000 0.0000000000000000
1.0000000000000000 0.0000000000000000 0.0000000000000000
1.0000000000000000 0.0000000000000000 0.0000000000000000
1.0000000000000000 0.0000000000000000 0.0000000000000000
1.0000000000000000 0.0000000000000000 0.0000000000000000
1.0000000000000000 0.0000000000000000 0.0000000000000000
1.0000000000000000 0.0000000000000000 0.0000000000000000
1.0000000000000000 0.0000000000000000 0.0000000000000000
1.0000000000000000 0.0000000000000000 0.0000000000000000
1.0000000000000000 0.0000000000000000 0.0000000000000000
1.0000000000000000 0.0000000000000000 0.0000000000000000
1.0000000000000000 0.0000000000000000 0.0000000000000000
1.0000000000000000 0.0000000000000000 0.0000000000000000
1.0000000000000000 0.0000000000000000 0.0000000000000000
1.0000000000000000 0.0000000000000000 0.0000000000000000
1.0000000000000000 0.0000000000000000 0.0000000000000000
1.0000000000000000 0.0000000000000000 0.0000000000000000
1.0000000000000000 0.0000000000000000 0.0000000000000000
1.0000000000000000 0.0000000000000000 0.0000000000000000
1.0000000000000000 0.0000000000000000 0.0000000000000000
1.0000000000000000 0.0000000000000000 0.0000000000000000
1.0000000000000000 0.0000000000000000 0.0000000000000000
1.0000000000000000 0.0000000000000000 0.0000000000000000
1.0000000000000000 0.0000000000000000 0.0000000000000000
1.0000000000000000 0.0000000000000000 0.0000000000000000
1.0000000000000000 0.0000000000000000 0.0000000000000000
1.0000000000000000 0.0000000000000000 0.0000000000000000
1.0000000000000000 0.0000000000000000 0.0000000000000000
1.0000000000000000 0.0000000000000000 0.0000000000000000
1.0000000000000000 0.0000000000000000 0.0000000000000000
1.0000000000000000 0.0000000000000000 0.0000000000000000
1.0000000000000000 0.0000000000000000 0.0000000000000000
1.0000000000000000 0.0000000000000000 0.0000000000000000
1.0000000000000000 0.0000000000000000 0.0000000000000000
1.0000000000000000 0.0000000000000000 0.0000000000000000
1.0000000000000000 0.0000000000000000 0.0000000000000000
1.0000000000000000 0.0000000000000000 0.0000000000000000
1.0000000000000000 0.0000000000000000 0.0000000000000000
1.0000000000000000 0.0000000000000000 0.0000000000000000
1.0000000000000000 0.0000000000000000 0.0000000000000000
1.0000000000000000 0.0000000000000000 0.0000000000000000
1.0000000000000000 0.0000000000000000 0.0000000000000000
1.0000000000000000 0.0000000000000000 0.0000000000000000
1.0000000000000000 0.0000000000000000 0.0000000000000000
1.0000000000000000 0.0000000000000000 0.0000000000000000
1.0000000000000000 0.0000000000000000 0.0000000000000000
1.0000000000000000 0.0000000000000000 0.0000000000000000
1.0000000000000000 0.0000000000000000 0.0000000000000000
1.0000000000000000 0.0000000000000000 0.0000000000000000
1.0000000000000000 0.0000000000000000 0.0000000000000000
1.0000000000000000 0.0000000000000000 0.0000000000000000
1.0000000000000000 0.0000000000000000 0.0000000000000000
1.0000000000000000 0.0000000000000000 0.0000000000000000
1.0000000000000000 0.0000000000000000 0.0000000000000000
1.0000000000000000 0.0000000000000000 0.0000000000000000
1.0000000000000000 0.0000000000000000 0.0000000000000000
1.0000000000000000 0.0000000000000000 0.0000000000000000
1.0000000000000000 0.0000000000000000 0.0000000000000000
1.0000000000000000 0.0000000000000000 0.0000000000000000
1.0000000000000000 0.0000000000000000 0.0000000000000000
1.0000000000000000 0.0000000000000000 0.0000000000000000
1.0000000000000000 0.0000000000000000 0.0000000000000000
1.0000000000000000 0.0000000000000000 0.0000000000000000
1.0000000000000000 0.0000000000000000 0.0000000000000000
1.0000000000000000 0.0000000000000000 0.0000000000000000
1.0000000000000000 0.0000000000000000 0.0000000000000000
1.0000000000000000 0.0000000000000000 0.0000000000000000
1.0000000000000000 0.0000000000000000 0.0000000000000000
1.0000000000000000 0.0000000000000000 0.0000000000000000
1.0000000000000000 0.0000000000000000 0.0000000000000000
1.0000000000000000 0.0000000000000000 0.0000000000000000
1.0000000000000000 0.0000000000000000 0.0000000000000000
1.0000000000000000 0.0000000000000000 0.0000000000000000
1.0000000000000000 0.0000000000000000 0.0000000000000000
1.0000000000000000 0.0000000000000000 0.0000000000000000
1.0000000000000000 0.0000000000000000 0.0000000000000000
1.0000000000000000 0.0000000000000000 0.0000000000000000
1.0000000000000000 0.0000000000000000 0.0000000000000000
1.0000000000000000 0.0000000000000000 0.0000000000000000
1.0000000000000000 0.0000000000000000 0.0000000000000000
1.0000000000000000 0.0000000000000000 0.0000000000000000
1.0000000000000000 0.0000000000000000 0.0000000000000000
1.0000000000000000 0.0000000000000000 0.0000000000000000
1.0000000000000000 0.0000000000000000 0.0000000000000000
1.0000000000000000 0.0000000000000000 0.0000000000000000
1.0000000000000000 0.0000000000000000 0.0000000000000000
1.0000000000000000 0.0000000000000000 0.0000000000000000
1.0000000000000000 0.0000000000000000 0.0000000000000000
1.0000000000000000 0.0000000000000000 0.0000000000000000
1.0000000000000000 0.0000000000000000 0.0000000000000000
1.0000000000000000 0.0000000000000000 0.0000000000000000
1.0000000000000000 0.0000000000000000 0.0000000000000000
1.0000000000000000 0.0000000000000000 0.0000000000000000
1.0000000000000000 0.0000000000000000 0.0000000000000000
1.0000000000000000 0.0000000000000000 0.0000000000000000
1.0000000000000000 0.0000000000000000 0.0000000000000000
1.0000000000000000 0.0000000000000000 0.0000000000000000
1.0000000000000000 0.0000000000000000 0.0000000000000000
1.0000000000000000 0.0000000000000000 0.0000000000000000
1.0000000000000000 0.0000000000000000 0.0000000000000000
1.0000000000000000 0.0000000000000000 0.0000000000000000
1.0000000000000000 0.0000000000000000 0.0000000000000000
1.0000000000000000 0.0000000000000000 0.0000000000000000
1.0000000000000000 0.0000000000000000 0.0000000000000000
1.0000000000000000 0.0000000000000000 0.0000000000000000
1.0000000000000000 0.0000000000000000 0.0000000000000000
1.0000000000000000 0.0000000000000000 0.0000000000000000
1.0000000000000000 0.0000000000000000 0.0000000000000000
1.0000000000000000 0.0000000000000000 0.0000000000000000
1.0000000000000000 0.0000000000000000 0.0000000000000000
1.0000000000000000 0.0000000000000000 0.0000000000000000
1.0000000000000000 0.0000000000000000 0.0000000000000000
1.0000000000000000 0.0000000000000000 0.0000000000000000
1.0000000000000000 0.0000000000000000 0.0000000000000000
1.0000000000000000 0.0000000000000000 0.0000000000000000
1.0000000000000000 0.0000000000000000 0.0000000000000000
1.0000000000000000 0.0000000000000000 0.0000000000000000
1.0000000000000000 0.0000000000000000 0.0000000000000000
1.0000000000000000 0.0000000000000000 0.0000000000000000
1.0000000000000000 0.0000000000000000 0.0000000000000000
1.0000000000000000 0.0000000000000000 0.0000000000000000
1.0000000000000000 0.0000000000000000 0.0000000000000000
1.0000000000000000 0.0000000000000000 0.0000000000000000
1.0000000000000000 0.0000000000000000 0.0000000000000000
1.0000000000000000 0.0000000000000000 0.0000000000000000
1.0000000000000000 0.0000000000000000 0.0000000000000000
1.0000000000000000 0.0000000000000000 0.0000000000000000
1.0000000000000000 0.0000000000000000 0.0000000000000000
1.0000000000000000 0.0000000000000000 0.0000000000000000
1.0000000000000000 0.0000000000000000 0.0000000000000000
1.0000000000000000 0.0000000000000000 0.0000000000000000
1.0000000000000000 0.0000000000000000 0.0000000000000000
1.0000000000000000 0.0000000000000000 0.0000000000000000
1.0000000000000000 0.0000000000000000 0.0000000000000000
1.0000000000000000 0.0000000000000000 0.0000000000000000
1.0000000000000000 0.0000000000000000 0.0000000000000000
1.0000000000000000 0.0000000000000000 0.0000000000000000
1.0000000000000000 0.0000000000000000 0.0000000000000000
1.0000000000000000 0.0000000000000000 0.0000000000000000
1.0000000000000000 0.0000000000000000 0.0000000000000000
1.0000000000000000 0.0000000000000000 0.0000000000000000
1.0000000000000000 0.0000000000000000 0.0000000000000000
1.0000000000000000 0.0000000000000000 0.0000000000000000
1.0000000000000000 0.0000000000000000 0.0000000000000000
1.0000000000000000 0.0000000000000000 0.0000000000000000
1.0000000000000000 0.0000000000000000 0.0000000000000000
1.0000000000000000 0.0000000000000000 0.0000000000000000
1.0000000000000000 0.0000000000000000 0.0000000000000000
1.0000000000000000 0.0000000000000000 0.0000000000000000
1.0000000000000000 0.0000000000000000 0.0000000000000000
1.0000000000000000 0.0000000000000000 0.0000000000000000
1.0000000000000000 0.0000000000000000 0.0000000000000000
1.0000000000000000 0.0000000000000000 0.0000000000000000
1.0000000000000000 0.0000000000000000 0.0000000000000000
1.0000000000000000 0.0000000000000000 0.0000000000000000
1.0000000000000000 0.0000000000000000 0.0000000000000000
1.0000000000000000 0.0000000000000000 0.0000000000000000
1.0000000000000000 0.0000000000000000 0.0000000000000000
1.0000000000000000 0.0000000000000000 0.0000000000000000
1.0000000000000000 0.0000000000000000 0.0000000000000000
1.0000000000000000 0.0000000000000000 0.0000000000000000
1.0000000000000000 0.0000000000000000 0.0000000000000000
1.0000000000000000 0.0000000000000000 0.0000000000000000
1.0000000000000000 0.0000000000000000 0.0000000000000000
1.0000000000000000 0.0000000000000000 0.0000000000000000
1.0000000000000000 0.0000000000000000 0.0000000000000000
1.0000000000000000 0.0000000000000000 0.0000000000000000
1.0000000000000000 0.0000000000000000 0.0000000000000000
1.0000000000000000 0.0000000000000000 0.0000000000000000
1.0000000000000000 0.0000000000000000 0.0000000000000000
1.0000000000000000 0.0000000000000000 0.0000000000000000
1.0000000000000000 0.0000000000000000 0.0000000000000000
1.0000000000000000 0.0000000000000000 0.0000000000000000
1.0000000000000000 0.0000000000000000 0.0000000000000000
1.0000000000000000 0.0000000000000000 0.0000000000000000
1.0000000000000000 0.0000000000000000 0.0000000000000000
1.0000000000000000 0.0000000000000000 0.0000000000000000
1.0000000000000000 0.0000000000000000 0.0000000000000000
1.0000000000000000 0.0000000000000000 0.0000000000000000
1.0000000000000000 0.0000000000000000 0.0000000000000000
1.0000000000000000 0.0000000000000000 0.0000000000000000
1.0000000000000000 0.0000000000000000 0.0000000000000000
1.0000000000000000 0.0000000000000000 0.0000000000000000
1.0000000000000000 0.0000000000000000 0.0000000000000000
1.0000000000000000 0.0000000000000000 0.0000000000000000
1.0000000000000000 0.0000000000000000 0.0000000000000000
1.0000000000000000 0.0000000000000000 0.0000000000000000
1.0000000000000000 0.0000000000000000 0.0000000000000000
1.0000000000000000 0.0000000000000000 0.0000000000000000
1.0000000000000000 0.0000000000000000 0.0000000000000000
1.0000000000000000 0.0000000000000000 0.0000000000000000
1.0000000000000000 0.0000000000000000 0.0000000000000000
1.0000000000000000 0.0000000000000000 0.0000000000000000
1.0000000000000000 0.0000000000000000 0.0000000000000000
1.0000000000000000 0.0000000000000000 0.0000000000000000
1.0000000000000000 0.0000000000000000 0.0000000000000000
1.0000000000000000 0.0000000000000000 0.0000000000000000
1.0000000000000000 0.0000000000000000 0.0000000000000000
1.0000000000000000 0.0000000000000000 0.0000000000000000
1.0000000000000000 0.0000000000000000 0.0000000000000000
1.0000000000000000 0.0000000000000000 0.0000000000000000
1.0000000000000000 0.0000000000000000 0.0000000000000000
1.0000000000000000 0.0000000000000000 0.0000000000000000
1.0000000000000000 0.0000000000000000 0.0000000000000000
1.0000000000000000 0.0000000000000000 0.0000000000000000
1.0000000000000000 0.0000000000000000 0.0000000000000000
1.0000000000000000 0.0000000000000000 0.0000000000000000
1.0000000000000000 0.0000000000000000 0.0000000000000000
1.0000000000000000 0.0000000000000000 0.0000000000000000
1.0000000000000000 0.0000000000000000 0.0000000000000000
1.0000000000000000 0.0000000000000000 0.0000000000000000
1.0000000000000000 0.0000000000000000 0.0000000000000000
1.0000000000000000 0.0000000000000000 0.0000000000000000
1.0000000000000000 0.0000000000000000 0.0000000000000000
1.0000000000000000 0.0000000000000000 0.0000000000000000
1.0000000000000000 0.0000000000000000 0.0000000000000000
1.0000000000000000 0.0000000000000000 0.0000000000000000
1.0000000000000000 0.0000000000000000 0.0000000000000000
1.0000000000000000 0.0000000000000000 0.0000000000000000
1.0000000000000000 0.0000000000000000 0.0000000000000000
1.0000000000000000 0.0000000000000000 0.0000000000000000
1.0000000000000000 0.0000000000000000 0.0000000000000000
1.0000000000000000 0.0000000000000000 0.0000000000000000
1.0000000000000000 0.0000000000000000 0.0000000000000000
1.0000000000000000 0.0000000000000000 0.0000000000000000
1.0000000000000000 0.0000000000000000 0.0000000000000000
1.0000000000000000 0.0000000000000000 0.0000000000000000
1.0000000000000000 0.0000000000000000 0.0000000000000000
1.0000000000000000 0.0000000000000000 0.0000000000000000
1.0000000000000000 0.0000000000000000 0.0000000000000000
1.0000000000000000 0.0000000000000000 0.0000000000000000
1.0000000000000000 0.0000000000000000 0.0000000000000000
1.0000000000000000 0.0000000000000000 0.0000000000000000
1.0000000000000000 0.0000000000000000 0.0000000000000000
1.0000000000000000 0.0000000000000000 0.0000000000000000
1.0000000000000000 0.0000000000000000 0.0000000000000000
1.0000000000000000 0.0000000000000000 0.0000000000000000
1.0000000000000000 0.0000000000000000 0.0000000000000000
1.0000000000000000 0.0000000000000000 0.0000000000000000
1.0000000000000000 0.0000000000000000 0.0000000000000000
1.0000000000000000 0.0000000000000000 0.0000000000000000
1.0000000000000000 0.0000000000000000 0.0000000000000000
1.0000000000000000 0.0000000000000000 0.0000000000000000
1.0000000000000000 0.0000000000000000 0.0000000000000000
1.0000000000000000 0.0000000000000000 0.0000000000000000
1.0000000000000000 0.0000000000000000 0.0000000000000000
1.0000000000000000 0.0000000000000000 0.0000000000000000
1.0000000000000000 0.0000000000000000 0.0000000000000000
1.0000000000000000 0.0000000000000000 0.0000000000000000
1.0000000000000000 0.0000000000000000 0.0000000000000000
1.0000000000000000 0.0000000000000000 0.0000000000000000
1.0000000000000000 0.0000000000000000 0.0000000000000000
1.0000000000000000 0.0000000000000000 0.0000000000000000
1.0000000000000000 0.0000000000000000 0.0000000000000000
1.0000000000000000 0.0000000000000000 0.0000000000000000
1.0000000000000000 0.0000000000000000 0.0000000000000000
1.0000000000000000 0.0000000000000000 0.0000000000000000
1.0000000000000000 0.0000000000000000 0.0000000000000000
1.0000000000000000 0.0000000000000000 0.0000000000000000
1.0000000000000000 0.0000000000000000 0.0000000000000000
1.0000000000000000 0.0000000000000000 0.0000000000000000
1.0000000000000000 0.0000000000000000 0.0000000000000000
1.0000000000000000 0.0000000000000000 0.0000000000000000
1.0000000000000000 0.0000000000000000 0.0000000000000000
1.0000000000000000 0.0000000000000000 0.0000000000000000
1.0000000000000000 0.0000000000000000 0.0000000000000000
1.0000000000000000 0.0000000000000000 0.0000000000000000
1.0000000000000000 0.0000000000000000 0.0000000000000000
1.0000000000000000 0.0000000000000000 0.0000000000000000
1.0000000000000000 0.0000000000000000 0.0000000000000000
1.0000000000000000 0.0000000000000000 0.0000000000000000
1.0000000000000000 0.0000000000000000 0.0000000000000000
1.0000000000000000 0.0000000000000000 0.0000000000000000
1.0000000000000000 0.0000000000000000 0.0000000000000000
1.0000000000000000 0.0000000000000000 0.0000000000000000
1.0000000000000000 0.0000000000000000 0.0000000000000000
1.0000000000000000 0.0000000000000000 0.0000000000000000
1.0000000000000000 0.0000000000000000 0.0000000000000000
1.0000000000000000 0.0000000000000000 0.0000000000000000
1.0000000000000000 0.0000000000000000 0.0000000000000000
1.0000000000000000 0.0000000000000000 0.0000000000000000
1.0000000000000000 0.0000000000000000 0.0000000000000000
1.0000000000000000 0.0000000000000000 0.0000000000000000
1.0000000000000000 0.0000000000000000 0.0000000000000000
1.0000000000000000 0.0000000000000000 0.0000000000000000
1.0000000000000000 0.0000000000000000 0.0000000000000000
1.0000000000000000 0.0000000000000000 0.0000000000000000
1.0000000000000000 0.0000000000000000 0.0000000000000000
1.0000000000000000 0.0000000000000000 0.0000000000000000
1.0000000000000000 0.0000000000000000 0.0000000000000000
1.0000000000000000 0.0000000000000000 0.0000000000000000
1.0000000000000000 0.0000000000000000 0.0000000000000000
1.0000000000000000 0.0000000000000000 0.0000000000000000
1.0000000000000000 0.0000000000000000 0.0000000000000000
1.0000000000000000 0.0000000000000000 0.0000000000000000
1.0000000000000000 0.0000000000000000 0.0000000000000000
1.0000000000000000 0.0000000000000000 0.0000000000000000
1.0000000000000000 0.0000000000000000 0.0000000000000000
1.0000000000000000 0.0000000000000000 0.0000000000000000
1.0000000000000000 0.0000000000000000 0.0000000000000000
1.0000000000000000 0.0000000000000000 0.0000000000000000
1.0000000000000000 0.0000000000000000 0.0000000000000000
1.0000000000000000 0.0000000000000000 0.0000000000000000
1.0000000000000000 0.0000000000000000 0.0000000000000000
1.0000000000000000 0.0000000000000000 0.0000000000000000
1.0000000000000000 0.0000000000000000 0.0000000000000000
1.0000000000000000 0.0000000000000000 0.0000000000000000
1.0000000000000000 0.0000000000000000 0.0000000000000000
1.0000000000000000 0.0000000000000000 0.0000000000000000
1.0000000000000000 0.0000000000000000 0.0000000000000000
1.0000000000000000 0.0000000000000000 0.0000000000000000
1.0000000000000000 0.0000000000000000 0.0000000000000000
1.0000000000000000 0.0000000000000000 0.0000000000000000
1.0000000000000000 0.0000000000000000 0.0000000000000000
1.0000000000000000 0.0000000000000000 0.0000000000000000
1.0000000000000000 0.0000000000000000 0.0000000000000000
1.0000000000000000 0.0000000000000000 0.0000000000000000
1.0000000000000000 0.0000000000000000 0.0000000000000000
1.0000000000000000 0.0000000000000000 0.0000000000000000
1.0000000000000000 0.0000000000000000 0.0000000000000000
1.0000000000000000 0.0000000000000000 0.0000000000000000
1.0000000000000000 0.0000000000000000 0.0000000000000000
1.0000000000000000 0.0000000000000000 0.0000000000000000
1.0000000000000000 0.0000000000000000 0.0000000000000000
1.0000000000000000 0.0000000000000000 0.0000000000000000
1.0000000000000000 0.0000000000000000 0.0000000000000000
1.0000000000000000 0.0000000000000000 0.0000000000000000
1.0000000000000000 0.0000000000000000 0.0000000000000000
1.0000000000000000 0.0000000000000000 0.0000000000000000
1.0000000000000000 0.0000000000000000 0.0000000000000000
1.0000000000000000 0.0000000000000000 0.0000000000000000
1.0000000000000000 0.0000000000000000 0.0000000000000000
1.0000000000000000 0.0000000000000000 0.0000000000000000
1.0000000000000000 0.0000000000000000 0.0000000000000000
1.0000000000000000 0.0000000000000000 0.0000000000000000
1.0000000000000000 0.0000000000000000 0.0000000000000000
1.0000000000000000 0.0000000000000000 0.0000000000000000
1.0000000000000000 0.0000000000000000 0.0000000000000000
1.0000000000000000 0.0000000000000000 0.0000000000000000
1.0000000000000000 0.0000000000000000 0.0000000000000000
1.0000000000000000 0.0000000000000000 0.0000000000000000
1.0000000000000000 0.0000000000000000 0.0000000000000000
1.0000000000000000 0.0000000000000000 0.0000000000000000
1.0000000000000000 0.0000000000000000 0.0000000000000000
1.0000000000000000 0.0000000000000000 0.0000000000000000
1.0000000000000000 0.0000000000000000 0.0000000000000000
1.0000000000000000 0.0000000000000000 0.0000000000000000
1.0000000000000000 0.0000000000000000 0.0000000000000000
1.0000000000000000 0.0000000000000000 0.0000000000000000
1.0000000000000000 0.0000000000000000 0.0000000000000000
1.0000000000000000 0.0000000000000000 0.0000000000000000
1.0000000000000000 0.0000000000000000 0.0000000000000000
1.0000000000000000 0.0000000000000000 0.0000000000000000
1.0000000000000000 0.0000000000000000 0.0000000000000000
1.0000000000000000 0.0000000000000000 0.0000000000000000
1.0000000000000000 0.0000000000000000 0.0000000000000000
1.0000000000000000 0.0000000000000000 0.0000000000000000
1.0000000000000000 0.0000000000000000 0.0000000000000000
1.0000000000000000 0.0000000000000000 0.0000000000000000
1.0000000000000000 0.0000000000000000 0.0000000000000000
1.0000000000000000 0.0000000000000000 0.0000000000000000
1.0000000000000000 0.0000000000000000 0.0000000000000000
1.0000000000000000 0.0000000000000000 0.0000000000000000
1.0000000000000000 0.0000000000000000 0.0000000000000000
1.0000000000000000 0.0000000000000000 0.0000000000000000
1.0000000000000000 0.0000000000000000 0.0000000000000000
1.0000000000000000 0.0000000000000000 0.0000000000000000
1.0000000000000000 0.0000000000000000 0.0000000000000000
1.0000000000000000 0.0000000000000000 0.0000000000000000
1.0000000000000000 0.0000000000000000 0.0000000000000000
1.0000000000000000 0.0000000000000000 0.0000000000000000
1.0000000000000000 0.0000000000000000 0.0000000000000000
1.0000000000000000 0.0000000000000000 0.0000000000000000
1.0000000000000000 0.0000000000000000 0.0000000000000000
1.0000000000000000 0.0000000000000000 0.0000000000000000
1.0000000000000000 0.0000000000000000 0.0000000000000000
1.0000000000000000 0.0000000000000000 0.0000000000000000
1.0000000000000000 0.0000000000000000 0.0000000000000000
1.0000000000000000 0.0000000000000000 0.0000000000000000
1.0000000000000000 0.0000000000000000 0.0000000000000000
1.0000000000000000 0.0000000000000000 0.0000000000000000
1.0000000000000000 0.0000000000000000 0.0000000000000000
1.0000000000000000 0.0000000000000000 0.0000000000000000
1.0000000000000000 0.0000000000000000 0.0000000000000000
1.0000000000000000 0.0000000000000000 0.0000000000000000
1.0000000000000000 0.0000000000000000 0.0000000000000000
1.0000000000000000 0.0000000000000000 0.0000000000000000
1.0000000000000000 0.0000000000000000 0.0000000000000000
1.0000000000000000 0.0000000000000000 0.0000000000000000
1.0000000000000000 0.0000000000000000 0.0000000000000000
1.0000000000000000 0.0000000000000000 0.0000000000000000
1.0000000000000000 0.0000000000000000 0.0000000000000000
1.0000000000000000 0.0000000000000000 0.0000000000000000
1.0000000000000000 0.0000000000000000 0.0000000000000000
1.0000000000000000 0.0000000000000000 0.0000000000000000
1.0000000000000000 0.0000000000000000 0.0000000000000000
1.0000000000000000 0.0000000000000000 0.0000000000000000
1.0000000000000000 0.0000000000000000 0.0000000000000000
1.0000000000000000 0.0000000000000000 0.0000000000000000
1.0000000000000000 0.0000000000000000 0.0000000000000000
1.0000000000000000 0.0000000000000000 0.0000000000000000
1.0000000000000000 0.0000000000000000 0.0000000000000000
1.0000000000000000 0.0000000000000000 0.0000000000000000
1.0000000000000000 0.0000000000000000 0.0000000000000000
1.0000000000000000 0.0000000000000000 0.0000000000000000
1.0000000000000000 0.0000000000000000 0.0000000000000000
1.0000000000000000 0.0000000000000000 0.0000000000000000
1.0000000000000000 0.0000000000000000 0.0000000000000000
1.0000000000000000 0.0000000000000000 0.0000000000000000
1.0000000000000000 0.0000000000000000 0.0000000000000000
1.0000000000000000 0.0000000000000000 0.0000000000000000
1.0000000000000000 0.0000000000000000 0.0000000000000000
1.0000000000000000 0.0000000000000000 0.0000000000000000
1.0000000000000000 0.0000000000000000 0.0000000000000000
1.0000000000000000 0.0000000000000000 0.0000000000000000
1.0000000000000000 0.0000000000000000 0.0000000000000000
1.0000000000000000 0.0000000000000000 0.0000000000000000
1.0000000000000000 0.0000000000000000 0.0000000000000000
1.0000000000000000 0.0000000000000000 0.0000000000000000
1.0000000000000000 0.0000000000000000 0.0000000000000000
1.0000000000000000 0.0000000000000000 0.0000000000000000
1.0000000000000000 0.0000000000000000 0.0000000000000000
1.0000000000000000 0.0000000000000000 0.0000000000000000
1.0000000000000000 0.0000000000000000 0.0000000000000000
1.0000000000000000 0.0000000000000000 0.0000000000000000
1.0000000000000000 0.0000000000000000 0.0000000000000000
1.0000000000000000 0.0000000000000000 0.0000000000000000
1.0000000000000000 0.0000000000000000 0.0000000000000000
1.0000000000000000 0.0000000000000000 0.0000000000000000
1.0000000000000000 0.0000000000000000 0.0000000000000000
1.0000000000000000 0.0000000000000000 0.0000000000000000
1.0000000000000000 0.0000000000000000 0.0000000000000000
1.0000000000000000 0.0000000000000000 0.0000000000000000
1.0000000000000000 0.0000000000000000 0.0000000000000000
1.0000000000000000 0.0000000000000000 0.0000000000000000
1.0000000000000000 0.0000000000000000 0.0000000000000000
1.0000000000000000 0.0000000000000000 0.0000000000000000
1.0000000000000000 0.0000000000000000 0.0000000000000000
1.0000000000000000 0.0000000000000000 0.0000000000000000
1.0000000000000000 0.0000000000000000 0.0000000000000000
1.0000000000000000 0.0000000000000000 0.0000000000000000
1.0000000000000000 0.0000000000000000 0.0000000000000000
1.0000000000000000 0.0000000000000000 0.0000000000000000
1.0000000000000000 0.0000000000000000 0.0000000000000000
1.0000000000000000 0.0000000000000000 0.0000000000000000
1.0000000000000000 0.0000000000000000 0.0000000000000000
1.0000000000000000 0.0000000000000000 0.0000000000000000
1.0000000000000000 0.0000000000000000 0.0000000000000000
1.0000000000000000 0.0000000000000000 0.0000000000000000
1.0000000000000000 0.0000000000000000 0.0000000000000000
1.0000000000000000 0.0000000000000000 0.0000000000000000
1.0000000000000000 0.0000000000000000 0.0000000000000000
1.0000000000000000 0.0000000000000000 0.0000000000000000
1.0000000000000000 0.0000000000000000 0.0000000000000000
1.0000000000000000 0.0000000000000000 0.0000000000000000
1.0000000000000000 0.0000000000000000 0.0000000000000000
1.0000000000000000 0.0000000000000000 0.0000000000000000
1.0000000000000000 0.0000000000000000 0.0000000000000000
1.0000000000000000 0.0000000000000000 0.0000000000000000
1.0000000000000000 0.0000000000000000 0.0000000000000000
1.0000000000000000 0.0000000000000000 0.0000000000000000
1.0000000000000000 0.0000000000000000 0.0000000000000000
1.0000000000000000 0.0000000000000000 0.0000000000000000
1.0000000000000000 0.0000000000000000 0.0000000000000000
1.0000000000000000 0.0000000000000000 0.0000000000000000
1.0000000000000000 0.0000000000000000 0.0000000000000000
1.0000000000000000 0.0000000000000000 0.0000000000000000
1.0000000000000000 0.0000000000000000 0.0000000000000000
1.0000000000000000 0.0000000000000000 0.0000000000000000
1.0000000000000000 0.0000000000000000 0.0000000000000000
1.0000000000000000 0.0000000000000000 0.0000000000000000
1.0000000000000000 0.0000000000000000 0.0000000000000000
1.0000000000000000 0.0000000000000000 0.0000000000000000
1.0000000000000000 0.0000000000000000 0.0000000000000000
1.0000000000000000 0.0000000000000000 0.0000000000000000
1.0000000000000000 0.0000000000000000 0.0000000000000000
1.0000000000000000 0.0000000000000000 0.0000000000000000
1.0000000000000000 0.0000000000000000 0.0000000000000000
1.0000000000000000 0.0000000000000000 0.0000000000000000
1.0000000000000000 0.0000000000000000 0.0000000000000000
1.0000000000000000 0.0000000000000000 0.0000000000000000
1.0000000000000000 0.0000000000000000 0.0000000000000000
1.0000000000000000 0.0000000000000000 0.0000000000000000
1.0000000000000000 0.0000000000000000 0.0000000000000000
1.0000000000000000 0.0000000000000000 0.0000000000000000
1.0000000000000000 0.0000000000000000 0.0000000000000000
1.0000000000000000 0.0000000000000000 0.0000000000000000
1.0000000000000000 0.0000000000000000 0.0000000000000000
1.0000000000000000 0.0000000000000000 0.0000000000000000
1.0000000000000000 0.0000000000000000 0.0000000000000000
1.0000000000000000 0.0000000000000000 0.0000000000000000
1.0000000000000000 0.0000000000000000 0.0000000000000000
1.0000000000000000 0.0000000000000000 0.0000000000000000
1.0000000000000000 0.0000000000000000 0.0000000000000000
1.0000000000000000 0.0000000000000000 0.0000000000000000
1.0000000000000000 0.0000000000000000 0.0000000000000000
1.0000000000000000 0.0000000000000000 0.0000000000000000
1.0000000000000000 0.0000000000000000 0.0000000000000000
1.0000000000000000 0.0000000000000000 0.0000000000000000
1.0000000000000000 0.0000000000000000 0.0000000000000000
1.0000000000000000 0.0000000000000000 0.0000000000000000
1.0000000000000000 0.0000000000000000 0.0000000000000000
1.0000000000000000 0.0000000000000000 0.0000000000000000
1.0000000000000000 0.0000000000000000 0.0000000000000000
1.0000000000000000 0.0000000000000000 0.0000000000000000
1.0000000000000000 0.0000000000000000 0.0000000000000000
1.0000000000000000 0.0000000000000000 0.0000000000000000
1.0000000000000000 0.0000000000000000 0.0000000000000000
1.0000000000000000 0.0000000000000000 0.0000000000000000
1.0000000000000000 0.0000000000000000 0.0000000000000000
1.0000000000000000 0.0000000000000000 0.0000000000000000
1.0000000000000000 0.0000000000000000 0.0000000000000000
1.0000000000000000 0.0000000000000000 0.0000000000000000
1.0000000000000000 0.0000000000000000 0.0000000000000000
1.0000000000000000 0.0000000000000000 0.0000000000000000
1.0000000000000000 0.0000000000000000 0.0000000000000000
1.0000000000000000 0.0000000000000000 0.0000000000000000
1.0000000000000000 0.0000000000000000 0.0000000000000000
1.0000000000000000 0.0000000000000000 0.0000000000000000
1.0000000000000000 0.0000000000000000 0.0000000000000000
1.0000000000000000 0.0000000000000000 0.0000000000000000
1.0000000000000000 0.0000000000000000 0.0000000000000000
1.0000000000000000 0.0000000000000000 0.0000000000000000
1.0000000000000000 0.0000000000000000 0.0000000000000000
1.0000000000000000 0.0000000000000000 0.0000000000000000
1.0000000000000000 0.0000000000000000 0.0000000000000000
1.0000000000000000 0.0000000000000000 0.0000000000000000
1.0000000000000000 0.0000000000000000 0.0000000000000000
1.0000000000000000 0.0000000000000000 0.0000000000000000
1.0000000000000000 0.0000000000000000 0.0000000000000000
1.0000000000000000 0.0000000000000000 0.0000000000000000
1.0000000000000000 0.0000000000000000 0.0000000000000000
1.0000000000000000 0.0000000000000000 0.0000000000000000
1.0000000000000000 0.0000000000000000 0.0000000000000000
1.0000000000000000 0.0000000000000000 0.0000000000000000
1.0000000000000000 0.0000000000000000 0.0000000000000000
1.0000000000000000 0.0000000000000000 0.0000000000000000
1.0000000000000000 0.0000000000000000 0.0000000000000000
1.0000000000000000 0.0000000000000000 0.0000000000000000
1.0000000000000000 0.0000000000000000 0.0000000000000000
1.0000000000000000 0.0000000000000000 0.0000000000000000
1.0000000000000000 0.0000000000000000 0.0000000000000000
1.0000000000000000 0.0000000000000000 0.0000000000000000
1.0000000000000000 0.0000000000000000 0.0000000000000000
1.0000000000000000 0.0000000000000000 0.0000000000000000
1.0000000000000000 0.0000000000000000 0.0000000000000000
1.0000000000000000 0.0000000000000000 0.0000000000000000
1.0000000000000000 0.0000000000000000 0.0000000000000000
1.0000000000000000 0.0000000000000000 0.0000000000000000
1.0000000000000000 0.0000000000000000 0.0000000000000000
1.0000000000000000 0.0000000000000000 0.0000000000000000
1.0000000000000000 0.0000000000000000 0.0000000000000000
1.0000000000000000 0.0000000000000000 0.0000000000000000
1.0000000000000000 0.0000000000000000 0.0000000000000000
1.0000000000000000 0.0000000000000000 0.0000000000000000
1.0000000000000000 0.0000000000000000 0.0000000000000000
1.0000000000000000 0.0000000000000000 0.0000000000000000
1.0000000000000000 0.0000000000000000 0.0000000000000000
1.0000000000000000 0.0000000000000000 0.0000000000000000
1.0000000000000000 0.0000000000000000 0.0000000000000000
1.0000000000000000 0.0000000000000000 0.0000000000000000
1.0000000000000000 0.0000000000000000 0.0000000000000000
1.0000000000000000 0.0000000000000000 0.0000000000000000
1.0000000000000000 0.0000000000000000 0.0000000000000000
1.0000000000000000 0.0000000000000000 0.0000000000000000
1.0000000000000000 0.0000000000000000 0.0000000000000000
1.0000000000000000 0.0000000000000000 0.0000000000000000
1.0000000000000000 0.0000000000000000 0.0000000000000000
1.0000000000000000 0.0000000000000000 0.0000000000000000
1.0000000000000000 0.0000000000000000 0.0000000000000000
1.0000000000000000 0.0000000000000000 0.0000000000000000
1.0000000000000000 0.0000000000000000 0.0000000000000000
1.0000000000000000 0.0000000000000000 0.0000000000000000
1.0000000000000000 0.0000000000000000 0.0000000000000000
1.0000000000000000 0.0000000000000000 0.0000000000000000
1.0000000000000000 0.0000000000000000 0.0000000000000000
1.0000000000000000 0.0000000000000000 0.0000000000000000
1.0000000000000000 0.0000000000000000 0.0000000000000000
1.0000000000000000 0.0000000000000000 0.0000000000000000
1.0000000000000000 0.0000000000000000 0.0000000000000000
1.0000000000000000 0.0000000000000000 0.0000000000000000
1.0000000000000000 0.0000000000000000 0.0000000000000000
1.0000000000000000 0.0000000000000000 0.0000000000000000
1.0000000000000000 0.0000000000000000 0.0000000000000000
1.0000000000000000 0.0000000000000000 0.0000000000000000
1.0000000000000000 0.0000000000000000 0.0000000000000000
1.0000000000000000 0.0000000000000000 0.0000000000000000
1.0000000000000000 0.0000000000000000 0.0000000000000000
1.0000000000000000 0.0000000000000000 0.0000000000000000
1.0000000000000000 0.0000000000000000 0.0000000000000000
1.0000000000000000 0.0000000000000000 0.0000000000000000
1.0000000000000000 0.0000000000000000 0.0000000000000000
1.0000000000000000 0.0000000000000000 0.0000000000000000
1.0000000000000000 0.0000000000000000 0.0000000000000000
1.0000000000000000 0.0000000000000000 0.0000000000000000
1.0000000000000000 0.0000000000000000 0.0000000000000000
1.0000000000000000 0.0000000000000000 0.0000000000000000
1.0000000000000000 0.0000000000000000 0.0000000000000000
1.0000000000000000 0.0000000000000000 0.0000000000000000
1.0000000000000000 0.0000000000000000 0.0000000000000000
1.0000000000000000 0.0000000000000000 0.0000000000000000
1.0000000000000000 0.0000000000000000 0.0000000000000000
1.0000000000000000 0.0000000000000000 0.0000000000000000
1.0000000000000000 0.0000000000000000 0.0000000000000000
1.0000000000000000 0.0000000000000000 0.0000000000000000
1.0000000000000000 0.0000000000000000 0.0000000000000000
1.0000000000000000 0.0000000000000000 0.0000000000000000
1.0000000000000000 0.0000000000000000 0.0000000000000000
1.0000000000000000 0.0000000000000000 0.0000000000000000
1.0000000000000000 0.0000000000000000 0.0000000000000000
1.0000000000000000 0.0000000000000000 0.0000000000000000
1.0000000000000000 0.0000000000000000 0.0000000000000000
1.0000000000000000 0.0000000000000000 0.0000000000000000
1.0000000000000000 0.0000000000000000 0.0000000000000000
1.0000000000000000 0.0000000000000000 0.0000000000000000
1.0000000000000000 0.0000000000000000 0.0000000000000000
1.0000000000000000 0.0000000000000000 0.0000000000000000
1.0000000000000000 0.0000000000000000 0.0000000000000000
1.0000000000000000 0.0000000000000000 0.0000000000000000
1.0000000000000000 0.0000000000000000 0.0000000000000000
1.0000000000000000 0.0000000000000000 0.0000000000000000
1.0000000000000000 0.0000000000000000 0.0000000000000000
1.0000000000000000 0.0000000000000000 0.0000000000000000
1.0000000000000000 0.0000000000000000 0.0000000000000000
1.0000000000000000 0.0000000000000000 0.0000000000000000
1.0000000000000000 0.0000000000000000 0.0000000000000000
1.0000000000000000 0.0000000000000000 0.0000000000000000
1.0000000000000000 0.0000000000000000 0.0000000000000000
1.0000000000000000 0.0000000000000000 0.0000000000000000
1.0000000000000000 0.0000000000000000 0.0000000000000000
1.0000000000000000 0.0000000000000000 0.0000000000000000
1.0000000000000000 0.0000000000000000 0.0000000000000000
1.0000000000000000 0.0000000000000000 0.0000000000000000
1.0000000000000000 0.0000000000000000 0.0000000000000000
1.0000000000000000 0.0000000000000000 0.0000000000000000
1.0000000000000000 0.0000000000000000 0.0000000000000000
1.0000000000000000 0.0000000000000000 0.0000000000000000
1.0000000000000000 0.0000000000000000 0.0000000000000000
1.0000000000000000 0.0000000000000000 0.0000000000000000
1.0000000000000000 0.0000000000000000 0.0000000000000000
1.0000000000000000 0.0000000000000000 0.0000000000000000
1.0000000000000000 0.0000000000000000 0.0000000000000000
1.0000000000000000 0.0000000000000000 0.0000000000000000
1.0000000000000000 0.0000000000000000 0.0000000000000000
1.0000000000000000 0.0000000000000000 0.0000000000000000
1.0000000000000000 0.0000000000000000 0.0000000000000000
1.0000000000000000 0.0000000000000000 0.0000000000000000
1.0000000000000000 0.0000000000000000 0.0000000000000000
1.0000000000000000 0.0000000000000000 0.0000000000000000
1.0000000000000000 0.0000000000000000 0.0000000000000000
1.0000000000000000 0.0000000000000000 0.0000000000000000
1.0000000000000000 0.0000000000000000 0.0000000000000000
1.0000000000000000 0.0000000000000000 0.0000000000000000
1.0000000000000000 0.0000000000000000 0.0000000000000000
1.0000000000000000 0.0000000000000000 0.0000000000000000
1.0000000000000000 0.0000000000000000 0.0000000000000000
1.0000000000000000 0.0000000000000000 0.0000000000000000
1.0000000000000000 0.0000000000000000 0.0000000000000000
1.0000000000000000 0.0000000000000000 0.0000000000000000
1.0000000000000000 0.0000000000000000 0.0000000000000000
1.0000000000000000 0.0000000000000000 0.0000000000000000
1.0000000000000000 0.0000000000000000 0.0000000000000000
1.0000000000000000 0.0000000000000000 0.0000000000000000
1.0000000000000000 0.0000000000000000 0.0000000000000000
1.0000000000000000 0.0000000000000000 0.0000000000000000
1.0000000000000000 0.0000000000000000 0.0000000000000000
1.0000000000000000 0.0000000000000000 0.0000000000000000
1.0000000000000000 0.0000000000000000 0.0000000000000000
1.0000000000000000 0.0000000000000000 0.0000000000000000
1.0000000000000000 0.0000000000000000 0.0000000000000000
1.0000000000000000 0.0000000000000000 0.0000000000000000
1.0000000000000000 0.0000000000000000 0.0000000000000000
1.0000000000000000 0.0000000000000000 0.0000000000000000
1.0000000000000000 0.0000000000000000 0.0000000000000000
1.0000000000000000 0.0000000000000000 0.0000000000000000
1.0000000000000000 0.0000000000000000 0.0000000000000000
1.0000000000000000 0.0000000000000000 0.0000000000000000
1.0000000000000000 0.0000000000000000 0.0000000000000000
1.0000000000000000 0.0000000000000000 0.0000000000000000
1.0000000000000000 0.0000000000000000 0.0000000000000000
1.0000000000000000 0.0000000000000000 0.0000000000000000
1.0000000000000000 0.0000000000000000 0.0000000000000000
1.0000000000000000 0.0000000000000000 0.0000000000000000
1.0000000000000000 0.0000000000000000 0.0000000000000000
1.0000000000000000 0.0000000000000000 0.0000000000000000
1.0000000000000000 0.0000000000000000 0.0000000000000000
1.0000000000000000 0.0000000000000000 0.0000000000000000
1.0000000000000000 0.0000000000000000 0.0000000000000000
1.0000000000000000 0.0000000000000000 0.0000000000000000
1.0000000000000000 0.0000000000000000 0.0000000000000000
1.0000000000000000 0.0000000000000000 0.0000000000000000
1.0000000000000000 0.0000000000000000 0.0000000000000000
1.0000000000000000 0.0000000000000000 0.0000000000000000
1.0000000000000000 0.0000000000000000 0.0000000000000000
1.0000000000000000 0.0000000000000000 0.0000000000000000
1.0000000000000000 0.0000000000000000 0.0000000000000000
1.0000000000000000 0.0000000000000000 0.0000000000000000
1.0000000000000000 0.0000000000000000 0.0000000000000000
1.0000000000000000 0.0000000000000000 0.0000000000000000
1.0000000000000000 0.0000000000000000 0.0000000000000000
1.0000000000000000 0.0000000000000000 0.0000000000000000
1.0000000000000000 0.0000000000000000 0.0000000000000000
1.0000000000000000 0.0000000000000000 0.0000000000000000
1.0000000000000000 0.0000000000000000 0.0000000000000000
1.0000000000000000 0.0000000000000000 0.0000000000000000
1.0000000000000000 0.0000000000000000 0.0000000000000000
1.0000000000000000 0.0000000000000000 0.0000000000000000
1.0000000000000000 0.0000000000000000 0.0000000000000000
1.0000000000000000 0.0000000000000000 0.0000000000000000
1.0000000000000000 0.0000000000000000 0.0000000000000000
1.0000000000000000 0.0000000000000000 0.0000000000000000
1.0000000000000000 0.0000000000000000 0.0000000000000000
1.0000000000000000 0.0000000000000000 0.0000000000000000
1.0000000000000000 0.0000000000000000 0.0000000000000000
1.0000000000000000 0.0000000000000000 0.0000000000000000
1.0000000000000000 0.0000000000000000 0.0000000000000000
1.0000000000000000 0.0000000000000000 0.0000000000000000
1.0000000000000000 0.0000000000000000 0.0000000000000000
1.0000000000000000 0.0000000000000000 0.0000000000000000
1.0000000000000000 0.0000000000000000 0.0000000000000000
1.0000000000000000 0.0000000000000000 0.0000000000000000
1.0000000000000000 0.0000000000000000 0.0000000000000000
1.0000000000000000 0.0000000000000000 0.0000000000000000
1.0000000000000000 0.0000000000000000 0.0000000000000000
1.0000000000000000 0.0000000000000000 0.0000000000000000
1.0000000000000000 0.0000000000000000 0.0000000000000000
1.0000000000000000 0.0000000000000000 0.0000000000000000
1.0000000000000000 0.0000000000000000 0.0000000000000000
1.0000000000000000 0.0000000000000000 0.0000000000000000
1.0000000000000000 0.0000000000000000 0.0000000000000000
1.0000000000000000 0.0000000000000000 0.0000000000000000
1.0000000000000000 0.0000000000000000 0.0000000000000000
1.0000000000000000 0.0000000000000000 0.0000000000000000
1.0000000000000000 0.0000000000000000 0.0000000000000000
1.0000000000000000 0.0000000000000000 0.0000000000000000
1.0000000000000000 0.0000000000000000 0.0000000000000000
1.0000000000000000 0.0000000000000000 0.0000000000000000
1.0000000000000000 0.0000000000000000 0.0000000000000000
1.0000000000000000 0.0000000000000000 0.0000000000000000
1.0000000000000000 0.0000000000000000 0.0000000000000000
1.0000000000000000 0.0000000000000000 0.0000000000000000
1.0000000000000000 0.0000000000000000 0.0000000000000000
1.0000000000000000 0.0000000000000000 0.0000000000000000
1.0000000000000000 0.0000000000000000 0.0000000000000000
1.0000000000000000 0.0000000000000000 0.0000000000000000
1.0000000000000000 0.0000000000000000 0.0000000000000000
1.0000000000000000 0.0000000000000000 0.0000000000000000
1.0000000000000000 0.0000000000000000 0.0000000000000000
1.0000000000000000 0.0000000000000000 0.0000000000000000
1.0000000000000000 0.0000000000000000 0.0000000000000000
1.0000000000000000 0.0000000000000000 0.0000000000000000
1.0000000000000000 0.0000000000000000 0.0000000000000000
1.0000000000000000 0.0000000000000000 0.0000000000000000
1.0000000000000000 0.0000000000000000 0.0000000000000000
1.0000000000000000 0.0000000000000000 0.0000000000000000
1.0000000000000000 0.0000000000000000 0.0000000000000000
1.0000000000000000 0.0000000000000000 0.0000000000000000
1.0000000000000000 0.0000000000000000 0.0000000000000000
1.0000000000000000 0.0000000000000000 0.0000000000000000
1.0000000000000000 0.0000000000000000 0.0000000000000000
1.0000000000000000 0.0000000000000000 0.0000000000000000
1.0000000000000000 0.0000000000000000 0.0000000000000000
1.0000000000000000 0.0000000000000000 0.0000000000000000
1.0000000000000000 0.0000000000000000 0.0000000000000000
1.0000000000000000 0.0000000000000000 0.0000000000000000
1.0000000000000000 0.0000000000000000 0.0000000000000000
1.0000000000000000 0.0000000000000000 0.0000000000000000
1.0000000000000000 0.0000000000000000 0.0000000000000000
1.0000000000000000 0.0000000000000000 0.0000000000000000
1.0000000000000000 0.0000000000000000 0.0000000000000000
1.0000000000000000 0.0000000000000000 0.0000000000000000
1.0000000000000000 0.0000000000000000 0.0000000000000000
1.0000000000000000 0.0000000000000000 0.0000000000000000
1.0000000000000000 0.0000000000000000 0.0000000000000000
1.0000000000000000 0.0000000000000000 0.0000000000000000
1.0000000000000000 0.0000000000000000 0.0000000000000000
1.0000000000000000 0.0000000000000000 0.0000000000000000
1.0000000000000000 0.0000000000000000 0.0000000000000000
1.0000000000000000 0.0000000000000000 0.0000000000000000
1.0000000000000000 0.0000000000000000 0.0000000000000000
1.0000000000000000 0.0000000000000000 0.0000000000000000
1.0000000000000000 0.0000000000000000 0.0000000000000000
1.0000000000000000 0.0000000000000000 0.0000000000000000
1.0000000000000000 0.0000000000000000 0.0000000000000000
1.0000000000000000 0.0000000000000000 0.0000000000000000
1.0000000000000000 0.0000000000000000 0.0000000000000000
1.0000000000000000 0.0000000000000000 0.0000000000000000
1.0000000000000000 0.0000000000000000 0.0000000000000000
1.0000000000000000 0.0000000000000000 0.0000000000000000
1.0000000000000000 0.0000000000000000 0.0000000000000000
1.0000000000000000 0.0000000000000000 0.0000000000000000
1.0000000000000000 0.0000000000000000 0.0000000000000000
1.0000000000000000 0.0000000000000000 0.0000000000000000
1.0000000000000000 0.0000000000000000 0.0000000000000000
1.0000000000000000 0.0000000000000000 0.0000000000000000
1.0000000000000000 0.0000000000000000 0.0000000000000000
1.0000000000000000 0.0000000000000000 0.0000000000000000
1.0000000000000000 0.0000000000000000 0.0000000000000000
1.0000000000000000 0.0000000000000000 0.0000000000000000
1.0000000000000000 0.0000000000000000 0.0000000000000000
1.0000000000000000 0.0000000000000000 0.0000000000000000
1.0000000000000000 0.0000000000000000 0.0000000000000000
1.0000000000000000 0.0000000000000000 0.0000000000000000
1.0000000000000000 0.0000000000000000 0.0000000000000000
1.0000000000000000 0.0000000000000000 0.0000000000000000
1.0000000000000000 0.0000000000000000 0.0000000000000000
1.0000000000000000 0.0000000000000000 0.0000000000000000
1.0000000000000000 0.0000000000000000 0.0000000000000000
1.0000000000000000 0.0000000000000000 0.0000000000000000
1.0000000000000000 0.0000000000000000 0.0000000000000000
1.0000000000000000 0.0000000000000000 0.0000000000000000
1.0000000000000000 0.0000000000000000 0.0000000000000000
1.0000000000000000 0.0000000000000000 0.0000000000000000
1.0000000000000000 0.0000000000000000 0.0000000000000000
1.0000000000000000 0.0000000000000000 0.0000000000000000
1.0000000000000000 0.0000000000000000 0.0000000000000000
1.0000000000000000 0.0000000000000000 0.0000000000000000
1.0000000000000000 0.0000000000000000 0.0000000000000000
1.0000000000000000 0.0000000000000000 0.0000000000000000
1.0000000000000000 0.0000000000000000 0.0000000000000000
1.0000000000000000 0.0000000000000000 0.0000000000000000
1.0000000000000000 0.0000000000000000 0.0000000000000000
1.0000000000000000 0.0000000000000000 0.0000000000000000
1.0000000000000000 0.0000000000000000 0.0000000000000000
1.0000000000000000 0.0000000000000000 0.0000000000000000
1.0000000000000000 0.0000000000000000 0.0000000000000000
1.0000000000000000 0.0000000000000000 0.0000000000000000
1.0000000000000000 0.0000000000000000 0.0000000000000000
1.0000000000000000 0.0000000000000000 0.0000000000000000
1.0000000000000000 0.0000000000000000 0.0000000000000000
1.0000000000000000 0.0000000000000000 0.0000000000000000
1.0000000000000000 0.0000000000000000 0.0000000000000000
1.0000000000000000 0.0000000000000000 0.0000000000000000
1.0000000000000000 0.0000000000000000 0.0000000000000000
1.0000000000000000 0.0000000000000000 0.0000000000000000
1.0000000000000000 0.0000000000000000 0.0000000000000000
1.0000000000000000 0.0000000000000000 0.0000000000000000
1.0000000000000000 0.0000000000000000 0.0000000000000000
1.0000000000000000 0.0000000000000000 0.0000000000000000
1.0000000000000000 0.0000000000000000 0.0000000000000000
1.0000000000000000 0.0000000000000000 0.0000000000000000
1.0000000000000000 0.0000000000000000 0.0000000000000000
1.0000000000000000 0.0000000000000000 0.0000000000000000
1.0000000000000000 0.0000000000000000 0.0000000000000000
1.0000000000000000 0.0000000000000000 0.0000000000000000
1.0000000000000000 0.0000000000000000 0.0000000000000000
1.0000000000000000 0.0000000000000000 0.0000000000000000
1.0000000000000000 0.0000000000000000 0.0000000000000000
1.0000000000000000 0.0000000000000000 0.0000000000000000
1.0000000000000000 0.0000000000000000 0.0000000000000000
1.0000000000000000 0.0000000000000000 0.0000000000000000
1.0000000000000000 0.0000000000000000 0.0000000000000000
1.0000000000000000 0.0000000000000000 0.0000000000000000
1.0000000000000000 0.0000000000000000 0.0000000000000000
1.0000000000000000 0.0000000000000000 0.0000000000000000
1.0000000000000000 0.0000000000000000 0.0000000000000000
1.0000000000000000 0.0000000000000000 0.0000000000000000
1.0000000000000000 0.0000000000000000 0.0000000000000000
1.0000000000000000 0.0000000000000000 0.0000000000000000
1.0000000000000000 0.0000000000000000 0.0000000000000000
1.0000000000000000 0.0000000000000000 0.0000000000000000
1.0000000000000000 0.0000000000000000 0.0000000000000000
1.0000000000000000 0.0000000000000000 0.0000000000000000
1.0000000000000000 0.0000000000000000 0.0000000000000000
1.0000000000000000 0.0000000000000000 0.0000000000000000
1.0000000000000000 0.0000000000000000 0.0000000000000000
1.0000000000000000 0.0000000000000000 0.0000000000000000
1.0000000000000000 0.0000000000000000 0.0000000000000000
1.0000000000000000 0.0000000000000000 0.0000000000000000
1.0000000000000000 0.0000000000000000 0.0000000000000000
1.0000000000000000 0.0000000000000000 0.0000000000000000
1.0000000000000000 0.0000000000000000 0.0000000000000000
1.0000000000000000 0.0000000000000000 0.0000000000000000
1.0000000000000000 0.0000000000000000 0.0000000000000000
1.0000000000000000 0.0000000000000000 0.0000000000000000
1.0000000000000000 0.0000000000000000 0.0000000000000000
1.0000000000000000 0.0000000000000000 0.0000000000000000
1.0000000000000000 0.0000000000000000 0.0000000000000000
1.0000000000000000 0.0000000000000000 0.0000000000000000
1.0000000000000000 0.0000000000000000 0.0000000000000000
1.0000000000000000 0.0000000000000000 0.0000000000000000
1.0000000000000000 0.0000000000000000 0.0000000000000000
1.0000000000000000 0.0000000000000000 0.0000000000000000
1.0000000000000000 0.0000000000000000 0.0000000000000000
1.0000000000000000 0.0000000000000000 0.0000000000000000
1.0000000000000000 0.0000000000000000 0.0000000000000000
1.0000000000000000 0.0000000000000000 0.0000000000000000
1.0000000000000000 0.0000000000000000 0.0000000000000000
1.0000000000000000 0.0000000000000000 0.0000000000000000
1.0000000000000000 0.0000000000000000 0.0000000000000000
1.0000000000000000 0.0000000000000000 0.0000000000000000
1.0000000000000000 0.0000000000000000 0.0000000000000000
1.0000000000000000 0.0000000000000000 0.0000000000000000
1.0000000000000000 0.0000000000000000 0.0000000000000000
1.0000000000000000 0.0000000000000000 0.0000000000000000
1.0000000000000000 0.0000000000000000 0.0000000000000000
1.0000000000000000 0.0000000000000000 0.0000000000000000
1.0000000000000000 0.0000000000000000 0.0000000000000000
1.0000000000000000 0.0000000000000000 0.0000000000000000
1.0000000000000000 0.0000000000000000 0.0000000000000000
1.0000000000000000 0.0000000000000000 0.0000000000000000
1.0000000000000000 0.0000000000000000 0.0000000000000000
1.0000000000000000 0.0000000000000000 0.0000000000000000
1.0000000000000000 0.0000000000000000 0.0000000000000000
1.0000000000000000 0.0000000000000000 0.0000000000000000
1.0000000000000000 0.0000000000000000 0.0000000000000000
1.0000000000000000 0.0000000000000000 0.0000000000000000
1.0000000000000000 0.0000000000000000 0.0000000000000000
1.0000000000000000 0.0000000000000000 0.0000000000000000
1.0000000000000000 0.0000000000000000 0.0000000000000000
1.0000000000000000 0.0000000000000000 0.0000000000000000
1.0000000000000000 0.0000000000000000 0.0000000000000000
1.0000000000000000 0.0000000000000000 0.0000000000000000
1.0000000000000000 0.0000000000000000 0.0000000000000000
1.0000000000000000 0.0000000000000000 0.0000000000000000
1.0000000000000000 0.0000000000000000 0.0000000000000000
1.0000000000000000 0.0000000000000000 0.0000000000000000
1.0000000000000000 0.0000000000000000 0.0000000000000000
1.0000000000000000 0.0000000000000000 0.0000000000000000
1.0000000000000000 0.0000000000000000 0.0000000000000000
1.0000000000000000 0.0000000000000000 0.0000000000000000
1.0000000000000000 0.0000000000000000 0.0000000000000000
1.0000000000000000 0.0000000000000000 0.0000000000000000
1.0000000000000000 0.0000000000000000 0.0000000000000000
1.0000000000000000 0.0000000000000000 0.0000000000000000
1.0000000000000000 0.0000000000000000 0.0000000000000000
1.0000000000000000 0.0000000000000000 0.0000000000000000
1.0000000000000000 0.0000000000000000 0.0000000000000000
1.0000000000000000 0.0000000000000000 0.0000000000000000
1.0000000000000000 0.0000000000000000 0.0000000000000000
1.0000000000000000 0.0000000000000000 0.0000000000000000
1.0000000000000000 0.0000000000000000 0.0000000000000000
1.0000000000000000 0.0000000000000000 0.0000000000000000
1.0000000000000000 0.0000000000000000 0.0000000000000000
1.0000000000000000 0.0000000000000000 0.0000000000000000
1.0000000000000000 0.0000000000000000 0.0000000000000000
1.0000000000000000 0.0000000000000000 0.0000000000000000
1.0000000000000000 0.0000000000000000 0.0000000000000000
1.0000000000000000 0.0000000000000000 0.0000000000000000
1.0000000000000000 0.0000000000000000 0.0000000000000000
1.0000000000000000 0.0000000000000000 0.0000000000000000
1.0000000000000000 0.0000000000000000 0.0000000000000000
1.0000000000000000 0.0000000000000000 0.0000000000000000
1.0000000000000000 0.0000000000000000 0.0000000000000000
1.0000000000000000 0.0000000000000000 0.0000000000000000
1.0000000000000000 0.0000000000000000 0.0000000000000000
1.0000000000000000 0.0000000000000000 0.0000000000000000
1.0000000000000000 0.0000000000000000 0.0000000000000000
1.0000000000000000 0.0000000000000000 0.0000000000000000
1.0000000000000000 0.0000000000000000 0.0000000000000000
1.0000000000000000 0.0000000000000000 0.0000000000000000
1.0000000000000000 0.0000000000000000 0.0000000000000000
1.0000000000000000 0.0000000000000000 0.0000000000000000
1.0000000000000000 0.0000000000000000 0.0000000000000000
1.0000000000000000 0.0000000000000000 0.0000000000000000
1.0000000000000000 0.0000000000000000 0.0000000000000000
1.0000000000000000 0.0000000000000000 0.0000000000000000
1.0000000000000000 0.0000000000000000 0.0000000000000000
1.0000000000000000 0.0000000000000000 0.0000000000000000
1.0000000000000000 0.0000000000000000 0.0000000000000000
1.0000000000000000 0.0000000000000000 0.0000000000000000
1.0000000000000000 0.0000000000000000 0.0000000000000000
1.0000000000000000 0.0000000000000000 0.0000000000000000
1.0000000000000000 0.0000000000000000 0.0000000000000000
1.0000000000000000 0.0000000000000000 0.0000000000000000
1.0000000000000000 0.0000000000000000 0.0000000000000000
1.0000000000000000 0.0000000000000000 0.0000000000000000
1.0000000000000000 0.0000000000000000 0.0000000000000000
1.0000000000000000 0.0000000000000000 0.0000000000000000
1.0000000000000000 0.0000000000000000 0.0000000000000000
1.0000000000000000 0.0000000000000000 0.0000000000000000
1.0000000000000000 0.0000000000000000 0.0000000000000000
1.0000000000000000 0.0000000000000000 0.0000000000000000
1.0000000000000000 0.0000000000000000 0.0000000000000000
1.0000000000000000 0.0000000000000000 0.0000000000000000
1.0000000000000000 0.0000000000000000 0.0000000000000000
1.0000000000000000 0.0000000000000000 0.0000000000000000
1.0000000000000000 0.0000000000000000 0.0000000000000000
1.0000000000000000 0.0000000000000000 0.0000000000000000
1.0000000000000000 0.0000000000000000 0.0000000000000000
1.0000000000000000 0.0000000000000000 0.0000000000000000
1.0000000000000000 0.0000000000000000 0.0000000000000000
1.0000000000000000 0.0000000000000000 0.0000000000000000
1.0000000000000000 0.0000000000000000 0.0000000000000000
1.0000000000000000 0.0000000000000000 0.0000000000000000
1.0000000000000000 0.0000000000000000 0.0000000000000000
1.0000000000000000 0.0000000000000000 0.0000000000000000
1.0000000000000000 0.0000000000000000 0.0000000000000000
1.0000000000000000 0.0000000000000000 0.0000000000000000
1.0000000000000000 0.0000000000000000 0.0000000000000000
1.0000000000000000 0.0000000000000000 0.0000000000000000
1.0000000000000000 0.0000000000000000 0.0000000000000000
1.0000000000000000 0.0000000000000000 0.0000000000000000
1.0000000000000000 0.0000000000000000 0.0000000000000000
1.0000000000000000 0.0000000000000000 0.0000000000000000
1.0000000000000000 0.0000000000000000 0.0000000000000000
1.0000000000000000 0.0000000000000000 0.0000000000000000
1.0000000000000000 0.0000000000000000 0.0000000000000000
1.0000000000000000 0.0000000000000000 0.0000000000000000
1.0000000000000000 0.0000000000000000 0.0000000000000000
1.0000000000000000 0.0000000000000000 0.0000000000000000
1.0000000000000000 0.0000000000000000 0.0000000000000000
1.0000000000000000 0.0000000000000000 0.0000000000000000
1.0000000000000000 0.0000000000000000 0.0000000000000000
1.0000000000000000 0.0000000000000000 0.0000000000000000
1.0000000000000000 0.0000000000000000 0.0000000000000000
1.0000000000000000 0.0000000000000000 0.0000000000000000
1.0000000000000000 0.0000000000000000 0.0000000000000000
1.0000000000000000 0.0000000000000000 0.0000000000000000
1.0000000000000000 0.0000000000000000 0.0000000000000000
1.0000000000000000 0.0000000000000000 0.0000000000000000
1.0000000000000000 0.0000000000000000 0.0000000000000000
1.0000000000000000 0.0000000000000000 0.0000000000000000
1.0000000000000000 0.0000000000000000 0.0000000000000000
1.0000000000000000 0.0000000000000000 0.0000000000000000
1.0000000000000000 0.0000000000000000 0.0000000000000000
1.0000000000000000 0.0000000000000000 0.0000000000000000
1.0000000000000000 0.0000000000000000 0.0000000000000000
1.0000000000000000 0.0000000000000000 0.0000000000000000
1.0000000000000000 0.0000000000000000 0.0000000000000000
1.0000000000000000 0.0000000000000000 0.0000000000000000
1.0000000000000000 0.0000000000000000 0.0000000000000000
1.0000000000000000 0.0000000000000000 0.0000000000000000
1.0000000000000000 0.0000000000000000 0.0000000000000000
1.0000000000000000 0.0000000000000000 0.0000000000000000
1.0000000000000000 0.0000000000000000 0.0000000000000000
1.0000000000000000 0.0000000000000000 0.0000000000000000
1.0000000000000000 0.0000000000000000 0.0000000000000000
1.0000000000000000 0.0000000000000000 0.0000000000000000
1.0000000000000000 0.0000000000000000 0.0000000000000000
1.0000000000000000 0.0000000000000000 0.0000000000000000
1.0000000000000000 0.0000000000000000 0.0000000000000000
1.0000000000000000 0.0000000000000000 0.0000000000000000
1.0000000000000000 0.0000000000000000 0.0000000000000000
1.0000000000000000 0.0000000000000000 0.0000000000000000
1.0000000000000000 0.0000000000000000 0.0000000000000000
1.0000000000000000 0.0000000000000000 0.0000000000000000
1.0000000000000000 0.0000000000000000 0.0000000000000000
1.0000000000000000 0.0000000000000000 0.0000000000000000
1.0000000000000000 0.0000000000000000 0.0000000000000000
1.0000000000000000 0.0000000000000000 0.0000000000000000
1.0000000000000000 0.0000000000000000 0.0000000000000000
1.0000000000000000 0.0000000000000000 0.0000000000000000
1.0000000000000000 0.0000000000000000 0.0000000000000000
1.0000000000000000 0.0000000000000000 0.0000000000000000
1.0000000000000000 0.0000000000000000 0.0000000000000000
1.0000000000000000 0.0000000000000000 0.0000000000000000
1.0000000000000000 0.0000000000000000 0.0000000000000000
1.0000000000000000 0.0000000000000000 0.0000000000000000
1.0000000000000000 0.0000000000000000 0.0000000000000000
1.0000000000000000 0.0000000000000000 0.0000000000000000
1.0000000000000000 0.0000000000000000 0.0000000000000000
1.0000000000000000 0.0000000000000000 0.0000000000000000
1.0000000000000000 0.0000000000000000 0.0000000000000000
1.0000000000000000 0.0000000000000000 0.0000000000000000
1.0000000000000000 0.0000000000000000 0.0000000000000000
1.0000000000000000 0.0000000000000000 0.0000000000000000
1.0000000000000000 0.0000000000000000 0.0000000000000000
1.0000000000000000 0.0000000000000000 0.0000000000000000
1.0000000000000000 0.0000000000000000 0.0000000000000000
1.0000000000000000 0.0000000000000000 0.0000000000000000
1.0000000000000000 0.0000000000000000 0.0000000000000000
1.0000000000000000 0.0000000000000000 0.0000000000000000
1.0000000000000000 0.0000000000000000 0.0000000000000000
1.0000000000000000 0.0000000000000000 0.0000000000000000
1.0000000000000000 0.0000000000000000 0.0000000000000000
1.0000000000000000 0.0000000000000000 0.0000000000000000
1.0000000000000000 0.0000000000000000 0.0000000000000000
1.0000000000000000 0.0000000000000000 0.0000000000000000
1.0000000000000000 0.0000000000000000 0.0000000000000000
1.0000000000000000 0.0000000000000000 0.0000000000000000
1.0000000000000000 0.0000000000000000 0.0000000000000000
1.0000000000000000 0.0000000000000000 0.0000000000000000
1.0000000000000000 0.0000000000000000 0.0000000000000000
1.0000000000000000 0.0000000000000000 0.0000000000000000
1.0000000000000000 0.0000000000000000 0.0000000000000000
1.0000000000000000 0.0000000000000000 0.0000000000000000
1.0000000000000000 0.0000000000000000 0.0000000000000000
1.0000000000000000 0.0000000000000000 0.0000000000000000
1.0000000000000000 0.0000000000000000 0.0000000000000000
1.0000000000000000 0.0000000000000000 0.0000000000000000
1.0000000000000000 0.0000000000000000 0.0000000000000000
1.0000000000000000 0.0000000000000000 0.0000000000000000
1.0000000000000000 0.0000000000000000 0.0000000000000000
1.0000000000000000 0.0000000000000000 0.0000000000000000
1.0000000000000000 0.0000000000000000 0.0000000000000000
1.0000000000000000 0.0000000000000000 0.0000000000000000
1.0000000000000000 0.0000000000000000 0.0000000000000000
1.0000000000000000 0.0000000000000000 0.0000000000000000
1.0000000000000000 0.0000000000000000 0.0000000000000000
1.0000000000000000 0.0000000000000000 0.0000000000000000
1.0000000000000000 0.0000000000000000 0.0000000000000000
1.0000000000000000 0.0000000000000000 0.0000000000000000
1.0000000000000000 0.0000000000000000 0.0000000000000000
1.0000000000000000 0.0000000000000000 0.0000000000000000
1.0000000000000000 0.0000000000000000 0.0000000000000000
1.0000000000000000 0.0000000000000000 0.0000000000000000
1.0000000000000000 0.0000000000000000 0.0000000000000000
1.0000000000000000 0.0000000000000000 0.0000000000000000
1.0000000000000000 0.0000000000000000 0.0000000000000000
1.0000000000000000 0.0000000000000000 0.0000000000000000
1.0000000000000000 0.0000000000000000 0.0000000000000000
1.0000000000000000 0.0000000000000000 0.0000000000000000
1.0000000000000000 0.0000000000000000 0.0000000000000000
1.0000000000000000 0.0000000000000000 0.0000000000000000
1.0000000000000000 0.0000000000000000 0.0000000000000000
1.0000000000000000 0.0000000000000000 0.0000000000000000
1.0000000000000000 0.0000000000000000 0.0000000000000000
1.0000000000000000 0.0000000000000000 0.0000000000000000
1.0000000000000000 0.0000000000000000 0.0000000000000000
1.0000000000000000 0.0000000000000000 0.0000000000000000
1.0000000000000000 0.0000000000000000 0.0000000000000000
1.0000000000000000 0.0000000000000000 0.0000000000000000
1.0000000000000000 0.0000000000000000 0.0000000000000000
1.0000000000000000 0.0000000000000000 0.0000000000000000
1.0000000000000000 0.0000000000000000 0.0000000000000000
1.0000000000000000 0.0000000000000000 0.0000000000000000
1.0000000000000000 0.0000000000000000 0.0000000000000000
1.0000000000000000 0.0000000000000000 0.0000000000000000
1.0000000000000000 0.0000000000000000 0.0000000000000000
1.0000000000000000 0.0000000000000000 0.0000000000000000
1.0000000000000000 0.0000000000000000 0.0000000000000000
1.0000000000000000 0.0000000000000000 0.0000000000000000
1.0000000000000000 0.0000000000000000 0.0000000000000000
1.0000000000000000 0.0000000000000000 0.0000000000000000
1.0000000000000000 0.0000000000000000 0.0000000000000000
1.0000000000000000 0.0000000000000000 0.0000000000000000
1.0000000000000000 0.0000000000000000 0.0000000000000000
1.0000000000000000 0.0000000000000000 0.0000000000000000
1.0000000000000000 0.0000000000000000 0.0000000000000000
1.0000000000000000 0.0000000000000000 0.0000000000000000
1.0000000000000000 0.0000000000000000 0.0000000000000000
1.0000000000000000 0.0000000000000000 0.0000000000000000
1.0000000000000000 0.0000000000000000 0.0000000000000000
1.0000000000000000 0.0000000000000000 0.0000000000000000
1.0000000000000000 0.0000000000000000 0.0000000000000000
1.0000000000000000 0.0000000000000000 0.0000000000000000
1.0000000000000000 0.0000000000000000 0.0000000000000000
1.0000000000000000 0.0000000000000000 0.0000000000000000
1.0000000000000000 0.0000000000000000 0.0000000000000000
1.0000000000000000 0.0000000000000000 0.0000000000000000
1.0000000000000000 0.0000000000000000 0.0000000000000000
1.0000000000000000 0.0000000000000000 0.0000000000000000
1.0000000000000000 0.0000000000000000 0.0000000000000000
1.0000000000000000 0.0000000000000000 0.0000000000000000
1.0000000000000000 0.0000000000000000 0.0000000000000000
1.0000000000000000 0.0000000000000000 0.0000000000000000
1.0000000000000000 0.0000000000000000 0.0000000000000000
1.0000000000000000 0.0000000000000000 0.0000000000000000
1.0000000000000000 0.0000000000000000 0.0000000000000000
1.0000000000000000 0.0000000000000000 0.0000000000000000
1.0000000000000000 0.0000000000000000 0.0000000000000000
1.0000000000000000 0.0000000000000000 0.0000000000000000
1.0000000000000000 0.0000000000000000 0.0000000000000000
1.0000000000000000 0.0000000000000000 0.0000000000000000
1.0000000000000000 0.0000000000000000 0.0000000000000000
1.0000000000000000 0.0000000000000000 0.0000000000000000
1.0000000000000000 0.0000000000000000 0.0000000000000000
1.0000000000000000 0.0000000000000000 0.0000000000000000
1.0000000000000000 0.0000000000000000 0.0000000000000000
1.0000000000000000 0.0000000000000000 0.0000000000000000
1.0000000000000000 0.0000000000000000 0.0000000000000000
1.0000000000000000 0.0000000000000000 0.0000000000000000
1.0000000000000000 0.0000000000000000 0.0000000000000000
1.0000000000000000 0.0000000000000000 0.0000000000000000
1.0000000000000000 0.0000000000000000 0.0000000000000000
1.0000000000000000 0.0000000000000000 0.0000000000000000
1.0000000000000000 0.0000000000000000 0.0000000000000000
1.0000000000000000 0.0000000000000000 0.0000000000000000
1.0000000000000000 0.0000000000000000 0.0000000000000000
1.0000000000000000 0.0000000000000000 0.0000000000000000
1.0000000000000000 0.0000000000000000 0.0000000000000000
1.0000000000000000 0.0000000000000000 0.0000000000000000
1.0000000000000000 0.0000000000000000 0.0000000000000000
1.0000000000000000 0.0000000000000000 0.0000000000000000
1.0000000000000000 0.0000000000000000 0.0000000000000000
1.0000000000000000 0.0000000000000000 0.0000000000000000
1.0000000000000000 0.0000000000000000 0.0000000000000000
1.0000000000000000 0.0000000000000000 0.0000000000000000
1.0000000000000000 0.0000000000000000 0.0000000000000000
1.0000000000000000 0.0000000000000000 0.0000000000000000
1.0000000000000000 0.0000000000000000 0.0000000000000000
1.0000000000000000 0.0000000000000000 0.0000000000000000
1.0000000000000000 0.0000000000000000 0.0000000000000000
1.0000000000000000 0.0000000000000000 0.0000000000000000
1.0000000000000000 0.0000000000000000 0.0000000000000000
1.0000000000000000 0.0000000000000000 0.0000000000000000
1.0000000000000000 0.0000000000000000 0.0000000000000000
1.0000000000000000 0.0000000000000000 0.0000000000000000
1.0000000000000000 0.0000000000000000 0.0000000000000000
1.0000000000000000 0.0000000000000000 0.0000000000000000
1.0000000000000000 0.0000000000000000 0.0000000000000000
1.0000000000000000 0.0000000000000000 0.0000000000000000
1.0000000000000000 0.0000000000000000 0.0000000000000000
1.0000000000000000 0.0000000000000000 0.0000000000000000
1.0000000000000000 0.0000000000000000 0.0000000000000000
1.0000000000000000 0.0000000000000000 0.0000000000000000
1.0000000000000000 0.0000000000000000 0.0000000000000000
1.0000000000000000 0.0000000000000000 0.0000000000000000
1.0000000000000000 0.0000000000000000 0.0000000000000000
1.0000000000000000 0.0000000000000000 0.0000000000000000
1.0000000000000000 0.0000000000000000 0.0000000000000000
1.0000000000000000 0.0000000000000000 0.0000000000000000
1.0000000000000000 0.0000000000000000 0.0000000000000000
1.0000000000000000 0.0000000000000000 0.0000000000000000
1.0000000000000000 0.0000000000000000 0.0000000000000000
1.0000000000000000 0.0000000000000000 0.0000000000000000
1.0000000000000000 0.0000000000000000 0.0000000000000000
1.0000000000000000 0.0000000000000000 0.0000000000000000
1.0000000000000000 0.0000000000000000 0.0000000000000000
1.0000000000000000 0.0000000000000000 0.0000000000000000
1.0000000000000000 0.0000000000000000 0.0000000000000000
1.0000000000000000 0.0000000000000000 0.0000000000000000
1.0000000000000000 0.0000000000000000 0.0000000000000000
1.0000000000000000 0.0000000000000000 0.0000000000000000
1.0000000000000000 0.0000000000000000 0.0000000000000000
1.0000000000000000 0.0000000000000000 0.0000000000000000
1.0000000000000000 0.0000000000000000 0.0000000000000000
1.0000000000000000 0.0000000000000000 0.0000000000000000
1.0000000000000000 0.0000000000000000 0.0000000000000000
1.0000000000000000 0.0000000000000000 0.0000000000000000
1.0000000000000000 0.0000000000000000 0.0000000000000000
1.0000000000000000 0.0000000000000000 0.0000000000000000
1.0000000000000000 0.0000000000000000 0.0000000000000000
1.0000000000000000 0.0000000000000000 0.0000000000000000
1.0000000000000000 0.0000000000000000 0.0000000000000000
1.0000000000000000 0.0000000000000000 0.0000000000000000
1.0000000000000000 0.0000000000000000 0.0000000000000000
1.0000000000000000 0.0000000000000000 0.0000000000000000
1.0000000000000000 0.0000000000000000 0.0000000000000000
1.0000000000000000 0.0000000000000000 0.0000000000000000
1.0000000000000000 0.0000000000000000 0.0000000000000000
1.0000000000000000 0.0000000000000000 0.0000000000000000
1.0000000000000000 0.0000000000000000 0.0000000000000000
1.0000000000000000 0.0000000000000000 0.0000000000000000
1.0000000000000000 0.0000000000000000 0.0000000000000000
1.0000000000000000 0.0000000000000000 0.0000000000000000
1.0000000000000000 0.0000000000000000 0.0000000000000000
1.0000000000000000 0.0000000000000000 0.0000000000000000
1.0000000000000000 0.0000000000000000 0.0000000000000000
1.0000000000000000 0.0000000000000000 0.0000000000000000
1.0000000000000000 0.0000000000000000 0.0000000000000000
1.0000000000000000 0.0000000000000000 0.0000000000000000
1.0000000000000000 0.0000000000000000 0.0000000000000000
1.0000000000000000 0.0000000000000000 0.0000000000000000
1.0000000000000000 0.0000000000000000 0.0000000000000000
1.0000000000000000 0.0000000000000000 0.0000000000000000
1.0000000000000000 0.0000000000000000 0.0000000000000000
1.0000000000000000 0.0000000000000000 0.0000000000000000
1.0000000000000000 0.0000000000000000 0.0000000000000000
1.0000000000000000 0.0000000000000000 0.0000000000000000
1.0000000000000000 0.0000000000000000 0.0000000000000000
1.0000000000000000 0.0000000000000000 0.0000000000000000
1.0000000000000000 0.0000000000000000 0.0000000000000000
1.0000000000000000 0.0000000000000000 0.0000000000000000
1.0000000000000000 0.0000000000000000 0.0000000000000000
1.0000000000000000 0.0000000000000000 0.0000000000000000
1.0000000000000000 0.0000000000000000 0.0000000000000000
1.0000000000000000 0.0000000000000000 0.0000000000000000
1.0000000000000000 0.0000000000000000 0.0000000000000000
1.0000000000000000 0.0000000000000000 0.0000000000000000
1.0000000000000000 0.0000000000000000 0.0000000000000000
1.0000000000000000 0.0000000000000000 0.0000000000000000
1.0000000000000000 0.0000000000000000 0.0000000000000000
1.0000000000000000 0.0000000000000000 0.0000000000000000
1.0000000000000000 0.0000000000000000 0.0000000000000000
1.0000000000000000 0.0000000000000000 0.0000000000000000
1.0000000000000000 0.0000000000000000 0.0000000000000000
1.0000000000000000 0.0000000000000000 0.0000000000000000
1.0000000000000000 0.0000000000000000 0.0000000000000000
1.0000000000000000 0.0000000000000000 0.0000000000000000
1.0000000000000000 0.0000000000000000 0.0000000000000000
1.0000000000000000 0.0000000000000000 0.0000000000000000
1.0000000000000000 0.0000000000000000 0.0000000000000000
1.0000000000000000 0.0000000000000000 0.0000000000000000
1.0000000000000000 0.0000000000000000 0.0000000000000000
1.0000000000000000 0.0000000000000000 0.0000000000000000
1.0000000000000000 0.0000000000000000 0.0000000000000000
1.0000000000000000 0.0000000000000000 0.0000000000000000
1.0000000000000000 0.0000000000000000 0.0000000000000000
1.0000000000000000 0.0000000000000000 0.0000000000000000
1.0000000000000000 0.0000000000000000 0.0000000000000000
1.0000000000000000 0.0000000000000000 0.0000000000000000
1.0000000000000000 0.0000000000000000 0.0000000000000000
1.0000000000000000 0.0000000000000000 0.0000000000000000
1.0000000000000000 0.0000000000000000 0.0000000000000000
1.0000000000000000 0.0000000000000000 0.0000000000000000
1.0000000000000000 0.0000000000000000 0.0000000000000000
1.0000000000000000 0.0000000000000000 0.0000000000000000
1.0000000000000000 0.0000000000000000 0.0000000000000000
1.0000000000000000 0.0000000000000000 0.0000000000000000
1.0000000000000000 0.0000000000000000 0.0000000000000000
1.0000000000000000 0.0000000000000000 0.0000000000000000
1.0000000000000000 0.0000000000000000 0.0000000000000000
1.0000000000000000 0.0000000000000000 0.0000000000000000
1.0000000000000000 0.0000000000000000 0.0000000000000000
1.0000000000000000 0.0000000000000000 0.0000000000000000
1.0000000000000000 0.0000000000000000 0.0000000000000000
1.0000000000000000 0.0000000000000000 0.0000000000000000
1.0000000000000000 0.0000000000000000 0.0000000000000000
1.0000000000000000 0.0000000000000000 0.0000000000000000
1.0000000000000000 0.0000000000000000 0.0000000000000000
1.0000000000000000 0.0000000000000000 0.0000000000000000
1.0000000000000000 0.0000000000000000 0.0000000000000000
1.0000000000000000 0.0000000000000000 0.0000000000000000
1.0000000000000000 0.0000000000000000 0.0000000000000000
1.0000000000000000 0.0000000000000000 0.0000000000000000
1.0000000000000000 0.0000000000000000 0.0000000000000000
1.0000000000000000 0.0000000000000000 0.0000000000000000
1.0000000000000000 0.0000000000000000 0.0000000000000000
1.0000000000000000 0.0000000000000000 0.0000000000000000
1.0000000000000000 0.0000000000000000 0.0000000000000000
1.0000000000000000 0.0000000000000000 0.0000000000000000
1.0000000000000000 0.0000000000000000 0.0000000000000000
1.0000000000000000 0.0000000000000000 0.0000000000000000
1.0000000000000000 0.0000000000000000 0.0000000000000000
1.0000000000000000 0.0000000000000000 0.0000000000000000
1.0000000000000000 0.0000000000000000 0.0000000000000000
1.0000000000000000 0.0000000000000000 0.0000000000000000
1.0000000000000000 0.0000000000000000 0.0000000000000000
1.0000000000000000 0.0000000000000000 0.0000000000000000
1.0000000000000000 0.0000000000000000 0.0000000000000000
1.0000000000000000 0.0000000000000000 0.0000000000000000
1.0000000000000000 0.0000000000000000 0.0000000000000000
1.0000000000000000 0.0000000000000000 0.0000000000000000
1.0000000000000000 0.0000000000000000 0.0000000000000000
1.0000000000000000 0.0000000000000000 0.0000000000000000
1.0000000000000000 0.0000000000000000 0.0000000000000000
1.0000000000000000 0.0000000000000000 0.0000000000000000
1.0000000000000000 0.0000000000000000 0.0000000000000000
1.0000000000000000 0.0000000000000000 0.0000000000000000
1.0000000000000000 0.0000000000000000 0.0000000000000000
1.0000000000000000 0.0000000000000000 0.0000000000000000
1.0000000000000000 0.0000000000000000 0.0000000000000000
1.0000000000000000 0.0000000000000000 0.0000000000000000
1.0000000000000000 0.0000000000000000 0.0000000000000000
1.0000000000000000 0.0000000000000000 0.0000000000000000
1.0000000000000000 0.0000000000000000 0.0000000000000000
1.0000000000000000 0.0000000000000000 0.0000000000000000
1.0000000000000000 0.0000000000000000 0.0000000000000000
1.0000000000000000 0.0000000000000000 0.0000000000000000
1.0000000000000000 0.0000000000000000 0.0000000000000000
1.0000000000000000 0.0000000000000000 0.0000000000000000
1.0000000000000000 0.0000000000000000 0.0000000000000000
1.0000000000000000 0.0000000000000000 0.0000000000000000
1.0000000000000000 0.0000000000000000 0.0000000000000000
1.0000000000000000 0.0000000000000000 0.0000000000000000
1.0000000000000000 0.0000000000000000 0.0000000000000000
1.0000000000000000 0.0000000000000000 0.0000000000000000
1.0000000000000000 0.0000000000000000 0.0000000000000000
1.0000000000000000 0.0000000000000000 0.0000000000000000
1.0000000000000000 0.0000000000000000 0.0000000000000000
1.0000000000000000 0.0000000000000000 0.0000000000000000
1.0000000000000000 0.0000000000000000 0.0000000000000000
1.0000000000000000 0.0000000000000000 0.0000000000000000
1.0000000000000000 0.0000000000000000 0.0000000000000000
1.0000000000000000 0.0000000000000000 0.0000000000000000
1.0000000000000000 0.0000000000000000 0.0000000000000000
1.0000000000000000 0.0000000000000000 0.0000000000000000
1.0000000000000000 0.0000000000000000 0.0000000000000000
1.0000000000000000 0.0000000000000000 0.0000000000000000
1.0000000000000000 0.0000000000000000 0.0000000000000000
1.0000000000000000 0.0000000000000000 0.0000000000000000
1.0000000000000000 0.0000000000000000 0.0000000000000000
1.0000000000000000 0.0000000000000000 0.0000000000000000
1.0000000000000000 0.0000000000000000 0.0000000000000000
1.0000000000000000 0.0000000000000000 0.0000000000000000
1.0000000000000000 0.0000000000000000 0.0000000000000000
1.0000000000000000 0.0000000000000000 0.0000000000000000
1.0000000000000000 0.0000000000000000 0.0000000000000000
1.0000000000000000 0.0000000000000000 0.0000000000000000
1.0000000000000000 0.0000000000000000 0.0000000000000000
1.0000000000000000 0.0000000000000000 0.0000000000000000
1.0000000000000000 0.0000000000000000 0.0000000000000000
1.0000000000000000 0.0000000000000000 0.0000000000000000
1.0000000000000000 0.0000000000000000 0.0000000000000000
1.0000000000000000 0.0000000000000000 0.0000000000000000
1.0000000000000000 0.0000000000000000 0.0000000000000000
1.0000000000000000 0.0000000000000000 0.0000000000000000
1.0000000000000000 0.0000000000000000 0.0000000000000000
1.0000000000000000 0.0000000000000000 0.0000000000000000
1.0000000000000000 0.0000000000000000 0.0000000000000000
1.0000000000000000 0.0000000000000000 0.0000000000000000
1.0000000000000000 0.0000000000000000 0.0000000000000000
1.0000000000000000 0.0000000000000000 0.0000000000000000
1.0000000000000000 0.0000000000000000 0.0000000000000000
1.0000000000000000 0.0000000000000000 0.0000000000000000
1.0000000000000000 0.0000000000000000 0.0000000000000000
1.0000000000000000 0.0000000000000000 0.0000000000000000
1.0000000000000000 0.0000000000000000 0.0000000000000000
1.0000000000000000 0.0000000000000000 0.0000000000000000
1.0000000000000000 0.0000000000000000 0.0000000000000000
1.0000000000000000 0.0000000000000000 0.0000000000000000
1.0000000000000000 0.0000000000000000 0.0000000000000000
1.0000000000000000 0.0000000000000000 0.0000000000000000
1.0000000000000000 0.0000000000000000 0.0000000000000000
1.0000000000000000 0.0000000000000000 0.0000000000000000
1.0000000000000000 0.0000000000000000 0.0000000000000000
1.0000000000000000 0.0000000000000000 0.0000000000000000
1.0000000000000000 0.0000000000000000 0.0000000000000000
1.0000000000000000 0.0000000000000000 0.0000000000000000
1.0000000000000000 0.0000000000000000 0.0000000000000000
1.0000000000000000 0.0000000000000000 0.0000000000000000
1.0000000000000000 0.0000000000000000 0.0000000000000000
1.0000000000000000 0.0000000000000000 0.0000000000000000
1.0000000000000000 0.0000000000000000 0.0000000000000000
1.0000000000000000 0.0000000000000000 0.0000000000000000
1.0000000000000000 0.0000000000000000 0.0000000000000000
1.0000000000000000 0.0000000000000000 0.0000000000000000
1.0000000000000000 0.0000000000000000 0.0000000000000000
1.0000000000000000 0.0000000000000000 0.0000000000000000
1.0000000000000000 0.0000000000000000 0.0000000000000000
1.0000000000000000 0.0000000000000000 0.0000000000000000
1.0000000000000000 0.0000000000000000 0.0000000000000000
1.0000000000000000 0.0000000000000000 0.0000000000000000
1.0000000000000000 0.0000000000000000 0.0000000000000000
1.0000000000000000 0.0000000000000000 0.0000000000000000
1.0000000000000000 0.0000000000000000 0.0000000000000000
1.0000000000000000 0.0000000000000000 0.0000000000000000
1.0000000000000000 0.0000000000000000 0.0000000000000000
1.0000000000000000 0.0000000000000000 0.0000000000000000
1.0000000000000000 0.0000000000000000 0.0000000000000000
1.0000000000000000 0.0000000000000000 0.0000000000000000
1.0000000000000000 0.0000000000000000 0.0000000000000000
1.0000000000000000 0.0000000000000000 0.0000000000000000
1.0000000000000000 0.0000000000000000 0.0000000000000000
1.0000000000000000 0.0000000000000000 0.0000000000000000
1.0000000000000000 0.0000000000000000 0.0000000000000000
1.0000000000000000 0.0000000000000000 0.0000000000000000
1.0000000000000000 0.0000000000000000 0.0000000000000000
1.0000000000000000 0.0000000000000000 0.0000000000000000
1.0000000000000000 0.0000000000000000 0.0000000000000000
1.0000000000000000 0.0000000000000000 0.0000000000000000
1.0000000000000000 0.0000000000000000 0.0000000000000000
1.0000000000000000 0.0000000000000000 0.0000000000000000
1.0000000000000000 0.0000000000000000 0.0000000000000000
1.0000000000000000 0.0000000000000000 0.0000000000000000
1.0000000000000000 0.0000000000000000 0.0000000000000000
1.0000000000000000 0.0000000000000000 0.0000000000000000
1.0000000000000000 0.0000000000000000 0.0000000000000000
1.0000000000000000 0.0000000000000000 0.0000000000000000
1.0000000000000000 0.0000000000000000 0.0000000000000000
1.0000000000000000 0.0000000000000000 0.0000000000000000
1.0000000000000000 0.0000000000000000 0.0000000000000000
1.0000000000000000 0.0000000000000000 0.0000000000000000
1.0000000000000000 0.0000000000000000 0.0000000000000000
1.0000000000000000 0.0000000000000000 0.0000000000000000
1.0000000000000000 0.0000000000000000 0.0000000000000000
1.0000000000000000 0.0000000000000000 0.0000000000000000
1.0000000000000000 0.0000000000000000 0.0000000000000000
1.0000000000000000 0.0000000000000000 0.0000000000000000
1.0000000000000000 0.0000000000000000 0.0000000000000000
1.0000000000000000 0.0000000000000000 0.0000000000000000
1.0000000000000000 0.0000000000000000 0.0000000000000000
1.0000000000000000 0.0000000000000000 0.0000000000000000
1.0000000000000000 0.0000000000000000 0.0000000000000000
1.0000000000000000 0.0000000000000000 0.0000000000000000
1.0000000000000000 0.0000000000000000 0.0000000000000000
1.0000000000000000 0.0000000000000000 0.0000000000000000
1.0000000000000000 0.0000000000000000 0.0000000000000000
1.0000000000000000 0.0000000000000000 0.0000000000000000
1.0000000000000000 0.0000000000000000 0.0000000000000000
1.0000000000000000 0.0000000000000000 0.0000000000000000
1.0000000000000000 0.0000000000000000 0.0000000000000000
1.0000000000000000 0.0000000000000000 0.0000000000000000
1.0000000000000000 0.0000000000000000 0.0000000000000000
1.0000000000000000 0.0000000000000000 0.0000000000000000
1.0000000000000000 0.0000000000000000 0.0000000000000000
1.0000000000000000 0.0000000000000000 0.0000000000000000
1.0000000000000000 0.0000000000000000 0.0000000000000000
1.0000000000000000 0.0000000000000000 0.0000000000000000
1.0000000000000000 0.0000000000000000 0.0000000000000000
1.0000000000000000 0.0000000000000000 0.0000000000000000
1.0000000000000000 0.0000000000000000 0.0000000000000000
1.0000000000000000 0.0000000000000000 0.0000000000000000
1.0000000000000000 0.0000000000000000 0.0000000000000000
1.0000000000000000 0.0000000000000000 0.0000000000000000
1.0000000000000000 0.0000000000000000 0.0000000000000000
1.0000000000000000 0.0000000000000000 0.0000000000000000
1.0000000000000000 0.0000000000000000 0.0000000000000000
1.0000000000000000 0.0000000000000000 0.0000000000000000
1.0000000000000000 0.0000000000000000 0.0000000000000000
1.0000000000000000 0.0000000000000000 0.0000000000000000
1.0000000000000000 0.0000000000000000 0.0000000000000000
1.0000000000000000 0.0000000000000000 0.0000000000000000
1.0000000000000000 0.0000000000000000 0.0000000000000000
1.0000000000000000 0.0000000000000000 0.0000000000000000
1.0000000000000000 0.0000000000000000 0.0000000000000000
1.0000000000000000 0.0000000000000000 0.0000000000000000
1.0000000000000000 0.0000000000000000 0.0000000000000000
1.0000000000000000 0.0000000000000000 0.0000000000000000
1.0000000000000000 0.0000000000000000 0.0000000000000000
1.0000000000000000 0.0000000000000000 0.0000000000000000
1.0000000000000000 0.0000000000000000 0.0000000000000000
1.0000000000000000 0.0000000000000000 0.0000000000000000
1.0000000000000000 0.0000000000000000 0.0000000000000000
1.0000000000000000 0.0000000000000000 0.0000000000000000
1.0000000000000000 0.0000000000000000 0.0000000000000000
1.0000000000000000 0.0000000000000000 0.0000000000000000
1.0000000000000000 0.0000000000000000 0.0000000000000000
1.0000000000000000 0.0000000000000000 0.0000000000000000
1.0000000000000000 0.0000000000000000 0.0000000000000000
1.0000000000000000 0.0000000000000000 0.0000000000000000
1.0000000000000000 0.0000000000000000 0.0000000000000000
1.0000000000000000 0.0000000000000000 0.0000000000000000
1.0000000000000000 0.0000000000000000 0.0000000000000000
1.0000000000000000 0.0000000000000000 0.0000000000000000
1.0000000000000000 0.0000000000000000 0.0000000000000000
1.0000000000000000 0.0000000000000000 0.0000000000000000
1.0000000000000000 0.0000000000000000 0.0000000000000000
1.0000000000000000 0.0000000000000000 0.0000000000000000
1.0000000000000000 0.0000000000000000 0.0000000000000000
1.0000000000000000 0.0000000000000000 0.0000000000000000
1.0000000000000000 0.0000000000000000 0.0000000000000000
1.0000000000000000 0.0000000000000000 0.0000000000000000
1.0000000000000000 0.0000000000000000 0.0000000000000000
1.0000000000000000 0.0000000000000000 0.0000000000000000
1.0000000000000000 0.0000000000000000 0.0000000000000000
1.0000000000000000 0.0000000000000000 0.0000000000000000
1.0000000000000000 0.0000000000000000 0.0000000000000000
1.0000000000000000 0.0000000000000000 0.0000000000000000
1.0000000000000000 0.0000000000000000 0.0000000000000000
1.0000000000000000 0.0000000000000000 0.0000000000000000
1.0000000000000000 0.0000000000000000 0.0000000000000000
1.0000000000000000 0.0000000000000000 0.0000000000000000
1.0000000000000000 0.0000000000000000 0.0000000000000000
1.0000000000000000 0.0000000000000000 0.0000000000000000
1.0000000000000000 0.0000000000000000 0.0000000000000000
1.0000000000000000 0.0000000000000000 0.0000000000000000
1.0000000000000000 0.0000000000000000 0.0000000000000000
1.0000000000000000 0.0000000000000000 0.0000000000000000
1.0000000000000000 0.0000000000000000 0.0000000000000000
1.0000000000000000 0.0000000000000000 0.0000000000000000
1.0000000000000000 0.0000000000000000 0.0000000000000000
1.0000000000000000 0.0000000000000000 0.0000000000000000
1.0000000000000000 0.0000000000000000 0.0000000000000000
1.0000000000000000 0.0000000000000000 0.0000000000000000
1.0000000000000000 0.0000000000000000 0.0000000000000000
1.0000000000000000 0.0000000000000000 0.0000000000000000
1.0000000000000000 0.0000000000000000 0.0000000000000000
1.0000000000000000 0.0000000000000000 0.0000000000000000
1.0000000000000000 0.0000000000000000 0.0000000000000000
1.0000000000000000 0.0000000000000000 0.0000000000000000
1.0000000000000000 0.0000000000000000 0.0000000000000000
1.0000000000000000 0.0000000000000000 0.0000000000000000
1.0000000000000000 0.0000000000000000 0.0000000000000000
1.0000000000000000 0.0000000000000000 0.0000000000000000
1.0000000000000000 0.0000000000000000 0.0000000000000000
1.0000000000000000 0.0000000000000000 0.0000000000000000
1.0000000000000000 0.0000000000000000 0.0000000000000000
1.0000000000000000 0.0000000000000000 0.0000000000000000
1.0000000000000000 0.0000000000000000 0.0000000000000000
1.0000000000000000 0.0000000000000000 0.0000000000000000
1.0000000000000000 0.0000000000000000 0.0000000000000000
1.0000000000000000 0.0000000000000000 0.0000000000000000
1.0000000000000000 0.0000000000000000 0.0000000000000000
1.0000000000000000 0.0000000000000000 0.0000000000000000
1.0000000000000000 0.0000000000000000 0.0000000000000000
1.0000000000000000 0.0000000000000000 0.0000000000000000
1.0000000000000000 0.0000000000000000 0.0000000000000000
1.0000000000000000 0.0000000000000000 0.0000000000000000
1.0000000000000000 0.0000000000000000 0.0000000000000000
1.0000000000000000 0.0000000000000000 0.0000000000000000
1.0000000000000000 0.0000000000000000 0.0000000000000000
1.0000000000000000 0.0000000000000000 0.0000000000000000
1.0000000000000000 0.0000000000000000 0.0000000000000000
1.0000000000000000 0.0000000000000000 0.0000000000000000
1.0000000000000000 0.0000000000000000 0.0000000000000000
1.0000000000000000 0.0000000000000000 0.0000000000000000
1.0000000000000000 0.0000000000000000 0.0000000000000000
1.0000000000000000 0.0000000000000000 0.0000000000000000
1.0000000000000000 0.0000000000000000 0.0000000000000000
1.0000000000000000 0.0000000000000000 0.0000000000000000
1.0000000000000000 0.0000000000000000 0.0000000000000000
1.0000000000000000 0.0000000000000000 0.0000000000000000
1.0000000000000000 0.0000000000000000 0.0000000000000000
1.0000000000000000 0.0000000000000000 0.0000000000000000
1.0000000000000000 0.0000000000000000 0.0000000000000000
1.0000000000000000 0.0000000000000000 0.0000000000000000
1.0000000000000000 0.0000000000000000 0.0000000000000000
1.0000000000000000 0.0000000000000000 0.0000000000000000
1.0000000000000000 0.0000000000000000 0.0000000000000000
1.0000000000000000 0.0000000000000000 0.0000000000000000
1.0000000000000000 0.0000000000000000 0.0000000000000000
1.0000000000000000 0.0000000000000000 0.0000000000000000
1.0000000000000000 0.0000000000000000 0.0000000000000000
1.0000000000000000 0.0000000000000000 0.0000000000000000
1.0000000000000000 0.0000000000000000 0.0000000000000000
1.0000000000000000 0.0000000000000000 0.0000000000000000
1.0000000000000000 0.0000000000000000 0.0000000000000000
1.0000000000000000 0.0000000000000000 0.0000000000000000
1.0000000000000000 0.0000000000000000 0.0000000000000000
1.0000000000000000 0.0000000000000000 0.0000000000000000
1.0000000000000000 0.0000000000000000 0.0000000000000000
1.0000000000000000 0.0000000000000000 0.0000000000000000
1.0000000000000000 0.0000000000000000 0.0000000000000000
1.0000000000000000 0.0000000000000000 0.0000000000000000
1.0000000000000000 0.0000000000000000 0.0000000000000000
1.0000000000000000 0.0000000000000000 0.0000000000000000
1.0000000000000000 0.0000000000000000 0.0000000000000000
1.0000000000000000 0.0000000000000000 0.0000000000000000
1.0000000000000000 0.0000000000000000 0.0000000000000000
1.0000000000000000 0.0000000000000000 0.0000000000000000
1.0000000000000000 0.0000000000000000 0.0000000000000000
1.0000000000000000 0.0000000000000000 0.0000000000000000
1.0000000000000000 0.0000000000000000 0.0000000000000000
1.0000000000000000 0.0000000000000000 0.0000000000000000
1.0000000000000000 0.0000000000000000 0.0000000000000000
1.0000000000000000 0.0000000000000000 0.0000000000000000
1.0000000000000000 0.0000000000000000 0.0000000000000000
1.0000000000000000 0.0000000000000000 0.0000000000000000
1.0000000000000000 0.0000000000000000 0.0000000000000000
1.0000000000000000 0.0000000000000000 0.0000000000000000
1.0000000000000000 0.0000000000000000 0.0000000000000000
1.0000000000000000 0.0000000000000000 0.0000000000000000
1.0000000000000000 0.0000000000000000 0.0000000000000000
1.0000000000000000 0.0000000000000000 0.0000000000000000
1.0000000000000000 0.0000000000000000 0.0000000000000000
1.0000000000000000 0.0000000000000000 0.0000000000000000
1.0000000000000000 0.0000000000000000 0.0000000000000000
1.0000000000000000 0.0000000000000000 0.0000000000000000
1.0000000000000000 0.0000000000000000 0.0000000000000000
1.0000000000000000 0.0000000000000000 0.0000000000000000
1.0000000000000000 0.0000000000000000 0.0000000000000000
1.0000000000000000 0.0000000000000000 0.0000000000000000
1.0000000000000000 0.0000000000000000 0.0000000000000000
1.0000000000000000 0.0000000000000000 0.0000000000000000
1.0000000000000000 0.0000000000000000 0.0000000000000000
1.0000000000000000 0.0000000000000000 0.0000000000000000
1.0000000000000000 0.0000000000000000 0.0000000000000000
1.0000000000000000 0.0000000000000000 0.0000000000000000
1.0000000000000000 0.0000000000000000 0.0000000000000000
1.0000000000000000 0.0000000000000000 0.0000000000000000
1.0000000000000000 0.0000000000000000 0.0000000000000000
1.0000000000000000 0.0000000000000000 0.0000000000000000
1.0000000000000000 0.0000000000000000 0.0000000000000000
1.0000000000000000 0.0000000000000000 0.0000000000000000
1.0000000000000000 0.0000000000000000 0.0000000000000000
1.0000000000000000 0.0000000000000000 0.0000000000000000
1.0000000000000000 0.0000000000000000 0.0000000000000000
1.0000000000000000 0.0000000000000000 0.0000000000000000
1.0000000000000000 0.0000000000000000 0.0000000000000000
1.0000000000000000 0.0000000000000000 0.0000000000000000
1.0000000000000000 0.0000000000000000 0.0000000000000000
1.0000000000000000 0.0000000000000000 0.0000000000000000
1.0000000000000000 0.0000000000000000 0.0000000000000000
1.0000000000000000 0.0000000000000000 0.0000000000000000
1.0000000000000000 0.0000000000000000 0.0000000000000000
1.0000000000000000 0.0000000000000000 0.0000000000000000
1.0000000000000000 0.0000000000000000 0.0000000000000000
1.0000000000000000 0.0000000000000000 0.0000000000000000
1.0000000000000000 0.0000000000000000 0.0000000000000000
1.0000000000000000 0.0000000000000000 0.0000000000000000
1.0000000000000000 0.0000000000000000 0.0000000000000000
1.0000000000000000 0.0000000000000000 0.0000000000000000
1.0000000000000000 0.0000000000000000 0.0000000000000000
1.0000000000000000 0.0000000000000000 0.0000000000000000
1.0000000000000000 0.0000000000000000 0.0000000000000000
1.0000000000000000 0.0000000000000000 0.0000000000000000
1.0000000000000000 0.0000000000000000 0.0000000000000000
1.0000000000000000 0.0000000000000000 0.0000000000000000
1.0000000000000000 0.0000000000000000 0.0000000000000000
1.0000000000000000 0.0000000000000000 0.0000000000000000
1.0000000000000000 0.0000000000000000 0.0000000000000000
1.0000000000000000 0.0000000000000000 0.0000000000000000
1.0000000000000000 0.0000000000000000 0.0000000000000000
1.0000000000000000 0.0000000000000000 0.0000000000000000
1.0000000000000000 0.0000000000000000 0.0000000000000000
1.0000000000000000 0.0000000000000000 0.0000000000000000
1.0000000000000000 0.0000000000000000 0.0000000000000000
1.0000000000000000 0.0000000000000000 0.0000000000000000
1.0000000000000000 0.0000000000000000 0.0000000000000000
1.0000000000000000 0.0000000000000000 0.0000000000000000
1.0000000000000000 0.0000000000000000 0.0000000000000000
1.0000000000000000 0.0000000000000000 0.0000000000000000
1.0000000000000000 0.0000000000000000 0.0000000000000000
1.0000000000000000 0.0000000000000000 0.0000000000000000
1.0000000000000000 0.0000000000000000 0.0000000000000000
1.0000000000000000 0.0000000000000000 0.0000000000000000
1.0000000000000000 0.0000000000000000 0.0000000000000000
1.0000000000000000 0.0000000000000000 0.0000000000000000
1.0000000000000000 0.0000000000000000 0.0000000000000000
1.0000000000000000 0.0000000000000000 0.0000000000000000
1.0000000000000000 0.0000000000000000 0.0000000000000000
1.0000000000000000 0.0000000000000000 0.0000000000000000
1.0000000000000000 0.0000000000000000 0.0000000000000000
1.0000000000000000 0.0000000000000000 0.0000000000000000
1.0000000000000000 0.0000000000000000 0.0000000000000000
1.0000000000000000 0.0000000000000000 0.0000000000000000
1.0000000000000000 0.0000000000000000 0.0000000000000000
1.0000000000000000 0.0000000000000000 0.0000000000000000
1.0000000000000000 0.0000000000000000 0.0000000000000000
1.0000000000000000 0.0000000000000000 0.0000000000000000
1.0000000000000000 0.0000000000000000 0.0000000000000000
1.0000000000000000 0.0000000000000000 0.0000000000000000
1.0000000000000000 0.0000000000000000 0.0000000000000000
1.0000000000000000 0.0000000000000000 0.0000000000000000
1.0000000000000000 0.0000000000000000 0.0000000000000000
1.0000000000000000 0.0000000000000000 0.0000000000000000
1.0000000000000000 0.0000000000000000 0.0000000000000000
1.0000000000000000 0.0000000000000000 0.0000000000000000
1.0000000000000000 0.0000000000000000 0.0000000000000000
1.0000000000000000 0.0000000000000000 0.0000000000000000
1.0000000000000000 0.0000000000000000 0.0000000000000000
1.0000000000000000 0.0000000000000000 0.0000000000000000
1.0000000000000000 0.0000000000000000 0.0000000000000000
1.0000000000000000 0.0000000000000000 0.0000000000000000
1.0000000000000000 0.0000000000000000 0.0000000000000000
1.0000000000000000 0.0000000000000000 0.0000000000000000
1.0000000000000000 0.0000000000000000 0.0000000000000000
1.0000000000000000 0.0000000000000000 0.0000000000000000
1.0000000000000000 0.0000000000000000 0.0000000000000000
1.0000000000000000 0.0000000000000000 0.0000000000000000
1.0000000000000000 0.0000000000000000 0.0000000000000000
1.0000000000000000 0.0000000000000000 0.0000000000000000
1.0000000000000000 0.0000000000000000 0.0000000000000000
1.0000000000000000 0.0000000000000000 0.0000000000000000
1.0000000000000000 0.0000000000000000 0.0000000000000000
1.0000000000000000 0.0000000000000000 0.0000000000000000
1.0000000000000000 0.0000000000000000 0.0000000000000000
1.0000000000000000 0.0000000000000000 0.0000000000000000
1.0000000000000000 0.0000000000000000 0.0000000000000000
1.0000000000000000 0.0000000000000000 0.0000000000000000
1.0000000000000000 0.0000000000000000 0.0000000000000000
1.0000000000000000 0.0000000000000000 0.0000000000000000
1.0000000000000000 0.0000000000000000 0.0000000000000000
1.0000000000000000 0.0000000000000000 0.0000000000000000
1.0000000000000000 0.0000000000000000 0.0000000000000000
1.0000000000000000 0.0000000000000000 0.0000000000000000
1.0000000000000000 0.0000000000000000 0.0000000000000000
1.0000000000000000 0.0000000000000000 0.0000000000000000
1.0000000000000000 0.0000000000000000 0.0000000000000000
1.0000000000000000 0.0000000000000000 0.0000000000000000
1.0000000000000000 0.0000000000000000 0.0000000000000000
1.0000000000000000 0.0000000000000000 0.0000000000000000
1.0000000000000000 0.0000000000000000 0.0000000000000000
1.0000000000000000 0.0000000000000000 0.0000000000000000
1.0000000000000000 0.0000000000000000 0.0000000000000000
1.0000000000000000 0.0000000000000000 0.0000000000000000
1.0000000000000000 0.0000000000000000 0.0000000000000000
1.0000000000000000 0.0000000000000000 0.0000000000000000
1.0000000000000000 0.0000000000000000 0.0000000000000000
1.0000000000000000 0.0000000000000000 0.0000000000000000
1.0000000000000000 0.0000000000000000 0.0000000000000000
1.0000000000000000 0.0000000000000000 0.0000000000000000
1.0000000000000000 0.0000000000000000 0.0000000000000000
1.0000000000000000 0.0000000000000000 0.0000000000000000
1.0000000000000000 0.0000000000000000 0.0000000000000000
1.0000000000000000 0.0000000000000000 0.0000000000000000
1.0000000000000000 0.0000000000000000 0.0000000000000000
1.0000000000000000 0.0000000000000000 0.0000000000000000
1.0000000000000000 0.0000000000000000 0.0000000000000000
1.0000000000000000 0.0000000000000000 0.0000000000000000
1.0000000000000000 0.0000000000000000 0.0000000000000000
1.0000000000000000 0.0000000000000000 0.0000000000000000
1.0000000000000000 0.0000000000000000 0.0000000000000000
1.0000000000000000 0.0000000000000000 0.0000000000000000
1.0000000000000000 0.0000000000000000 0.0000000000000000
1.0000000000000000 0.0000000000000000 0.0000000000000000
1.0000000000000000 0.0000000000000000 0.0000000000000000
1.0000000000000000 0.0000000000000000 0.0000000000000000
1.0000000000000000 0.0000000000000000 0.0000000000000000
1.0000000000000000 0.0000000000000000 0.0000000000000000
1.0000000000000000 0.0000000000000000 0.0000000000000000
1.0000000000000000 0.0000000000000000 0.0000000000000000
1.0000000000000000 0.0000000000000000 0.0000000000000000
1.0000000000000000 0.0000000000000000 0.0000000000000000
1.0000000000000000 0.0000000000000000 0.0000000000000000
1.0000000000000000 0.0000000000000000 0.0000000000000000
1.0000000000000000 0.0000000000000000 0.0000000000000000
1.0000000000000000 0.0000000000000000 0.0000000000000000
1.0000000000000000 0.0000000000000000 0.0000000000000000
1.0000000000000000 0.0000000000000000 0.0000000000000000
1.0000000000000000 0.0000000000000000 0.0000000000000000
1.0000000000000000 0.0000000000000000 0.0000000000000000
1.0000000000000000 0.0000000000000000 0.0000000000000000
1.0000000000000000 0.0000000000000000 0.0000000000000000
1.0000000000000000 0.0000000000000000 0.0000000000000000
1.0000000000000000 0.0000000000000000 0.0000000000000000
1.0000000000000000 0.0000000000000000 0.0000000000000000
1.0000000000000000 0.0000000000000000 0.0000000000000000
1.0000000000000000 0.0000000000000000 0.0000000000000000
1.0000000000000000 0.0000000000000000 0.0000000000000000
1.0000000000000000 0.0000000000000000 0.0000000000000000
1.0000000000000000 0.0000000000000000 0.0000000000000000
1.0000000000000000 0.0000000000000000 0.0000000000000000
1.0000000000000000 0.0000000000000000 0.0000000000000000
1.0000000000000000 0.0000000000000000 0.0000000000000000
1.0000000000000000 0.0000000000000000 0.0000000000000000
1.0000000000000000 0.0000000000000000 0.0000000000000000
1.0000000000000000 0.0000000000000000 0.0000000000000000
1.0000000000000000 0.0000000000000000 0.0000000000000000
1.0000000000000000 0.0000000000000000 0.0000000000000000
1.0000000000000000 0.0000000000000000 0.0000000000000000
1.0000000000000000 0.0000000000000000 0.0000000000000000
1.0000000000000000 0.0000000000000000 0.0000000000000000
1.0000000000000000 0.0000000000000000 0.0000000000000000
1.0000000000000000 0.0000000000000000 0.0000000000000000
1.0000000000000000 0.0000000000000000 0.0000000000000000
1.0000000000000000 0.0000000000000000 0.0000000000000000
1.0000000000000000 0.0000000000000000 0.0000000000000000
1.0000000000000000 0.0000000000000000 0.0000000000000000
1.0000000000000000 0.0000000000000000 0.0000000000000000
1.0000000000000000 0.0000000000000000 0.0000000000000000
1.0000000000000000 0.0000000000000000 0.0000000000000000
1.0000000000000000 0.0000000000000000 0.0000000000000000
1.0000000000000000 0.0000000000000000 0.0000000000000000
1.0000000000000000 0.0000000000000000 0.0000000000000000
1.0000000000000000 0.0000000000000000 0.0000000000000000
1.0000000000000000 0.0000000000000000 0.0000000000000000
1.0000000000000000 0.0000000000000000 0.0000000000000000
1.0000000000000000 0.0000000000000000 0.0000000000000000
1.0000000000000000 0.0000000000000000 0.0000000000000000
1.0000000000000000 0.0000000000000000 0.0000000000000000
1.0000000000000000 0.0000000000000000 0.0000000000000000
1.0000000000000000 0.0000000000000000 0.0000000000000000
1.0000000000000000 0.0000000000000000 0.0000000000000000
1.0000000000000000 0.0000000000000000 0.0000000000000000
1.0000000000000000 0.0000000000000000 0.0000000000000000
1.0000000000000000 0.0000000000000000 0.0000000000000000
1.0000000000000000 0.0000000000000000 0.0000000000000000
1.0000000000000000 0.0000000000000000 0.0000000000000000
1.0000000000000000 0.0000000000000000 0.0000000000000000
1.0000000000000000 0.0000000000000000 0.0000000000000000
1.0000000000000000 0.0000000000000000 0.0000000000000000
1.0000000000000000 0.0000000000000000 0.0000000000000000
1.0000000000000000 0.0000000000000000 0.0000000000000000
1.0000000000000000 0.0000000000000000 0.0000000000000000
1.0000000000000000 0.0000000000000000 0.0000000000000000
1.0000000000000000 0.0000000000000000 0.0000000000000000
1.0000000000000000 0.0000000000000000 0.0000000000000000
1.0000000000000000 0.0000000000000000 0.0000000000000000
1.0000000000000000 0.0000000000000000 0.0000000000000000
1.0000000000000000 0.0000000000000000 0.0000000000000000
1.0000000000000000 0.0000000000000000 0.0000000000000000
1.0000000000000000 0.0000000000000000 0.0000000000000000
1.0000000000000000 0.0000000000000000 0.0000000000000000
1.0000000000000000 0.0000000000000000 0.0000000000000000
1.0000000000000000 0.0000000000000000 0.0000000000000000
1.0000000000000000 0.0000000000000000 0.0000000000000000
1.0000000000000000 0.0000000000000000 0.0000000000000000
1.0000000000000000 0.0000000000000000 0.0000000000000000
1.0000000000000000 0.0000000000000000 0.0000000000000000
1.0000000000000000 0.0000000000000000 0.0000000000000000
1.0000000000000000 0.0000000000000000 0.0000000000000000
1.0000000000000000 0.0000000000000000 0.0000000000000000
1.0000000000000000 0.0000000000000000 0.0000000000000000
1.0000000000000000 0.0000000000000000 0.0000000000000000
1.0000000000000000 0.0000000000000000 0.0000000000000000
1.0000000000000000 0.0000000000000000 0.0000000000000000
1.0000000000000000 0.0000000000000000 0.0000000000000000
1.0000000000000000 0.0000000000000000 0.0000000000000000
1.0000000000000000 0.0000000000000000 0.0000000000000000
1.0000000000000000 0.0000000000000000 0.0000000000000000
1.0000000000000000 0.0000000000000000 0.0000000000000000
1.0000000000000000 0.0000000000000000 0.0000000000000000
1.0000000000000000 0.0000000000000000 0.0000000000000000
1.0000000000000000 0.0000000000000000 0.0000000000000000
1.0000000000000000 0.0000000000000000 0.0000000000000000
1.0000000000000000 0.0000000000000000 0.0000000000000000
1.0000000000000000 0.0000000000000000 0.0000000000000000
1.0000000000000000 0.0000000000000000 0.0000000000000000
1.0000000000000000 0.0000000000000000 0.0000000000000000
1.0000000000000000 0.0000000000000000 0.0000000000000000
1.0000000000000000 0.0000000000000000 0.0000000000000000
1.0000000000000000 0.0000000000000000 0.0000000000000000
1.0000000000000000 0.0000000000000000 0.0000000000000000
1.0000000000000000 0.0000000000000000 0.0000000000000000
1.0000000000000000 0.0000000000000000 0.0000000000000000
1.0000000000000000 0.0000000000000000 0.0000000000000000
1.0000000000000000 0.0000000000000000 0.0000000000000000
1.0000000000000000 0.0000000000000000 0.0000000000000000
1.0000000000000000 0.0000000000000000 0.0000000000000000
1.0000000000000000 0.0000000000000000 0.0000000000000000
1.0000000000000000 0.0000000000000000 0.0000000000000000
1.0000000000000000 0.0000000000000000 0.0000000000000000
1.0000000000000000 0.0000000000000000 0.0000000000000000
1.0000000000000000 0.0000000000000000 0.0000000000000000
1.0000000000000000 0.0000000000000000 0.0000000000000000
1.0000000000000000 0.0000000000000000 0.0000000000000000
1.0000000000000000 0.0000000000000000 0.0000000000000000
1.0000000000000000 0.0000000000000000 0.0000000000000000
1.0000000000000000 0.0000000000000000 0.0000000000000000
1.0000000000000000 0.0000000000000000 0.0000000000000000
1.0000000000000000 0.0000000000000000 0.0000000000000000
1.0000000000000000 0.0000000000000000 0.0000000000000000
1.0000000000000000 0.0000000000000000 0.0000000000000000
1.0000000000000000 0.0000000000000000 0.0000000000000000
1.0000000000000000 0.0000000000000000 0.0000000000000000
1.0000000000000000 0.0000000000000000 0.0000000000000000
1.0000000000000000 0.0000000000000000 0.0000000000000000
1.0000000000000000 0.0000000000000000 0.0000000000000000
1.0000000000000000 0.0000000000000000 0.0000000000000000
1.0000000000000000 0.0000000000000000 0.0000000000000000
1.0000000000000000 0.0000000000000000 0.0000000000000000
1.0000000000000000 0.0000000000000000 0.0000000000000000
1.0000000000000000 0.0000000000000000 0.0000000000000000
1.0000000000000000 0.0000000000000000 0.0000000000000000
1.0000000000000000 0.0000000000000000 0.0000000000000000
1.0000000000000000 0.0000000000000000 0.0000000000000000
1.0000000000000000 0.0000000000000000 0.0000000000000000
1.0000000000000000 0.0000000000000000 0.0000000000000000
1.0000000000000000 0.0000000000000000 0.0000000000000000
1.0000000000000000 0.0000000000000000 0.0000000000000000
1.0000000000000000 0.0000000000000000 0.0000000000000000
1.0000000000000000 0.0000000000000000 0.0000000000000000
1.0000000000000000 0.0000000000000000 0.0000000000000000
1.0000000000000000 0.0000000000000000 0.0000000000000000
1.0000000000000000 0.0000000000000000 0.0000000000000000
1.0000000000000000 0.0000000000000000 0.0000000000000000
1.0000000000000000 0.0000000000000000 0.0000000000000000
1.0000000000000000 0.0000000000000000 0.0000000000000000
1.0000000000000000 0.0000000000000000 0.0000000000000000
1.0000000000000000 0.0000000000000000 0.0000000000000000
1.0000000000000000 0.0000000000000000 0.0000000000000000
1.0000000000000000 0.0000000000000000 0.0000000000000000
1.0000000000000000 0.0000000000000000 0.0000000000000000
1.0000000000000000 0.0000000000000000 0.0000000000000000
1.0000000000000000 0.0000000000000000 0.0000000000000000
1.0000000000000000 0.0000000000000000 0.0000000000000000
1.0000000000000000 0.0000000000000000 0.0000000000000000
1.0000000000000000 0.0000000000000000 0.0000000000000000
1.0000000000000000 0.0000000000000000 0.0000000000000000
1.0000000000000000 0.0000000000000000 0.0000000000000000
1.0000000000000000 0.0000000000000000 0.0000000000000000
1.0000000000000000 0.0000000000000000 0.0000000000000000
1.0000000000000000 0.0000000000000000 0.0000000000000000
1.0000000000000000 0.0000000000000000 0.0000000000000000
1.0000000000000000 0.0000000000000000 0.0000000000000000
1.0000000000000000 0.0000000000000000 0.0000000000000000
1.0000000000000000 0.0000000000000000 0.0000000000000000
1.0000000000000000 0.0000000000000000 0.0000000000000000
1.0000000000000000 0.0000000000000000 0.0000000000000000
1.0000000000000000 0.0000000000000000 0.0000000000000000
1.0000000000000000 0.0000000000000000 0.0000000000000000
1.0000000000000000 0.0000000000000000 0.0000000000000000
1.0000000000000000 0.0000000000000000 0.0000000000000000
1.0000000000000000 0.0000000000000000 0.0000000000000000
1.0000000000000000 0.0000000000000000 0.0000000000000000
1.0000000000000000 0.0000000000000000 0.0000000000000000
1.0000000000000000 0.0000000000000000 0.0000000000000000
1.0000000000000000 0.0000000000000000 0.0000000000000000
1.0000000000000000 0.0000000000000000 0.0000000000000000
1.0000000000000000 0.0000000000000000 0.0000000000000000
1.0000000000000000 0.0000000000000000 0.0000000000000000
1.0000000000000000 0.0000000000000000 0.0000000000000000
1.0000000000000000 0.0000000000000000 0.0000000000000000
1.0000000000000000 0.0000000000000000 0.0000000000000000
1.0000000000000000 0.0000000000000000 0.0000000000000000
1.0000000000000000 0.0000000000000000 0.0000000000000000
1.0000000000000000 0.0000000000000000 0.0000000000000000
1.0000000000000000 0.0000000000000000 0.0000000000000000
1.0000000000000000 0.0000000000000000 0.0000000000000000
1.0000000000000000 0.0000000000000000 0.0000000000000000
1.0000000000000000 0.0000000000000000 0.0000000000000000
1.0000000000000000 0.0000000000000000 0.0000000000000000
1.0000000000000000 0.0000000000000000 0.0000000000000000
1.0000000000000000 0.0000000000000000 0.0000000000000000
1.0000000000000000 0.0000000000000000 0.0000000000000000
1.0000000000000000 0.0000000000000000 0.0000000000000000
1.0000000000000000 0.0000000000000000 0.0000000000000000
1.0000000000000000 0.0000000000000000 0.0000000000000000
1.0000000000000000 0.0000000000000000 0.0000000000000000
1.0000000000000000 0.0000000000000000 0.0000000000000000
1.0000000000000000 0.0000000000000000 0.0000000000000000
1.0000000000000000 0.0000000000000000 0.0000000000000000
1.0000000000000000 0.0000000000000000 0.0000000000000000
1.0000000000000000 0.0000000000000000 0.0000000000000000
1.0000000000000000 0.0000000000000000 0.0000000000000000
1.0000000000000000 0.0000000000000000 0.0000000000000000
1.0000000000000000 0.0000000000000000 0.0000000000000000
1.0000000000000000 0.0000000000000000 0.0000000000000000
1.0000000000000000 0.0000000000000000 0.0000000000000000
1.0000000000000000 0.0000000000000000 0.0000000000000000
1.0000000000000000 0.0000000000000000 0.0000000000000000
1.0000000000000000 0.0000000000000000 0.0000000000000000
1.0000000000000000 0.0000000000000000 0.0000000000000000
1.0000000000000000 0.0000000000000000 0.0000000000000000
1.0000000000000000 0.0000000000000000 0.0000000000000000
1.0000000000000000 0.0000000000000000 0.0000000000000000
1.0000000000000000 0.0000000000000000 0.0000000000000000
1.0000000000000000 0.0000000000000000 0.0000000000000000
1.0000000000000000 0.0000000000000000 0.0000000000000000
1.0000000000000000 0.0000000000000000 0.0000000000000000
1.0000000000000000 0.0000000000000000 0.0000000000000000
1.0000000000000000 0.0000000000000000 0.0000000000000000
1.0000000000000000 0.0000000000000000 0.0000000000000000
1.0000000000000000 0.0000000000000000 0.0000000000000000
1.0000000000000000 0.0000000000000000 0.0000000000000000
1.0000000000000000 0.0000000000000000 0.0000000000000000
1.0000000000000000 0.0000000000000000 0.0000000000000000
1.0000000000000000 0.0000000000000000 0.0000000000000000
1.0000000000000000 0.0000000000000000 0.0000000000000000
1.0000000000000000 0.0000000000000000 0.0000000000000000
1.0000000000000000 0.0000000000000000 0.0000000000000000
1.0000000000000000 0.0000000000000000 0.0000000000000000
1.0000000000000000 0.0000000000000000 0.0000000000000000
1.0000000000000000 0.0000000000000000 0.0000000000000000
1.0000000000000000 0.0000000000000000 0.0000000000000000
1.0000000000000000 0.0000000000000000 0.0000000000000000
1.0000000000000000 0.0000000000000000 0.0000000000000000
1.0000000000000000 0.0000000000000000 0.0000000000000000
1.0000000000000000 0.0000000000000000 0.0000000000000000
1.0000000000000000 0.0000000000000000 0.0000000000000000
1.0000000000000000 0.0000000000000000 0.0000000000000000
1.0000000000000000 0.0000000000000000 0.0000000000000000
1.0000000000000000 0.0000000000000000 0.0000000000000000
1.0000000000000000 0.0000000000000000 0.0000000000000000
1.0000000000000000 0.0000000000000000 0.0000000000000000
1.0000000000000000 0.0000000000000000 0.0000000000000000
1.0000000000000000 0.0000000000000000 0.0000000000000000
1.0000000000000000 0.0000000000000000 0.0000000000000000
1.0000000000000000 0.0000000000000000 0.0000000000000000
1.0000000000000000 0.0000000000000000 0.0000000000000000
1.0000000000000000 0.0000000000000000 0.0000000000000000
1.0000000000000000 0.0000000000000000 0.0000000000000000
1.0000000000000000 0.0000000000000000 0.0000000000000000
1.0000000000000000 0.0000000000000000 0.0000000000000000
1.0000000000000000 0.0000000000000000 0.0000000000000000
1.0000000000000000 0.0000000000000000 0.0000000000000000
1.0000000000000000 0.0000000000000000 0.0000000000000000
1.0000000000000000 0.0000000000000000 0.0000000000000000
1.0000000000000000 0.0000000000000000 0.0000000000000000
1.0000000000000000 0.0000000000000000 0.0000000000000000
1.0000000000000000 0.0000000000000000 0.0000000000000000
1.0000000000000000 0.0000000000000000 0.0000000000000000
1.0000000000000000 0.0000000000000000 0.0000000000000000
1.0000000000000000 0.0000000000000000 0.0000000000000000
1.0000000000000000 0.0000000000000000 0.0000000000000000
1.0000000000000000 0.0000000000000000 0.0000000000000000
1.0000000000000000 0.0000000000000000 0.0000000000000000
1.0000000000000000 0.0000000000000000 0.0000000000000000
1.0000000000000000 0.0000000000000000 0.0000000000000000
1.0000000000000000 0.0000000000000000 0.0000000000000000
1.0000000000000000 0.0000000000000000 0.0000000000000000
1.0000000000000000 0.0000000000000000 0.0000000000000000
1.0000000000000000 0.0000000000000000 0.0000000000000000
1.0000000000000000 0.0000000000000000 0.0000000000000000
1.0000000000000000 0.0000000000000000 0.0000000000000000
1.0000000000000000 0.0000000000000000 0.0000000000000000
1.0000000000000000 0.0000000000000000 0.0000000000000000
1.0000000000000000 0.0000000000000000 0.0000000000000000
1.0000000000000000 0.0000000000000000 0.0000000000000000
1.0000000000000000 0.0000000000000000 0.0000000000000000
1.0000000000000000 0.0000000000000000 0.0000000000000000
1.0000000000000000 0.0000000000000000 0.0000000000000000
1.0000000000000000 0.0000000000000000 0.0000000000000000
1.0000000000000000 0.0000000000000000 0.0000000000000000
1.0000000000000000 0.0000000000000000 0.0000000000000000
1.0000000000000000 0.0000000000000000 0.0000000000000000
1.0000000000000000 0.0000000000000000 0.0000000000000000
1.0000000000000000 0.0000000000000000 0.0000000000000000
1.0000000000000000 0.0000000000000000 0.0000000000000000
1.0000000000000000 0.0000000000000000 0.0000000000000000
1.0000000000000000 0.0000000000000000 0.0000000000000000
1.0000000000000000 0.0000000000000000 0.0000000000000000
1.0000000000000000 0.0000000000000000 0.0000000000000000
1.0000000000000000 0.0000000000000000 0.0000000000000000
1.0000000000000000 0.0000000000000000 0.0000000000000000
1.0000000000000000 0.0000000000000000 0.0000000000000000
1.0000000000000000 0.0000000000000000 0.0000000000000000
1.0000000000000000 0.0000000000000000 0.0000000000000000
1.0000000000000000 0.0000000000000000 0.0000000000000000
1.0000000000000000 0.0000000000000000 0.0000000000000000
1.0000000000000000 0.0000000000000000 0.0000000000000000
1.0000000000000000 0.0000000000000000 0.0000000000000000
1.0000000000000000 0.0000000000000000 0.0000000000000000
1.0000000000000000 0.0000000000000000 0.0000000000000000
1.0000000000000000 0.0000000000000000 0.0000000000000000
1.0000000000000000 0.0000000000000000 0.0000000000000000
1.0000000000000000 0.0000000000000000 0.0000000000000000
1.0000000000000000 0.0000000000000000 0.0000000000000000
1.0000000000000000 0.0000000000000000 0.0000000000000000
1.0000000000000000 0.0000000000000000 0.0000000000000000
1.0000000000000000 0.0000000000000000 0.0000000000000000
1.0000000000000000 0.0000000000000000 0.0000000000000000
1.0000000000000000 0.0000000000000000 0.0000000000000000
1.0000000000000000 0.0000000000000000 0.0000000000000000
1.0000000000000000 0.0000000000000000 0.0000000000000000
1.0000000000000000 0.0000000000000000 0.0000000000000000
1.0000000000000000 0.0000000000000000 0.0000000000000000
1.0000000000000000 0.0000000000000000 0.0000000000000000
1.0000000000000000 0.0000000000000000 0.0000000000000000
1.0000000000000000 0.0000000000000000 0.0000000000000000
1.0000000000000000 0.0000000000000000 0.0000000000000000
1.0000000000000000 0.0000000000000000 0.0000000000000000
1.0000000000000000 0.0000000000000000 0.0000000000000000
1.0000000000000000 0.0000000000000000 0.0000000000000000
1.0000000000000000 0.0000000000000000 0.0000000000000000
1.0000000000000000 0.0000000000000000 0.0000000000000000
1.0000000000000000 0.0000000000000000 0.0000000000000000
1.0000000000000000 0.0000000000000000 0.0000000000000000
1.0000000000000000 0.0000000000000000 0.0000000000000000
1.0000000000000000 0.0000000000000000 0.0000000000000000
1.0000000000000000 0.0000000000000000 0.0000000000000000
1.0000000000000000 0.0000000000000000 0.0000000000000000
1.0000000000000000 0.0000000000000000 0.0000000000000000
1.0000000000000000 0.0000000000000000 0.0000000000000000
1.0000000000000000 0.0000000000000000 0.0000000000000000
1.0000000000000000 0.0000000000000000 0.0000000000000000
1.0000000000000000 0.0000000000000000 0.0000000000000000
1.0000000000000000 0.0000000000000000 0.0000000000000000
1.0000000000000000 0.0000000000000000 0.0000000000000000
1.0000000000000000 0.0000000000000000 0.0000000000000000
1.0000000000000000 0.0000000000000000 0.0000000000000000
1.0000000000000000 0.0000000000000000 0.0000000000000000
1.0000000000000000 0.0000000000000000 0.0000000000000000
1.0000000000000000 0.0000000000000000 0.0000000000000000
1.0000000000000000 0.0000000000000000 0.0000000000000000
1.0000000000000000 0.0000000000000000 0.0000000000000000
1.0000000000000000 0.0000000000000000 0.0000000000000000
1.0000000000000000 0.0000000000000000 0.0000000000000000
1.0000000000000000 0.0000000000000000 0.0000000000000000
1.0000000000000000 0.0000000000000000 0.0000000000000000
1.0000000000000000 0.0000000000000000 0.0000000000000000
1.0000000000000000 0.0000000000000000 0.0000000000000000
1.0000000000000000 0.0000000000000000 0.0000000000000000
1.0000000000000000 0.0000000000000000 0.0000000000000000
1.0000000000000000 0.0000000000000000 0.0000000000000000
1.0000000000000000 0.0000000000000000 0.0000000000000000
1.0000000000000000 0.0000000000000000 0.0000000000000000
1.0000000000000000 0.0000000000000000 0.0000000000000000
1.0000000000000000 0.0000000000000000 0.0000000000000000
1.0000000000000000 0.0000000000000000 0.0000000000000000
1.0000000000000000 0.0000000000000000 0.0000000000000000
1.0000000000000000 0.0000000000000000 0.0000000000000000
1.0000000000000000 0.0000000000000000 0.0000000000000000
1.0000000000000000 0.0000000000000000 0.0000000000000000
1.0000000000000000 0.0000000000000000 0.0000000000000000
1.0000000000000000 0.0000000000000000 0.0000000000000000
1.0000000000000000 0.0000000000000000 0.0000000000000000
1.0000000000000000 0.0000000000000000 0.0000000000000000
1.0000000000000000 0.0000000000000000 0.0000000000000000
1.0000000000000000 0.0000000000000000 0.0000000000000000
1.0000000000000000 0.0000000000000000 0.0000000000000000
1.0000000000000000 0.0000000000000000 0.0000000000000000
1.0000000000000000 0.0000000000000000 0.0000000000000000
1.0000000000000000 0.0000000000000000 0.0000000000000000
1.0000000000000000 0.0000000000000000 0.0000000000000000
1.0000000000000000 0.0000000000000000 0.0000000000000000
1.0000000000000000 0.0000000000000000 0.0000000000000000
1.0000000000000000 0.0000000000000000 0.0000000000000000
1.0000000000000000 0.0000000000000000 0.0000000000000000
1.0000000000000000 0.0000000000000000 0.0000000000000000
1.0000000000000000 0.0000000000000000 0.0000000000000000
1.0000000000000000 0.0000000000000000 0.0000000000000000
1.0000000000000000 0.0000000000000000 0.0000000000000000
1.0000000000000000 0.0000000000000000 0.0000000000000000
1.0000000000000000 0.0000000000000000 0.0000000000000000
1.0000000000000000 0.0000000000000000 0.0000000000000000
1.0000000000000000 0.0000000000000000 0.0000000000000000
1.0000000000000000 0.0000000000000000 0.0000000000000000
1.0000000000000000 0.0000000000000000 0.0000000000000000
1.0000000000000000 0.0000000000000000 0.0000000000000000
1.0000000000000000 0.0000000000000000 0.0000000000000000
1.0000000000000000 0.0000000000000000 0.0000000000000000
1.0000000000000000 0.0000000000000000 0.0000000000000000
1.0000000000000000 0.0000000000000000 0.0000000000000000
1.0000000000000000 0.0000000000000000 0.0000000000000000
1.0000000000000000 0.0000000000000000 0.0000000000000000
1.0000000000000000 0.0000000000000000 0.0000000000000000
1.0000000000000000 0.0000000000000000 0.0000000000000000
1.0000000000000000 0.0000000000000000 0.0000000000000000
1.0000000000000000 0.0000000000000000 0.0000000000000000
1.0000000000000000 0.0000000000000000 0.0000000000000000
1.0000000000000000 0.0000000000000000 0.0000000000000000
1.0000000000000000 0.0000000000000000 0.0000000000000000
1.0000000000000000 0.0000000000000000 0.0000000000000000
1.0000000000000000 0.0000000000000000 0.0000000000000000
1.0000000000000000 0.0000000000000000 0.0000000000000000
1.0000000000000000 0.0000000000000000 0.0000000000000000
1.0000000000000000 0.0000000000000000 0.0000000000000000
1.0000000000000000 0.0000000000000000 0.0000000000000000
1.0000000000000000 0.0000000000000000 0.0000000000000000
1.0000000000000000 0.0000000000000000 0.0000000000000000
1.0000000000000000 0.0000000000000000 0.0000000000000000
1.0000000000000000 0.0000000000000000 0.0000000000000000
1.0000000000000000 0.0000000000000000 0.0000000000000000
1.0000000000000000 0.0000000000000000 0.0000000000000000
1.0000000000000000 0.0000000000000000 0.0000000000000000
1.0000000000000000 0.0000000000000000 0.0000000000000000
1.0000000000000000 0.0000000000000000 0.0000000000000000
1.0000000000000000 0.0000000000000000 0.0000000000000000
1.0000000000000000 0.0000000000000000 0.0000000000000000
1.0000000000000000 0.0000000000000000 0.0000000000000000
1.0000000000000000 0.0000000000000000 0.0000000000000000
1.0000000000000000 0.0000000000000000 0.0000000000000000
1.0000000000000000 0.0000000000000000 0.0000000000000000
1.0000000000000000 0.0000000000000000 0.0000000000000000
1.0000000000000000 0.0000000000000000 0.0000000000000000
1.0000000000000000 0.0000000000000000 0.0000000000000000
1.0000000000000000 0.0000000000000000 0.0000000000000000
1.0000000000000000 0.0000000000000000 0.0000000000000000
1.0000000000000000 0.0000000000000000 0.0000000000000000
1.0000000000000000 0.0000000000000000 0.0000000000000000
1.0000000000000000 0.0000000000000000 0.0000000000000000
1.0000000000000000 0.0000000000000000 0.0000000000000000
1.0000000000000000 0.0000000000000000 0.0000000000000000
1.0000000000000000 0.0000000000000000 0.0000000000000000
1.0000000000000000 0.0000000000000000 0.0000000000000000
1.0000000000000000 0.0000000000000000 0.0000000000000000
1.0000000000000000 0.0000000000000000 0.0000000000000000
1.0000000000000000 0.0000000000000000 0.0000000000000000
1.0000000000000000 0.0000000000000000 0.0000000000000000
1.0000000000000000 0.0000000000000000 0.0000000000000000
1.0000000000000000 0.0000000000000000 0.0000000000000000
1.0000000000000000 0.0000000000000000 0.0000000000000000
1.0000000000000000 0.0000000000000000 0.0000000000000000
1.0000000000000000 0.0000000000000000 0.0000000000000000
1.0000000000000000 0.0000000000000000 0.0000000000000000
1.0000000000000000 0.0000000000000000 0.0000000000000000
1.0000000000000000 0.0000000000000000 0.0000000000000000
1.0000000000000000 0.0000000000000000 0.0000000000000000
1.0000000000000000 0.0000000000000000 0.0000000000000000
1.0000000000000000 0.0000000000000000 0.0000000000000000
1.0000000000000000 0.0000000000000000 0.0000000000000000
1.0000000000000000 0.0000000000000000 0.0000000000000000
1.0000000000000000 0.0000000000000000 0.0000000000000000
1.0000000000000000 0.0000000000000000 0.0000000000000000
1.0000000000000000 0.0000000000000000 0.0000000000000000
1.0000000000000000 0.0000000000000000 0.0000000000000000
1.0000000000000000 0.0000000000000000 0.0000000000000000
1.0000000000000000 0.0000000000000000 0.0000000000000000
1.0000000000000000 0.0000000000000000 0.0000000000000000
1.0000000000000000 0.0000000000000000 0.0000000000000000
1.0000000000000000 0.0000000000000000 0.0000000000000000
1.0000000000000000 0.0000000000000000 0.0000000000000000
1.0000000000000000 0.0000000000000000 0.0000000000000000
1.0000000000000000 0.0000000000000000 0.0000000000000000
1.0000000000000000 0.0000000000000000 0.0000000000000000
1.0000000000000000 0.0000000000000000 0.0000000000000000
1.0000000000000000 0.0000000000000000 0.0000000000000000
1.0000000000000000 0.0000000000000000 0.0000000000000000
1.0000000000000000 0.0000000000000000 0.0000000000000000
1.0000000000000000 0.0000000000000000 0.0000000000000000
1.0000000000000000 0.0000000000000000 0.0000000000000000
1.0000000000000000 0.0000000000000000 0.0000000000000000
1.0000000000000000 0.0000000000000000 0.0000000000000000
1.0000000000000000 0.0000000000000000 0.0000000000000000
1.0000000000000000 0.0000000000000000 0.0000000000000000
1.0000000000000000 0.0000000000000000 0.0000000000000000
1.0000000000000000 0.0000000000000000 0.0000000000000000
1.0000000000000000 0.0000000000000000 0.0000000000000000
1.0000000000000000 0.0000000000000000 0.0000000000000000
1.0000000000000000 0.0000000000000000 0.0000000000000000
1.0000000000000000 0.0000000000000000 0.0000000000000000
1.0000000000000000 0.0000000000000000 0.0000000000000000
1.0000000000000000 0.0000000000000000 0.0000000000000000
1.0000000000000000 0.0000000000000000 0.0000000000000000
1.0000000000000000 0.0000000000000000 0.0000000000000000
1.0000000000000000 0.0000000000000000 0.0000000000000000
1.0000000000000000 0.0000000000000000 0.0000000000000000
1.0000000000000000 0.0000000000000000 0.0000000000000000
1.0000000000000000 0.0000000000000000 0.0000000000000000
1.0000000000000000 0.0000000000000000 0.0000000000000000
1.0000000000000000 0.0000000000000000 0.0000000000000000
1.0000000000000000 0.0000000000000000 0.0000000000000000
1.0000000000000000 0.0000000000000000 0.0000000000000000
1.0000000000000000 0.0000000000000000 0.0000000000000000
1.0000000000000000 0.0000000000000000 0.0000000000000000
1.0000000000000000 0.0000000000000000 0.0000000000000000
1.0000000000000000 0.0000000000000000 0.0000000000000000
1.0000000000000000 0.0000000000000000 0.0000000000000000
1.0000000000000000 0.0000000000000000 0.0000000000000000
1.0000000000000000 0.0000000000000000 0.0000000000000000
1.0000000000000000 0.0000000000000000 0.0000000000000000
1.0000000000000000 0.0000000000000000 0.0000000000000000
1.0000000000000000 0.0000000000000000 0.0000000000000000
1.0000000000000000 0.0000000000000000 0.0000000000000000
1.0000000000000000 0.0000000000000000 0.0000000000000000
1.0000000000000000 0.0000000000000000 0.0000000000000000
1.0000000000000000 0.0000000000000000 0.0000000000000000
1.0000000000000000 0.0000000000000000 0.0000000000000000
1.0000000000000000 0.0000000000000000 0.0000000000000000
1.0000000000000000 0.0000000000000000 0.0000000000000000
1.0000000000000000 0.0000000000000000 0.0000000000000000
1.0000000000000000 0.0000000000000000 0.0000000000000000
1.0000000000000000 0.0000000000000000 0.0000000000000000
1.0000000000000000 0.0000000000000000 0.0000000000000000
1.0000000000000000 0.0000000000000000 0.0000000000000000
1.0000000000000000 0.0000000000000000 0.0000000000000000
1.0000000000000000 0.0000000000000000 0.0000000000000000
1.0000000000000000 0.0000000000000000 0.0000000000000000
1.0000000000000000 0.0000000000000000 0.0000000000000000
1.0000000000000000 0.0000000000000000 0.0000000000000000
1.0000000000000000 0.0000000000000000 0.0000000000000000
1.0000000000000000 0.0000000000000000 0.0000000000000000
1.0000000000000000 0.0000000000000000 0.0000000000000000
1.0000000000000000 0.0000000000000000 0.0000000000000000
1.0000000000000000 0.0000000000000000 0.0000000000000000
1.0000000000000000 0.0000000000000000 0.0000000000000000
1.0000000000000000 0.0000000000000000 0.0000000000000000
1.0000000000000000 0.0000000000000000 0.0000000000000000
1.0000000000000000 0.0000000000000000 0.0000000000000000
1.0000000000000000 0.0000000000000000 0.0000000000000000
1.0000000000000000 0.0000000000000000 0.0000000000000000
1.0000000000000000 0.0000000000000000 0.0000000000000000
1.0000000000000000 0.0000000000000000 0.0000000000000000
1.0000000000000000 0.0000000000000000 0.0000000000000000
1.0000000000000000 0.0000000000000000 0.0000000000000000
1.0000000000000000 0.0000000000000000 0.0000000000000000
1.0000000000000000 0.0000000000000000 0.0000000000000000
1.0000000000000000 0.0000000000000000 0.0000000000000000
1.0000000000000000 0.0000000000000000 0.0000000000000000
1.0000000000000000 0.0000000000000000 0.0000000000000000
1.0000000000000000 0.0000000000000000 0.0000000000000000
1.0000000000000000 0.0000000000000000 0.0000000000000000
1.0000000000000000 0.0000000000000000 0.0000000000000000
1.0000000000000000 0.0000000000000000 0.0000000000000000
1.0000000000000000 0.0000000000000000 0.0000000000000000
1.0000000000000000 0.0000000000000000 0.0000000000000000
1.0000000000000000 0.0000000000000000 0.0000000000000000
1.0000000000000000 0.0000000000000000 0.0000000000000000
1.0000000000000000 0.0000000000000000 0.0000000000000000
1.0000000000000000 0.0000000000000000 0.0000000000000000
1.0000000000000000 0.0000000000000000 0.0000000000000000
1.0000000000000000 0.0000000000000000 0.0000000000000000
1.0000000000000000 0.0000000000000000 0.0000000000000000
1.0000000000000000 0.0000000000000000 0.0000000000000000
1.0000000000000000 0.0000000000000000 0.0000000000000000
1.0000000000000000 0.0000000000000000 0.0000000000000000
1.0000000000000000 0.0000000000000000 0.0000000000000000
1.0000000000000000 0.0000000000000000 0.0000000000000000
1.0000000000000000 0.0000000000000000 0.0000000000000000
1.0000000000000000 0.0000000000000000 0.0000000000000000
1.0000000000000000 0.0000000000000000 0.0000000000000000
1.0000000000000000 0.0000000000000000 0.0000000000000000
1.0000000000000000 0.0000000000000000 0.0000000000000000
1.0000000000000000 0.0000000000000000 0.0000000000000000
1.0000000000000000 0.0000000000000000 0.0000000000000000
1.0000000000000000 0.0000000000000000 0.0000000000000000
1.0000000000000000 0.0000000000000000 0.0000000000000000
1.0000000000000000 0.0000000000000000 0.0000000000000000
1.0000000000000000 0.0000000000000000 0.0000000000000000
1.0000000000000000 0.0000000000000000 0.0000000000000000
1.0000000000000000 0.0000000000000000 0.0000000000000000
1.0000000000000000 0.0000000000000000 0.0000000000000000
1.0000000000000000 0.0000000000000000 0.0000000000000000
1.0000000000000000 0.0000000000000000 0.0000000000000000
1.0000000000000000 0.0000000000000000 0.0000000000000000
1.0000000000000000 0.0000000000000000 0.0000000000000000
1.0000000000000000 0.0000000000000000 0.0000000000000000
1.0000000000000000 0.0000000000000000 0.0000000000000000
1.0000000000000000 0.0000000000000000 0.0000000000000000
1.0000000000000000 0.0000000000000000 0.0000000000000000
1.0000000000000000 0.0000000000000000 0.0000000000000000
1.0000000000000000 0.0000000000000000 0.0000000000000000
1.0000000000000000 0.0000000000000000 0.0000000000000000
1.0000000000000000 0.0000000000000000 0.0000000000000000
1.0000000000000000 0.0000000000000000 0.0000000000000000
1.0000000000000000 0.0000000000000000 0.0000000000000000
1.0000000000000000 0.0000000000000000 0.0000000000000000
1.0000000000000000 0.0000000000000000 0.0000000000000000
1.0000000000000000 0.0000000000000000 0.0000000000000000
1.0000000000000000 0.0000000000000000 0.0000000000000000
1.0000000000000000 0.0000000000000000 0.0000000000000000
1.0000000000000000 0.0000000000000000 0.0000000000000000
1.0000000000000000 0.0000000000000000 0.0000000000000000
1.0000000000000000 0.0000000000000000 0.0000000000000000
1.0000000000000000 0.0000000000000000 0.0000000000000000
1.0000000000000000 0.0000000000000000 0.0000000000000000
1.0000000000000000 0.0000000000000000 0.0000000000000000
1.0000000000000000 0.0000000000000000 0.0000000000000000
1.0000000000000000 0.0000000000000000 0.0000000000000000
1.0000000000000000 0.0000000000000000 0.0000000000000000
1.0000000000000000 0.0000000000000000 0.0000000000000000
1.0000000000000000 0.0000000000000000 0.0000000000000000
1.0000000000000000 0.0000000000000000 0.0000000000000000
1.0000000000000000 0.0000000000000000 0.0000000000000000
1.0000000000000000 0.0000000000000000 0.0000000000000000
1.0000000000000000 0.0000000000000000 0.0000000000000000
1.0000000000000000 0.0000000000000000 0.0000000000000000
1.0000000000000000 0.0000000000000000 0.0000000000000000
1.0000000000000000 0.0000000000000000 0.0000000000000000
1.0000000000000000 0.0000000000000000 0.0000000000000000
1.0000000000000000 0.0000000000000000 0.0000000000000000
1.0000000000000000 0.0000000000000000 0.0000000000000000
1.0000000000000000 0.0000000000000000 0.0000000000000000
1.0000000000000000 0.0000000000000000 0.0000000000000000
1.0000000000000000 0.0000000000000000 0.0000000000000000
1.0000000000000000 0.0000000000000000 0.0000000000000000
1.0000000000000000 0.0000000000000000 0.0000000000000000
1.0000000000000000 0.0000000000000000 0.0000000000000000
1.0000000000000000 0.0000000000000000 0.0000000000000000
1.0000000000000000 0.0000000000000000 0.0000000000000000
1.0000000000000000 0.0000000000000000 0.0000000000000000
1.0000000000000000 0.0000000000000000 0.0000000000000000
1.0000000000000000 0.0000000000000000 0.0000000000000000
1.0000000000000000 0.0000000000000000 0.0000000000000000
1.0000000000000000 0.0000000000000000 0.0000000000000000
1.0000000000000000 0.0000000000000000 0.0000000000000000
1.0000000000000000 0.0000000000000000 0.0000000000000000
1.0000000000000000 0.0000000000000000 0.0000000000000000
1.0000000000000000 0.0000000000000000 0.0000000000000000
1.0000000000000000 0.0000000000000000 0.0000000000000000
1.0000000000000000 0.0000000000000000 0.0000000000000000
1.0000000000000000 0.0000000000000000 0.0000000000000000
1.0000000000000000 0.0000000000000000 0.0000000000000000
1.0000000000000000 0.0000000000000000 0.0000000000000000
1.0000000000000000 0.0000000000000000 0.0000000000000000
1.0000000000000000 0.0000000000000000 0.0000000000000000
1.0000000000000000 0.0000000000000000 0.0000000000000000
1.0000000000000000 0.0000000000000000 0.0000000000000000
1.0000000000000000 0.0000000000000000 0.0000000000000000
1.0000000000000000 0.0000000000000000 0.0000000000000000
1.0000000000000000 0.0000000000000000 0.0000000000000000
1.0000000000000000 0.0000000000000000 0.0000000000000000
1.0000000000000000 0.0000000000000000 0.0000000000000000
1.0000000000000000 0.0000000000000000 0.0000000000000000
1.0000000000000000 0.0000000000000000 0.0000000000000000
1.0000000000000000 0.0000000000000000 0.0000000000000000
1.0000000000000000 0.0000000000000000 0.0000000000000000
1.0000000000000000 0.0000000000000000 0.0000000000000000
1.0000000000000000 0.0000000000000000 0.0000000000000000
1.0000000000000000 0.0000000000000000 0.0000000000000000
1.0000000000000000 0.0000000000000000 0.0000000000000000
1.0000000000000000 0.0000000000000000 0.0000000000000000
1.0000000000000000 0.0000000000000000 0.0000000000000000
1.0000000000000000 0.0000000000000000 0.0000000000000000
1.0000000000000000 0.0000000000000000 0.0000000000000000
1.0000000000000000 0.0000000000000000 0.0000000000000000
1.0000000000000000 0.0000000000000000 0.0000000000000000
1.0000000000000000 0.0000000000000000 0.0000000000000000
1.0000000000000000 0.0000000000000000 0.0000000000000000
1.0000000000000000 0.0000000000000000 0.0000000000000000
1.0000000000000000 0.0000000000000000 0.0000000000000000
1.0000000000000000 0.0000000000000000 0.0000000000000000
1.0000000000000000 0.0000000000000000 0.0000000000000000
1.0000000000000000 0.0000000000000000 0.0000000000000000
1.0000000000000000 0.0000000000000000 0.0000000000000000
1.0000000000000000 0.0000000000000000 0.0000000000000000
1.0000000000000000 0.0000000000000000 0.0000000000000000
1.0000000000000000 0.0000000000000000 0.0000000000000000
1.0000000000000000 0.0000000000000000 0.0000000000000000
1.0000000000000000 0.0000000000000000 0.0000000000000000
1.0000000000000000 0.0000000000000000 0.0000000000000000
1.0000000000000000 0.0000000000000000 0.0000000000000000
1.0000000000000000 0.0000000000000000 0.0000000000000000
1.0000000000000000 0.0000000000000000 0.0000000000000000
1.0000000000000000 0.0000000000000000 0.0000000000000000
1.0000000000000000 0.0000000000000000 0.0000000000000000
1.0000000000000000 0.0000000000000000 0.0000000000000000
1.0000000000000000 0.0000000000000000 0.0000000000000000
1.0000000000000000 0.0000000000000000 0.0000000000000000
1.0000000000000000 0.0000000000000000 0.0000000000000000
1.0000000000000000 0.0000000000000000 0.0000000000000000
1.0000000000000000 0.0000000000000000 0.0000000000000000
1.0000000000000000 0.0000000000000000 0.0000000000000000
1.0000000000000000 0.0000000000000000 0.0000000000000000
1.0000000000000000 0.0000000000000000 0.0000000000000000
1.0000000000000000 0.0000000000000000 0.0000000000000000
1.0000000000000000 0.0000000000000000 0.0000000000000000
1.0000000000000000 0.0000000000000000 0.0000000000000000
1.0000000000000000 0.0000000000000000 0.0000000000000000
1.0000000000000000 0.0000000000000000 0.0000000000000000
1.0000000000000000 0.0000000000000000 0.0000000000000000
1.0000000000000000 0.0000000000000000 0.0000000000000000
1.0000000000000000 0.0000000000000000 0.0000000000000000
1.0000000000000000 0.0000000000000000 0.0000000000000000
1.0000000000000000 0.0000000000000000 0.0000000000000000
1.0000000000000000 0.0000000000000000 0.0000000000000000
1.0000000000000000 0.0000000000000000 0.0000000000000000
1.0000000000000000 0.0000000000000000 0.0000000000000000
1.0000000000000000 0.0000000000000000 0.0000000000000000
1.0000000000000000 0.0000000000000000 0.0000000000000000
1.0000000000000000 0.0000000000000000 0.0000000000000000
1.0000000000000000 0.0000000000000000 0.0000000000000000
1.0000000000000000 0.0000000000000000 0.0000000000000000
1.0000000000000000 0.0000000000000000 0.0000000000000000
1.0000000000000000 0.0000000000000000 0.0000000000000000
1.0000000000000000 0.0000000000000000 0.0000000000000000
1.0000000000000000 0.0000000000000000 0.0000000000000000
1.0000000000000000 0.0000000000000000 0.0000000000000000
1.0000000000000000 0.0000000000000000 0.0000000000000000
1.0000000000000000 0.0000000000000000 0.0000000000000000
1.0000000000000000 0.0000000000000000 0.0000000000000000
1.0000000000000000 0.0000000000000000 0.0000000000000000
1.0000000000000000 0.0000000000000000 0.0000000000000000
1.0000000000000000 0.0000000000000000 0.0000000000000000
1.0000000000000000 0.0000000000000000 0.0000000000000000
1.0000000000000000 0.0000000000000000 0.0000000000000000
1.0000000000000000 0.0000000000000000 0.0000000000000000
1.0000000000000000 0.0000000000000000 0.0000000000000000
1.0000000000000000 0.0000000000000000 0.0000000000000000
1.0000000000000000 0.0000000000000000 0.0000000000000000
1.0000000000000000 0.0000000000000000 0.0000000000000000
1.0000000000000000 0.0000000000000000 0.0000000000000000
1.0000000000000000 0.0000000000000000 0.0000000000000000
1.0000000000000000 0.0000000000000000 0.0000000000000000
1.0000000000000000 0.0000000000000000 0.0000000000000000
1.0000000000000000 0.0000000000000000 0.0000000000000000
1.0000000000000000 0.0000000000000000 0.0000000000000000
1.0000000000000000 0.0000000000000000 0.0000000000000000
1.0000000000000000 0.0000000000000000 0.0000000000000000
1.0000000000000000 0.0000000000000000 0.0000000000000000
1.0000000000000000 0.0000000000000000 0.0000000000000000
1.0000000000000000 0.0000000000000000 0.0000000000000000
1.0000000000000000 0.0000000000000000 0.0000000000000000
1.0000000000000000 0.0000000000000000 0.0000000000000000
1.0000000000000000 0.0000000000000000 0.0000000000000000
1.0000000000000000 0.0000000000000000 0.0000000000000000
1.0000000000000000 0.0000000000000000 0.0000000000000000
1.0000000000000000 0.0000000000000000 0.0000000000000000
1.0000000000000000 0.0000000000000000 0.0000000000000000
1.0000000000000000 0.0000000000000000 0.0000000000000000
1.0000000000000000 0.0000000000000000 0.0000000000000000
1.0000000000000000 0.0000000000000000 0.0000000000000000
1.0000000000000000 0.0000000000000000 0.0000000000000000
1.0000000000000000 0.0000000000000000 0.0000000000000000
1.0000000000000000 0.0000000000000000 0.0000000000000000
1.0000000000000000 0.0000000000000000 0.0000000000000000
1.0000000000000000 0.0000000000000000 0.0000000000000000
1.0000000000000000 0.0000000000000000 0.0000000000000000
1.0000000000000000 0.0000000000000000 0.0000000000000000
1.0000000000000000 0.0000000000000000 0.0000000000000000
1.0000000000000000 0.0000000000000000 0.0000000000000000
1.0000000000000000 0.0000000000000000 0.0000000000000000
1.0000000000000000 0.0000000000000000 0.0000000000000000
1.0000000000000000 0.0000000000000000 0.0000000000000000
1.0000000000000000 0.0000000000000000 0.0000000000000000
1.0000000000000000 0.0000000000000000 0.0000000000000000
1.0000000000000000 0.0000000000000000 0.0000000000000000
1.0000000000000000 0.0000000000000000 0.0000000000000000
1.0000000000000000 0.0000000000000000 0.0000000000000000
1.0000000000000000 0.0000000000000000 0.0000000000000000
1.0000000000000000 0.0000000000000000 0.0000000000000000
1.0000000000000000 0.0000000000000000 0.0000000000000000
1.0000000000000000 0.0000000000000000 0.0000000000000000
1.0000000000000000 0.0000000000000000 0.0000000000000000
1.0000000000000000 0.0000000000000000 0.0000000000000000
1.0000000000000000 0.0000000000000000 0.0000000000000000
1.0000000000000000 0.0000000000000000 0.0000000000000000
1.0000000000000000 0.0000000000000000 0.0000000000000000
1.0000000000000000 0.0000000000000000 0.0000000000000000
1.0000000000000000 0.0000000000000000 0.0000000000000000
1.0000000000000000 0.0000000000000000 0.0000000000000000
1.0000000000000000 0.0000000000000000 0.0000000000000000
1.0000000000000000 0.0000000000000000 0.0000000000000000
1.0000000000000000 0.0000000000000000 0.0000000000000000
1.0000000000000000 0.0000000000000000 0.0000000000000000
1.0000000000000000 0.0000000000000000 0.0000000000000000
1.0000000000000000 0.0000000000000000 0.0000000000000000
1.0000000000000000 0.0000000000000000 0.0000000000000000
1.0000000000000000 0.0000000000000000 0.0000000000000000
1.0000000000000000 0.0000000000000000 0.0000000000000000
1.0000000000000000 0.0000000000000000 0.0000000000000000
1.0000000000000000 0.0000000000000000 0.0000000000000000
1.0000000000000000 0.0000000000000000 0.0000000000000000
1.0000000000000000 0.0000000000000000 0.0000000000000000
1.0000000000000000 0.0000000000000000 0.0000000000000000
1.0000000000000000 0.0000000000000000 0.0000000000000000
1.0000000000000000 0.0000000000000000 0.0000000000000000
1.0000000000000000 0.0000000000000000 0.0000000000000000
1.0000000000000000 0.0000000000000000 0.0000000000000000
1.0000000000000000 0.0000000000000000 0.0000000000000000
1.0000000000000000 0.0000000000000000 0.0000000000000000
1.0000000000000000 0.0000000000000000 0.0000000000000000
1.0000000000000000 0.0000000000000000 0.0000000000000000
1.0000000000000000 0.0000000000000000 0.0000000000000000
1.0000000000000000 0.0000000000000000 0.0000000000000000
1.0000000000000000 0.0000000000000000 0.0000000000000000
1.0000000000000000 0.0000000000000000 0.0000000000000000
1.0000000000000000 0.0000000000000000 0.0000000000000000
1.0000000000000000 0.0000000000000000 0.0000000000000000
1.0000000000000000 0.0000000000000000 0.0000000000000000
1.0000000000000000 0.0000000000000000 0.0000000000000000
1.0000000000000000 0.0000000000000000 0.0000000000000000
1.0000000000000000 0.0000000000000000 0.0000000000000000
1.0000000000000000 0.0000000000000000 0.0000000000000000
1.0000000000000000 0.0000000000000000 0.0000000000000000
1.0000000000000000 0.0000000000000000 0.0000000000000000
1.0000000000000000 0.0000000000000000 0.0000000000000000
1.0000000000000000 0.0000000000000000 0.0000000000000000
1.0000000000000000 0.0000000000000000 0.0000000000000000
1.0000000000000000 0.0000000000000000 0.0000000000000000
1.0000000000000000 0.0000000000000000 0.0000000000000000
1.0000000000000000 0.0000000000000000 0.0000000000000000
1.0000000000000000 0.0000000000000000 0.0000000000000000
1.0000000000000000 0.0000000000000000 0.0000000000000000
1.0000000000000000 0.0000000000000000 0.0000000000000000
1.0000000000000000 0.0000000000000000 0.0000000000000000
1.0000000000000000 0.0000000000000000 0.0000000000000000
1.0000000000000000 0.0000000000000000 0.0000000000000000
1.0000000000000000 0.0000000000000000 0.0000000000000000
1.0000000000000000 0.0000000000000000 0.0000000000000000
1.0000000000000000 0.0000000000000000 0.0000000000000000
1.0000000000000000 0.0000000000000000 0.0000000000000000
1.0000000000000000 0.0000000000000000 0.0000000000000000
1.0000000000000000 0.0000000000000000 0.0000000000000000
1.0000000000000000 0.0000000000000000 0.0000000000000000
1.0000000000000000 0.0000000000000000 0.0000000000000000
1.0000000000000000 0.0000000000000000 0.0000000000000000
1.0000000000000000 0.0000000000000000 0.0000000000000000
1.0000000000000000 0.0000000000000000 0.0000000000000000
1.0000000000000000 0.0000000000000000 0.0000000000000000
1.0000000000000000 0.0000000000000000 0.0000000000000000
1.0000000000000000 0.0000000000000000 0.0000000000000000
1.0000000000000000 0.0000000000000000 0.0000000000000000
1.0000000000000000 0.0000000000000000 0.0000000000000000
1.0000000000000000 0.0000000000000000 0.0000000000000000
1.0000000000000000 0.0000000000000000 0.0000000000000000
1.0000000000000000 0.0000000000000000 0.0000000000000000
1.0000000000000000 0.0000000000000000 0.0000000000000000
1.0000000000000000 0.0000000000000000 0.0000000000000000
1.0000000000000000 0.0000000000000000 0.0000000000000000
1.0000000000000000 0.0000000000000000 0.0000000000000000
1.0000000000000000 0.0000000000000000 0.0000000000000000
1.0000000000000000 0.0000000000000000 0.0000000000000000
1.0000000000000000 0.0000000000000000 0.0000000000000000
1.0000000000000000 0.0000000000000000 0.0000000000000000
1.0000000000000000 0.0000000000000000 0.0000000000000000
1.0000000000000000 0.0000000000000000 0.0000000000000000
1.0000000000000000 0.0000000000000000 0.0000000000000000
1.0000000000000000 0.0000000000000000 0.0000000000000000
1.0000000000000000 0.0000000000000000 0.0000000000000000
1.0000000000000000 0.0000000000000000 0.0000000000000000
1.0000000000000000 0.0000000000000000 0.0000000000000000
1.0000000000000000 0.0000000000000000 0.0000000000000000
1.0000000000000000 0.0000000000000000 0.0000000000000000
1.0000000000000000 0.0000000000000000 0.0000000000000000
1.0000000000000000 0.0000000000000000 0.0000000000000000
1.0000000000000000 0.0000000000000000 0.0000000000000000
1.0000000000000000 0.0000000000000000 0.0000000000000000
1.0000000000000000 0.0000000000000000 0.0000000000000000
1.0000000000000000 0.0000000000000000 0.0000000000000000
1.0000000000000000 0.0000000000000000 0.0000000000000000
1.0000000000000000 0.0000000000000000 0.0000000000000000
1.0000000000000000 0.0000000000000000 0.0000000000000000
1.0000000000000000 0.0000000000000000 0.0000000000000000
1.0000000000000000 0.0000000000000000 0.0000000000000000
1.0000000000000000 0.0000000000000000 0.0000000000000000
1.0000000000000000 0.0000000000000000 0.0000000000000000
1.0000000000000000 0.0000000000000000 0.0000000000000000
1.0000000000000000 0.0000000000000000 0.0000000000000000
1.0000000000000000 0.0000000000000000 0.0000000000000000
1.0000000000000000 0.0000000000000000 0.0000000000000000
1.0000000000000000 0.0000000000000000 0.0000000000000000
1.0000000000000000 0.0000000000000000 0.0000000000000000
1.0000000000000000 0.0000000000000000 0.0000000000000000
1.0000000000000000 0.0000000000000000 0.0000000000000000
1.0000000000000000 0.0000000000000000 0.0000000000000000
1.0000000000000000 0.0000000000000000 0.0000000000000000
1.0000000000000000 0.0000000000000000 0.0000000000000000
1.0000000000000000 0.0000000000000000 0.0000000000000000
1.0000000000000000 0.0000000000000000 0.0000000000000000
1.0000000000000000 0.0000000000000000 0.0000000000000000
1.0000000000000000 0.0000000000000000 0.0000000000000000
1.0000000000000000 0.0000000000000000 0.0000000000000000
1.0000000000000000 0.0000000000000000 0.0000000000000000
1.0000000000000000 0.0000000000000000 0.0000000000000000
1.0000000000000000 0.0000000000000000 0.0000000000000000
1.0000000000000000 0.0000000000000000 0.0000000000000000
1.0000000000000000 0.0000000000000000 0.0000000000000000
1.0000000000000000 0.0000000000000000 0.0000000000000000
1.0000000000000000 0.0000000000000000 0.0000000000000000
1.0000000000000000 0.0000000000000000 0.0000000000000000
1.0000000000000000 0.0000000000000000 0.0000000000000000
1.0000000000000000 0.0000000000000000 0.0000000000000000
1.0000000000000000 0.0000000000000000 0.0000000000000000
1.0000000000000000 0.0000000000000000 0.0000000000000000
1.0000000000000000 0.0000000000000000 0.0000000000000000
1.0000000000000000 0.0000000000000000 0.0000000000000000
1.0000000000000000 0.0000000000000000 0.0000000000000000
1.0000000000000000 0.0000000000000000 0.0000000000000000
1.0000000000000000 0.0000000000000000 0.0000000000000000
1.0000000000000000 0.0000000000000000 0.0000000000000000
1.0000000000000000 0.0000000000000000 0.0000000000000000
1.0000000000000000 0.0000000000000000 0.0000000000000000
1.0000000000000000 0.0000000000000000 0.0000000000000000
1.0000000000000000 0.0000000000000000 0.0000000000000000
1.0000000000000000 0.0000000000000000 0.0000000000000000
1.0000000000000000 0.0000000000000000 0.0000000000000000
1.0000000000000000 0.0000000000000000 0.0000000000000000
1.0000000000000000 0.0000000000000000 0.0000000000000000
1.0000000000000000 0.0000000000000000 0.0000000000000000
1.0000000000000000 0.0000000000000000 0.0000000000000000
1.0000000000000000 0.0000000000000000 0.0000000000000000
1.0000000000000000 0.0000000000000000 0.0000000000000000
1.0000000000000000 0.0000000000000000 0.0000000000000000
1.0000000000000000 0.0000000000000000 0.0000000000000000
1.0000000000000000 0.0000000000000000 0.0000000000000000
1.0000000000000000 0.0000000000000000 0.0000000000000000
1.0000000000000000 0.0000000000000000 0.0000000000000000
1.0000000000000000 0.0000000000000000 0.0000000000000000
1.0000000000000000 0.0000000000000000 0.0000000000000000
1.0000000000000000 0.0000000000000000 0.0000000000000000
1.0000000000000000 0.0000000000000000 0.0000000000000000
1.0000000000000000 0.0000000000000000 0.0000000000000000
1.0000000000000000 0.0000000000000000 0.0000000000000000
1.0000000000000000 0.0000000000000000 0.0000000000000000
1.0000000000000000 0.0000000000000000 0.0000000000000000
1.0000000000000000 0.0000000000000000 0.0000000000000000
1.0000000000000000 0.0000000000000000 0.0000000000000000
1.0000000000000000 0.0000000000000000 0.0000000000000000
1.0000000000000000 0.0000000000000000 0.0000000000000000
1.0000000000000000 0.0000000000000000 0.0000000000000000
1.0000000000000000 0.0000000000000000 0.0000000000000000
1.0000000000000000 0.0000000000000000 0.0000000000000000
1.0000000000000000 0.0000000000000000 0.0000000000000000
1.0000000000000000 0.0000000000000000 0.0000000000000000
1.0000000000000000 0.0000000000000000 0.0000000000000000
1.0000000000000000 0.0000000000000000 0.0000000000000000
1.0000000000000000 0.0000000000000000 0.0000000000000000
1.0000000000000000 0.0000000000000000 0.0000000000000000
1.0000000000000000 0.0000000000000000 0.0000000000000000
1.0000000000000000 0.0000000000000000 0.0000000000000000
1.0000000000000000 0.0000000000000000 0.0000000000000000
1.0000000000000000 0.0000000000000000 0.0000000000000000
1.0000000000000000 0.0000000000000000 0.0000000000000000
1.0000000000000000 0.0000000000000000 0.0000000000000000
1.0000000000000000 0.0000000000000000 0.0000000000000000
1.0000000000000000 0.0000000000000000 0.0000000000000000
1.0000000000000000 0.0000000000000000 0.0000000000000000
1.0000000000000000 0.0000000000000000 0.0000000000000000
1.0000000000000000 0.0000000000000000 0.0000000000000000
1.0000000000000000 0.0000000000000000 0.0000000000000000
1.0000000000000000 0.0000000000000000 0.0000000000000000
1.0000000000000000 0.0000000000000000 0.0000000000000000
1.0000000000000000 0.0000000000000000 0.0000000000000000
1.0000000000000000 0.0000000000000000 0.0000000000000000
1.0000000000000000 0.0000000000000000 0.0000000000000000
1.0000000000000000 0.0000000000000000 0.0000000000000000
1.0000000000000000 0.0000000000000000 0.0000000000000000
1.0000000000000000 0.0000000000000000 0.0000000000000000
1.0000000000000000 0.0000000000000000 0.0000000000000000
1.0000000000000000 0.0000000000000000 0.0000000000000000
1.0000000000000000 0.0000000000000000 0.0000000000000000
1.0000000000000000 0.0000000000000000 0.0000000000000000
1.0000000000000000 0.0000000000000000 0.0000000000000000
1.0000000000000000 0.0000000000000000 0.0000000000000000
1.0000000000000000 0.0000000000000000 0.0000000000000000
1.0000000000000000 0.0000000000000000 0.0000000000000000
1.0000000000000000 0.0000000000000000 0.0000000000000000
1.0000000000000000 0.0000000000000000 0.0000000000000000
1.0000000000000000 0.0000000000000000 0.0000000000000000
1.0000000000000000 0.0000000000000000 0.0000000000000000
1.0000000000000000 0.0000000000000000 0.0000000000000000
1.0000000000000000 0.0000000000000000 0.0000000000000000
1.0000000000000000 0.0000000000000000 0.0000000000000000
1.0000000000000000 0.0000000000000000 0.0000000000000000
1.0000000000000000 0.0000000000000000 0.0000000000000000
1.0000000000000000 0.0000000000000000 0.0000000000000000
1.0000000000000000 0.0000000000000000 0.0000000000000000
1.0000000000000000 0.0000000000000000 0.0000000000000000
1.0000000000000000 0.0000000000000000 0.0000000000000000
1.0000000000000000 0.0000000000000000 0.0000000000000000
1.0000000000000000 0.0000000000000000 0.0000000000000000
1.0000000000000000 0.0000000000000000 0.0000000000000000
1.0000000000000000 0.0000000000000000 0.0000000000000000
1.0000000000000000 0.0000000000000000 0.0000000000000000
1.0000000000000000 0.0000000000000000 0.0000000000000000

SCALARS f:thickness float 1
LOOKUP_TABLE default
0.4000000059604645
0.4000000059604645
0.4000000059604645
0.4000000059604645
0.4000000059604645
0.4000000059604645
0.4000000059604645
0.4000000059604645
0.4000000059604645
0.4000000059604645
0.4000000059604645
0.4000000059604645
0.4000000059604645
0.4000000059604645
0.4000000059604645
0.4000000059604645
0.4000000059604645
0.4000000059604645
0.4000000059604645
0.4000000059604645
0.4000000059604645
0.4000000059604645
0.4000000059604645
0.4000000059604645
0.4000000059604645
0.4000000059604645
0.4000000059604645
0.4000000059604645
0.4000000059604645
0.4000000059604645
0.4000000059604645
0.4000000059604645
0.4000000059604645
0.4000000059604645
0.4000000059604645
0.4000000059604645
0.4000000059604645
0.4000000059604645
0.4000000059604645
0.4000000059604645
0.4000000059604645
0.4000000059604645
0.4000000059604645
0.4000000059604645
0.4000000059604645
0.4000000059604645
0.4000000059604645
0.4000000059604645
0.4000000059604645
0.4000000059604645
0.4000000059604645
0.4000000059604645
0.4000000059604645
0.4000000059604645
0.4000000059604645
0.4000000059604645
0.4000000059604645
0.4000000059604645
0.4000000059604645
0.4000000059604645
0.4000000059604645
0.4000000059604645
0.4000000059604645
0.4000000059604645
0.4000000059604645
0.4000000059604645
0.4000000059604645
0.4000000059604645
0.4000000059604645
0.4000000059604645
0.4000000059604645
0.4000000059604645
0.4000000059604645
0.4000000059604645
0.4000000059604645
0.4000000059604645
0.4000000059604645
0.4000000059604645
0.4000000059604645
0.4000000059604645
0.4000000059604645
0.4000000059604645
0.4000000059604645
0.4000000059604645
0.4000000059604645
0.4000000059604645
0.4000000059604645
0.4000000059604645
0.4000000059604645
0.4000000059604645
0.4000000059604645
0.4000000059604645
0.4000000059604645
0.4000000059604645
0.4000000059604645
0.4000000059604645
0.4000000059604645
0.4000000059604645
0.4000000059604645
0.4000000059604645
0.4000000059604645
0.4000000059604645
0.4000000059604645
0.4000000059604645
0.4000000059604645
0.4000000059604645
0.4000000059604645
0.4000000059604645
0.4000000059604645
0.4000000059604645
0.4000000059604645
0.4000000059604645
0.4000000059604645
0.4000000059604645
0.4000000059604645
0.4000000059604645
0.4000000059604645
0.4000000059604645
0.4000000059604645
0.4000000059604645
0.4000000059604645
0.4000000059604645
0.4000000059604645
0.4000000059604645
0.4000000059604645
0.4000000059604645
0.4000000059604645
0.4000000059604645
0.4000000059604645
0.4000000059604645
0.4000000059604645
0.4000000059604645
0.4000000059604645
0.4000000059604645
0.4000000059604645
0.4000000059604645
0.4000000059604645
0.4000000059604645
0.4000000059604645
0.4000000059604645
0.4000000059604645
0.4000000059604645
0.4000000059604645
0.4000000059604645
0.4000000059604645
0.4000000059604645
0.4000000059604645
0.4000000059604645
0.4000000059604645
0.4000000059604645
0.4000000059604645
0.4000000059604645
0.4000000059604645
0.4000000059604645
0.4000000059604645
0.4000000059604645
0.4000000059604645
0.4000000059604645
0.4000000059604645
0.4000000059604645
0.4000000059604645
0.4000000059604645
0.4000000059604645
0.4000000059604645
0.4000000059604645
0.4000000059604645
0.4000000059604645
0.4000000059604645
0.4000000059604645
0.4000000059604645
0.4000000059604645
0.4000000059604645
0.4000000059604645
0.4000000059604645
0.4000000059604645
0.4000000059604645
0.4000000059604645
0.4000000059604645
0.4000000059604645
0.4000000059604645
0.4000000059604645
0.4000000059604645
0.4000000059604645
0.4000000059604645
0.4000000059604645
0.4000000059604645
0.4000000059604645
0.4000000059604645
0.4000000059604645
0.4000000059604645
0.4000000059604645
0.4000000059604645
0.4000000059604645
0.4000000059604645
0.4000000059604645
0.4000000059604645
0.4000000059604645
0.4000000059604645
0.4000000059604645
0.4000000059604645
0.4000000059604645
0.4000000059604645
0.4000000059604645
0.4000000059604645
0.4000000059604645
0.4000000059604645
0.4000000059604645
0.4000000059604645
0.4000000059604645
0.4000000059604645
0.4000000059604645
0.4000000059604645
0.4000000059604645
0.4000000059604645
0.4000000059604645
0.4000000059604645
0.4000000059604645
0.4000000059604645
0.4000000059604645
0.4000000059604645
0.4000000059604645
0.4000000059604645
0.4000000059604645
0.4000000059604645
0.4000000059604645
0.4000000059604645
0.4000000059604645
0.4000000059604645
0.4000000059604645
0.4000000059604645
0.4000000059604645
0.4000000059604645
0.4000000059604645
0.4000000059604645
0.4000000059604645
0.4000000059604645
0.4000000059604645
0.4000000059604645
0.4000000059604645
0.4000000059604645
0.4000000059604645
0.4000000059604645
0.4000000059604645
0.4000000059604645
0.4000000059604645
0.4000000059604645
0.4000000059604645
0.4000000059604645
0.4000000059604645
0.4000000059604645
0.4000000059604645
0.4000000059604645
0.4000000059604645
0.4000000059604645
0.4000000059604645
0.4000000059604645
0.4000000059604645
0.4000000059604645
0.4000000059604645
0.4000000059604645
0.4000000059604645
0.4000000059604645
0.4000000059604645
0.4000000059604645
0.4000000059604645
0.4000000059604645
0.4000000059604645
0.4000000059604645
0.4000000059604645
0.4000000059604645
0.4000000059604645
0.4000000059604645
0.4000000059604645
0.4000000059604645
0.4000000059604645
0.4000000059604645
0.4000000059604645
0.4000000059604645
0.4000000059604645
0.4000000059604645
0.4000000059604645
0.4000000059604645
0.4000000059604645
0.4000000059604645
0.4000000059604645
0.4000000059604645
0.4000000059604645
0.4000000059604645
0.4000000059604645
0.4000000059604645
0.4000000059604645
0.4000000059604645
0.4000000059604645
0.4000000059604645
0.4000000059604645
0.4000000059604645
0.4000000059604645
0.4000000059604645
0.4000000059604645
0.4000000059604645
0.4000000059604645
0.4000000059604645
0.4000000059604645
0.4000000059604645
0.4000000059604645
0.4000000059604645
0.4000000059604645
0.4000000059604645
0.4000000059604645
0.4000000059604645
0.4000000059604645
0.4000000059604645
0.4000000059604645
0.4000000059604645
0.4000000059604645
0.4000000059604645
0.4000000059604645
0.4000000059604645
0.4000000059604645
0.4000000059604645
0.4000000059604645
0.4000000059604645
0.4000000059604645
0.4000000059604645
0.4000000059604645
0.4000000059604645
0.4000000059604645
0.4000000059604645
0.4000000059604645
0.4000000059604645
0.4000000059604645
0.4000000059604645
0.4000000059604645
0.4000000059604645
0.4000000059604645
0.4000000059604645
0.4000000059604645
0.4000000059604645
0.4000000059604645
0.4000000059604645
0.4000000059604645
0.4000000059604645
0.4000000059604645
0.4000000059604645
0.4000000059604645
0.4000000059604645
0.4000000059604645
0.4000000059604645
0.4000000059604645
0.4000000059604645
0.4000000059604645
0.4000000059604645
0.4000000059604645
0.4000000059604645
0.4000000059604645
0.4000000059604645
0.4000000059604645
0.4000000059604645
0.4000000059604645
0.4000000059604645
0.4000000059604645
0.4000000059604645
0.4000000059604645
0.4000000059604645
0.4000000059604645
0.4000000059604645
0.4000000059604645
0.4000000059604645
0.4000000059604645
0.4000000059604645
0.4000000059604645
0.4000000059604645
0.4000000059604645
0.4000000059604645
0.4000000059604645
0.4000000059604645
0.4000000059604645
0.4000000059604645
0.4000000059604645
0.4000000059604645
0.4000000059604645
0.4000000059604645
0.4000000059604645
0.4000000059604645
0.4000000059604645
0.4000000059604645
0.4000000059604645
0.4000000059604645
0.4000000059604645
0.4000000059604645
0.4000000059604645
0.4000000059604645
0.4000000059604645
0.4000000059604645
0.4000000059604645
0.4000000059604645
0.4000000059604645
0.4000000059604645
0.4000000059604645
0.4000000059604645
0.4000000059604645
0.4000000059604645
0.4000000059604645
0.4000000059604645
0.4000000059604645
0.4000000059604645
0.4000000059604645
0.4000000059604645
0.4000000059604645
0.4000000059604645
0.4000000059604645
0.4000000059604645
0.4000000059604645
0.4000000059604645
0.4000000059604645
0.4000000059604645
0.4000000059604645
0.4000000059604645
0.4000000059604645
0.4000000059604645
0.4000000059604645
0.4000000059604645
0.4000000059604645
0.4000000059604645
0.4000000059604645
0.4000000059604645
0.4000000059604645
0.4000000059604645
0.4000000059604645
0.4000000059604645
0.4000000059604645
0.4000000059604645
0.4000000059604645
0.4000000059604645
0.4000000059604645
0.4000000059604645
0.4000000059604645
0.4000000059604645
0.4000000059604645
0.4000000059604645
0.4000000059604645
0.4000000059604645
0.4000000059604645
0.4000000059604645
0.4000000059604645
0.4000000059604645
0.4000000059604645
0.4000000059604645
0.4000000059604645
0.4000000059604645
0.4000000059604645
0.4000000059604645
0.4000000059604645
0.4000000059604645
0.4000000059604645
0.4000000059604645
0.4000000059604645
0.4000000059604645
0.4000000059604645
0.4000000059604645
0.4000000059604645
0.4000000059604645
0.4000000059604645
0.4000000059604645
0.4000000059604645
0.4000000059604645
0.4000000059604645
0.4000000059604645
0.4000000059604645
0.4000000059604645
0.4000000059604645
0.4000000059604645
0.4000000059604645
0.4000000059604645
0.4000000059604645
0.4000000059604645
0.4000000059604645
0.4000000059604645
0.4000000059604645
0.4000000059604645
0.4000000059604645
0.4000000059604645
0.4000000059604645
0.4000000059604645
0.4000000059604645
0.4000000059604645
0.4000000059604645
0.4000000059604645
0.4000000059604645
0.4000000059604645
0.4000000059604645
0.4000000059604645
0.4000000059604645
0.4000000059604645
0.4000000059604645
0.4000000059604645
0.4000000059604645
0.4000000059604645
0.4000000059604645
0.4000000059604645
0.4000000059604645
0.4000000059604645
0.4000000059604645
0.4000000059604645
0.4000000059604645
0.4000000059604645
0.4000000059604645
0.4000000059604645
0.4000000059604645
0.4000000059604645
0.4000000059604645
0.4000000059604645
0.4000000059604645
0.4000000059604645
0.4000000059604645
0.4000000059604645
0.4000000059604645
0.4000000059604645
0.4000000059604645
0.4000000059604645
0.4000000059604645
0.4000000059604645
0.4000000059604645
0.4000000059604645
0.4000000059604645
0.4000000059604645
0.4000000059604645
0.4000000059604645
0.4000000059604645
0.4000000059604645
0.4000000059604645
0.4000000059604645
0.4000000059604645
0.4000000059604645
0.4000000059604645
0.4000000059604645
0.4000000059604645
0.4000000059604645
0.4000000059604645
0.4000000059604645
0.4000000059604645
0.4000000059604645
0.4000000059604645
0.4000000059604645
0.4000000059604645
0.4000000059604645
0.4000000059604645
0.4000000059604645
0.4000000059604645
0.4000000059604645
0.4000000059604645
0.4000000059604645
0.4000000059604645
0.4000000059604645
0.4000000059604645
0.4000000059604645
0.4000000059604645
0.4000000059604645
0.4000000059604645
0.4000000059604645
0.4000000059604645
0.4000000059604645
0.4000000059604645
0.4000000059604645
0.4000000059604645
0.4000000059604645
0.4000000059604645
0.4000000059604645
0.4000000059604645
0.4000000059604645
0.4000000059604645
0.4000000059604645
0.4000000059604645
0.4000000059604645
0.4000000059604645
0.4000000059604645
0.4000000059604645
0.4000000059604645
0.4000000059604645
0.4000000059604645
0.4000000059604645
0.4000000059604645
0.4000000059604645
0.4000000059604645
0.4000000059604645
0.4000000059604645
0.4000000059604645
0.4000000059604645
0.4000000059604645
0.4000000059604645
0.4000000059604645
0.4000000059604645
0.4000000059604645
0.4000000059604645
0.4000000059604645
0.4000000059604645
0.4000000059604645
0.4000000059604645
0.4000000059604645
0.4000000059604645
0.4000000059604645
0.4000000059604645
0.4000000059604645
0.4000000059604645
0.4000000059604645
0.4000000059604645
0.4000000059604645
0.4000000059604645
0.4000000059604645
0.4000000059604645
0.4000000059604645
0.4000000059604645
0.4000000059604645
0.4000000059604645
0.4000000059604645
0.4000000059604645
0.4000000059604645
0.4000000059604645
0.4000000059604645
0.4000000059604645
0.4000000059604645
0.4000000059604645
0.4000000059604645
0.4000000059604645
0.4000000059604645
0.4000000059604645
0.4000000059604645
0.4000000059604645
0.4000000059604645
0.4000000059604645
0.4000000059604645
0.4000000059604645
0.4000000059604645
0.4000000059604645
0.4000000059604645
0.4000000059604645
0.4000000059604645
0.4000000059604645
0.4000000059604645
0.4000000059604645
0.4000000059604645
0.4000000059604645
0.4000000059604645
0.4000000059604645
0.4000000059604645
0.4000000059604645
0.4000000059604645
0.4000000059604645
0.4000000059604645
0.4000000059604645
0.4000000059604645
0.4000000059604645
0.4000000059604645
0.4000000059604645
0.4000000059604645
0.4000000059604645
0.4000000059604645
0.4000000059604645
0.4000000059604645
0.4000000059604645
0.4000000059604645
0.4000000059604645
0.4000000059604645
0.4000000059604645
0.4000000059604645
0.4000000059604645
0.4000000059604645
0.4000000059604645
0.4000000059604645
0.4000000059604645
0.4000000059604645
0.4000000059604645
0.4000000059604645
0.4000000059604645
0.4000000059604645
0.4000000059604645
0.4000000059604645
0.4000000059604645
0.4000000059604645
0.4000000059604645
0.4000000059604645
0.4000000059604645
0.4000000059604645
0.4000000059604645
0.4000000059604645
0.4000000059604645
0.4000000059604645
0.4000000059604645
0.4000000059604645
0.4000000059604645
0.4000000059604645
0.4000000059604645
0.4000000059604645
0.4000000059604645
0.4000000059604645
0.4000000059604645
0.4000000059604645
0.4000000059604645
0.4000000059604645
0.4000000059604645
0.4000000059604645
0.4000000059604645
0.4000000059604645
0.4000000059604645
0.4000000059604645
0.4000000059604645
0.4000000059604645
0.4000000059604645
0.4000000059604645
0.4000000059604645
0.4000000059604645
0.4000000059604645
0.4000000059604645
0.4000000059604645
0.4000000059604645
0.4000000059604645
0.4000000059604645
0.4000000059604645
0.4000000059604645
0.4000000059604645
0.4000000059604645
0.4000000059604645
0.4000000059604645
0.4000000059604645
0.4000000059604645
0.4000000059604645
0.4000000059604645
0.4000000059604645
0.4000000059604645
0.4000000059604645
0.4000000059604645
0.4000000059604645
0.4000000059604645
0.4000000059604645
0.4000000059604645
0.4000000059604645
0.4000000059604645
0.4000000059604645
0.4000000059604645
0.4000000059604645
0.4000000059604645
0.4000000059604645
0.4000000059604645
0.4000000059604645
0.4000000059604645
0.4000000059604645
0.4000000059604645
0.4000000059604645
0.4000000059604645
0.4000000059604645
0.4000000059604645
0.4000000059604645
0.4000000059604645
0.4000000059604645
0.4000000059604645
0.4000000059604645
0.4000000059604645
0.4000000059604645
0.4000000059604645
0.4000000059604645
0.4000000059604645
0.4000000059604645
0.4000000059604645
0.4000000059604645
0.4000000059604645
0.4000000059604645
0.4000000059604645
0.4000000059604645
0.4000000059604645
0.4000000059604645
0.4000000059604645
0.4000000059604645
0.4000000059604645
0.4000000059604645
0.4000000059604645
0.4000000059604645
0.4000000059604645
0.4000000059604645
0.4000000059604645
0.4000000059604645
0.4000000059604645
0.4000000059604645
0.4000000059604645
0.4000000059604645
0.4000000059604645
0.4000000059604645
0.4000000059604645
0.4000000059604645
0.4000000059604645
0.4000000059604645
0.4000000059604645
0.4000000059604645
0.4000000059604645
0.4000000059604645
0.4000000059604645
0.4000000059604645
0.4000000059604645
0.4000000059604645
0.4000000059604645
0.4000000059604645
0.4000000059604645
0.4000000059604645
0.4000000059604645
0.4000000059604645
0.4000000059604645
0.4000000059604645
0.4000000059604645
0.4000000059604645
0.4000000059604645
0.4000000059604645
0.4000000059604645
0.4000000059604645
0.4000000059604645
0.4000000059604645
0.4000000059604645
0.4000000059604645
0.4000000059604645
0.4000000059604645
0.4000000059604645
0.4000000059604645
0.4000000059604645
0.4000000059604645
0.4000000059604645
0.4000000059604645
0.4000000059604645
0.4000000059604645
0.4000000059604645
0.4000000059604645
0.4000000059604645
0.4000000059604645
0.4000000059604645
0.4000000059604645
0.4000000059604645
0.4000000059604645
0.4000000059604645
0.4000000059604645
0.4000000059604645
0.4000000059604645
0.4000000059604645
0.4000000059604645
0.4000000059604645
0.4000000059604645
0.4000000059604645
0.4000000059604645
0.4000000059604645
0.4000000059604645
0.4000000059604645
0.4000000059604645
0.4000000059604645
0.4000000059604645
0.4000000059604645
0.4000000059604645
0.4000000059604645
0.4000000059604645
0.4000000059604645
0.4000000059604645
0.4000000059604645
0.4000000059604645
0.4000000059604645
0.4000000059604645
0.4000000059604645
0.4000000059604645
0.4000000059604645
0.4000000059604645
0.4000000059604645
0.4000000059604645
0.4000000059604645
0.4000000059604645
0.4000000059604645
0.4000000059604645
0.4000000059604645
0.4000000059604645
0.4000000059604645
0.4000000059604645
0.4000000059604645
0.4000000059604645
0.4000000059604645
0.4000000059604645
0.4000000059604645
0.4000000059604645
0.4000000059604645
0.4000000059604645
0.4000000059604645
0.4000000059604645
0.4000000059604645
0.4000000059604645
0.4000000059604645
0.4000000059604645
0.4000000059604645
0.4000000059604645
0.4000000059604645
0.4000000059604645
0.4000000059604645
0.4000000059604645
0.4000000059604645
0.4000000059604645
0.4000000059604645
0.4000000059604645
0.4000000059604645
0.4000000059604645
0.4000000059604645
0.4000000059604645
0.4000000059604645
0.4000000059604645
0.4000000059604645
0.4000000059604645
0.4000000059604645
0.4000000059604645
0.4000000059604645
0.4000000059604645
0.4000000059604645
0.4000000059604645
0.4000000059604645
0.4000000059604645
0.4000000059604645
0.4000000059604645
0.4000000059604645
0.4000000059604645
0.4000000059604645
0.4000000059604645
0.4000000059604645
0.4000000059604645
0.4000000059604645
0.4000000059604645
0.4000000059604645
0.4000000059604645
0.4000000059604645
0.4000000059604645
0.4000000059604645
0.4000000059604645
0.4000000059604645
0.4000000059604645
0.4000000059604645
0.4000000059604645
0.4000000059604645
0.4000000059604645
0.4000000059604645
0.4000000059604645
0.4000000059604645
0.4000000059604645
0.4000000059604645
0.4000000059604645
0.4000000059604645
0.4000000059604645
0.4000000059604645
0.4000000059604645
0.4000000059604645
0.4000000059604645
0.4000000059604645
0.4000000059604645
0.4000000059604645
0.4000000059604645
0.4000000059604645
0.4000000059604645
0.4000000059604645
0.4000000059604645
0.4000000059604645
0.4000000059604645
0.4000000059604645
0.4000000059604645
0.4000000059604645
0.4000000059604645
0.4000000059604645
0.4000000059604645
0.4000000059604645
0.4000000059604645
0.4000000059604645
0.4000000059604645
0.4000000059604645
0.4000000059604645
0.4000000059604645
0.4000000059604645
0.4000000059604645
0.4000000059604645
0.4000000059604645
0.4000000059604645
0.4000000059604645
0.4000000059604645
0.4000000059604645
0.4000000059604645
0.4000000059604645
0.4000000059604645
0.4000000059604645
0.4000000059604645
0.4000000059604645
0.4000000059604645
0.4000000059604645
0.4000000059604645
0.4000000059604645
0.4000000059604645
0.4000000059604645
0.4000000059604645
0.4000000059604645
0.4000000059604645
0.4000000059604645
0.4000000059604645
0.4000000059604645
0.4000000059604645
0.4000000059604645
0.4000000059604645
0.4000000059604645
0.4000000059604645
0.4000000059604645
0.4000000059604645
0.4000000059604645
0.4000000059604645
0.4000000059604645
0.4000000059604645
0.4000000059604645
0.4000000059604645
0.4000000059604645
0.4000000059604645
0.4000000059604645
0.4000000059604645
0.4000000059604645
0.4000000059604645
0.4000000059604645
0.4000000059604645
0.4000000059604645
0.4000000059604645
0.4000000059604645
0.4000000059604645
0.4000000059604645
0.4000000059604645
0.4000000059604645
0.4000000059604645
0.4000000059604645
0.4000000059604645
0.4000000059604645
0.4000000059604645
0.4000000059604645
0.4000000059604645
0.4000000059604645
0.4000000059604645
0.4000000059604645
0.4000000059604645
0.4000000059604645
0.4000000059604645
0.4000000059604645
0.4000000059604645
0.4000000059604645
0.4000000059604645
0.4000000059604645
0.4000000059604645
0.4000000059604645
0.4000000059604645
0.4000000059604645
0.4000000059604645
0.4000000059604645
0.4000000059604645
0.4000000059604645
0.4000000059604645
0.4000000059604645
0.4000000059604645
0.4000000059604645
0.4000000059604645
0.4000000059604645
0.4000000059604645
0.4000000059604645
0.4000000059604645
0.4000000059604645
0.4000000059604645
0.4000000059604645
0.4000000059604645
0.4000000059604645
0.4000000059604645
0.4000000059604645
0.4000000059604645
0.4000000059604645
0.4000000059604645
0.4000000059604645
0.4000000059604645
0.4000000059604645
0.4000000059604645
0.4000000059604645
0.4000000059604645
0.4000000059604645
0.4000000059604645
0.4000000059604645
0.4000000059604645
0.4000000059604645
0.4000000059604645
0.4000000059604645
0.4000000059604645
0.4000000059604645
0.4000000059604645
0.4000000059604645
0.4000000059604645
0.4000000059604645
0.4000000059604645
0.4000000059604645
0.4000000059604645
0.4000000059604645
0.4000000059604645
0.4000000059604645
0.4000000059604645
0.4000000059604645
0.4000000059604645
0.4000000059604645
0.4000000059604645
0.4000000059604645
0.4000000059604645
0.4000000059604645
0.4000000059604645
0.4000000059604645
0.4000000059604645
0.4000000059604645
0.4000000059604645
0.4000000059604645
0.4000000059604645
0.4000000059604645
0.4000000059604645
0.4000000059604645
0.4000000059604645
0.4000000059604645
0.4000000059604645
0.4000000059604645
0.4000000059604645
0.4000000059604645
0.4000000059604645
0.4000000059604645
0.4000000059604645
0.4000000059604645
0.4000000059604645
0.4000000059604645
0.4000000059604645
0.4000000059604645
0.4000000059604645
0.4000000059604645
0.4000000059604645
0.4000000059604645
0.4000000059604645
0.4000000059604645
0.4000000059604645
0.4000000059604645
0.4000000059604645
0.4000000059604645
0.4000000059604645
0.4000000059604645
0.4000000059604645
0.4000000059604645
0.4000000059604645
0.4000000059604645
0.4000000059604645
0.4000000059604645
0.4000000059604645
0.4000000059604645
0.4000000059604645
0.4000000059604645
0.4000000059604645
0.4000000059604645
0.4000000059604645
0.4000000059604645
0.4000000059604645
0.4000000059604645
0.4000000059604645
0.4000000059604645
0.4000000059604645
0.4000000059604645
0.4000000059604645
0.4000000059604645
0.4000000059604645
0.4000000059604645
0.4000000059604645
0.4000000059604645
0.4000000059604645
0.4000000059604645
0.4000000059604645
0.4000000059604645
0.4000000059604645
0.4000000059604645
0.4000000059604645
0.4000000059604645
0.4000000059604645
0.4000000059604645
0.4000000059604645
0.4000000059604645
0.4000000059604645
0.4000000059604645
0.4000000059604645
0.4000000059604645
0.4000000059604645
0.4000000059604645
0.4000000059604645
0.4000000059604645
0.4000000059604645
0.4000000059604645
0.4000000059604645
0.4000000059604645
0.4000000059604645
0.4000000059604645
0.4000000059604645
0.4000000059604645
0.4000000059604645
0.4000000059604645
0.4000000059604645
0.4000000059604645
0.4000000059604645
0.4000000059604645
0.4000000059604645
0.4000000059604645
0.4000000059604645
0.4000000059604645
0.4000000059604645
0.4000000059604645
0.4000000059604645
0.4000000059604645
0.4000000059604645
0.4000000059604645
0.4000000059604645
0.4000000059604645
0.4000000059604645
0.4000000059604645
0.4000000059604645
0.4000000059604645
0.4000000059604645
0.4000000059604645
0.4000000059604645
0.4000000059604645
0.4000000059604645
0.4000000059604645
0.4000000059604645
0.4000000059604645
0.4000000059604645
0.4000000059604645
0.4000000059604645
0.4000000059604645
0.4000000059604645
0.4000000059604645
0.4000000059604645
0.4000000059604645
0.4000000059604645
0.4000000059604645
0.4000000059604645
0.4000000059604645
0.4000000059604645
0.4000000059604645
0.4000000059604645
0.4000000059604645
0.4000000059604645
0.4000000059604645
0.4000000059604645
0.4000000059604645
0.4000000059604645
0.4000000059604645
0.4000000059604645
0.4000000059604645
0.4000000059604645
0.4000000059604645
0.4000000059604645
0.4000000059604645
0.4000000059604645
0.4000000059604645
0.4000000059604645
0.4000000059604645
0.4000000059604645
0.4000000059604645
0.4000000059604645
0.4000000059604645
0.4000000059604645
0.4000000059604645
0.4000000059604645
0.4000000059604645
0.4000000059604645
0.4000000059604645
0.4000000059604645
0.4000000059604645
0.4000000059604645
0.4000000059604645
0.4000000059604645
0.4000000059604645
0.4000000059604645
0.4000000059604645
0.4000000059604645
0.4000000059604645
0.4000000059604645
0.4000000059604645
0.4000000059604645
0.4000000059604645
0.4000000059604645
0.4000000059604645
0.4000000059604645
0.4000000059604645
0.4000000059604645
0.4000000059604645
0.4000000059604645
0.4000000059604645
0.4000000059604645
0.4000000059604645
0.4000000059604645
0.4000000059604645
0.4000000059604645
0.4000000059604645
0.4000000059604645
0.4000000059604645
0.4000000059604645
0.4000000059604645
0.4000000059604645
0.4000000059604645
0.4000000059604645
0.4000000059604645
0.4000000059604645
0.4000000059604645
0.4000000059604645
0.4000000059604645
0.4000000059604645
0.4000000059604645
0.4000000059604645
0.4000000059604645
0.4000000059604645
0.4000000059604645
0.4000000059604645
0.4000000059604645
0.4000000059604645
0.4000000059604645
0.4000000059604645
0.4000000059604645
0.4000000059604645
0.4000000059604645
0.4000000059604645
0.4000000059604645
0.4000000059604645
0.4000000059604645
0.4000000059604645
0.4000000059604645
0.4000000059604645
0.4000000059604645
0.4000000059604645
0.4000000059604645
0.4000000059604645
0.4000000059604645
0.4000000059604645
0.4000000059604645
0.4000000059604645
0.4000000059604645
0.4000000059604645
0.4000000059604645
0.4000000059604645
0.4000000059604645
0.4000000059604645
0.4000000059604645
0.4000000059604645
0.4000000059604645
0.4000000059604645
0.4000000059604645
0.4000000059604645
0.4000000059604645
0.4000000059604645
0.4000000059604645
0.4000000059604645
0.4000000059604645
0.4000000059604645
0.4000000059604645
0.4000000059604645
0.4000000059604645
0.4000000059604645
0.4000000059604645
0.4000000059604645
0.4000000059604645
0.4000000059604645
0.4000000059604645
0.4000000059604645
0.4000000059604645
0.4000000059604645
0.4000000059604645
0.4000000059604645
0.4000000059604645
0.4000000059604645
0.4000000059604645
0.4000000059604645
0.4000000059604645
0.4000000059604645
0.4000000059604645
0.4000000059604645
0.4000000059604645
0.4000000059604645
0.4000000059604645
0.4000000059604645
0.4000000059604645
0.4000000059604645
0.4000000059604645
0.4000000059604645
0.4000000059604645
0.4000000059604645
0.4000000059604645
0.4000000059604645
0.4000000059604645
0.4000000059604645
0.4000000059604645
0.4000000059604645
0.4000000059604645
0.4000000059604645
0.4000000059604645
0.4000000059604645
0.4000000059604645
0.4000000059604645
0.4000000059604645
0.4000000059604645
0.4000000059604645
0.4000000059604645
0.4000000059604645
0.4000000059604645
0.4000000059604645
0.4000000059604645
0.4000000059604645
0.4000000059604645
0.4000000059604645
0.4000000059604645
0.4000000059604645
0.4000000059604645
0.4000000059604645
0.4000000059604645
0.4000000059604645
0.4000000059604645
0.4000000059604645
0.4000000059604645
0.4000000059604645
0.4000000059604645
0.4000000059604645
0.4000000059604645
0.4000000059604645
0.4000000059604645
0.4000000059604645
0.4000000059604645
0.4000000059604645
0.4000000059604645
0.4000000059604645
0.4000000059604645
0.4000000059604645
0.4000000059604645
0.4000000059604645
0.4000000059604645
0.4000000059604645
0.4000000059604645
0.4000000059604645
0.4000000059604645
0.4000000059604645
0.4000000059604645
0.4000000059604645
0.4000000059604645
0.4000000059604645
0.4000000059604645
0.4000000059604645
0.4000000059604645
0.4000000059604645
0.4000000059604645
0.4000000059604645
0.4000000059604645
0.4000000059604645
0.4000000059604645
0.4000000059604645
0.4000000059604645
0.4000000059604645
0.4000000059604645
0.4000000059604645
0.4000000059604645
0.4000000059604645
0.4000000059604645
0.4000000059604645
0.4000000059604645
0.4000000059604645
0.4000000059604645
0.4000000059604645
0.4000000059604645
0.4000000059604645
0.4000000059604645
0.4000000059604645
0.4000000059604645
0.4000000059604645
0.4000000059604645
0.4000000059604645
0.4000000059604645
0.4000000059604645
0.4000000059604645
0.4000000059604645
0.4000000059604645
0.4000000059604645
0.4000000059604645
0.4000000059604645
0.4000000059604645
0.4000000059604645
0.4000000059604645
0.4000000059604645
0.4000000059604645
0.4000000059604645
0.4000000059604645
0.4000000059604645
0.4000000059604645
0.4000000059604645
0.4000000059604645
0.4000000059604645
0.4000000059604645
0.4000000059604645
0.4000000059604645
0.4000000059604645
0.4000000059604645
0.4000000059604645
0.4000000059604645
0.4000000059604645
0.4000000059604645
0.4000000059604645
0.4000000059604645
0.4000000059604645
0.4000000059604645
0.4000000059604645
0.4000000059604645
0.4000000059604645
0.4000000059604645
0.4000000059604645
0.4000000059604645
0.4000000059604645
0.4000000059604645
0.4000000059604645
0.4000000059604645
0.4000000059604645
0.4000000059604645
0.4000000059604645
0.4000000059604645
0.4000000059604645
0.4000000059604645
0.4000000059604645
0.4000000059604645
0.4000000059604645
0.4000000059604645
0.4000000059604645
0.4000000059604645
0.4000000059604645
0.4000000059604645
0.4000000059604645
0.4000000059604645
0.4000000059604645
0.4000000059604645
0.4000000059604645
0.4000000059604645
0.4000000059604645
0.4000000059604645
0.4000000059604645
0.4000000059604645
0.4000000059604645
0.4000000059604645
0.4000000059604645
0.4000000059604645
0.4000000059604645
0.4000000059604645
0.4000000059604645
0.4000000059604645
0.4000000059604645
0.4000000059604645
0.4000000059604645
0.4000000059604645
0.4000000059604645
0.4000000059604645
0.4000000059604645
0.4000000059604645
0.4000000059604645
0.4000000059604645
0.4000000059604645
0.4000000059604645
0.4000000059604645
0.4000000059604645
0.4000000059604645
0.4000000059604645
0.4000000059604645
0.4000000059604645
0.4000000059604645
0.4000000059604645
0.4000000059604645
0.4000000059604645
0.4000000059604645
0.4000000059604645
0.4000000059604645
0.4000000059604645
0.4000000059604645
0.4000000059604645
0.4000000059604645
0.4000000059604645
0.4000000059604645
0.4000000059604645
0.4000000059604645
0.4000000059604645
0.4000000059604645
0.4000000059604645
0.4000000059604645
0.4000000059604645
0.4000000059604645
0.4000000059604645
0.4000000059604645
0.4000000059604645
0.4000000059604645
0.4000000059604645
0.4000000059604645
0.4000000059604645
0.4000000059604645
0.4000000059604645
0.4000000059604645
0.4000000059604645
0.4000000059604645
0.4000000059604645
0.4000000059604645
0.4000000059604645
0.4000000059604645
0.4000000059604645
0.4000000059604645
0.4000000059604645
0.4000000059604645
0.4000000059604645
0.4000000059604645
0.4000000059604645
0.4000000059604645
0.4000000059604645
0.4000000059604645
0.4000000059604645
0.4000000059604645
0.4000000059604645
0.4000000059604645
0.4000000059604645
0.4000000059604645
0.4000000059604645
0.4000000059604645
0.4000000059604645
0.4000000059604645
0.4000000059604645
0.4000000059604645
0.4000000059604645
0.4000000059604645
0.4000000059604645
0.4000000059604645
0.4000000059604645
0.4000000059604645
0.4000000059604645
0.4000000059604645
0.4000000059604645
0.4000000059604645
0.4000000059604645
0.4000000059604645
0.4000000059604645
0.4000000059604645
0.4000000059604645
0.4000000059604645
0.4000000059604645
0.4000000059604645
0.4000000059604645
0.4000000059604645
0.4000000059604645
0.4000000059604645
0.4000000059604645
0.4000000059604645
0.4000000059604645
0.4000000059604645
0.4000000059604645
0.4000000059604645
0.4000000059604645
0.4000000059604645
0.4000000059604645
0.4000000059604645
0.4000000059604645
0.4000000059604645
0.4000000059604645
0.4000000059604645
0.4000000059604645
0.4000000059604645
0.4000000059604645
0.4000000059604645
0.4000000059604645
0.4000000059604645
0.4000000059604645
0.4000000059604645
0.4000000059604645
0.4000000059604645
0.4000000059604645
0.4000000059604645
0.4000000059604645
0.4000000059604645
0.4000000059604645
0.4000000059604645
0.4000000059604645
0.4000000059604645
0.4000000059604645
0.4000000059604645
0.4000000059604645
0.4000000059604645
0.4000000059604645
0.4000000059604645
0.4000000059604645
0.4000000059604645
0.4000000059604645
0.4000000059604645
0.4000000059604645
0.4000000059604645
0.4000000059604645
0.4000000059604645
0.4000000059604645
0.4000000059604645
0.4000000059604645
0.4000000059604645
0.4000000059604645
0.4000000059604645
0.4000000059604645
0.4000000059604645
0.4000000059604645
0.4000000059604645
0.4000000059604645
0.4000000059604645
0.4000000059604645
0.4000000059604645
0.4000000059604645
0.4000000059604645
0.4000000059604645
0.4000000059604645
0.4000000059604645
0.4000000059604645
0.4000000059604645
0.4000000059604645
0.4000000059604645
0.4000000059604645
0.4000000059604645
0.4000000059604645
0.4000000059604645
0.4000000059604645
0.4000000059604645
0.4000000059604645
0.4000000059604645
0.4000000059604645
0.4000000059604645
0.4000000059604645
0.4000000059604645
0.4000000059604645
0.4000000059604645
0.4000000059604645
0.4000000059604645
0.4000000059604645
0.4000000059604645
0.4000000059604645
0.4000000059604645
0.4000000059604645
0.4000000059604645
0.4000000059604645
0.4000000059604645
0.4000000059604645
0.4000000059604645
0.4000000059604645
0.4000000059604645
0.4000000059604645
0.4000000059604645
0.4000000059604645
0.4000000059604645
0.4000000059604645
0.4000000059604645
0.4000000059604645
0.4000000059604645
0.4000000059604645
0.4000000059604645
0.4000000059604645
0.4000000059604645
0.4000000059604645
0.4000000059604645
0.4000000059604645
0.4000000059604645
0.4000000059604645
0.4000000059604645
0.4000000059604645
0.4000000059604645
0.4000000059604645
0.4000000059604645
0.4000000059604645
0.4000000059604645
0.4000000059604645
0.4000000059604645
0.4000000059604645
0.4000000059604645
0.4000000059604645
0.4000000059604645
0.4000000059604645
0.4000000059604645
0.4000000059604645
0.4000000059604645
0.4000000059604645
0.4000000059604645
0.4000000059604645
0.4000000059604645
0.4000000059604645
0.4000000059604645
0.4000000059604645
0.4000000059604645
0.4000000059604645
0.4000000059604645
0.4000000059604645
0.4000000059604645
0.4000000059604645
0.4000000059604645
0.4000000059604645
0.4000000059604645
0.4000000059604645
0.4000000059604645
0.4000000059604645
0.4000000059604645
0.4000000059604645
0.4000000059604645
0.4000000059604645
0.4000000059604645
0.4000000059604645
0.4000000059604645
0.4000000059604645
0.4000000059604645
0.4000000059604645
0.4000000059604645
0.4000000059604645
0.4000000059604645
0.4000000059604645
0.4000000059604645
0.4000000059604645
0.4000000059604645
0.4000000059604645
0.4000000059604645
0.4000000059604645
0.4000000059604645
0.4000000059604645
0.4000000059604645
0.4000000059604645
0.4000000059604645
0.4000000059604645
0.4000000059604645
0.4000000059604645
0.4000000059604645
0.4000000059604645
0.4000000059604645
0.4000000059604645
0.4000000059604645
0.4000000059604645
0.4000000059604645
0.4000000059604645
0.4000000059604645
0.4000000059604645
0.4000000059604645
0.4000000059604645
0.4000000059604645
0.4000000059604645
0.4000000059604645
0.4000000059604645
0.4000000059604645
0.4000000059604645
0.4000000059604645
0.4000000059604645
0.4000000059604645
0.4000000059604645
0.4000000059604645
0.4000000059604645
0.4000000059604645
0.4000000059604645
0.4000000059604645
0.4000000059604645
0.4000000059604645
0.4000000059604645
0.4000000059604645
0.4000000059604645
0.4000000059604645
0.4000000059604645
0.4000000059604645
0.4000000059604645
0.4000000059604645
0.4000000059604645
0.4000000059604645
0.4000000059604645
0.4000000059604645
0.4000000059604645
0.4000000059604645
0.4000000059604645
0.4000000059604645
0.4000000059604645
0.4000000059604645
0.4000000059604645
0.4000000059604645
0.4000000059604645
0.4000000059604645
0.4000000059604645
0.4000000059604645
0.4000000059604645
0.4000000059604645
0.4000000059604645
0.4000000059604645
0.4000000059604645
0.4000000059604645
0.4000000059604645
0.4000000059604645
0.4000000059604645
0.4000000059604645
0.4000000059604645
0.4000000059604645
0.4000000059604645
0.4000000059604645
0.4000000059604645
0.4000000059604645
0.4000000059604645
0.4000000059604645
0.4000000059604645
0.4000000059604645
0.4000000059604645
0.4000000059604645
0.4000000059604645
0.4000000059604645
0.4000000059604645
0.4000000059604645
0.4000000059604645
0.4000000059604645
0.4000000059604645
0.4000000059604645
0.4000000059604645
0.4000000059604645
0.4000000059604645
0.4000000059604645
0.4000000059604645
0.4000000059604645
0.4000000059604645
0.4000000059604645
0.4000000059604645
0.4000000059604645
0.4000000059604645
0.4000000059604645
0.4000000059604645
0.4000000059604645
0.4000000059604645
0.4000000059604645
0.4000000059604645
0.4000000059604645
0.4000000059604645
0.4000000059604645
0.4000000059604645
0.4000000059604645
0.4000000059604645
0.4000000059604645
0.4000000059604645
0.4000000059604645
0.4000000059604645
0.4000000059604645
0.4000000059604645
0.4000000059604645
0.4000000059604645
0.4000000059604645
0.4000000059604645
0.4000000059604645
0.4000000059604645
0.4000000059604645
0.4000000059604645
0.4000000059604645
0.4000000059604645
0.4000000059604645
0.4000000059604645
0.4000000059604645
0.4000000059604645
0.4000000059604645
0.4000000059604645
0.4000000059604645
0.4000000059604645
0.4000000059604645
0.4000000059604645
0.4000000059604645
0.4000000059604645
0.4000000059604645
0.4000000059604645
0.4000000059604645
0.4000000059604645
0.4000000059604645
0.4000000059604645
0.4000000059604645
0.4000000059604645
0.4000000059604645
0.4000000059604645
0.4000000059604645
0.4000000059604645
0.4000000059604645
0.4000000059604645
0.4000000059604645
0.4000000059604645
0.4000000059604645
0.4000000059604645
0.4000000059604645
0.4000000059604645
0.4000000059604645
0.4000000059604645
0.4000000059604645
0.4000000059604645
0.4000000059604645
0.4000000059604645
0.4000000059604645
0.4000000059604645
0.4000000059604645
0.4000000059604645
0.4000000059604645
0.4000000059604645
0.4000000059604645
0.4000000059604645
0.4000000059604645
0.4000000059604645
0.4000000059604645
0.4000000059604645
0.4000000059604645
0.4000000059604645
0.4000000059604645
0.4000000059604645
0.4000000059604645
0.4000000059604645
0.4000000059604645
0.4000000059604645
0.4000000059604645
0.4000000059604645
0.4000000059604645
0.4000000059604645
0.4000000059604645
0.4000000059604645
0.4000000059604645
0.4000000059604645
0.4000000059604645
0.4000000059604645
0.4000000059604645
0.4000000059604645
0.4000000059604645
0.4000000059604645
0.4000000059604645
0.4000000059604645
0.4000000059604645
0.4000000059604645
0.4000000059604645
0.4000000059604645
0.4000000059604645
0.4000000059604645
0.4000000059604645
0.4000000059604645
0.4000000059604645
0.4000000059604645
0.4000000059604645
0.4000000059604645
0.4000000059604645
0.4000000059604645
0.4000000059604645
0.4000000059604645
0.4000000059604645
0.4000000059604645
0.4000000059604645
0.4000000059604645
0.4000000059604645
0.4000000059604645
0.4000000059604645
0.4000000059604645
0.4000000059604645
0.4000000059604645
0.4000000059604645
0.4000000059604645
0.4000000059604645
0.4000000059604645
0.4000000059604645
0.4000000059604645
0.4000000059604645
0.4000000059604645
0.4000000059604645
0.4000000059604645
0.4000000059604645
0.4000000059604645
0.4000000059604645
0.4000000059604645
0.4000000059604645
0.4000000059604645
0.4000000059604645
0.4000000059604645
0.4000000059604645
0.4000000059604645
0.4000000059604645
0.4000000059604645
0.4000000059604645
0.4000000059604645
0.4000000059604645
0.4000000059604645
0.4000000059604645
0.4000000059604645
0.4000000059604645
0.4000000059604645
0.4000000059604645
0.4000000059604645
0.4000000059604645
0.4000000059604645
0.4000000059604645
0.4000000059604645
0.4000000059604645
0.4000000059604645
0.4000000059604645
0.4000000059604645
0.4000000059604645
0.4000000059604645
0.4000000059604645
0.4000000059604645
0.4000000059604645
0.4000000059604645
0.4000000059604645
0.4000000059604645
0.4000000059604645
0.4000000059604645
0.4000000059604645
0.4000000059604645
0.4000000059604645
0.4000000059604645
0.4000000059604645
0.4000000059604645
0.4000000059604645
0.4000000059604645
0.4000000059604645
0.4000000059604645
0.4000000059604645
0.4000000059604645
0.4000000059604645
0.4000000059604645
0.4000000059604645
0.4000000059604645
0.4000000059604645
0.4000000059604645
0.4000000059604645
0.4000000059604645
0.4000000059604645
0.4000000059604645
0.4000000059604645
0.4000000059604645
0.4000000059604645
0.4000000059604645
0.4000000059604645
0.4000000059604645
0.4000000059604645
0.4000000059604645
0.4000000059604645
0.4000000059604645
0.4000000059604645
0.4000000059604645
0.4000000059604645
0.4000000059604645
0.4000000059604645
0.4000000059604645
0.4000000059604645
0.4000000059604645
0.4000000059604645
0.4000000059604645
0.4000000059604645
0.4000000059604645
0.4000000059604645
0.4000000059604645
0.4000000059604645
0.4000000059604645
0.4000000059604645
0.4000000059604645
0.4000000059604645
0.4000000059604645
0.4000000059604645
0.4000000059604645
0.4000000059604645
0.4000000059604645
0.4000000059604645
0.4000000059604645
0.4000000059604645
0.4000000059604645
0.4000000059604645
0.4000000059604645
0.4000000059604645
0.4000000059604645
0.4000000059604645
0.4000000059604645
0.4000000059604645
0.4000000059604645
0.4000000059604645
0.4000000059604645
0.4000000059604645
0.4000000059604645
0.4000000059604645
0.4000000059604645
0.4000000059604645
0.4000000059604645
0.4000000059604645
0.4000000059604645
0.4000000059604645
0.4000000059604645
0.4000000059604645
0.4000000059604645
0.4000000059604645
0.4000000059604645
0.4000000059604645
0.4000000059604645
0.4000000059604645
0.4000000059604645
0.4000000059604645
0.4000000059604645
0.4000000059604645
0.4000000059604645
0.4000000059604645
0.4000000059604645
0.4000000059604645
0.4000000059604645
0.4000000059604645
0.4000000059604645
0.4000000059604645
0.4000000059604645
0.4000000059604645
0.4000000059604645
0.4000000059604645
0.4000000059604645
0.4000000059604645
0.4000000059604645
0.4000000059604645
0.4000000059604645
0.4000000059604645
0.4000000059604645
0.4000000059604645
0.4000000059604645
0.4000000059604645
0.4000000059604645
0.4000000059604645
0.4000000059604645
0.4000000059604645
0.4000000059604645
0.4000000059604645
0.4000000059604645
0.4000000059604645
0.4000000059604645
0.4000000059604645
0.4000000059604645
0.4000000059604645
0.4000000059604645
0.4000000059604645
0.4000000059604645
0.4000000059604645
0.4000000059604645
0.4000000059604645
0.4000000059604645
0.4000000059604645
0.4000000059604645
0.4000000059604645
0.4000000059604645
0.4000000059604645
0.4000000059604645
0.4000000059604645
0.4000000059604645
0.4000000059604645
0.4000000059604645
0.4000000059604645
0.4000000059604645
0.4000000059604645
0.4000000059604645
0.4000000059604645
0.4000000059604645
0.4000000059604645
0.4000000059604645
0.4000000059604645
0.4000000059604645
0.4000000059604645
0.4000000059604645
0.4000000059604645
0.4000000059604645
0.4000000059604645
0.4000000059604645
0.4000000059604645
0.4000000059604645
0.4000000059604645
0.4000000059604645
0.4000000059604645
0.4000000059604645
0.4000000059604645
0.4000000059604645
0.4000000059604645
0.4000000059604645
0.4000000059604645
0.4000000059604645
0.4000000059604645
0.4000000059604645
0.4000000059604645
0.4000000059604645
0.4000000059604645
0.4000000059604645
0.4000000059604645
0.4000000059604645
0.4000000059604645
0.4000000059604645
0.4000000059604645
0.4000000059604645
0.4000000059604645
0.4000000059604645
0.4000000059604645
0.4000000059604645
0.4000000059604645
0.4000000059604645
0.4000000059604645
0.4000000059604645
0.4000000059604645
0.4000000059604645
0.4000000059604645
0.4000000059604645
0.4000000059604645
0.4000000059604645
0.4000000059604645
0.4000000059604645
0.4000000059604645
0.4000000059604645
0.4000000059604645
0.4000000059604645
0.4000000059604645
0.4000000059604645
0.4000000059604645
0.4000000059604645
0.4000000059604645
0.4000000059604645
0.4000000059604645
0.4000000059604645
0.4000000059604645
0.4000000059604645
0.4000000059604645
0.4000000059604645
0.4000000059604645
0.4000000059604645
0.4000000059604645
0.4000000059604645
0.4000000059604645
0.4000000059604645
0.4000000059604645
0.4000000059604645
0.4000000059604645
0.4000000059604645
0.4000000059604645
0.4000000059604645
0.4000000059604645
0.4000000059604645
0.4000000059604645
0.4000000059604645
0.4000000059604645
0.4000000059604645
0.4000000059604645
0.4000000059604645
0.4000000059604645
0.4000000059604645
0.4000000059604645
0.4000000059604645
0.4000000059604645
0.4000000059604645
0.4000000059604645
0.4000000059604645
0.4000000059604645
0.4000000059604645
0.4000000059604645
0.4000000059604645
0.4000000059604645
0.4000000059604645
0.4000000059604645
0.4000000059604645
0.4000000059604645
0.4000000059604645
0.4000000059604645
0.4000000059604645
0.4000000059604645
0.4000000059604645
0.4000000059604645
0.4000000059604645
0.4000000059604645
0.4000000059604645
0.4000000059604645
0.4000000059604645
0.4000000059604645
0.4000000059604645
0.4000000059604645
0.4000000059604645
0.4000000059604645
0.4000000059604645
0.4000000059604645
0.4000000059604645
0.4000000059604645
0.4000000059604645
0.4000000059604645
0.4000000059604645
0.4000000059604645
0.4000000059604645
0.4000000059604645
0.4000000059604645
0.4000000059604645
0.4000000059604645
0.4000000059604645
0.4000000059604645
0.4000000059604645
0.4000000059604645
0.4000000059604645
0.4000000059604645
0.4000000059604645
0.4000000059604645
0.4000000059604645
0.4000000059604645
0.4000000059604645
0.4000000059604645
0.4000000059604645
0.4000000059604645
0.4000000059604645
0.4000000059604645
0.4000000059604645
0.4000000059604645
0.4000000059604645
0.4000000059604645
0.4000000059604645
0.4000000059604645
0.4000000059604645
0.4000000059604645
0.4000000059604645
0.4000000059604645
0.4000000059604645
0.4000000059604645
0.4000000059604645
0.4000000059604645
0.4000000059604645
0.4000000059604645
0.4000000059604645
0.4000000059604645
0.4000000059604645
0.4000000059604645
0.4000000059604645
0.4000000059604645
0.4000000059604645
0.4000000059604645
0.4000000059604645
0.4000000059604645
0.4000000059604645
0.4000000059604645
0.4000000059604645
0.4000000059604645
0.4000000059604645
0.4000000059604645
0.4000000059604645
0.4000000059604645
0.4000000059604645
0.4000000059604645
0.4000000059604645
0.4000000059604645
0.4000000059604645
0.4000000059604645
0.4000000059604645
0.4000000059604645
0.4000000059604645
0.4000000059604645
0.4000000059604645
0.4000000059604645
0.4000000059604645
0.4000000059604645
0.4000000059604645
0.4000000059604645
0.4000000059604645
0.4000000059604645
0.4000000059604645
0.4000000059604645
0.4000000059604645
0.4000000059604645
0.4000000059604645
0.4000000059604645
0.4000000059604645
0.4000000059604645
0.4000000059604645
0.4000000059604645
0.4000000059604645
0.4000000059604645
0.4000000059604645
0.4000000059604645
0.4000000059604645
0.4000000059604645
0.4000000059604645
0.4000000059604645
0.4000000059604645
0.4000000059604645
0.4000000059604645
0.4000000059604645
0.4000000059604645
0.4000000059604645
0.4000000059604645
0.4000000059604645
0.4000000059604645
0.4000000059604645
0.4000000059604645
0.4000000059604645
0.4000000059604645
0.4000000059604645
0.4000000059604645
0.4000000059604645
0.4000000059604645
0.4000000059604645
0.4000000059604645
0.4000000059604645
0.4000000059604645
0.4000000059604645
0.4000000059604645
0.4000000059604645
0.4000000059604645
0.4000000059604645
0.4000000059604645
0.4000000059604645
0.4000000059604645
0.4000000059604645
0.4000000059604645
0.4000000059604645
0.4000000059604645
0.4000000059604645
0.4000000059604645
0.4000000059604645
0.4000000059604645
0.4000000059604645
0.4000000059604645
0.4000000059604645
0.4000000059604645
0.4000000059604645
0.4000000059604645
0.4000000059604645
0.4000000059604645
0.4000000059604645
0.4000000059604645
0.4000000059604645
0.4000000059604645
0.4000000059604645
0.4000000059604645
0.4000000059604645
0.4000000059604645
0.4000000059604645
0.4000000059604645
0.4000000059604645
0.4000000059604645
0.4000000059604645
0.4000000059604645
0.4000000059604645
0.4000000059604645
0.4000000059604645
0.4000000059604645
0.4000000059604645
0.4000000059604645
0.4000000059604645
0.4000000059604645
0.4000000059604645
0.4000000059604645
0.4000000059604645
0.4000000059604645
0.4000000059604645
0.4000000059604645
0.4000000059604645
0.4000000059604645
0.4000000059604645
0.4000000059604645
0.4000000059604645
0.4000000059604645
0.4000000059604645
0.4000000059604645
0.4000000059604645
0.4000000059604645
0.4000000059604645
0.4000000059604645
0.4000000059604645
0.4000000059604645
0.4000000059604645
0.4000000059604645
0.4000000059604645
0.4000000059604645
0.4000000059604645
0.4000000059604645
0.4000000059604645
0.4000000059604645
0.4000000059604645
0.4000000059604645
0.4000000059604645
0.4000000059604645
0.4000000059604645
0.4000000059604645
0.4000000059604645
0.4000000059604645
0.4000000059604645
0.4000000059604645
0.4000000059604645
0.4000000059604645
0.4000000059604645
0.4000000059604645
0.4000000059604645
0.4000000059604645
0.4000000059604645
0.4000000059604645
0.4000000059604645
0.4000000059604645
0.4000000059604645
0.4000000059604645
0.4000000059604645
0.4000000059604645
0.4000000059604645
0.4000000059604645
0.4000000059604645
0.4000000059604645
0.4000000059604645
0.4000000059604645
0.4000000059604645
0.4000000059604645
0.4000000059604645
0.4000000059604645
0.4000000059604645
0.4000000059604645
0.4000000059604645
0.4000000059604645
0.4000000059604645
0.4000000059604645
0.4000000059604645
0.4000000059604645
0.4000000059604645
0.4000000059604645
0.4000000059604645
0.4000000059604645
0.4000000059604645
0.4000000059604645
0.4000000059604645
0.4000000059604645
0.4000000059604645
0.4000000059604645
0.4000000059604645
0.4000000059604645
0.4000000059604645
0.4000000059604645
0.4000000059604645
0.4000000059604645
0.4000000059604645
0.4000000059604645
0.4000000059604645
0.4000000059604645
0.4000000059604645
0.4000000059604645
0.4000000059604645
0.4000000059604645
0.4000000059604645
0.4000000059604645
0.4000000059604645
0.4000000059604645
0.4000000059604645
0.4000000059604645
0.4000000059604645
0.4000000059604645
0.4000000059604645
0.4000000059604645
0.4000000059604645
0.4000000059604645
0.4000000059604645
0.4000000059604645
0.4000000059604645
0.4000000059604645
0.4000000059604645
0.4000000059604645
0.4000000059604645
0.4000000059604645
0.4000000059604645
0.4000000059604645
0.4000000059604645
0.4000000059604645
0.4000000059604645
0.4000000059604645
0.4000000059604645
0.4000000059604645
0.4000000059604645
0.4000000059604645
0.4000000059604645
0.4000000059604645
0.4000000059604645
0.4000000059604645
0.4000000059604645
0.4000000059604645
0.4000000059604645
0.4000000059604645
0.4000000059604645
0.4000000059604645
0.4000000059604645
0.4000000059604645
0.4000000059604645
0.4000000059604645
0.4000000059604645
0.4000000059604645
0.4000000059604645
0.4000000059604645
0.4000000059604645
0.4000000059604645
0.4000000059604645
0.4000000059604645
0.4000000059604645
0.4000000059604645
0.4000000059604645
0.4000000059604645
0.4000000059604645
0.4000000059604645
0.4000000059604645
0.4000000059604645
0.4000000059604645
0.4000000059604645
0.4000000059604645
0.4000000059604645
0.4000000059604645
0.4000000059604645
0.4000000059604645
0.4000000059604645
0.4000000059604645
0.4000000059604645
0.4000000059604645
0.4000000059604645
0.4000000059604645
0.4000000059604645
0.4000000059604645
0.4000000059604645
0.4000000059604645
0.4000000059604645
0.4000000059604645
0.4000000059604645
0.4000000059604645
0.4000000059604645
0.4000000059604645
0.4000000059604645
0.4000000059604645
0.4000000059604645
0.4000000059604645
0.4000000059604645
0.4000000059604645
0.4000000059604645
0.4000000059604645
0.4000000059604645
0.4000000059604645
0.4000000059604645
0.4000000059604645
0.4000000059604645
0.4000000059604645
0.4000000059604645
0.4000000059604645
0.4000000059604645
0.4000000059604645
0.4000000059604645
0.4000000059604645
0.4000000059604645
0.4000000059604645
0.4000000059604645
0.4000000059604645
0.4000000059604645
0.4000000059604645
0.4000000059604645
0.4000000059604645
0.4000000059604645
0.4000000059604645
0.4000000059604645
0.4000000059604645
0.4000000059604645
0.4000000059604645
0.4000000059604645
0.4000000059604645
0.4000000059604645
0.4000000059604645
0.4000000059604645
0.4000000059604645
0.4000000059604645
0.4000000059604645
0.4000000059604645
0.4000000059604645
0.4000000059604645
0.4000000059604645
0.4000000059604645
0.4000000059604645
0.4000000059604645
0.4000000059604645
0.4000000059604645
0.4000000059604645
0.4000000059604645
0.4000000059604645
0.4000000059604645
0.4000000059604645
0.4000000059604645
0.4000000059604645
0.4000000059604645
0.4000000059604645
0.4000000059604645
0.4000000059604645
0.4000000059604645
0.4000000059604645
0.4000000059604645
0.4000000059604645
0.4000000059604645
0.4000000059604645
0.4000000059604645
0.4000000059604645
0.4000000059604645
0.4000000059604645
0.4000000059604645
0.4000000059604645
0.4000000059604645
0.4000000059604645
0.4000000059604645
0.4000000059604645
0.4000000059604645
0.4000000059604645
0.4000000059604645
0.4000000059604645
0.4000000059604645
0.4000000059604645
0.4000000059604645
0.4000000059604645
0.4000000059604645
0.4000000059604645
0.4000000059604645
0.4000000059604645
0.4000000059604645
0.4000000059604645
0.4000000059604645
0.4000000059604645
0.4000000059604645
0.4000000059604645
0.4000000059604645
0.4000000059604645
0.4000000059604645
0.4000000059604645
0.4000000059604645
0.4000000059604645
0.4000000059604645
0.4000000059604645
0.4000000059604645
0.4000000059604645
0.4000000059604645
0.4000000059604645
0.4000000059604645
0.4000000059604645
0.4000000059604645
0.4000000059604645
0.4000000059604645
0.4000000059604645
0.4000000059604645
0.4000000059604645
0.4000000059604645
0.4000000059604645
0.4000000059604645
0.4000000059604645
0.4000000059604645
0.4000000059604645
0.4000000059604645
0.4000000059604645
0.4000000059604645
0.4000000059604645
0.4000000059604645
0.4000000059604645
0.4000000059604645
0.4000000059604645
0.4000000059604645
0.4000000059604645
0.4000000059604645
0.4000000059604645
0.4000000059604645
0.4000000059604645
0.4000000059604645
0.4000000059604645
0.4000000059604645
0.4000000059604645
0.4000000059604645
0.4000000059604645
0.4000000059604645
0.4000000059604645
0.4000000059604645
0.4000000059604645
0.4000000059604645
0.4000000059604645
0.4000000059604645
0.4000000059604645
0.4000000059604645
0.4000000059604645
0.4000000059604645
0.4000000059604645
0.4000000059604645
0.4000000059604645
0.4000000059604645
0.4000000059604645
0.4000000059604645
0.4000000059604645
0.4000000059604645
0.4000000059604645
0.4000000059604645
0.4000000059604645
0.4000000059604645
0.4000000059604645
0.4000000059604645
0.4000000059604645
0.4000000059604645
0.4000000059604645
0.4000000059604645
0.4000000059604645
0.4000000059604645
0.4000000059604645
0.4000000059604645
0.4000000059604645
0.4000000059604645
0.4000000059604645
0.4000000059604645
0.4000000059604645
0.4000000059604645
0.4000000059604645
0.4000000059604645
0.4000000059604645
0.4000000059604645
0.4000000059604645
0.4000000059604645
0.4000000059604645
0.4000000059604645
0.4000000059604645
0.4000000059604645
0.4000000059604645
0.4000000059604645
0.4000000059604645
0.4000000059604645
0.4000000059604645
0.4000000059604645
0.4000000059604645
0.4000000059604645
0.4000000059604645
0.4000000059604645
0.4000000059604645
0.4000000059604645
0.4000000059604645
0.4000000059604645
0.4000000059604645
0.4000000059604645
0.4000000059604645
0.4000000059604645
0.4000000059604645
0.4000000059604645
0.4000000059604645
0.4000000059604645
0.4000000059604645
0.4000000059604645
0.4000000059604645
0.4000000059604645
0.4000000059604645
0.4000000059604645
0.4000000059604645
0.4000000059604645
0.4000000059604645
0.4000000059604645
0.4000000059604645
0.4000000059604645
0.4000000059604645
0.4000000059604645
0.4000000059604645
0.4000000059604645
0.4000000059604645
0.4000000059604645
0.4000000059604645
0.4000000059604645
0.4000000059604645
0.4000000059604645
0.4000000059604645
0.4000000059604645
0.4000000059604645
0.4000000059604645
0.4000000059604645
0.4000000059604645
0.4000000059604645
0.4000000059604645
0.4000000059604645
0.4000000059604645
0.4000000059604645
0.4000000059604645
0.4000000059604645
0.4000000059604645
0.4000000059604645
0.4000000059604645
0.4000000059604645
0.4000000059604645
0.4000000059604645
0.4000000059604645
0.4000000059604645
0.4000000059604645
0.4000000059604645
0.4000000059604645
0.4000000059604645
0.4000000059604645
0.4000000059604645
0.4000000059604645
0.4000000059604645
0.4000000059604645
0.4000000059604645
0.4000000059604645
0.4000000059604645
0.4000000059604645
0.4000000059604645
0.4000000059604645
0.4000000059604645
0.4000000059604645
0.4000000059604645
0.4000000059604645
0.4000000059604645
0.4000000059604645
0.4000000059604645
0.4000000059604645
0.4000000059604645
0.4000000059604645
0.4000000059604645
0.4000000059604645
0.4000000059604645
0.4000000059604645
0.4000000059604645
0.4000000059604645
0.4000000059604645
0.4000000059604645
0.4000000059604645
0.4000000059604645
0.4000000059604645
0.4000000059604645
0.4000000059604645
0.4000000059604645
0.4000000059604645
0.4000000059604645
0.4000000059604645
0.4000000059604645
0.4000000059604645
0.4000000059604645
0.4000000059604645
0.4000000059604645
0.4000000059604645
0.4000000059604645
0.4000000059604645
0.4000000059604645
0.4000000059604645
0.4000000059604645
0.4000000059604645
0.4000000059604645
0.4000000059604645
0.4000000059604645
0.4000000059604645
0.4000000059604645
0.4000000059604645
0.4000000059604645
0.4000000059604645
0.4000000059604645
0.4000000059604645
0.4000000059604645
0.4000000059604645
0.4000000059604645
0.4000000059604645
0.4000000059604645
0.4000000059604645
0.4000000059604645
0.4000000059604645
0.4000000059604645
0.4000000059604645
0.4000000059604645
0.4000000059604645
0.4000000059604645
0.4000000059604645
0.4000000059604645
0.4000000059604645
0.4000000059604645
0.4000000059604645
0.4000000059604645
0.4000000059604645
0.4000000059604645
0.4000000059604645
0.4000000059604645
0.4000000059604645
0.4000000059604645
0.4000000059604645
0.4000000059604645
0.4000000059604645
0.4000000059604645
0.4000000059604645
0.4000000059604645
0.4000000059604645
0.4000000059604645
0.4000000059604645
0.4000000059604645
0.4000000059604645
0.4000000059604645
0.4000000059604645
0.4000000059604645
0.4000000059604645
0.4000000059604645
0.4000000059604645
0.4000000059604645
0.4000000059604645
0.4000000059604645
0.4000000059604645
0.4000000059604645
0.4000000059604645
0.4000000059604645
0.4000000059604645
0.4000000059604645
0.4000000059604645
0.4000000059604645
0.4000000059604645
0.4000000059604645
0.4000000059604645
0.4000000059604645
0.4000000059604645
0.4000000059604645
0.4000000059604645
0.4000000059604645
0.4000000059604645
0.4000000059604645
0.4000000059604645
0.4000000059604645
0.4000000059604645
0.4000000059604645
0.4000000059604645
0.4000000059604645
0.4000000059604645
0.4000000059604645
0.4000000059604645
0.4000000059604645
0.4000000059604645
0.4000000059604645
0.4000000059604645
0.4000000059604645
0.4000000059604645
0.4000000059604645
0.4000000059604645
0.4000000059604645
0.4000000059604645
0.4000000059604645
0.4000000059604645
0.4000000059604645
0.4000000059604645
0.4000000059604645
0.4000000059604645
0.4000000059604645
0.4000000059604645
0.4000000059604645
0.4000000059604645
0.4000000059604645
0.4000000059604645
0.4000000059604645
0.4000000059604645
0.4000000059604645
0.4000000059604645
0.4000000059604645
0.4000000059604645
0.4000000059604645
0.4000000059604645
0.4000000059604645
0.4000000059604645
0.4000000059604645
0.4000000059604645
0.4000000059604645
0.4000000059604645
0.4000000059604645
0.4000000059604645
0.4000000059604645
0.4000000059604645
0.4000000059604645
0.4000000059604645
0.4000000059604645
0.4000000059604645
0.4000000059604645
0.4000000059604645
0.4000000059604645
0.4000000059604645
0.4000000059604645
0.4000000059604645
0.4000000059604645
0.4000000059604645
0.4000000059604645
0.4000000059604645
0.4000000059604645
0.4000000059604645
0.4000000059604645
0.4000000059604645
0.4000000059604645
0.4000000059604645
0.4000000059604645
0.4000000059604645
0.4000000059604645
0.4000000059604645
0.4000000059604645
0.4000000059604645
0.4000000059604645
0.4000000059604645
0.4000000059604645
0.4000000059604645
0.4000000059604645
0.4000000059604645
0.4000000059604645
0.4000000059604645
0.4000000059604645
0.4000000059604645
0.4000000059604645
0.4000000059604645
0.4000000059604645
0.4000000059604645
0.4000000059604645
0.4000000059604645
0.4000000059604645
0.4000000059604645
0.4000000059604645
0.4000000059604645
0.4000000059604645
0.4000000059604645
0.4000000059604645
0.4000000059604645
0.4000000059604645
0.4000000059604645
0.4000000059604645
0.4000000059604645
0.4000000059604645
0.4000000059604645
0.4000000059604645
0.4000000059604645
0.4000000059604645
0.4000000059604645
0.4000000059604645
0.4000000059604645
0.4000000059604645
0.4000000059604645
0.4000000059604645
0.4000000059604645
0.4000000059604645
0.4000000059604645
0.4000000059604645
0.4000000059604645
0.4000000059604645
0.4000000059604645
0.4000000059604645
0.4000000059604645
0.4000000059604645
0.4000000059604645
0.4000000059604645
0.4000000059604645
0.4000000059604645
0.4000000059604645
0.4000000059604645
0.4000000059604645
0.4000000059604645
0.4000000059604645
0.4000000059604645
0.4000000059604645
0.4000000059604645
0.4000000059604645
0.4000000059604645
0.4000000059604645
0.4000000059604645
0.4000000059604645
0.4000000059604645
0.4000000059604645
0.4000000059604645
0.4000000059604645
0.4000000059604645
0.4000000059604645
0.4000000059604645
0.4000000059604645
0.4000000059604645
0.4000000059604645
0.4000000059604645
0.4000000059604645
0.4000000059604645
0.4000000059604645
0.4000000059604645
0.4000000059604645
0.4000000059604645
0.4000000059604645
0.4000000059604645
0.4000000059604645
0.4000000059604645
0.4000000059604645
0.4000000059604645
0.4000000059604645
0.4000000059604645
0.4000000059604645
0.4000000059604645
0.4000000059604645
0.4000000059604645
0.4000000059604645
0.4000000059604645
0.4000000059604645
0.4000000059604645
0.4000000059604645
0.4000000059604645
0.4000000059604645
0.4000000059604645
0.4000000059604645
0.4000000059604645
0.4000000059604645
0.4000000059604645
0.4000000059604645
0.4000000059604645
0.4000000059604645
0.4000000059604645
0.4000000059604645
0.4000000059604645
0.4000000059604645
0.4000000059604645
0.4000000059604645
0.4000000059604645
0.4000000059604645
0.4000000059604645
0.4000000059604645
0.4000000059604645
0.4000000059604645
0.4000000059604645
0.4000000059604645
0.4000000059604645
0.4000000059604645
0.4000000059604645
0.4000000059604645
0.4000000059604645
0.4000000059604645
0.4000000059604645
0.4000000059604645
0.4000000059604645
0.4000000059604645
0.4000000059604645
0.4000000059604645
0.4000000059604645
0.4000000059604645
0.4000000059604645
0.4000000059604645
0.4000000059604645
0.4000000059604645
0.4000000059604645
0.4000000059604645
0.4000000059604645
0.4000000059604645
0.4000000059604645
0.4000000059604645
0.4000000059604645
0.4000000059604645
0.4000000059604645
0.4000000059604645
0.4000000059604645
0.4000000059604645
0.4000000059604645
0.4000000059604645
0.4000000059604645
0.4000000059604645
0.4000000059604645
0.4000000059604645
0.4000000059604645
0.4000000059604645
0.4000000059604645
0.4000000059604645
0.4000000059604645
0.4000000059604645
0.4000000059604645
0.4000000059604645
0.4000000059604645
0.4000000059604645
0.4000000059604645
0.4000000059604645
0.4000000059604645
0.4000000059604645
0.4000000059604645
0.4000000059604645
0.4000000059604645
0.4000000059604645
0.4000000059604645
0.4000000059604645
0.4000000059604645
0.4000000059604645
0.4000000059604645
0.4000000059604645
0.4000000059604645
0.4000000059604645
0.4000000059604645
0.4000000059604645
0.4000000059604645
0.4000000059604645
0.4000000059604645
0.4000000059604645
0.4000000059604645
0.4000000059604645
0.4000000059604645
0.4000000059604645
0.4000000059604645
0.4000000059604645
0.4000000059604645
0.4000000059604645
0.4000000059604645
0.4000000059604645
0.4000000059604645
0.4000000059604645
0.4000000059604645
0.4000000059604645
0.4000000059604645
0.4000000059604645
0.4000000059604645
0.4000000059604645
0.4000000059604645
0.4000000059604645
0.4000000059604645
0.4000000059604645
0.4000000059604645
0.4000000059604645
0.4000000059604645
0.4000000059604645
0.4000000059604645
0.4000000059604645
0.4000000059604645
0.4000000059604645
0.4000000059604645
0.4000000059604645
0.4000000059604645
0.4000000059604645
0.4000000059604645
0.4000000059604645
0.4000000059604645
0.4000000059604645
0.4000000059604645
0.4000000059604645
0.4000000059604645
0.4000000059604645
0.4000000059604645
0.4000000059604645
0.4000000059604645
0.4000000059604645
0.4000000059604645
0.4000000059604645
0.4000000059604645
0.4000000059604645
0.4000000059604645
0.4000000059604645
0.4000000059604645
0.4000000059604645
0.4000000059604645
0.4000000059604645
0.4000000059604645
0.4000000059604645
0.4000000059604645
0.4000000059604645
0.4000000059604645
0.4000000059604645
0.4000000059604645
0.4000000059604645
0.4000000059604645
0.4000000059604645
0.4000000059604645
0.4000000059604645
0.4000000059604645
0.4000000059604645
0.4000000059604645
0.4000000059604645
0.4000000059604645
0.4000000059604645
0.4000000059604645
0.4000000059604645
0.4000000059604645
0.4000000059604645
0.4000000059604645
0.4000000059604645
0.4000000059604645
0.4000000059604645
0.4000000059604645
0.4000000059604645
0.4000000059604645
0.4000000059604645
0.4000000059604645
0.4000000059604645
0.4000000059604645
0.4000000059604645
0.4000000059604645
0.4000000059604645
0.4000000059604645
0.4000000059604645
0.4000000059604645
0.4000000059604645
0.4000000059604645
0.4000000059604645
0.4000000059604645
0.4000000059604645
0.4000000059604645
0.4000000059604645
0.4000000059604645
0.4000000059604645
0.4000000059604645
0.4000000059604645
0.4000000059604645
0.4000000059604645
0.4000000059604645
0.4000000059604645
0.4000000059604645
0.4000000059604645
0.4000000059604645
0.4000000059604645
0.4000000059604645
0.4000000059604645
0.4000000059604645
0.4000000059604645
0.4000000059604645
0.4000000059604645
0.4000000059604645
0.4000000059604645
0.4000000059604645
0.4000000059604645
0.4000000059604645
0.4000000059604645
0.4000000059604645
0.4000000059604645
0.4000000059604645
0.4000000059604645
0.4000000059604645
0.4000000059604645
0.4000000059604645
0.4000000059604645
0.4000000059604645
0.4000000059604645
0.4000000059604645
0.4000000059604645
0.4000000059604645
0.4000000059604645
0.4000000059604645
0.4000000059604645
0.4000000059604645
0.4000000059604645
0.4000000059604645
0.4000000059604645
0.4000000059604645
0.4000000059604645
0.4000000059604645
0.4000000059604645
0.4000000059604645
0.4000000059604645
0.4000000059604645
0.4000000059604645
0.4000000059604645
0.4000000059604645
0.4000000059604645
0.4000000059604645
0.4000000059604645
0.4000000059604645
0.4000000059604645
0.4000000059604645
0.4000000059604645
0.4000000059604645
0.4000000059604645
0.4000000059604645
0.4000000059604645
0.4000000059604645
0.4000000059604645
0.4000000059604645
0.4000000059604645
0.4000000059604645
0.4000000059604645
0.4000000059604645
0.4000000059604645
0.4000000059604645
0.4000000059604645
0.4000000059604645
0.4000000059604645
0.4000000059604645
0.4000000059604645
0.4000000059604645
0.4000000059604645
0.4000000059604645
0.4000000059604645
0.4000000059604645
0.4000000059604645
0.4000000059604645
0.4000000059604645
0.4000000059604645
0.4000000059604645
0.4000000059604645
0.4000000059604645
0.4000000059604645
0.4000000059604645
0.4000000059604645
0.4000000059604645
0.4000000059604645
0.4000000059604645
0.4000000059604645
0.4000000059604645
0.4000000059604645
0.4000000059604645
0.4000000059604645
0.4000000059604645
0.4000000059604645
0.4000000059604645
0.4000000059604645
0.4000000059604645
0.4000000059604645
0.4000000059604645
0.4000000059604645
0.4000000059604645
0.4000000059604645
0.4000000059604645
0.4000000059604645
0.4000000059604645
0.4000000059604645
0.4000000059604645
0.4000000059604645
0.4000000059604645
0.4000000059604645
0.4000000059604645
0.4000000059604645
0.4000000059604645
0.4000000059604645
0.4000000059604645
0.4000000059604645
0.4000000059604645
0.4000000059604645
0.4000000059604645
0.4000000059604645
0.4000000059604645
0.4000000059604645
0.4000000059604645
0.4000000059604645
0.4000000059604645
0.4000000059604645
0.4000000059604645
0.4000000059604645
0.4000000059604645
0.4000000059604645
0.4000000059604645
0.4000000059604645
0.4000000059604645
0.4000000059604645
0.4000000059604645
0.4000000059604645
0.4000000059604645
0.4000000059604645
0.4000000059604645
0.4000000059604645
0.4000000059604645
0.4000000059604645
0.4000000059604645
0.4000000059604645
0.4000000059604645
0.4000000059604645
0.4000000059604645
0.4000000059604645
0.4000000059604645
0.4000000059604645
0.4000000059604645
0.4000000059604645
0.4000000059604645
0.4000000059604645
0.4000000059604645
0.4000000059604645
0.4000000059604645
0.4000000059604645
0.4000000059604645
0.4000000059604645
0.4000000059604645
0.4000000059604645
0.4000000059604645
0.4000000059604645
0.4000000059604645
0.4000000059604645
0.4000000059604645
0.4000000059604645
0.4000000059604645
0.4000000059604645
0.4000000059604645
0.4000000059604645
0.4000000059604645
0.4000000059604645
0.4000000059604645
0.4000000059604645
0.4000000059604645
0.4000000059604645
0.4000000059604645
0.4000000059604645
0.4000000059604645
0.4000000059604645
0.4000000059604645
0.4000000059604645
0.4000000059604645
0.4000000059604645
0.4000000059604645
0.4000000059604645
0.4000000059604645
0.4000000059604645
0.4000000059604645
0.4000000059604645
0.4000000059604645
0.4000000059604645
0.4000000059604645
0.4000000059604645
0.4000000059604645
0.4000000059604645
0.4000000059604645
0.4000000059604645
0.4000000059604645
0.4000000059604645
0.4000000059604645
0.4000000059604645
0.4000000059604645
0.4000000059604645
0.4000000059604645
0.4000000059604645
0.4000000059604645
0.4000000059604645
0.4000000059604645
0.4000000059604645
0.4000000059604645
0.4000000059604645
0.4000000059604645
0.4000000059604645
0.4000000059604645
0.4000000059604645
0.4000000059604645
0.4000000059604645
0.4000000059604645
0.4000000059604645
0.4000000059604645
0.4000000059604645
0.4000000059604645
0.4000000059604645
0.4000000059604645
0.4000000059604645
0.4000000059604645
0.4000000059604645
0.4000000059604645
0.4000000059604645
0.4000000059604645
0.4000000059604645
0.4000000059604645
0.4000000059604645
0.4000000059604645
0.4000000059604645
0.4000000059604645
0.4000000059604645
0.4000000059604645
0.4000000059604645
0.4000000059604645
0.4000000059604645
0.4000000059604645
0.4000000059604645
0.4000000059604645
0.4000000059604645
0.4000000059604645
0.4000000059604645
0.4000000059604645
0.4000000059604645
0.4000000059604645
0.4000000059604645
0.4000000059604645
0.4000000059604645
0.4000000059604645
0.4000000059604645
0.4000000059604645
0.4000000059604645
0.4000000059604645
0.4000000059604645
0.4000000059604645
0.4000000059604645
0.4000000059604645
0.4000000059604645
0.4000000059604645
0.4000000059604645
0.4000000059604645
0.4000000059604645
0.4000000059604645
0.4000000059604645
0.4000000059604645
0.4000000059604645
0.4000000059604645
0.4000000059604645
0.4000000059604645
0.4000000059604645
0.4000000059604645
0.4000000059604645
0.4000000059604645
0.4000000059604645
0.4000000059604645
0.4000000059604645
0.4000000059604645
0.4000000059604645
0.4000000059604645
0.4000000059604645
0.4000000059604645
0.4000000059604645
0.4000000059604645
0.4000000059604645
0.4000000059604645
0.4000000059604645
0.4000000059604645
0.4000000059604645
0.4000000059604645
0.4000000059604645
0.4000000059604645
0.4000000059604645
0.4000000059604645
0.4000000059604645
0.4000000059604645
0.4000000059604645
0.4000000059604645
0.4000000059604645
0.4000000059604645
0.4000000059604645
0.4000000059604645
0.4000000059604645
0.4000000059604645
0.4000000059604645
0.4000000059604645
0.4000000059604645
0.4000000059604645
0.4000000059604645
0.4000000059604645
0.4000000059604645
0.4000000059604645
0.4000000059604645
0.4000000059604645
0.4000000059604645
0.4000000059604645
0.4000000059604645
0.4000000059604645
0.4000000059604645
0.4000000059604645
0.4000000059604645
0.4000000059604645
0.4000000059604645
0.4000000059604645
0.4000000059604645
0.4000000059604645
0.4000000059604645
0.4000000059604645
0.4000000059604645
0.4000000059604645
0.4000000059604645
0.4000000059604645
0.4000000059604645
0.4000000059604645
0.4000000059604645
0.4000000059604645
0.4000000059604645
0.4000000059604645
0.4000000059604645
0.4000000059604645
0.4000000059604645
0.4000000059604645
0.4000000059604645
0.4000000059604645
0.4000000059604645
0.4000000059604645
0.4000000059604645
0.4000000059604645
0.4000000059604645
0.4000000059604645
0.4000000059604645
0.4000000059604645
0.4000000059604645
0.4000000059604645
0.4000000059604645
0.4000000059604645
0.4000000059604645
0.4000000059604645
0.4000000059604645
0.4000000059604645
0.4000000059604645
0.4000000059604645
0.4000000059604645
0.4000000059604645
0.4000000059604645
0.4000000059604645
0.4000000059604645
0.4000000059604645
0.4000000059604645
0.4000000059604645
0.4000000059604645
0.4000000059604645
0.4000000059604645
0.4000000059604645
0.4000000059604645
0.4000000059604645
0.4000000059604645
0.4000000059604645
0.4000000059604645
0.4000000059604645
0.4000000059604645
0.4000000059604645
0.4000000059604645
0.4000000059604645
0.4000000059604645
0.4000000059604645
0.4000000059604645
0.4000000059604645
0.4000000059604645
0.4000000059604645
0.4000000059604645
0.4000000059604645
0.4000000059604645
0.4000000059604645
0.4000000059604645
0.4000000059604645
0.4000000059604645
0.4000000059604645
0.4000000059604645
0.4000000059604645
0.4000000059604645
0.4000000059604645
0.4000000059604645
0.4000000059604645
0.4000000059604645
0.4000000059604645
0.4000000059604645
0.4000000059604645
0.4000000059604645
0.4000000059604645
0.4000000059604645
0.4000000059604645
0.4000000059604645
0.4000000059604645
0.4000000059604645
0.4000000059604645
0.4000000059604645
0.4000000059604645
0.4000000059604645
0.4000000059604645
0.4000000059604645
0.4000000059604645
0.4000000059604645
0.4000000059604645
0.4000000059604645
0.4000000059604645
0.4000000059604645
0.4000000059604645
0.4000000059604645
0.4000000059604645
0.4000000059604645
0.4000000059604645
0.4000000059604645
0.4000000059604645
0.4000000059604645
0.4000000059604645
0.4000000059604645
0.4000000059604645
0.4000000059604645
0.4000000059604645
0.4000000059604645
0.4000000059604645
0.4000000059604645
0.4000000059604645
0.4000000059604645
0.4000000059604645
0.4000000059604645
0.4000000059604645
0.4000000059604645
0.4000000059604645
0.4000000059604645
0.4000000059604645
0.4000000059604645
0.4000000059604645
0.4000000059604645
0.4000000059604645
0.4000000059604645
0.4000000059604645
0.4000000059604645
0.4000000059604645
0.4000000059604645
0.4000000059604645
0.4000000059604645
0.4000000059604645
0.4000000059604645
0.4000000059604645
0.4000000059604645
0.4000000059604645
0.4000000059604645
0.4000000059604645
0.4000000059604645
0.4000000059604645
0.4000000059604645
0.4000000059604645
0.4000000059604645
0.4000000059604645
0.4000000059604645
0.4000000059604645
0.4000000059604645
0.4000000059604645
0.4000000059604645
0.4000000059604645
0.4000000059604645
0.4000000059604645
0.4000000059604645
0.4000000059604645
0.4000000059604645
0.4000000059604645
0.4000000059604645
0.4000000059604645
0.4000000059604645
0.4000000059604645
0.4000000059604645
0.4000000059604645
0.4000000059604645
0.4000000059604645
0.4000000059604645
0.4000000059604645
0.4000000059604645
0.4000000059604645
0.4000000059604645
0.4000000059604645
0.4000000059604645
0.4000000059604645
0.4000000059604645
0.4000000059604645
0.4000000059604645
0.4000000059604645
0.4000000059604645
0.4000000059604645
0.4000000059604645
0.4000000059604645
0.4000000059604645
0.4000000059604645
0.4000000059604645
0.4000000059604645
0.4000000059604645
0.4000000059604645
0.4000000059604645
0.4000000059604645
0.4000000059604645
0.4000000059604645
0.4000000059604645
0.4000000059604645
0.4000000059604645
0.4000000059604645
0.4000000059604645
0.4000000059604645
0.4000000059604645
0.4000000059604645
0.4000000059604645
0.4000000059604645
0.4000000059604645
0.4000000059604645
0.4000000059604645
0.4000000059604645
0.4000000059604645
0.4000000059604645
0.4000000059604645
0.4000000059604645
0.4000000059604645
0.4000000059604645
0.4000000059604645
0.4000000059604645
0.4000000059604645
0.4000000059604645
0.4000000059604645
0.4000000059604645
0.4000000059604645
0.4000000059604645
0.4000000059604645
0.4000000059604645
0.4000000059604645
0.4000000059604645
0.4000000059604645
0.4000000059604645
0.4000000059604645
0.4000000059604645
0.4000000059604645
0.4000000059604645
0.4000000059604645
0.4000000059604645
0.4000000059604645
0.4000000059604645
0.4000000059604645
0.4000000059604645
0.4000000059604645
0.4000000059604645
0.4000000059604645
0.4000000059604645
0.4000000059604645
0.4000000059604645
0.4000000059604645
0.4000000059604645
0.4000000059604645
0.4000000059604645
0.4000000059604645
0.4000000059604645
0.4000000059604645
0.4000000059604645
0.4000000059604645
0.4000000059604645
0.4000000059604645
0.4000000059604645
0.4000000059604645
0.4000000059604645
0.4000000059604645
0.4000000059604645
0.4000000059604645
0.4000000059604645
0.4000000059604645
0.4000000059604645
0.4000000059604645
0.4000000059604645
0.4000000059604645
0.4000000059604645
0.4000000059604645
0.4000000059604645
0.4000000059604645
0.4000000059604645
0.4000000059604645
0.4000000059604645
0.4000000059604645
0.4000000059604645
0.4000000059604645
0.4000000059604645
0.4000000059604645
0.4000000059604645
0.4000000059604645
0.4000000059604645
0.4000000059604645
0.4000000059604645
0.4000000059604645
0.4000000059604645
0.4000000059604645
0.4000000059604645
0.4000000059604645
0.4000000059604645
0.4000000059604645
0.4000000059604645
0.4000000059604645
0.4000000059604645
0.4000000059604645
0.4000000059604645
0.4000000059604645
0.4000000059604645
0.4000000059604645
0.4000000059604645
0.4000000059604645
0.4000000059604645
0.4000000059604645
0.4000000059604645
0.4000000059604645
0.4000000059604645
0.4000000059604645
0.4000000059604645
0.4000000059604645
0.4000000059604645
0.4000000059604645
0.4000000059604645
0.4000000059604645
0.4000000059604645
0.4000000059604645
0.4000000059604645
0.4000000059604645
0.4000000059604645
0.4000000059604645
0.4000000059604645
0.4000000059604645
0.4000000059604645
0.4000000059604645
0.4000000059604645
0.4000000059604645
0.4000000059604645
0.4000000059604645
0.4000000059604645
0.4000000059604645
0.4000000059604645
0.4000000059604645
0.4000000059604645
0.4000000059604645
0.4000000059604645
0.4000000059604645
0.4000000059604645
0.4000000059604645
0.4000000059604645
0.4000000059604645
0.4000000059604645
0.4000000059604645
0.4000000059604645
0.4000000059604645
0.4000000059604645
0.4000000059604645
0.4000000059604645
0.4000000059604645
0.4000000059604645
0.4000000059604645
0.4000000059604645
0.4000000059604645
0.4000000059604645
0.4000000059604645
0.4000000059604645
0.4000000059604645
0.4000000059604645
0.4000000059604645
0.4000000059604645
0.4000000059604645
0.4000000059604645
0.4000000059604645
0.4000000059604645
0.4000000059604645
0.4000000059604645
0.4000000059604645
0.4000000059604645
0.4000000059604645
0.4000000059604645
0.4000000059604645
0.4000000059604645
0.4000000059604645
0.4000000059604645
0.4000000059604645
0.4000000059604645
0.4000000059604645
0.4000000059604645
0.4000000059604645
0.4000000059604645
0.4000000059604645
0.4000000059604645
0.4000000059604645
0.4000000059604645
0.4000000059604645
0.4000000059604645
0.4000000059604645
0.4000000059604645
0.4000000059604645
0.4000000059604645
0.4000000059604645
0.4000000059604645
0.4000000059604645
0.4000000059604645
0.4000000059604645
0.4000000059604645
0.4000000059604645
0.4000000059604645
0.4000000059604645
0.4000000059604645
0.4000000059604645
0.4000000059604645
0.4000000059604645
0.4000000059604645
0.4000000059604645
0.4000000059604645
0.4000000059604645
0.4000000059604645
0.4000000059604645
0.4000000059604645
0.4000000059604645
0.4000000059604645
0.4000000059604645
0.4000000059604645
0.4000000059604645
0.4000000059604645
0.4000000059604645
0.4000000059604645
0.4000000059604645
0.4000000059604645
0.4000000059604645
0.4000000059604645
0.4000000059604645
0.4000000059604645
0.4000000059604645
0.4000000059604645
0.4000000059604645
0.4000000059604645
0.4000000059604645
0.4000000059604645
0.4000000059604645
0.4000000059604645
0.4000000059604645
0.4000000059604645
0.4000000059604645
0.4000000059604645
0.4000000059604645
0.4000000059604645
0.4000000059604645
0.4000000059604645
0.4000000059604645
0.4000000059604645
0.4000000059604645
0.4000000059604645
0.4000000059604645
0.4000000059604645
0.4000000059604645
0.4000000059604645
0.4000000059604645
0.4000000059604645
0.4000000059604645
0.4000000059604645
0.4000000059604645
0.4000000059604645
0.4000000059604645
0.4000000059604645
0.4000000059604645
0.4000000059604645
0.4000000059604645
0.4000000059604645
0.4000000059604645
0.4000000059604645
0.4000000059604645
0.4000000059604645
0.4000000059604645
0.4000000059604645
0.4000000059604645
0.4000000059604645
0.4000000059604645
0.4000000059604645
0.4000000059604645
0.4000000059604645
0.4000000059604645
0.4000000059604645
0.4000000059604645
0.4000000059604645
0.4000000059604645
0.4000000059604645
0.4000000059604645
0.4000000059604645
0.4000000059604645
0.4000000059604645
0.4000000059604645
0.4000000059604645
0.4000000059604645
0.4000000059604645
0.4000000059604645
0.4000000059604645
0.4000000059604645
0.4000000059604645
0.4000000059604645
0.4000000059604645
0.4000000059604645
0.4000000059604645
0.4000000059604645
0.4000000059604645
0.4000000059604645
0.4000000059604645
0.4000000059604645
0.4000000059604645
0.4000000059604645
0.4000000059604645
0.4000000059604645
0.4000000059604645
0.4000000059604645
0.4000000059604645
0.4000000059604645
0.4000000059604645
0.4000000059604645
0.4000000059604645
0.4000000059604645
0.4000000059604645
0.4000000059604645
0.4000000059604645
0.4000000059604645
0.4000000059604645
0.4000000059604645
0.4000000059604645
0.4000000059604645
0.4000000059604645
0.4000000059604645
0.4000000059604645
0.4000000059604645
0.4000000059604645
0.4000000059604645
0.4000000059604645
0.4000000059604645
0.4000000059604645
0.4000000059604645
0.4000000059604645
0.4000000059604645
0.4000000059604645
0.4000000059604645
0.4000000059604645
0.4000000059604645
0.4000000059604645
0.4000000059604645
0.4000000059604645
0.4000000059604645
0.4000000059604645
0.4000000059604645
0.4000000059604645
0.4000000059604645
0.4000000059604645
0.4000000059604645
0.4000000059604645
0.4000000059604645
0.4000000059604645
0.4000000059604645
0.4000000059604645
0.4000000059604645
0.4000000059604645
0.4000000059604645
0.4000000059604645
0.4000000059604645
0.4000000059604645
0.4000000059604645
0.4000000059604645
0.4000000059604645
0.4000000059604645
0.4000000059604645
0.4000000059604645
0.4000000059604645
0.4000000059604645
0.4000000059604645
0.4000000059604645
0.4000000059604645
0.4000000059604645
0.4000000059604645
0.4000000059604645
0.4000000059604645
0.4000000059604645
0.4000000059604645
0.4000000059604645
0.4000000059604645
0.4000000059604645
0.4000000059604645
0.4000000059604645
0.4000000059604645
0.4000000059604645
0.4000000059604645
0.4000000059604645
0.4000000059604645
0.4000000059604645
0.4000000059604645
0.4000000059604645
0.4000000059604645
0.4000000059604645
0.4000000059604645
0.4000000059604645
0.4000000059604645
0.4000000059604645
0.4000000059604645
0.4000000059604645
0.4000000059604645
0.4000000059604645
0.4000000059604645
0.4000000059604645
0.4000000059604645
0.4000000059604645
0.4000000059604645
0.4000000059604645
0.4000000059604645
0.4000000059604645
0.4000000059604645
0.4000000059604645
0.4000000059604645
0.4000000059604645
0.4000000059604645
0.4000000059604645
0.4000000059604645
0.4000000059604645
0.4000000059604645
0.4000000059604645
0.4000000059604645
0.4000000059604645
0.4000000059604645
0.4000000059604645
0.4000000059604645
0.4000000059604645
0.4000000059604645
0.4000000059604645
0.4000000059604645
0.4000000059604645
0.4000000059604645
0.4000000059604645
0.4000000059604645
0.4000000059604645
0.4000000059604645
0.4000000059604645
0.4000000059604645
0.4000000059604645
0.4000000059604645
0.4000000059604645
0.4000000059604645
0.4000000059604645
0.4000000059604645
0.4000000059604645
0.4000000059604645
0.4000000059604645
0.4000000059604645
0.4000000059604645
0.4000000059604645
0.4000000059604645
0.4000000059604645
0.4000000059604645
0.4000000059604645
0.4000000059604645
0.4000000059604645
0.4000000059604645
0.4000000059604645
0.4000000059604645
0.4000000059604645
0.4000000059604645
0.4000000059604645
0.4000000059604645
0.4000000059604645
0.4000000059604645
0.4000000059604645
0.4000000059604645
0.4000000059604645
0.4000000059604645
0.4000000059604645
0.4000000059604645
0.4000000059604645
0.4000000059604645
0.4000000059604645
0.4000000059604645
0.4000000059604645
0.4000000059604645
0.4000000059604645
0.4000000059604645
0.4000000059604645
0.4000000059604645
0.4000000059604645
0.4000000059604645
0.4000000059604645
0.4000000059604645
0.4000000059604645
0.4000000059604645
0.4000000059604645
0.4000000059604645
0.4000000059604645
0.4000000059604645
0.4000000059604645
0.4000000059604645
0.4000000059604645
0.4000000059604645
0.4000000059604645
0.4000000059604645
0.4000000059604645
0.4000000059604645
0.4000000059604645
0.4000000059604645
0.4000000059604645
0.4000000059604645
0.4000000059604645
0.4000000059604645
0.4000000059604645
0.4000000059604645
0.4000000059604645
0.4000000059604645
0.4000000059604645
0.4000000059604645
0.4000000059604645
0.4000000059604645
0.4000000059604645
0.4000000059604645
0.4000000059604645
0.4000000059604645
0.4000000059604645
0.4000000059604645
0.4000000059604645
0.4000000059604645
0.4000000059604645
0.4000000059604645
0.4000000059604645
0.4000000059604645
0.4000000059604645
0.4000000059604645
0.4000000059604645
0.4000000059604645
0.4000000059604645
0.4000000059604645
0.4000000059604645
0.4000000059604645
0.4000000059604645
0.4000000059604645
0.4000000059604645
0.4000000059604645
0.4000000059604645
0.4000000059604645
0.4000000059604645
0.4000000059604645
0.4000000059604645
0.4000000059604645
0.4000000059604645
0.4000000059604645
0.4000000059604645
0.4000000059604645
0.4000000059604645
0.4000000059604645
0.4000000059604645
0.4000000059604645
0.4000000059604645
0.4000000059604645
0.4000000059604645
0.4000000059604645
0.4000000059604645
0.4000000059604645
0.4000000059604645
0.4000000059604645
0.4000000059604645
0.4000000059604645
0.4000000059604645
0.4000000059604645
0.4000000059604645
0.4000000059604645
0.4000000059604645
0.4000000059604645
0.4000000059604645
0.4000000059604645
0.4000000059604645
0.4000000059604645
0.4000000059604645
0.4000000059604645
0.4000000059604645
0.4000000059604645
0.4000000059604645
0.4000000059604645
0.4000000059604645
0.4000000059604645
0.4000000059604645
0.4000000059604645
0.4000000059604645
0.4000000059604645
0.4000000059604645
0.4000000059604645
0.4000000059604645
0.4000000059604645
0.4000000059604645
0.4000000059604645
0.4000000059604645
0.4000000059604645
0.4000000059604645
0.4000000059604645
0.4000000059604645
0.4000000059604645
0.4000000059604645
0.4000000059604645
0.4000000059604645
0.4000000059604645
0.4000000059604645
0.4000000059604645
0.4000000059604645
0.4000000059604645
0.4000000059604645
0.4000000059604645
0.4000000059604645
0.4000000059604645
0.4000000059604645
0.4000000059604645
0.4000000059604645
0.4000000059604645
0.4000000059604645
0.4000000059604645
0.4000000059604645
0.4000000059604645
0.4000000059604645
0.4000000059604645
0.4000000059604645
0.4000000059604645
0.4000000059604645
0.4000000059604645
0.4000000059604645
0.4000000059604645
0.4000000059604645
0.4000000059604645
0.4000000059604645
0.4000000059604645
0.4000000059604645
0.4000000059604645
0.4000000059604645
0.4000000059604645
0.4000000059604645
0.4000000059604645
0.4000000059604645
0.4000000059604645
0.4000000059604645
0.4000000059604645
0.4000000059604645
0.4000000059604645
0.4000000059604645
0.4000000059604645
0.4000000059604645
0.4000000059604645
0.4000000059604645
0.4000000059604645
0.4000000059604645
0.4000000059604645
0.4000000059604645
0.4000000059604645
0.4000000059604645
0.4000000059604645
0.4000000059604645
0.4000000059604645
0.4000000059604645
0.4000000059604645
0.4000000059604645
0.4000000059604645
0.4000000059604645
0.4000000059604645
0.4000000059604645
0.4000000059604645
0.4000000059604645
0.4000000059604645
0.4000000059604645
0.4000000059604645
0.4000000059604645
0.4000000059604645
0.4000000059604645
0.4000000059604645
0.4000000059604645
0.4000000059604645
0.4000000059604645
0.4000000059604645

