# vtk DataFile Version 3.0
File written by membrane-model
ASCII
DATASET UNSTRUCTURED_GRID
POINTS 2434 float
0.0000000000000000 0.0000000000000000 0.0000000000000000
10.0000000000000000 0.0000000000000000 0.0000000000000000
10.0000000000000000 10.0000000000000000 0.0000000000000000
0.0000000000000000 10.0000000000000000 0.0000000000000000
2.2500000000000000 1.1499999761581421 0.0000000000000000
2.1914212703704834 1.2914214134216309 0.0000000000000000
2.0499999523162842 1.3500000238418579 0.0000000000000000
1.9085786342620850 1.2914214134216309 0.0000000000000000
1.8500000238418579 1.1499999761581421 0.0000000000000000
1.9085786342620850 1.0085786581039429 0.0000000000000000
2.0499999523162842 0.9499999880790710 0.0000000000000000
2.1914212703704834 1.0085786581039429 0.0000000000000000
2.4500000476837158 1.1499999761581421 0.0000000000000000
2.0499999523162842 1.5499999523162842 0.0000000000000000
1.6499999761581421 1.1499999761581421 0.0000000000000000
2.0499999523162842 0.7500000000000000 0.0000000000000000
2.2500000000000000 8.8500003814697266 0.0000000000000000
2.1914212703704834 8.9914216995239258 0.0000000000000000
2.0499999523162842 9.0500001907348633 0.0000000000000000
1.9085786342620850 8.9914216995239258 0.0000000000000000
1.8500000238418579 8.8500003814697266 0.0000000000000000
1.9085786342620850 8.7085790634155273 0.0000000000000000
2.0499999523162842 8.6499996185302734 0.0000000000000000
2.1914212703704834 8.7085790634155273 0.0000000000000000
2.4500000476837158 8.8500003814697266 0.0000000000000000
2.0499999523162842 9.2500000000000000 0.0000000000000000
1.6499999761581421 8.8500003814697266 0.0000000000000000
2.0499999523162842 8.4499998092651367 0.0000000000000000
1.3500000238418579 2.0499999523162842 0.0000000000000000
1.2914214134216309 2.1914212703704834 0.0000000000000000
1.1499999761581421 2.2500000000000000 0.0000000000000000
1.0085786581039429 2.1914212703704834 0.0000000000000000
0.9499999880790710 2.0499999523162842 0.0000000000000000
1.0085786581039429 1.9085786342620850 0.0000000000000000
1.1499999761581421 1.8500000238418579 0.0000000000000000
1.2914214134216309 1.9085786342620850 0.0000000000000000
1.5499999523162842 2.0499999523162842 0.0000000000000000
1.1499999761581421 2.4500000476837158 0.0000000000000000
0.7500000000000000 2.0499999523162842 0.0000000000000000
1.1499999761581421 1.6499999761581421 0.0000000000000000
9.0500001907348633 2.0499999523162842 0.0000000000000000
8.9914216995239258 2.1914212703704834 0.0000000000000000
8.8500003814697266 2.2500000000000000 0.0000000000000000
8.7085790634155273 2.1914212703704834 0.0000000000000000
8.6499996185302734 2.0499999523162842 0.0000000000000000
8.7085790634155273 1.9085786342620850 0.0000000000000000
8.8500003814697266 1.8500000238418579 0.0000000000000000
8.9914216995239258 1.9085786342620850 0.0000000000000000
9.2500000000000000 2.0499999523162842 0.0000000000000000
8.8500003814697266 2.4500000476837158 0.0000000000000000
8.4499998092651367 2.0499999523162842 0.0000000000000000
8.8500003814697266 1.6499999761581421 0.0000000000000000
3.7249999046325684 1.1499999761581421 0.0000000000000000
3.6664214134216309 1.2914214134216309 0.0000000000000000
3.5250000953674316 1.3500000238418579 0.0000000000000000
3.3835785388946533 1.2914214134216309 0.0000000000000000
3.3250000476837158 1.1499999761581421 0.0000000000000000
3.3835785388946533 1.0085786581039429 0.0000000000000000
3.5250000953674316 0.9499999880790710 0.0000000000000000
3.6664214134216309 1.0085786581039429 0.0000000000000000
3.9249999523162842 1.1499999761581421 0.0000000000000000
3.5250000953674316 1.5499999523162842 0.0000000000000000
3.1250000000000000 1.1499999761581421 0.0000000000000000
3.5250000953674316 0.7500000000000000 0.0000000000000000
3.7249999046325684 8.8500003814697266 0.0000000000000000
3.6664214134216309 8.9914216995239258 0.0000000000000000
3.5250000953674316 9.0500001907348633 0.0000000000000000
3.3835785388946533 8.9914216995239258 0.0000000000000000
3.3250000476837158 8.8500003814697266 0.0000000000000000
3.3835785388946533 8.7085790634155273 0.0000000000000000
3.5250000953674316 8.6499996185302734 0.0000000000000000
3.6664214134216309 8.7085790634155273 0.0000000000000000
3.9249999523162842 8.8500003814697266 0.0000000000000000
3.5250000953674316 9.2500000000000000 0.0000000000000000
3.1250000000000000 8.8500003814697266 0.0000000000000000
3.5250000953674316 8.4499998092651367 0.0000000000000000
1.3500000238418579 3.5250000953674316 0.0000000000000000
1.2914214134216309 3.6664214134216309 0.0000000000000000
1.1499999761581421 3.7249999046325684 0.0000000000000000
1.0085786581039429 3.6664214134216309 0.0000000000000000
0.9499999880790710 3.5250000953674316 0.0000000000000000
1.0085786581039429 3.3835785388946533 0.0000000000000000
1.1499999761581421 3.3250000476837158 0.0000000000000000
1.2914214134216309 3.3835785388946533 0.0000000000000000
1.5499999523162842 3.5250000953674316 0.0000000000000000
1.1499999761581421 3.9249999523162842 0.0000000000000000
0.7500000000000000 3.5250000953674316 0.0000000000000000
1.1499999761581421 3.1250000000000000 0.0000000000000000
9.0500001907348633 3.5250000953674316 0.0000000000000000
8.9914216995239258 3.6664214134216309 0.0000000000000000
8.8500003814697266 3.7249999046325684 0.0000000000000000
8.7085790634155273 3.6664214134216309 0.0000000000000000
8.6499996185302734 3.5250000953674316 0.0000000000000000
8.7085790634155273 3.3835785388946533 0.0000000000000000
8.8500003814697266 3.3250000476837158 0.0000000000000000
8.9914216995239258 3.3835785388946533 0.0000000000000000
9.2500000000000000 3.5250000953674316 0.0000000000000000
8.8500003814697266 3.9249999523162842 0.0000000000000000
8.4499998092651367 3.5250000953674316 0.0000000000000000
8.8500003814697266 3.1250000000000000 0.0000000000000000
5.1999998092651367 1.1499999761581421 0.0000000000000000
5.1414213180541992 1.2914214134216309 0.0000000000000000
5.0000000000000000 1.3500000238418579 0.0000000000000000
4.8585786819458008 1.2914214134216309 0.0000000000000000
4.8000001907348633 1.1499999761581421 0.0000000000000000
4.8585786819458008 1.0085786581039429 0.0000000000000000
5.0000000000000000 0.9499999880790710 0.0000000000000000
5.1414213180541992 1.0085786581039429 0.0000000000000000
5.4000000953674316 1.1499999761581421 0.0000000000000000
5.0000000000000000 1.5499999523162842 0.0000000000000000
4.5999999046325684 1.1499999761581421 0.0000000000000000
5.0000000000000000 0.7500000000000000 0.0000000000000000
5.1999998092651367 8.8500003814697266 0.0000000000000000
5.1414213180541992 8.9914216995239258 0.0000000000000000
5.0000000000000000 9.0500001907348633 0.0000000000000000
4.8585786819458008 8.9914216995239258 0.0000000000000000
4.8000001907348633 8.8500003814697266 0.0000000000000000
4.8585786819458008 8.7085790634155273 0.0000000000000000
5.0000000000000000 8.6499996185302734 0.0000000000000000
5.1414213180541992 8.7085790634155273 0.0000000000000000
5.4000000953674316 8.8500003814697266 0.0000000000000000
5.0000000000000000 9.2500000000000000 0.0000000000000000
4.5999999046325684 8.8500003814697266 0.0000000000000000
5.0000000000000000 8.4499998092651367 0.0000000000000000
1.3500000238418579 5.0000000000000000 0.0000000000000000
1.2914214134216309 5.1414213180541992 0.0000000000000000
1.1499999761581421 5.1999998092651367 0.0000000000000000
1.0085786581039429 5.1414213180541992 0.0000000000000000
0.9499999880790710 5.0000000000000000 0.0000000000000000
1.0085786581039429 4.8585786819458008 0.0000000000000000
1.1499999761581421 4.8000001907348633 0.0000000000000000
1.2914214134216309 4.8585786819458008 0.0000000000000000
1.5499999523162842 5.0000000000000000 0.0000000000000000
1.1499999761581421 5.4000000953674316 0.0000000000000000
0.7500000000000000 5.0000000000000000 0.0000000000000000
1.1499999761581421 4.5999999046325684 0.0000000000000000
9.0500001907348633 5.0000000000000000 0.0000000000000000
8.9914216995239258 5.1414213180541992 0.0000000000000000
8.8500003814697266 5.1999998092651367 0.0000000000000000
8.7085790634155273 5.1414213180541992 0.0000000000000000
8.6499996185302734 5.0000000000000000 0.0000000000000000
8.7085790634155273 4.8585786819458008 0.0000000000000000
8.8500003814697266 4.8000001907348633 0.0000000000000000
8.9914216995239258 4.8585786819458008 0.0000000000000000
9.2500000000000000 5.0000000000000000 0.0000000000000000
8.8500003814697266 5.4000000953674316 0.0000000000000000
8.4499998092651367 5.0000000000000000 0.0000000000000000
8.8500003814697266 4.5999999046325684 0.0000000000000000
6.6750001907348633 1.1499999761581421 0.0000000000000000
6.6164212226867676 1.2914214134216309 0.0000000000000000
6.4749999046325684 1.3500000238418579 0.0000000000000000
6.3335785865783691 1.2914214134216309 0.0000000000000000
6.2750000953674316 1.1499999761581421 0.0000000000000000
6.3335785865783691 1.0085786581039429 0.0000000000000000
6.4749999046325684 0.9499999880790710 0.0000000000000000
6.6164212226867676 1.0085786581039429 0.0000000000000000
6.8750000000000000 1.1499999761581421 0.0000000000000000
6.4749999046325684 1.5499999523162842 0.0000000000000000
6.0749998092651367 1.1499999761581421 0.0000000000000000
6.4749999046325684 0.7500000000000000 0.0000000000000000
6.6750001907348633 8.8500003814697266 0.0000000000000000
6.6164212226867676 8.9914216995239258 0.0000000000000000
6.4749999046325684 9.0500001907348633 0.0000000000000000
6.3335785865783691 8.9914216995239258 0.0000000000000000
6.2750000953674316 8.8500003814697266 0.0000000000000000
6.3335785865783691 8.7085790634155273 0.0000000000000000
6.4749999046325684 8.6499996185302734 0.0000000000000000
6.6164212226867676 8.7085790634155273 0.0000000000000000
6.8750000000000000 8.8500003814697266 0.0000000000000000
6.4749999046325684 9.2500000000000000 0.0000000000000000
6.0749998092651367 8.8500003814697266 0.0000000000000000
6.4749999046325684 8.4499998092651367 0.0000000000000000
1.3500000238418579 6.4749999046325684 0.0000000000000000
1.2914214134216309 6.6164212226867676 0.0000000000000000
1.1499999761581421 6.6750001907348633 0.0000000000000000
1.0085786581039429 6.6164212226867676 0.0000000000000000
0.9499999880790710 6.4749999046325684 0.0000000000000000
1.0085786581039429 6.3335785865783691 0.0000000000000000
1.1499999761581421 6.2750000953674316 0.0000000000000000
1.2914214134216309 6.3335785865783691 0.0000000000000000
1.5499999523162842 6.4749999046325684 0.0000000000000000
1.1499999761581421 6.8750000000000000 0.0000000000000000
0.7500000000000000 6.4749999046325684 0.0000000000000000
1.1499999761581421 6.0749998092651367 0.0000000000000000
9.0500001907348633 6.4749999046325684 0.0000000000000000
8.9914216995239258 6.6164212226867676 0.0000000000000000
8.8500003814697266 6.6750001907348633 0.0000000000000000
8.7085790634155273 6.6164212226867676 0.0000000000000000
8.6499996185302734 6.4749999046325684 0.0000000000000000
8.7085790634155273 6.3335785865783691 0.0000000000000000
8.8500003814697266 6.2750000953674316 0.0000000000000000
8.9914216995239258 6.3335785865783691 0.0000000000000000
9.2500000000000000 6.4749999046325684 0.0000000000000000
8.8500003814697266 6.8750000000000000 0.0000000000000000
8.4499998092651367 6.4749999046325684 0.0000000000000000
8.8500003814697266 6.0749998092651367 0.0000000000000000
8.1499996185302734 1.1499999761581421 0.0000000000000000
8.0914211273193359 1.2914214134216309 0.0000000000000000
7.9499998092651367 1.3500000238418579 0.0000000000000000
7.8085784912109375 1.2914214134216309 0.0000000000000000
7.7500000000000000 1.1499999761581421 0.0000000000000000
7.8085784912109375 1.0085786581039429 0.0000000000000000
7.9499998092651367 0.9499999880790710 0.0000000000000000
8.0914211273193359 1.0085786581039429 0.0000000000000000
8.3500003814697266 1.1499999761581421 0.0000000000000000
7.9499998092651367 1.5499999523162842 0.0000000000000000
7.5500001907348633 1.1499999761581421 0.0000000000000000
7.9499998092651367 0.7500000000000000 0.0000000000000000
8.1499996185302734 8.8500003814697266 0.0000000000000000
8.0914211273193359 8.9914216995239258 0.0000000000000000
7.9499998092651367 9.0500001907348633 0.0000000000000000
7.8085784912109375 8.9914216995239258 0.0000000000000000
7.7500000000000000 8.8500003814697266 0.0000000000000000
7.8085784912109375 8.7085790634155273 0.0000000000000000
7.9499998092651367 8.6499996185302734 0.0000000000000000
8.0914211273193359 8.7085790634155273 0.0000000000000000
8.3500003814697266 8.8500003814697266 0.0000000000000000
7.9499998092651367 9.2500000000000000 0.0000000000000000
7.5500001907348633 8.8500003814697266 0.0000000000000000
7.9499998092651367 8.4499998092651367 0.0000000000000000
1.3500000238418579 7.9499998092651367 0.0000000000000000
1.2914214134216309 8.0914211273193359 0.0000000000000000
1.1499999761581421 8.1499996185302734 0.0000000000000000
1.0085786581039429 8.0914211273193359 0.0000000000000000
0.9499999880790710 7.9499998092651367 0.0000000000000000
1.0085786581039429 7.8085784912109375 0.0000000000000000
1.1499999761581421 7.7500000000000000 0.0000000000000000
1.2914214134216309 7.8085784912109375 0.0000000000000000
1.5499999523162842 7.9499998092651367 0.0000000000000000
1.1499999761581421 8.3500003814697266 0.0000000000000000
0.7500000000000000 7.9499998092651367 0.0000000000000000
1.1499999761581421 7.5500001907348633 0.0000000000000000
9.0500001907348633 7.9499998092651367 0.0000000000000000
8.9914216995239258 8.0914211273193359 0.0000000000000000
8.8500003814697266 8.1499996185302734 0.0000000000000000
8.7085790634155273 8.0914211273193359 0.0000000000000000
8.6499996185302734 7.9499998092651367 0.0000000000000000
8.7085790634155273 7.8085784912109375 0.0000000000000000
8.8500003814697266 7.7500000000000000 0.0000000000000000
8.9914216995239258 7.8085784912109375 0.0000000000000000
9.2500000000000000 7.9499998092651367 0.0000000000000000
8.8500003814697266 8.3500003814697266 0.0000000000000000
8.4499998092651367 7.9499998092651367 0.0000000000000000
8.8500003814697266 7.5500001907348633 0.0000000000000000
0.5000000000000000 0.0000000000000000 0.0000000000000000
1.0000000000000000 0.0000000000000000 0.0000000000000000
1.5000000000000000 0.0000000000000000 0.0000000000000000
2.0000000000000000 0.0000000000000000 0.0000000000000000
2.5000000000000000 0.0000000000000000 0.0000000000000000
3.0000000000000000 0.0000000000000000 0.0000000000000000
3.5000000000000000 0.0000000000000000 0.0000000000000000
4.0000000000000000 0.0000000000000000 0.0000000000000000
4.5000000000000000 0.0000000000000000 0.0000000000000000
5.0000000000000000 0.0000000000000000 0.0000000000000000
5.5000000000000000 0.0000000000000000 0.0000000000000000
6.0000000000000000 0.0000000000000000 0.0000000000000000
6.5000000000000000 0.0000000000000000 0.0000000000000000
7.0000000000000000 0.0000000000000000 0.0000000000000000
7.5000000000000000 0.0000000000000000 0.0000000000000000
8.0000000000000000 0.0000000000000000 0.0000000000000000
8.5000000000000000 0.0000000000000000 0.0000000000000000
9.0000000000000000 0.0000000000000000 0.0000000000000000
9.5000000000000000 0.0000000000000000 0.0000000000000000
10.0000000000000000 0.5000000000000000 0.0000000000000000
10.0000000000000000 1.0000000000000000 0.0000000000000000
10.0000000000000000 1.5000000000000000 0.0000000000000000
10.0000000000000000 2.0000000000000000 0.0000000000000000
10.0000000000000000 2.5000000000000000 0.0000000000000000
10.0000000000000000 3.0000000000000000 0.0000000000000000
10.0000000000000000 3.5000000000000000 0.0000000000000000
10.0000000000000000 4.0000000000000000 0.0000000000000000
10.0000000000000000 4.5000000000000000 0.0000000000000000
10.0000000000000000 5.0000000000000000 0.0000000000000000
10.0000000000000000 5.5000000000000000 0.0000000000000000
10.0000000000000000 6.0000000000000000 0.0000000000000000
10.0000000000000000 6.5000000000000000 0.0000000000000000
10.0000000000000000 7.0000000000000000 0.0000000000000000
10.0000000000000000 7.5000000000000000 0.0000000000000000
10.0000000000000000 8.0000000000000000 0.0000000000000000
10.0000000000000000 8.5000000000000000 0.0000000000000000
10.0000000000000000 9.0000000000000000 0.0000000000000000
10.0000000000000000 9.5000000000000000 0.0000000000000000
9.5000000000000000 10.0000000000000000 0.0000000000000000
9.0000000000000000 10.0000000000000000 0.0000000000000000
8.5000000000000000 10.0000000000000000 0.0000000000000000
8.0000000000000000 10.0000000000000000 0.0000000000000000
7.5000000000000000 10.0000000000000000 0.0000000000000000
7.0000000000000000 10.0000000000000000 0.0000000000000000
6.5000000000000000 10.0000000000000000 0.0000000000000000
6.0000000000000000 10.0000000000000000 0.0000000000000000
5.5000000000000000 10.0000000000000000 0.0000000000000000
5.0000000000000000 10.0000000000000000 0.0000000000000000
4.5000000000000000 10.0000000000000000 0.0000000000000000
4.0000000000000000 10.0000000000000000 0.0000000000000000
3.5000000000000000 10.0000000000000000 0.0000000000000000
3.0000000000000000 10.0000000000000000 0.0000000000000000
2.5000000000000000 10.0000000000000000 0.0000000000000000
2.0000000000000000 10.0000000000000000 0.0000000000000000
1.5000000000000000 10.0000000000000000 0.0000000000000000
1.0000000000000000 10.0000000000000000 0.0000000000000000
0.5000000000000000 10.0000000000000000 0.0000000000000000
0.0000000000000000 9.5000000000000000 0.0000000000000000
0.0000000000000000 9.0000000000000000 0.0000000000000000
0.0000000000000000 8.5000000000000000 0.0000000000000000
0.0000000000000000 8.0000000000000000 0.0000000000000000
0.0000000000000000 7.5000000000000000 0.0000000000000000
0.0000000000000000 7.0000000000000000 0.0000000000000000
0.0000000000000000 6.5000000000000000 0.0000000000000000
0.0000000000000000 6.0000000000000000 0.0000000000000000
0.0000000000000000 5.5000000000000000 0.0000000000000000
0.0000000000000000 5.0000000000000000 0.0000000000000000
0.0000000000000000 4.5000000000000000 0.0000000000000000
0.0000000000000000 4.0000000000000000 0.0000000000000000
0.0000000000000000 3.5000000000000000 0.0000000000000000
0.0000000000000000 3.0000000000000000 0.0000000000000000
0.0000000000000000 2.5000000000000000 0.0000000000000000
0.0000000000000000 2.0000000000000000 0.0000000000000000
0.0000000000000000 1.5000000000000000 0.0000000000000000
0.0000000000000000 1.0000000000000000 0.0000000000000000
0.0000000000000000 0.5000000000000000 0.0000000000000000
1.2893627882003784 0.4039453268051147 0.0000000000000000
9.5960550308227539 1.2893627882003784 0.0000000000000000
0.4039453268051147 1.2893627882003784 0.0000000000000000
1.2893627882003784 9.5960550308227539 0.0000000000000000
8.7106370925903320 9.5960550308227539 0.0000000000000000
0.4039453268051147 8.7106370925903320 0.0000000000000000
9.5960550308227539 8.7106370925903320 0.0000000000000000
8.7106370925903320 0.4039453268051147 0.0000000000000000
5.7075233459472656 0.4042393565177917 0.0000000000000000
9.5957603454589844 5.7075233459472656 0.0000000000000000
5.7075233459472656 9.5957603454589844 0.0000000000000000
0.4042393565177917 5.7075233459472656 0.0000000000000000
0.4042393565177917 4.2924766540527344 0.0000000000000000
4.2924766540527344 9.5957603454589844 0.0000000000000000
4.2924766540527344 0.4042393565177917 0.0000000000000000
9.5957603454589844 4.2924766540527344 0.0000000000000000
7.2069015502929688 0.4049680233001709 0.0000000000000000
9.5950317382812500 7.2069015502929688 0.0000000000000000
9.5950317382812500 2.7930984497070312 0.0000000000000000
2.7930984497070312 0.4049680233001709 0.0000000000000000
7.2069015502929688 9.5950317382812500 0.0000000000000000
0.4049680233001709 7.2069015502929688 0.0000000000000000
2.7930984497070312 9.5950317382812500 0.0000000000000000
0.4049680233001709 2.7930984497070312 0.0000000000000000
1.6708501577377319 0.3863520026206970 0.0000000000000000
1.4885952472686768 0.7425995469093323 0.0000000000000000
1.1412864923477173 0.7721447348594666 0.0000000000000000
9.6136484146118164 1.6708501577377319 0.0000000000000000
9.2574005126953125 1.4885952472686768 0.0000000000000000
9.2278556823730469 1.1412864923477173 0.0000000000000000
1.6708501577377319 9.6136484146118164 0.0000000000000000
1.4885952472686768 9.2574005126953125 0.0000000000000000
1.1412864923477173 9.2278556823730469 0.0000000000000000
0.3863520026206970 1.6708501577377319 0.0000000000000000
0.7425995469093323 1.4885952472686768 0.0000000000000000
8.3291501998901367 9.6136484146118164 0.0000000000000000
8.5114049911499023 9.2574005126953125 0.0000000000000000
8.8587131500244141 9.2278556823730469 0.0000000000000000
0.3863520026206970 8.3291501998901367 0.0000000000000000
0.7425995469093323 8.5114049911499023 0.0000000000000000
8.3291501998901367 0.3863520026206970 0.0000000000000000
8.5114049911499023 0.7425995469093323 0.0000000000000000
9.6136484146118164 8.3291501998901367 0.0000000000000000
9.2574005126953125 8.5114049911499023 0.0000000000000000
3.1674385070800781 0.3860908150672913 0.0000000000000000
2.9863879680633545 0.7354510426521301 0.0000000000000000
2.6418218612670898 0.7717396616935730 0.0000000000000000
2.4421403408050537 0.4849557280540466 0.0000000000000000
9.6139087677001953 3.1674385070800781 0.0000000000000000
9.2645492553710938 2.9863879680633545 0.0000000000000000
9.2170867919921875 2.6572742462158203 0.0000000000000000
9.5137138366699219 2.4439799785614014 0.0000000000000000
0.3860908150672913 3.1674385070800781 0.0000000000000000
0.7354510426521301 2.9863879680633545 0.0000000000000000
0.7717396616935730 2.6418218612670898 0.0000000000000000
0.5043563246726990 2.4236159324645996 0.0000000000000000
3.1674385070800781 9.6139087677001953 0.0000000000000000
2.9863879680633545 9.2645492553710938 0.0000000000000000
2.6413943767547607 9.2341270446777344 0.0000000000000000
2.4235973358154297 9.4958982467651367 0.0000000000000000
6.8325614929199219 9.6139087677001953 0.0000000000000000
7.0136752128601074 9.2644205093383789 0.0000000000000000
7.3586144447326660 9.2341079711914062 0.0000000000000000
7.5764031410217285 9.4958972930908203 0.0000000000000000
0.3860908150672913 6.8325614929199219 0.0000000000000000
0.7354510426521301 7.0136122703552246 0.0000000000000000
0.7780258059501648 7.3493022918701172 0.0000000000000000
0.4857040941715240 7.5568027496337891 0.0000000000000000
6.8325614929199219 0.3860908150672913 0.0000000000000000
7.0136122703552246 0.7354510426521301 0.0000000000000000
7.3586058616638184 0.7658732533454895 0.0000000000000000
7.5764026641845703 0.5041018128395081 0.0000000000000000
9.6139087677001953 6.8325614929199219 0.0000000000000000
9.2645492553710938 7.0136122703552246 0.0000000000000000
9.2613162994384766 7.3446307182312012 0.0000000000000000
9.5189790725708008 7.5562467575073242 0.0000000000000000
9.5602283477783203 4.6398491859436035 0.0000000000000000
9.2639818191528320 4.4954771995544434 0.0000000000000000
9.2329425811767578 4.1383943557739258 0.0000000000000000
9.4949207305908203 3.9220747947692871 0.0000000000000000
4.7056941986083984 0.3866054713726044 0.0000000000000000
4.4958896636962891 0.7315016984939575 0.0000000000000000
4.1379055976867676 0.7670695185661316 0.0000000000000000
3.9220535755157471 0.5050796866416931 0.0000000000000000
0.3883194625377655 4.6981430053710938 0.0000000000000000
0.7372522950172424 4.4941306114196777 0.0000000000000000
0.7678909897804260 4.1376543045043945 0.0000000000000000
0.5017562508583069 3.9251666069030762 0.0000000000000000
4.6398491859436035 9.5602283477783203 0.0000000000000000
4.4954771995544434 9.2639818191528320 0.0000000000000000
4.1383943557739258 9.2329425811767578 0.0000000000000000
3.9252116680145264 9.4982948303222656 0.0000000000000000
5.2947101593017578 9.6040296554565430 0.0000000000000000
5.5021286010742188 9.2775554656982422 0.0000000000000000
5.8618111610412598 9.2342243194580078 0.0000000000000000
6.0748009681701660 9.4983720779418945 0.0000000000000000
0.3866054713726044 5.2943058013916016 0.0000000000000000
0.7315016984939575 5.5041103363037109 0.0000000000000000
0.7670695185661316 5.8620944023132324 0.0000000000000000
0.5017063617706299 6.0748181343078613 0.0000000000000000
5.3018569946289062 0.3883194625377655 0.0000000000000000
5.5067701339721680 0.7387433648109436 0.0000000000000000
5.8619265556335449 0.7674469351768494 0.0000000000000000
6.0776524543762207 0.5047702193260193 0.0000000000000000
9.6040296554565430 5.2947101593017578 0.0000000000000000
9.2775554656982422 5.5021286010742188 0.0000000000000000
9.2348814010620117 5.8612632751464844 0.0000000000000000
9.5039548873901367 6.0690875053405762 0.0000000000000000
9.2278556823730469 8.8587131500244141 0.0000000000000000
8.8587131500244141 0.7721447348594666 0.0000000000000000
0.7721447348594666 8.8587131500244141 0.0000000000000000
0.7721447348594666 1.1412864923477173 0.0000000000000000
9.1259412765502930 0.4357333481311798 0.0000000000000000
9.5642662048339844 0.8740591406822205 0.0000000000000000
9.5642662048339844 9.1259412765502930 0.0000000000000000
9.1259412765502930 9.5642662048339844 0.0000000000000000
0.4357333481311798 0.8740591406822205 0.0000000000000000
0.8740591406822205 0.4357333481311798 0.0000000000000000
0.8740591406822205 9.5642662048339844 0.0000000000000000
0.4357333481311798 9.1259412765502930 0.0000000000000000
9.0474987030029297 2.8408806324005127 0.0000000000000000
2.8346080780029297 0.9770757555961609 0.0000000000000000
0.9882811307907104 2.8184454441070557 0.0000000000000000
2.8287351131439209 9.0185937881469727 0.0000000000000000
0.9971865415573120 7.1542215347290039 0.0000000000000000
7.1808385848999023 9.0322065353393555 0.0000000000000000
7.1909260749816895 0.9858887195587158 0.0000000000000000
9.0245409011840820 7.2109599113464355 0.0000000000000000
1.3045775890350342 1.0162460803985596 0.0000000000000000
8.9956588745117188 1.3229625225067139 0.0000000000000000
1.0056232213973999 1.3124796152114868 0.0000000000000000
1.0368568897247314 8.6807088851928711 0.0000000000000000
1.3106337785720825 9.0326709747314453 0.0000000000000000
8.6796989440917969 8.9542274475097656 0.0000000000000000
8.6843414306640625 1.0067512989044189 0.0000000000000000
9.0027189254760742 8.6868848800659180 0.0000000000000000
9.0301742553710938 4.3247256278991699 0.0000000000000000
4.3193941116333008 0.9670503139495850 0.0000000000000000
4.3191514015197754 9.0214939117431641 0.0000000000000000
0.9833836555480957 4.3215827941894531 0.0000000000000000
5.6799230575561523 9.0262594223022461 0.0000000000000000
0.9640143513679504 5.6787719726562500 0.0000000000000000
5.6780242919921875 0.9722792506217957 0.0000000000000000
9.0240030288696289 5.6794714927673340 0.0000000000000000
6.1340713500976562 0.7915266156196594 0.0000000000000000
9.2066793441772461 6.1437873840332031 0.0000000000000000
0.7908151149749756 6.1366381645202637 0.0000000000000000
6.1365880966186523 9.2094135284423828 0.0000000000000000
3.8652231693267822 9.2104244232177734 0.0000000000000000
0.7909603714942932 3.8633174896240234 0.0000000000000000
9.2066793441772461 3.8562128543853760 0.0000000000000000
3.8562128543853760 0.7933205962181091 0.0000000000000000
7.6375012397766113 0.7872330546379089 0.0000000000000000
9.2162694931030273 7.6037178039550781 0.0000000000000000
7.6375012397766113 9.2127666473388672 0.0000000000000000
0.7818732261657715 7.6092481613159180 0.0000000000000000
2.3624987602233887 9.2127666473388672 0.0000000000000000
0.7880126237869263 2.3673548698425293 0.0000000000000000
2.3878874778747559 0.7787532210350037 0.0000000000000000
9.2094707489013672 2.3849992752075195 0.0000000000000000
0.4460632801055908 9.5539369583129883 0.0000000000000000
9.5607309341430664 9.5607309341430664 0.0000000000000000
0.4392694532871246 0.4392694532871246 0.0000000000000000
9.5607309341430664 0.4392694532871246 0.0000000000000000
1.7960807085037231 0.6890732645988464 0.0000000000000000
9.3109264373779297 1.7960807085037231 0.0000000000000000
0.6890732645988464 1.7960807085037231 0.0000000000000000
0.6879374384880066 8.2043895721435547 0.0000000000000000
1.7960807085037231 9.3109264373779297 0.0000000000000000
8.2039194107055664 9.3109264373779297 0.0000000000000000
9.3109264373779297 8.2039194107055664 0.0000000000000000
8.2039194107055664 0.6890732645988464 0.0000000000000000
1.9902254343032837 0.4509926140308380 0.0000000000000000
9.5490074157714844 1.9902254343032837 0.0000000000000000
1.9718934297561646 9.5164966583251953 0.0000000000000000
0.4835032820701599 1.9718934297561646 0.0000000000000000
8.0281066894531250 9.5164966583251953 0.0000000000000000
0.4508033096790314 8.0098533630371094 0.0000000000000000
9.5490074157714844 8.0097742080688477 0.0000000000000000
8.0281066894531250 0.4835032820701599 0.0000000000000000
1.0592995882034302 8.9498863220214844 0.0000000000000000
8.9604339599609375 8.9487295150756836 0.0000000000000000
1.0520961284637451 1.0520961284637451 0.0000000000000000
8.9512367248535156 1.0536793470382690 0.0000000000000000
9.3127193450927734 3.2847990989685059 0.0000000000000000
9.1081695556640625 3.1967349052429199 0.0000000000000000
3.2843286991119385 0.6861448884010315 0.0000000000000000
3.1964550018310547 0.8911544680595398 0.0000000000000000
0.6872806549072266 3.2847990989685059 0.0000000000000000
0.8918305635452271 3.1967349052429199 0.0000000000000000
3.2847990989685059 9.3127193450927734 0.0000000000000000
3.1967349052429199 9.1081695556640625 0.0000000000000000
0.6872806549072266 6.7152009010314941 0.0000000000000000
0.8918305635452271 6.8032650947570801 0.0000000000000000
6.7152113914489746 9.3126983642578125 0.0000000000000000
6.8033089637756348 9.1080799102783203 0.0000000000000000
9.3127193450927734 6.7152009010314941 0.0000000000000000
9.1081695556640625 6.8032650947570801 0.0000000000000000
6.7156710624694824 0.6861448884010315 0.0000000000000000
6.8035449981689453 0.8911544680595398 0.0000000000000000
3.4707634449005127 0.4717317521572113 0.0000000000000000
9.5281333923339844 3.4708194732666016 0.0000000000000000
0.4708020389080048 3.4703865051269531 0.0000000000000000
3.4703865051269531 9.5291976928710938 0.0000000000000000
0.4708020389080048 6.5296134948730469 0.0000000000000000
6.5296144485473633 9.5291957855224609 0.0000000000000000
6.5213565826416016 0.4599912762641907 0.0000000000000000
9.5426378250122070 6.5209097862243652 0.0000000000000000
1.6921235322952271 0.8781539201736450 0.0000000000000000
9.1218461990356445 1.6921235322952271 0.0000000000000000
1.6921235322952271 9.1218461990356445 0.0000000000000000
8.3078765869140625 9.1218461990356445 0.0000000000000000
0.8781539201736450 1.6921235322952271 0.0000000000000000
0.8770180940628052 8.3083467483520508 0.0000000000000000
9.1218461990356445 8.3078765869140625 0.0000000000000000
8.3078765869140625 0.8781539201736450 0.0000000000000000
8.9584465026855469 5.8920817375183105 0.0000000000000000
8.7986555099487305 5.7649121284484863 0.0000000000000000
5.8921418190002441 1.0423760414123535 0.0000000000000000
5.7667007446289062 1.2058150768280029 0.0000000000000000
1.0321167707443237 5.8911981582641602 0.0000000000000000
1.2058150768280029 5.7667007446289062 0.0000000000000000
5.8916563987731934 8.9965705871582031 0.0000000000000000
5.7693486213684082 8.8059120178222656 0.0000000000000000
1.0190582275390625 4.1087174415588379 0.0000000000000000
1.1776785850524902 4.2272543907165527 0.0000000000000000
4.1074786186218262 8.9568605422973633 0.0000000000000000
4.2329635620117188 8.8067502975463867 0.0000000000000000
4.1082320213317871 1.0530530214309692 0.0000000000000000
4.2431340217590332 1.1776220798492432 0.0000000000000000
8.9623994827270508 4.1091485023498535 0.0000000000000000
8.8017444610595703 4.2412886619567871 0.0000000000000000
8.6948251724243164 7.6702303886413574 0.0000000000000000
8.6730985641479492 7.4798364639282227 0.0000000000000000
8.5228862762451172 7.6196103096008301 0.0000000000000000
8.4833478927612305 7.4222488403320312 0.0000000000000000
8.3400268554687500 7.5648608207702637 0.0000000000000000
8.2886705398559570 7.3713455200195312 0.0000000000000000
8.1482019424438477 7.5134577751159668 0.0000000000000000
8.0951585769653320 7.3208336830139160 0.0000000000000000
7.9548592567443848 7.4628982543945312 0.0000000000000000
7.9016933441162109 7.2702775001525879 0.0000000000000000
7.7612838745117188 7.4127402305603027 0.0000000000000000
7.7081375122070312 7.2199134826660156 0.0000000000000000
7.5677261352539062 7.3624081611633301 0.0000000000000000
7.5145826339721680 7.1695523262023926 0.0000000000000000
7.3741850852966309 7.3119950294494629 0.0000000000000000
7.3210315704345703 7.1191763877868652 0.0000000000000000
7.1806349754333496 7.2616143226623535 0.0000000000000000
7.1274781227111816 7.0688066482543945 0.0000000000000000
6.9870815277099609 7.2112450599670410 0.0000000000000000
6.9339246749877930 7.0184383392333984 0.0000000000000000
7.0743212699890137 6.8759999275207520 0.0000000000000000
6.8807673454284668 6.8256320953369141 0.0000000000000000
6.7403707504272461 6.9680705070495605 0.0000000000000000
6.6872134208679199 6.7752642631530762 0.0000000000000000
6.8276100158691406 6.6328253746032715 0.0000000000000000
6.6340565681457520 6.5824575424194336 0.0000000000000000
6.4936594963073730 6.7248964309692383 0.0000000000000000
6.4405026435852051 6.5320897102355957 0.0000000000000000
6.5808992385864258 6.3896512985229492 0.0000000000000000
6.3873453140258789 6.3392834663391113 0.0000000000000000
6.2469487190246582 6.4817223548889160 0.0000000000000000
6.1937913894653320 6.2889156341552734 0.0000000000000000
6.3341884613037109 6.1464772224426270 0.0000000000000000
6.1406345367431641 6.0961093902587891 0.0000000000000000
6.2810311317443848 5.9536705017089844 0.0000000000000000
6.0874772071838379 5.9033026695251465 0.0000000000000000
5.9470806121826172 6.0457415580749512 0.0000000000000000
5.8939237594604492 5.8529348373413086 0.0000000000000000
5.7535266876220703 5.9953737258911133 0.0000000000000000
5.7003698348999023 5.8025670051574707 0.0000000000000000
5.8407664299011230 5.6601285934448242 0.0000000000000000
5.6472125053405762 5.6097607612609863 0.0000000000000000
5.5068159103393555 5.7521996498107910 0.0000000000000000
5.4536585807800293 5.5593929290771484 0.0000000000000000
5.7876091003417969 5.4673223495483398 0.0000000000000000
5.3132619857788086 5.7018318176269531 0.0000000000000000
5.2601051330566406 5.5090250968933105 0.0000000000000000
5.1197080612182617 5.6514639854431152 0.0000000000000000
5.0665512084960938 5.4586572647094727 0.0000000000000000
4.9261546134948730 5.6010961532592773 0.0000000000000000
4.8729972839355469 5.4082894325256348 0.0000000000000000
5.0133938789367676 5.2658510208129883 0.0000000000000000
4.8198399543762207 5.2154831886291504 0.0000000000000000
4.9602370262145996 5.0730443000793457 0.0000000000000000
4.7666831016540527 5.0226769447326660 0.0000000000000000
4.9070796966552734 4.8802380561828613 0.0000000000000000
4.7135257720947266 4.8298702239990234 0.0000000000000000
4.6794433593750000 5.3579216003417969 0.0000000000000000
4.8539228439331055 4.6874318122863770 0.0000000000000000
4.6603689193725586 4.6370639801025391 0.0000000000000000
4.8007655143737793 4.4946250915527344 0.0000000000000000
4.6072115898132324 4.4442572593688965 0.0000000000000000
4.4668149948120117 4.5866961479187012 0.0000000000000000
4.4136576652526855 4.3938894271850586 0.0000000000000000
4.7476081848144531 4.3018188476562500 0.0000000000000000
4.9411621093750000 4.3521866798400879 0.0000000000000000
4.2732610702514648 4.5363283157348633 0.0000000000000000
4.2201042175292969 4.3435215950012207 0.0000000000000000
4.9793114662170410 5.7939023971557617 0.0000000000000000
4.8880052566528320 4.1593799591064453 0.0000000000000000
5.0815591812133789 4.2097477912902832 0.0000000000000000
4.0797071456909180 4.4859604835510254 0.0000000000000000
4.0265502929687500 4.2931542396545410 0.0000000000000000
5.0284018516540527 4.0169415473937988 0.0000000000000000
5.2219557762145996 4.0673093795776367 0.0000000000000000
5.1687984466552734 3.8745028972625732 0.0000000000000000
5.3623523712158203 3.9248707294464111 0.0000000000000000
3.8861534595489502 4.4355926513671875 0.0000000000000000
3.8329963684082031 4.2427864074707031 0.0000000000000000
5.3091950416564941 3.7320642471313477 0.0000000000000000
5.5027489662170410 3.7824320793151855 0.0000000000000000
5.1156415939331055 3.6816964149475098 0.0000000000000000
5.4495921134948730 3.5896255970001221 0.0000000000000000
5.6431455612182617 3.6399934291839600 0.0000000000000000
3.6925997734069824 4.3852248191833496 0.0000000000000000
3.6394424438476562 4.1924185752868652 0.0000000000000000
3.7798392772674561 4.0499796867370605 0.0000000000000000
3.5862853527069092 3.9996120929718018 0.0000000000000000
3.7266821861267090 3.8571734428405762 0.0000000000000000
3.5331282615661621 3.8068056106567383 0.0000000000000000
3.7457568645477295 4.5780310630798340 0.0000000000000000
3.6735250949859619 3.6643669605255127 0.0000000000000000
3.4799711704254150 3.6139991283416748 0.0000000000000000
5.5899887084960938 3.4471869468688965 0.0000000000000000
5.7835426330566406 3.4975547790527344 0.0000000000000000
5.8366994857788086 3.6903612613677979 0.0000000000000000
5.9770965576171875 3.5479226112365723 0.0000000000000000
6.0302534103393555 3.7407290935516357 0.0000000000000000
6.1706500053405762 3.5982904434204102 0.0000000000000000
6.2238073348999023 3.7910969257354736 0.0000000000000000
6.3642039299011230 3.6486582756042480 0.0000000000000000
6.4173612594604492 3.8414647579193115 0.0000000000000000
3.4458887577056885 4.1420507431030273 0.0000000000000000
3.6203680038452148 3.4715604782104492 0.0000000000000000
3.4268140792846680 3.4211926460266113 0.0000000000000000
6.3110470771789551 3.4558517932891846 0.0000000000000000
6.5046005249023438 3.5062196254730225 0.0000000000000000
5.7303853034973145 3.3047482967376709 0.0000000000000000
5.5368313789367676 3.2543804645538330 0.0000000000000000
6.4514436721801758 3.3134131431579590 0.0000000000000000
6.6449975967407227 3.3637809753417969 0.0000000000000000
3.2864174842834473 3.5636312961578369 0.0000000000000000
3.2332601547241211 3.3708248138427734 0.0000000000000000
5.6772284507751465 3.1119420528411865 0.0000000000000000
3.5672106742858887 3.2787539958953857 0.0000000000000000
5.4836745262145996 3.0615742206573486 0.0000000000000000
6.5918402671813965 3.1709744930267334 0.0000000000000000
6.7853941917419434 3.2213423252105713 0.0000000000000000
6.8385510444641113 3.4141488075256348 0.0000000000000000
5.6240711212158203 2.9191355705261230 0.0000000000000000
6.7322368621826172 3.0285358428955078 0.0000000000000000
6.9257907867431641 3.0789036750793457 0.0000000000000000
3.0928635597229004 3.5132634639739990 0.0000000000000000
3.0397064685821533 3.3204569816589355 0.0000000000000000
6.8726339340209961 2.8860971927642822 0.0000000000000000
7.0661873817443848 2.9364650249481201 0.0000000000000000
7.0130305290222168 2.7436585426330566 0.0000000000000000
6.0834107398986816 3.9335355758666992 0.0000000000000000
3.7607645988464355 3.3291218280792236 0.0000000000000000
3.7076075077056885 3.1363153457641602 0.0000000000000000
3.9011614322662354 3.1866831779479980 0.0000000000000000
3.8480041027069092 2.9938766956329346 0.0000000000000000
3.6544504165649414 2.9435091018676758 0.0000000000000000
5.4305171966552734 2.8687677383422852 0.0000000000000000
5.5709137916564941 2.7263290882110596 0.0000000000000000
7.2065382003784180 2.7942025661468506 0.0000000000000000
4.0415582656860352 3.0442445278167725 0.0000000000000000
3.9884009361267090 2.8514380455017090 0.0000000000000000
7.1534271240234375 2.6012198925018311 0.0000000000000000
5.2751126289367676 4.2601156234741211 0.0000000000000000
2.8993096351623535 3.4628956317901611 0.0000000000000000
2.8461525440216064 3.2700893878936768 0.0000000000000000
7.2597336769104004 2.9868621826171875 0.0000000000000000
7.4000835418701172 2.8446047306060791 0.0000000000000000
7.4273319244384766 7.5049042701721191 0.0000000000000000
6.6790800094604492 2.8357293605804443 0.0000000000000000
5.3773603439331055 2.6759612560272217 0.0000000000000000
5.5177569389343262 2.5335226058959961 0.0000000000000000
4.1819548606872559 2.9018058776855469 0.0000000000000000
4.1287975311279297 2.7089996337890625 0.0000000000000000
2.7057559490203857 3.4125277996063232 0.0000000000000000
2.6525988578796387 3.2197215557098389 0.0000000000000000
2.7589130401611328 3.6053342819213867 0.0000000000000000
2.7929954528808594 3.0772829055786133 0.0000000000000000
2.5994329452514648 3.0269489288330078 0.0000000000000000
2.7398369312286377 2.8844821453094482 0.0000000000000000
2.5462739467620850 2.8341488838195801 0.0000000000000000
2.6866793632507324 2.6916775703430176 0.0000000000000000
4.0947151184082031 3.2370510101318359 0.0000000000000000
7.6523356437683105 7.0316176414489746 0.0000000000000000
7.4532847404479980 3.0372407436370850 0.0000000000000000
7.5936808586120605 2.8948037624359131 0.0000000000000000
2.4933304786682129 2.6412534713745117 0.0000000000000000
2.6335575580596924 2.4988567829132080 0.0000000000000000
2.3526430130004883 2.7844133377075195 0.0000000000000000
2.8270831108093262 2.5492315292358398 0.0000000000000000
2.7739272117614746 2.3564238548278809 0.0000000000000000
2.9674761295318604 2.4067926406860352 0.0000000000000000
5.7113108634948730 2.5838904380798340 0.0000000000000000
5.6581535339355469 2.3910839557647705 0.0000000000000000
5.8517074584960938 2.4414517879486084 0.0000000000000000
4.3223514556884766 2.7593672275543213 0.0000000000000000
4.2691941261291504 2.5665609836578369 0.0000000000000000
4.0756406784057617 2.5161931514739990 0.0000000000000000
4.2160692214965820 2.3736135959625244 0.0000000000000000
4.4095964431762695 2.4240987300872803 0.0000000000000000
5.7986950874328613 2.2480883598327637 0.0000000000000000
5.9922733306884766 2.2983634471893311 0.0000000000000000
5.3242030143737793 2.4831547737121582 0.0000000000000000
2.5653591156005859 3.5549664497375488 0.0000000000000000
2.6185162067413330 3.7477729320526123 0.0000000000000000
5.1006336212158203 4.9306058883666992 0.0000000000000000
5.2901206016540527 3.0112063884735107 0.0000000000000000
4.3564720153808594 2.2311477661132812 0.0000000000000000
2.4396109580993652 2.4497838020324707 0.0000000000000000
2.9142985343933105 2.2139916419982910 0.0000000000000000
3.1078348159790039 2.2644116878509521 0.0000000000000000
2.4249625205993652 3.6974050998687744 0.0000000000000000
2.4781196117401123 3.8902115821838379 0.0000000000000000
7.6468825340270996 3.0876185894012451 0.0000000000000000
7.7872862815856934 2.9451816082000732 0.0000000000000000
7.7342238426208496 2.7524673938751221 0.0000000000000000
7.5064535140991211 3.2300109863281250 0.0000000000000000
7.9276719093322754 2.8027238845825195 0.0000000000000000
4.0223989486694336 2.3231024742126465 0.0000000000000000
2.2845656871795654 3.8398437500000000 0.0000000000000000
2.3377227783203125 4.0326504707336426 0.0000000000000000
2.5312767028808594 4.0830178260803223 0.0000000000000000
2.3908801078796387 4.2254567146301270 0.0000000000000000
2.5844337940216064 4.2758245468139648 0.0000000000000000
2.4440400600433350 4.4182624816894531 0.0000000000000000
2.6375913619995117 4.4686307907104492 0.0000000000000000
2.4971978664398193 4.6110687255859375 0.0000000000000000
2.6907486915588379 4.6614370346069336 0.0000000000000000
2.5503520965576172 4.8038759231567383 0.0000000000000000
2.7439053058624268 4.8542437553405762 0.0000000000000000
2.6035087108612061 4.9966821670532227 0.0000000000000000
2.7970623970031738 5.0470499992370605 0.0000000000000000
2.6566655635833740 5.1894888877868652 0.0000000000000000
2.8502194881439209 5.2398567199707031 0.0000000000000000
2.7098226547241211 5.3822951316833496 0.0000000000000000
2.9033765792846680 5.4326629638671875 0.0000000000000000
2.7629797458648682 5.5751018524169922 0.0000000000000000
2.9565336704254150 5.6254696846008301 0.0000000000000000
2.8161368370056152 5.7679080963134766 0.0000000000000000
3.0096907615661621 5.8182759284973145 0.0000000000000000
2.8692941665649414 5.9607143402099609 0.0000000000000000
3.0628478527069092 6.0110821723937988 0.0000000000000000
2.9224512577056885 6.1535210609436035 0.0000000000000000
3.1160049438476562 6.2038888931274414 0.0000000000000000
2.9756083488464355 6.3463273048400879 0.0000000000000000
3.1691620349884033 6.3966951370239258 0.0000000000000000
3.0287654399871826 6.5391340255737305 0.0000000000000000
3.2223191261291504 6.5895018577575684 0.0000000000000000
3.0819225311279297 6.7319402694702148 0.0000000000000000
3.2754764556884766 6.7823081016540527 0.0000000000000000
3.4158730506896973 6.6398696899414062 0.0000000000000000
3.4690301418304443 6.8326759338378906 0.0000000000000000
3.1350796222686768 6.9247465133666992 0.0000000000000000
3.6094269752502441 6.6902370452880859 0.0000000000000000
3.6625840663909912 6.8830437660217285 0.0000000000000000
2.9415256977081299 6.8743791580200195 0.0000000000000000
2.9946830272674561 7.0671854019165039 0.0000000000000000
2.8011291027069092 7.0168175697326660 0.0000000000000000
3.8029806613922119 6.7406048774719238 0.0000000000000000
3.8561377525329590 6.9334115982055664 0.0000000000000000
3.9965345859527588 6.7909727096557617 0.0000000000000000
4.0496916770935059 6.9837794303894043 0.0000000000000000
4.1900882720947266 6.8413405418395996 0.0000000000000000
4.2432456016540527 7.0341472625732422 0.0000000000000000
4.3836421966552734 6.8917083740234375 0.0000000000000000
4.4367995262145996 7.0845150947570801 0.0000000000000000
4.5771961212158203 6.9420762062072754 0.0000000000000000
3.7498235702514648 6.5477986335754395 0.0000000000000000
3.2032446861267090 5.8686437606811523 0.0000000000000000
2.8542861938476562 7.2096238136291504 0.0000000000000000
4.6303529739379883 7.1348829269409180 0.0000000000000000
4.7707500457763672 6.9924440383911133 0.0000000000000000
4.4899563789367676 7.2773213386535645 0.0000000000000000
4.8239068984985352 7.1852507591247559 0.0000000000000000
2.6607325077056885 7.1592559814453125 0.0000000000000000
4.9643034934997559 7.0428118705749512 0.0000000000000000
5.0174608230590820 7.2356181144714355 0.0000000000000000
3.7157411575317383 7.0758500099182129 0.0000000000000000
2.5694260597229004 5.5247340202331543 0.0000000000000000
2.7138895988464355 7.3520627021789551 0.0000000000000000
5.1578574180603027 7.0931797027587891 0.0000000000000000
5.2110147476196289 7.2859859466552734 0.0000000000000000
2.7820544242858887 6.2959594726562500 0.0000000000000000
2.9074432849884033 7.4024305343627930 0.0000000000000000
2.7670466899871826 7.5448689460754395 0.0000000000000000
2.5203356742858887 7.3016948699951172 0.0000000000000000
5.3514113426208496 7.1435475349426270 0.0000000000000000
5.4045686721801758 7.3363537788391113 0.0000000000000000
4.3304848670959473 6.6989021301269531 0.0000000000000000
5.1047005653381348 6.9003734588623047 0.0000000000000000
2.4671785831451416 7.1088886260986328 0.0000000000000000
2.3267817497253418 7.2513270378112793 0.0000000000000000
3.0437731742858887 5.2902245521545410 0.0000000000000000
5.5449652671813965 7.1939153671264648 0.0000000000000000
5.5981221199035645 7.3867216110229492 0.0000000000000000
5.4577255249023438 7.5291604995727539 0.0000000000000000
5.6512794494628906 7.5795283317565918 0.0000000000000000
5.7916760444641113 7.4370894432067871 0.0000000000000000
5.8456258773803711 7.6312284469604492 0.0000000000000000
5.7047662734985352 7.7740502357482910 0.0000000000000000
2.9606003761291504 7.5952367782592773 0.0000000000000000
2.8202037811279297 7.7376756668090820 0.0000000000000000
2.2504832744598389 4.3678951263427734 0.0000000000000000
5.9876379966735840 7.4899225234985352 0.0000000000000000
2.2737717628479004 7.0586652755737305 0.0000000000000000
2.1333994865417480 7.2011284828186035 0.0000000000000000
2.1864137649536133 7.3937940597534180 0.0000000000000000
6.0433993339538574 7.6859989166259766 0.0000000000000000
7.8746428489685059 2.6100425720214844 0.0000000000000000
7.8150110244750977 7.6054043769836426 0.0000000000000000
7.0402483940124512 7.4040684700012207 0.0000000000000000
6.8466863632202148 7.3536863327026367 0.0000000000000000
6.8998546600341797 7.5465073585510254 0.0000000000000000
5.0706181526184082 7.4284248352050781 0.0000000000000000
4.1028490066528320 7.1765856742858887 0.0000000000000000
2.1441690921783447 3.9822824001312256 0.0000000000000000
4.3755087852478027 2.9521737098693848 0.0000000000000000
6.3982863426208496 3.1206066608428955 0.0000000000000000
4.8348479270935059 3.9665737152099609 0.0000000000000000
6.9598731994628906 2.5508522987365723 0.0000000000000000
7.1001396179199219 2.4082851409912109 0.0000000000000000
6.9066944122314453 2.3580243587493896 0.0000000000000000
7.0465812683105469 2.2150783538818359 0.0000000000000000
7.2404260635375977 2.2657370567321777 0.0000000000000000
7.1868748664855957 2.0725369453430176 0.0000000000000000
7.3812084197998047 2.1236412525177002 0.0000000000000000
2.4631118774414062 5.1391210556030273 0.0000000000000000
5.8066840171813965 6.1881799697875977 0.0000000000000000
5.6131300926208496 6.1378121376037598 0.0000000000000000
5.6050205230712891 2.1981847286224365 0.0000000000000000
2.3718204498291016 3.5045945644378662 0.0000000000000000
4.7857575416564941 5.7435345649719238 0.0000000000000000
4.8389148712158203 5.9363412857055664 0.0000000000000000
4.6453609466552734 5.8859734535217285 0.0000000000000000
6.4745850563049316 6.0040383338928223 0.0000000000000000
6.4214277267456055 5.8112320899963379 0.0000000000000000
6.6149816513061523 5.8615999221801758 0.0000000000000000
6.5618247985839844 5.6687932014465332 0.0000000000000000
6.7553782463073730 5.7191610336303711 0.0000000000000000
6.7022213935852051 5.5263547897338867 0.0000000000000000
6.8957753181457520 5.5767226219177246 0.0000000000000000
6.8426179885864258 5.3839159011840820 0.0000000000000000
7.0361719131469727 5.4342837333679199 0.0000000000000000
6.9830145835876465 5.2414774894714355 0.0000000000000000
7.0893287658691406 5.6270904541015625 0.0000000000000000
6.7894611358642578 5.1911096572875977 0.0000000000000000
6.9298577308654785 5.0486712455749512 0.0000000000000000
7.1234116554260254 5.0990390777587891 0.0000000000000000
7.0702543258666992 4.9062323570251465 0.0000000000000000
6.7363038063049316 4.9983034133911133 0.0000000000000000
7.2638082504272461 4.9566001892089844 0.0000000000000000
7.2106509208679199 4.7637939453125000 0.0000000000000000
7.4042048454284668 4.8141617774963379 0.0000000000000000
7.3510479927062988 4.6213550567626953 0.0000000000000000
7.4573621749877930 5.0069680213928223 0.0000000000000000
7.5446014404296875 4.6717228889465332 0.0000000000000000
7.4914445877075195 4.4789166450500488 0.0000000000000000
7.6849985122680664 4.5292844772338867 0.0000000000000000
7.6318411827087402 4.3364777565002441 0.0000000000000000
7.2978906631469727 4.4285488128662109 0.0000000000000000
7.8253951072692871 4.3868455886840820 0.0000000000000000
7.7722377777099609 4.1940393447875977 0.0000000000000000
6.5959072113037109 5.1407418251037598 0.0000000000000000
6.5427498817443848 4.9479355812072754 0.0000000000000000
5.6662874221801758 6.3306188583374023 0.0000000000000000
2.7210116386413574 2.1635503768920898 0.0000000000000000
2.8611783981323242 2.0211749076843262 0.0000000000000000
4.3264183998107910 4.7291345596313477 0.0000000000000000
7.5786838531494141 4.1436715126037598 0.0000000000000000
7.7190809249877930 4.0012326240539551 0.0000000000000000
3.5522029399871826 4.5276637077331543 0.0000000000000000
3.9202358722686768 3.9075410366058350 0.0000000000000000
3.6053600311279297 4.7204699516296387 0.0000000000000000
4.5159053802490234 2.8097350597381592 0.0000000000000000
4.5690622329711914 3.0025415420532227 0.0000000000000000
4.5489735603332520 2.2819333076477051 0.0000000000000000
6.8085355758666992 5.9119677543640137 0.0000000000000000
4.7175927162170410 6.7996377944946289 0.0000000000000000
2.6757402420043945 5.9103469848632812 0.0000000000000000
5.4727334976196289 6.2802510261535645 0.0000000000000000
6.6831464767456055 4.8054966926574707 0.0000000000000000
6.4895930290222168 4.7551288604736328 0.0000000000000000
6.3491959571838379 4.8975677490234375 0.0000000000000000
6.6299896240234375 4.6126904487609863 0.0000000000000000
6.2960391044616699 4.7047610282897949 0.0000000000000000
6.1556425094604492 4.8471999168395996 0.0000000000000000
6.1024851799011230 4.6543931961059570 0.0000000000000000
5.9620885848999023 4.7968320846557617 0.0000000000000000
7.5255270004272461 3.9508650302886963 0.0000000000000000
5.9324741363525391 7.2950615882873535 0.0000000000000000
1.9926329851150513 7.3432073593139648 0.0000000000000000
5.7453932762145996 2.0558390617370605 0.0000000000000000
7.9657917022705078 4.2444071769714355 0.0000000000000000
7.7000489234924316 3.2804203033447266 0.0000000000000000
2.3568017482757568 4.7535152435302734 0.0000000000000000
3.0140135288238525 7.7879729270935059 0.0000000000000000
2.8736596107482910 7.9303994178771973 0.0000000000000000
2.6798567771911621 7.8801002502441406 0.0000000000000000
3.1541969776153564 7.6455926895141602 0.0000000000000000
2.7338168621063232 8.0737133026123047 0.0000000000000000
7.3292441368103027 1.9320414066314697 0.0000000000000000
8.0668516159057617 2.6590831279754639 0.0000000000000000
7.7381553649902344 4.7220907211303711 0.0000000000000000
1.9396084547042847 7.1515331268310547 0.0000000000000000
4.4957890510559082 2.0891330242156982 0.0000000000000000
4.3032770156860352 2.0385093688964844 0.0000000000000000
4.4414567947387695 1.8982464075088501 0.0000000000000000
4.6864843368530273 2.1412494182586670 0.0000000000000000
8.0444326400756836 7.1321964263916016 0.0000000000000000
4.2500123977661133 1.8483414649963379 0.0000000000000000
8.1195077896118164 2.8516917228698730 0.0000000000000000
7.1330881118774414 1.8838313817977905 0.0000000000000000
2.6679008007049561 1.9707309007644653 0.0000000000000000
2.8090317249298096 1.8280953168869019 0.0000000000000000
5.9089312553405762 4.6040258407592773 0.0000000000000000
4.6985182762145996 6.0787796974182129 0.0000000000000000
4.5049643516540527 6.0284118652343750 0.0000000000000000
4.4518070220947266 5.8356056213378906 0.0000000000000000
4.3114104270935059 5.9780440330505371 0.0000000000000000
4.2582530975341797 5.7852377891540527 0.0000000000000000
4.1178565025329590 5.9276762008666992 0.0000000000000000
4.0646996498107910 5.7348699569702148 0.0000000000000000
2.8120701313018799 3.7981407642364502 0.0000000000000000
3.9243028163909912 5.8773083686828613 0.0000000000000000
3.8711457252502441 5.6845021247863770 0.0000000000000000
4.0115423202514648 5.5420632362365723 0.0000000000000000
3.8179886341094971 5.4916958808898926 0.0000000000000000
3.0206329822540283 2.5995991230010986 0.0000000000000000
2.4140460491180420 6.9161062240600586 0.0000000000000000
2.2201299667358398 6.8664078712463379 0.0000000000000000
2.8311448097229004 4.5189986228942871 0.0000000000000000
6.1283707618713379 7.3477416038513184 0.0000000000000000
6.0452895164489746 2.4917113780975342 0.0000000000000000
6.1853332519531250 2.3506288528442383 0.0000000000000000
3.9583852291107178 5.3492569923400879 0.0000000000000000
6.8529605865478516 2.1646437644958496 0.0000000000000000
2.0457284450531006 7.5359539985656738 0.0000000000000000
5.5518436431884766 2.0054557323455811 0.0000000000000000
8.0189485549926758 4.4372134208679199 0.0000000000000000
6.1325006484985352 2.1565744876861572 0.0000000000000000
3.2076170444488525 7.8383269309997559 0.0000000000000000
3.3477661609649658 7.6959562301635742 0.0000000000000000
1.7998255491256714 7.2921729087829590 0.0000000000000000
1.7472281455993652 7.1031990051269531 0.0000000000000000
2.9265339374542236 8.1249580383300781 0.0000000000000000
5.7685346603393555 4.7464642524719238 0.0000000000000000
5.4918079376220703 7.0011086463928223 0.0000000000000000
2.9374589920043945 4.9046115875244141 0.0000000000000000
5.1838064193725586 2.6255934238433838 0.0000000000000000
2.5413405895233154 8.0282163619995117 0.0000000000000000
2.7861213684082031 8.2657270431518555 0.0000000000000000
5.6913375854492188 1.8632777929306030 0.0000000000000000
8.0148820877075195 2.4674460887908936 0.0000000000000000
8.2054805755615234 2.5164697170257568 0.0000000000000000
7.5210857391357422 1.9816384315490723 0.0000000000000000
7.4694700241088867 1.7906540632247925 0.0000000000000000
6.7081389427185059 7.4942660331726074 0.0000000000000000
6.7612137794494629 7.6882629394531250 0.0000000000000000
6.9533023834228516 7.7392177581787109 0.0000000000000000
6.8134503364562988 7.8821096420288086 0.0000000000000000
7.0062866210937500 7.9321408271789551 0.0000000000000000
6.6236410140991211 7.8337254524230957 0.0000000000000000
6.0729937553405762 7.1527347564697266 0.0000000000000000
6.2087993621826172 5.0400061607360840 0.0000000000000000
7.2297258377075195 5.4846515655517578 0.0000000000000000
7.2828826904296875 5.6774582862854004 0.0000000000000000
7.4232797622680664 5.5350193977355957 0.0000000000000000
7.4764366149902344 5.7278261184692383 0.0000000000000000
7.6168332099914551 5.5853872299194336 0.0000000000000000
7.6699724197387695 5.7781987190246582 0.0000000000000000
7.5295906066894531 5.9206333160400391 0.0000000000000000
7.8103985786437988 5.6358394622802734 0.0000000000000000
7.7231259346008301 5.9710063934326172 0.0000000000000000
7.5827469825744629 6.1134400367736816 0.0000000000000000
7.7780537605285645 6.1641035079956055 0.0000000000000000
7.9201507568359375 6.0215415954589844 0.0000000000000000
7.6359772682189941 6.3060765266418457 0.0000000000000000
7.4423651695251465 6.2558493614196777 0.0000000000000000
7.8281035423278809 6.3601284027099609 0.0000000000000000
4.1710138320922852 6.1204829216003418 0.0000000000000000
7.7572321891784668 5.4429626464843750 0.0000000000000000
7.9507837295532227 5.4933166503906250 0.0000000000000000
7.4953031539916992 6.4484329223632812 0.0000000000000000
3.3095588684082031 6.2542567253112793 0.0000000000000000
7.8976268768310547 5.3005123138427734 0.0000000000000000
3.1801030635833740 3.1780183315277100 0.0000000000000000
5.8176250457763672 2.9695034027099609 0.0000000000000000
5.4005017280578613 5.3665866851806641 0.0000000000000000
6.3682708740234375 5.6184253692626953 0.0000000000000000
5.5559062957763672 3.9752385616302490 0.0000000000000000
4.8920717239379883 6.1291475296020508 0.0000000000000000
4.3605008125305176 4.2010831832885742 0.0000000000000000
3.1882367134094238 7.1175532341003418 0.0000000000000000
6.2428817749023438 4.5119547843933105 0.0000000000000000
3.8820726871490479 2.4657778739929199 0.0000000000000000
3.8287911415100098 2.2728435993194580 0.0000000000000000
3.6885075569152832 2.4154202938079834 0.0000000000000000
2.3608121871948242 6.7233953475952148 0.0000000000000000
2.1667323112487793 6.6735639572143555 0.0000000000000000
3.7989139556884766 4.7708377838134766 0.0000000000000000
3.6585171222686768 4.9132761955261230 0.0000000000000000
3.6353709697723389 2.2226972579956055 0.0000000000000000
3.7755465507507324 2.0801918506622314 0.0000000000000000
2.3076021671295166 6.5305981636047363 0.0000000000000000
2.1103794574737549 6.4812412261962891 0.0000000000000000
2.2539036273956299 6.3378744125366211 0.0000000000000000
2.0565996170043945 6.2885293960571289 0.0000000000000000
2.2005524635314941 6.1450972557067871 0.0000000000000000
2.0052101612091064 6.0952143669128418 0.0000000000000000
2.1476576328277588 5.9522109031677246 0.0000000000000000
1.9523912668228149 5.9023098945617676 0.0000000000000000
2.0946006774902344 5.7593750953674316 0.0000000000000000
1.9010554552078247 5.7089943885803223 0.0000000000000000
2.0419216156005859 5.5664367675781250 0.0000000000000000
8.1595277786254883 4.2949275970458984 0.0000000000000000
8.1062183380126953 4.1019940376281738 0.0000000000000000
2.6138451099395752 1.7754658460617065 0.0000000000000000
2.4740526676177979 1.9204442501068115 0.0000000000000000
3.0043020248413086 1.8755059242248535 0.0000000000000000
3.3999392986297607 7.8915443420410156 0.0000000000000000
3.5411171913146973 7.7467985153198242 0.0000000000000000
3.5932540893554688 7.9424662590026855 0.0000000000000000
3.7345974445343018 7.7973375320434570 0.0000000000000000
3.7877511978149414 7.9905219078063965 0.0000000000000000
3.9283320903778076 7.8472151756286621 0.0000000000000000
3.9814922809600830 8.0404224395751953 0.0000000000000000
4.1219115257263184 7.8975567817687988 0.0000000000000000
4.1751136779785156 8.0904178619384766 0.0000000000000000
4.3154807090759277 7.9478583335876465 0.0000000000000000
4.3686814308166504 8.1407117843627930 0.0000000000000000
4.5090394020080566 7.9982028007507324 0.0000000000000000
4.0350685119628906 8.2336273193359375 0.0000000000000000
2.9776821136474609 8.3172340393066406 0.0000000000000000
2.0910120010375977 3.7894759178161621 0.0000000000000000
1.9488031864166260 3.9324326515197754 0.0000000000000000
8.4327077865600586 7.2259569168090820 0.0000000000000000
1.8482815027236938 5.5160813331604004 0.0000000000000000
1.9887501001358032 5.3736324310302734 0.0000000000000000
1.7589012384414673 5.8519129753112793 0.0000000000000000
6.8673205375671387 8.0747537612915039 0.0000000000000000
7.0572276115417480 8.1253690719604492 0.0000000000000000
7.1992449760437012 7.9826312065124512 0.0000000000000000
7.2498879432678223 8.1759195327758789 0.0000000000000000
7.3924655914306641 8.0331678390502930 0.0000000000000000
6.9159808158874512 8.2645063400268555 0.0000000000000000
2.7566332817077637 1.6341093778610229 0.0000000000000000
8.2127151489257812 4.4877591133117676 0.0000000000000000
4.3855109214782715 1.7073341608047485 0.0000000000000000
1.6100095510482788 7.2440490722656250 0.0000000000000000
5.4991521835327148 1.8103892803192139 0.0000000000000000
5.3579254150390625 1.9503943920135498 0.0000000000000000
7.4452266693115234 8.2282085418701172 0.0000000000000000
7.5859246253967285 8.0861520767211914 0.0000000000000000
7.3025760650634766 8.3686332702636719 0.0000000000000000
4.1903529167175293 1.6563181877136230 0.0000000000000000
3.5822148323059082 2.0301184654235840 0.0000000000000000
1.6609808206558228 7.4352722167968750 0.0000000000000000
5.8216919898986816 4.9392704963684082 0.0000000000000000
3.6775918006896973 5.6341342926025391 0.0000000000000000
3.6244347095489502 5.4413280487060547 0.0000000000000000
4.5581212043762207 6.2212185859680176 0.0000000000000000
6.2665681838989258 7.2031207084655762 0.0000000000000000
2.2395009994506836 7.5865359306335449 0.0000000000000000
2.0990958213806152 7.7289104461669922 0.0000000000000000
7.4339194297790527 2.3168931007385254 0.0000000000000000
5.5258903503417969 6.4730572700500488 0.0000000000000000
5.7194442749023438 6.5234251022338867 0.0000000000000000
5.3323369026184082 6.4226894378662109 0.0000000000000000
3.4649634361267090 4.8629083633422852 0.0000000000000000
4.7094593048095703 2.8601028919219971 0.0000000000000000
4.7626161575317383 3.0529093742370605 0.0000000000000000
4.6222195625305176 3.1953480243682861 0.0000000000000000
5.6281380653381348 4.8889026641845703 0.0000000000000000
5.7153773307800293 4.5536580085754395 0.0000000000000000
6.7130589485168457 2.3075752258300781 0.0000000000000000
6.6569561958312988 2.1154258251190186 0.0000000000000000
7.3019247055053711 6.3982696533203125 0.0000000000000000
7.2487964630126953 6.2054972648620605 0.0000000000000000
3.4880902767181396 7.5536074638366699 0.0000000000000000
6.2387657165527344 2.5423772335052490 0.0000000000000000
4.8157734870910645 3.2457158565521240 0.0000000000000000
4.6753764152526855 3.3881545066833496 0.0000000000000000
5.1314477920532227 2.4335741996765137 0.0000000000000000
7.6659235954284668 3.8084263801574707 0.0000000000000000
7.4723696708679199 3.7580585479736328 0.0000000000000000
7.3319730758666992 3.9004971981048584 0.0000000000000000
7.2788162231445312 3.7076907157897949 0.0000000000000000
7.1384191513061523 3.8501293659210205 0.0000000000000000
4.1519389152526855 5.3996248245239258 0.0000000000000000
4.0987820625305176 5.2068185806274414 0.0000000000000000
3.8751697540283203 7.6543974876403809 0.0000000000000000
5.8557744026184082 4.4112191200256348 0.0000000000000000
4.2623186111450195 7.7550315856933594 0.0000000000000000
8.0923547744750977 5.3520536422729492 0.0000000000000000
8.1440114974975586 5.5430226325988770 0.0000000000000000
8.2838172912597656 5.4037461280822754 0.0000000000000000
8.0389642715454102 5.1589174270629883 0.0000000000000000
8.2999591827392578 4.1525182723999023 0.0000000000000000
8.3345565795898438 5.5917730331420898 0.0000000000000000
2.5620512962341309 1.5807375907897949 0.0000000000000000
4.5615749359130859 8.1933488845825195 0.0000000000000000
4.7021784782409668 8.0503530502319336 0.0000000000000000
4.6493616104125977 7.8560457229614258 0.0000000000000000
4.8425107002258301 7.9086756706237793 0.0000000000000000
2.8394081592559814 8.4553499221801758 0.0000000000000000
2.6494278907775879 8.4112100601196289 0.0000000000000000
4.4222478866577148 8.3328466415405273 0.0000000000000000
1.9654803276062012 6.6288857460021973 0.0000000000000000
4.5758872032165527 1.7563878297805786 0.0000000000000000
8.2466268539428711 3.9595644474029541 0.0000000000000000
5.6387696266174316 1.6708028316497803 0.0000000000000000
5.8307571411132812 1.7202926874160767 0.0000000000000000
5.4500098228454590 1.6186031103134155 0.0000000000000000
7.4957776069641113 8.4210100173950195 0.0000000000000000
1.5673599243164062 7.0529923439025879 0.0000000000000000
4.6111855506896973 8.3852939605712891 0.0000000000000000
1.6940320730209351 6.9164953231811523 0.0000000000000000
7.6586546897888184 1.8395807743072510 0.0000000000000000
7.7144618034362793 2.0303285121917725 0.0000000000000000
7.6058149337768555 1.6535069942474365 0.0000000000000000
7.4191527366638184 1.6077117919921875 0.0000000000000000
3.7224380970001221 1.8879150152206421 0.0000000000000000
8.1540842056274414 2.3295972347259521 0.0000000000000000
4.5224394798278809 1.5695680379867554 0.0000000000000000
3.2574083805084229 8.0377750396728516 0.0000000000000000
1.9053463935852051 7.6781897544860840 0.0000000000000000
1.9586744308471680 7.8711042404174805 0.0000000000000000
8.2013435363769531 7.7079029083251953 0.0000000000000000
8.1978797912597656 5.7344117164611816 0.0000000000000000
8.3903064727783203 5.7817144393920898 0.0000000000000000
8.2545061111450195 5.9256472587585449 0.0000000000000000
8.4474020004272461 5.9725461006164551 0.0000000000000000
7.5332822799682617 7.8912420272827148 0.0000000000000000
7.7273521423339844 7.9417028427124023 0.0000000000000000
2.1521868705749512 7.9217343330383301 0.0000000000000000
6.3253731727600098 7.3957400321960449 0.0000000000000000
3.4840381145477295 5.5837664604187012 0.0000000000000000
6.2128663063049316 7.0097737312316895 0.0000000000000000
6.0193996429443359 6.9594926834106445 0.0000000000000000
3.4308807849884033 5.3909602165222168 0.0000000000000000
6.7993669509887695 1.9723010063171387 0.0000000000000000
5.6812949180603027 5.0817093849182129 0.0000000000000000
5.8748488426208496 5.1320772171020508 0.0000000000000000
7.8213281631469727 2.4170782566070557 0.0000000000000000
4.4818229675292969 3.3377866744995117 0.0000000000000000
4.5349798202514648 3.5305931568145752 0.0000000000000000
4.3414258956909180 3.4802253246307373 0.0000000000000000
4.3945832252502441 3.6730318069458008 0.0000000000000000
4.9911842346191406 2.5761442184448242 0.0000000000000000
7.3550744056701660 6.5910730361938477 0.0000000000000000
7.5429725646972656 6.6505613327026367 0.0000000000000000
2.0034704208374023 4.1248073577880859 0.0000000000000000
1.8080540895462036 4.0749721527099609 0.0000000000000000
1.8629645109176636 4.2672772407531738 0.0000000000000000
1.6702163219451904 4.2163667678833008 0.0000000000000000
1.7230955362319946 4.4090666770935059 0.0000000000000000
1.6159687042236328 4.0270447731018066 0.0000000000000000
1.9164880514144897 4.4599013328552246 0.0000000000000000
1.7745634317398071 4.6013021469116211 0.0000000000000000
1.5806772708892822 4.5494089126586914 0.0000000000000000
1.9694216251373291 4.6525940895080566 0.0000000000000000
3.1460206508636475 3.7060699462890625 0.0000000000000000
8.0721416473388672 4.6300497055053711 0.0000000000000000
2.4590458869934082 3.1694040298461914 0.0000000000000000
3.4949617385864258 2.3651382923126221 0.0000000000000000
7.1915764808654785 4.0429358482360840 0.0000000000000000
6.9980225563049316 3.9925680160522461 0.0000000000000000
4.2010293006896973 3.6226639747619629 0.0000000000000000
5.3854937553405762 6.6154961585998535 0.0000000000000000
5.1919398307800293 6.5651283264160156 0.0000000000000000
4.5731291770935059 4.9723091125488281 0.0000000000000000
7.8446264266967773 5.1078448295593262 0.0000000000000000
4.3986501693725586 5.6427989006042480 0.0000000000000000
5.9811630249023438 5.5176901817321777 0.0000000000000000
6.0984148979187012 2.6846396923065186 0.0000000000000000
6.2919635772705078 2.7350277900695801 0.0000000000000000
6.1515736579895020 2.8774404525756836 0.0000000000000000
2.9333920478820801 2.9348452091217041 0.0000000000000000
5.2791795730590820 6.2298831939697266 0.0000000000000000
2.7248306274414062 4.1333856582641602 0.0000000000000000
2.7479720115661621 6.8240113258361816 0.0000000000000000
2.1823158264160156 5.4239988327026367 0.0000000000000000
2.1291584968566895 5.2311921119689941 0.0000000000000000
1.9356045722961426 5.1808242797851562 0.0000000000000000
3.5481362342834473 2.5578961372375488 0.0000000000000000
2.5012347698211670 6.5808782577514648 0.0000000000000000
4.6019554138183594 2.4748094081878662 0.0000000000000000
2.0760037899017334 5.0383934974670410 0.0000000000000000
4.9030127525329590 2.9104707241058350 0.0000000000000000
3.5371952056884766 5.7765727043151855 0.0000000000000000
7.1083974838256836 6.3479385375976562 0.0000000000000000
7.0511798858642578 4.1853742599487305 0.0000000000000000
6.8576259613037109 4.1350069046020508 0.0000000000000000
6.8044686317443848 3.9422001838684082 0.0000000000000000
6.9107828140258789 4.3278131484985352 0.0000000000000000
6.7172293663024902 4.2774453163146973 0.0000000000000000
4.2541866302490234 3.8154702186584473 0.0000000000000000
2.3946988582611084 6.1952996253967285 0.0000000000000000
7.1424860954284668 5.8198966979980469 0.0000000000000000
2.2884564399719238 5.8096599578857422 0.0000000000000000
4.2923359870910645 5.2571864128112793 0.0000000000000000
6.8235435485839844 4.6630582809448242 0.0000000000000000
4.4477405548095703 3.8658380508422852 0.0000000000000000
4.7285337448120117 3.5809607505798340 0.0000000000000000
6.4323592185974121 2.5925924777984619 0.0000000000000000
5.4877414703369141 5.0313415527343750 0.0000000000000000
5.4345841407775879 4.8385353088378906 0.0000000000000000
5.6622204780578613 4.3608512878417969 0.0000000000000000
8.0530433654785156 3.9091720581054688 0.0000000000000000
6.4610905647277832 7.2515964508056641 0.0000000000000000
4.7897348403930664 7.7137808799743652 0.0000000000000000
5.8026170730590820 4.2184128761291504 0.0000000000000000
5.9961709976196289 4.2687807083129883 0.0000000000000000
5.5218238830566406 4.5032901763916016 0.0000000000000000
4.5962448120117188 7.6630649566650391 0.0000000000000000
4.9832849502563477 7.7641773223876953 0.0000000000000000
5.0361523628234863 7.9591755867004395 0.0000000000000000
5.1768527030944824 7.8145723342895508 0.0000000000000000
5.2301149368286133 8.0073547363281250 0.0000000000000000
8.4401817321777344 4.0099339485168457 0.0000000000000000
2.7040739059448242 1.4403690099716187 0.0000000000000000
2.9020867347717285 1.4912135601043701 0.0000000000000000
7.8580508232116699 1.8850865364074707 0.0000000000000000
8.3405609130859375 2.3782007694244385 0.0000000000000000
8.3904170989990234 2.5638501644134521 0.0000000000000000
1.8953440189361572 3.7397124767303467 0.0000000000000000
2.0375175476074219 3.5967662334442139 0.0000000000000000
8.3120059967041016 6.1156225204467773 0.0000000000000000
6.6042246818542480 1.9233758449554443 0.0000000000000000
6.7431106567382812 1.7828378677368164 0.0000000000000000
1.8608340024948120 6.2350263595581055 0.0000000000000000
7.3572263717651367 8.5574321746826172 0.0000000000000000
7.1602234840393066 8.5097036361694336 0.0000000000000000
2.0111751556396484 8.0635251998901367 0.0000000000000000
2.2090806961059570 8.1227865219116211 0.0000000000000000
1.4157093763351440 7.1697278022766113 0.0000000000000000
8.4710559844970703 5.4535527229309082 0.0000000000000000
4.4764914512634277 8.5203008651733398 0.0000000000000000
4.2837023735046387 8.4716548919677734 0.0000000000000000
1.5196394920349121 6.8677191734313965 0.0000000000000000
2.7044689655303955 8.5953454971313477 0.0000000000000000
8.2662372589111328 4.6783633232116699 0.0000000000000000
8.4049692153930664 4.5386643409729004 0.0000000000000000
3.0255961418151855 8.5023880004882812 0.0000000000000000
3.1639878749847412 8.3684196472167969 0.0000000000000000
1.8315749168395996 4.7928495407104492 0.0000000000000000
8.1922664642333984 3.7712273597717285 0.0000000000000000
7.9996824264526367 3.7171080112457275 0.0000000000000000
8.1385965347290039 3.5784976482391357 0.0000000000000000
6.7308292388916016 8.2154674530029297 0.0000000000000000
6.7807440757751465 8.4027757644653320 0.0000000000000000
8.5441179275512695 2.4197621345520020 0.0000000000000000
8.5809917449951172 2.6151063442230225 0.0000000000000000
8.4437036514282227 2.7564575672149658 0.0000000000000000
7.7798061370849609 8.1341791152954102 0.0000000000000000
7.9214153289794922 7.9922256469726562 0.0000000000000000
2.5165863037109375 8.5487823486328125 0.0000000000000000
2.4627702236175537 8.3690919876098633 0.0000000000000000
3.9158864021301270 1.9378310441970825 0.0000000000000000
3.8614280223846436 1.7461009025573730 0.0000000000000000
7.9093017578125000 2.0769572257995605 0.0000000000000000
8.0578193664550781 1.9346643686294556 0.0000000000000000
7.4070739746093750 6.7845821380615234 0.0000000000000000
3.2904841899871826 5.5333986282348633 0.0000000000000000
6.0533947944641113 6.4313545227050781 0.0000000000000000
5.3703312873840332 7.8644361495971680 0.0000000000000000
5.4231805801391602 8.0572404861450195 0.0000000000000000
5.2851161956787109 8.1989679336547852 0.0000000000000000
5.4758672714233398 8.2492647171020508 0.0000000000000000
5.3359122276306152 8.3863010406494141 0.0000000000000000
5.5235943794250488 8.4377183914184570 0.0000000000000000
5.6662716865539551 8.3003273010253906 0.0000000000000000
7.3701224327087402 5.3422131538391113 0.0000000000000000
7.0552463531494141 6.1551418304443359 0.0000000000000000
2.4865629673004150 7.8307147026062012 0.0000000000000000
3.8520710468292236 4.9636440277099609 0.0000000000000000
7.0852622985839844 3.6573228836059570 0.0000000000000000
7.2256588935852051 3.5148844718933105 0.0000000000000000
8.1262063980102539 4.8220911026000977 0.0000000000000000
3.9924676418304443 4.8212056159973145 0.0000000000000000
5.6853618621826172 7.0514764785766602 0.0000000000000000
6.9148488044738770 6.2975788116455078 0.0000000000000000
5.6322045326232910 6.8586702346801758 0.0000000000000000
5.2695636749267578 2.2887797355651855 0.0000000000000000
5.0739259719848633 2.2417573928833008 0.0000000000000000
7.9464063644409180 3.5244379043579102 0.0000000000000000
8.0871133804321289 3.3811104297637939 0.0000000000000000
6.5157933235168457 2.2594304084777832 0.0000000000000000
3.3545794486999512 2.5075364112854004 0.0000000000000000
3.4077389240264893 2.7003362178802490 0.0000000000000000
5.3664193153381348 5.8946380615234375 0.0000000000000000
4.2391786575317383 5.0643796920776367 0.0000000000000000
6.1065521240234375 6.6241607666015625 0.0000000000000000
7.6127667427062988 3.6156198978424072 0.0000000000000000
3.7116742134094238 5.1060829162597656 0.0000000000000000
4.7366480827331543 7.5205969810485840 0.0000000000000000
5.5856566429138184 1.4872931241989136 0.0000000000000000
5.3994531631469727 1.4341241121292114 0.0000000000000000
3.6499731540679932 8.1356954574584961 0.0000000000000000
8.6327743530273438 2.8052434921264648 0.0000000000000000
8.4965734481811523 2.9508361816406250 0.0000000000000000
7.5721578598022461 1.4523627758026123 0.0000000000000000
7.3691310882568359 1.4217343330383301 0.0000000000000000
7.2250900268554688 1.5600880384445190 0.0000000000000000
7.1678075790405273 1.3742710351943970 0.0000000000000000
7.0205130577087402 1.5124818086624146 0.0000000000000000
8.4563751220703125 4.7194871902465820 0.0000000000000000
5.7186150550842285 8.4831562042236328 0.0000000000000000
5.8589620590209961 8.3520812988281250 0.0000000000000000
5.8080849647521973 8.1608476638793945 0.0000000000000000
6.0001053810119629 8.2149543762207031 0.0000000000000000
6.0495843887329102 8.4040050506591797 0.0000000000000000
6.1878347396850586 8.2698659896850586 0.0000000000000000
6.1437754631042480 8.0772943496704102 0.0000000000000000
6.3316593170166016 8.1317701339721680 0.0000000000000000
6.2894558906555176 7.9340157508850098 0.0000000000000000
8.4853591918945312 4.2060275077819824 0.0000000000000000
1.8522726297378540 3.5441081523895264 0.0000000000000000
1.9860889911651611 3.4038903713226318 0.0000000000000000
1.8021955490112305 3.3504791259765625 0.0000000000000000
1.9339096546173096 3.2120821475982666 0.0000000000000000
1.7420188188552856 3.1611070632934570 0.0000000000000000
1.8796421289443970 3.0210382938385010 0.0000000000000000
1.6870241165161133 2.9714021682739258 0.0000000000000000
1.8262488842010498 2.8300576210021973 0.0000000000000000
1.6338430643081665 2.7799155712127686 0.0000000000000000
1.7735326290130615 2.6381182670593262 0.0000000000000000
1.5818579196929932 2.5875732898712158 0.0000000000000000
1.7208386659622192 2.4458286762237549 0.0000000000000000
1.9136734008789062 2.4961881637573242 0.0000000000000000
1.8607953786849976 2.3037486076354980 0.0000000000000000
1.5534776449203491 3.1137084960937500 0.0000000000000000
2.0726735591888428 3.0701539516448975 0.0000000000000000
2.0535347461700439 2.3537392616271973 0.0000000000000000
2.0009427070617676 2.1614682674407959 0.0000000000000000
2.1943268775939941 2.2120265960693359 0.0000000000000000
2.1417312622070312 2.0167448520660400 0.0000000000000000
1.9480050802230835 1.9684058427810669 0.0000000000000000
1.4409096240997314 2.7299191951751709 0.0000000000000000
1.5307799577713013 2.4018232822418213 0.0000000000000000
2.1059992313385010 2.5447263717651367 0.0000000000000000
3.5269942283630371 1.8459241390228271 0.0000000000000000
3.3883590698242188 1.9812692403793335 0.0000000000000000
3.3342130184173584 1.7910287380218506 0.0000000000000000
8.4884147644042969 6.1638379096984863 0.0000000000000000
2.3430523872375488 8.5146627426147461 0.0000000000000000
4.7082328796386719 1.6218448877334595 0.0000000000000000
4.7645163536071777 1.8044980764389038 0.0000000000000000
4.6351528167724609 1.4361673593521118 0.0000000000000000
4.4630842208862305 1.3858438730239868 0.0000000000000000
1.6393518447875977 6.7420897483825684 0.0000000000000000
1.4875802993774414 4.1681375503540039 0.0000000000000000
1.4448428153991699 3.9815936088562012 0.0000000000000000
1.5780366659164429 3.8494441509246826 0.0000000000000000
5.5823993682861328 8.6323833465576172 0.0000000000000000
7.9801449775695801 8.1802110671997070 0.0000000000000000
8.1138238906860352 8.0424985885620117 0.0000000000000000
8.1742057800292969 8.2279872894287109 0.0000000000000000
5.2770619392395020 1.5605621337890625 0.0000000000000000
4.6501827239990234 8.5639209747314453 0.0000000000000000
2.0864229202270508 1.8299695253372192 0.0000000000000000
1.8918865919113159 1.7868251800537109 0.0000000000000000
1.8273625373840332 8.0215263366699219 0.0000000000000000
1.8690071105957031 8.2039260864257812 0.0000000000000000
1.6961094141006470 8.1642494201660156 0.0000000000000000
1.7336845397949219 8.3354339599609375 0.0000000000000000
1.5612055063247681 8.2897405624389648 0.0000000000000000
1.6064924001693726 8.4587850570678711 0.0000000000000000
1.4375224113464355 8.4149112701416016 0.0000000000000000
1.4824595451354980 8.5836687088012695 0.0000000000000000
1.7749630212783813 8.4987831115722656 0.0000000000000000
1.2518855333328247 8.5152530670166016 0.0000000000000000
8.4206638336181641 5.2731528282165527 0.0000000000000000
3.2306480407714844 8.5663003921508789 0.0000000000000000
8.5839643478393555 4.5924348831176758 0.0000000000000000
7.2174234390258789 8.6916828155517578 0.0000000000000000
7.3220705986022949 1.2053970098495483 0.0000000000000000
2.8407099246978760 1.3005344867706299 0.0000000000000000
8.6367406845092773 4.0888681411743164 0.0000000000000000
8.5720624923706055 3.8973531723022461 0.0000000000000000
7.5482306480407715 8.6093063354492188 0.0000000000000000
7.6748127937316895 8.4672555923461914 0.0000000000000000
2.4840419292449951 1.3753750324249268 0.0000000000000000
2.3620009422302246 1.5302574634552002 0.0000000000000000
6.2377877235412598 8.4566640853881836 0.0000000000000000
6.1034846305847168 8.5887966156005859 0.0000000000000000
1.7437107563018799 1.9167866706848145 0.0000000000000000
1.7005125284194946 1.7259480953216553 0.0000000000000000
8.5912160873413086 5.2939562797546387 0.0000000000000000
8.6666784286499023 5.4714970588684082 0.0000000000000000
2.2436895370483398 8.3505287170410156 0.0000000000000000
7.0202217102050781 8.6336956024169922 0.0000000000000000
8.6426534652709961 6.0566506385803223 0.0000000000000000
7.7454113960266113 1.5262104272842407 0.0000000000000000
8.8307085037231445 7.3496603965759277 0.0000000000000000
6.9675507545471191 8.4550714492797852 0.0000000000000000
6.8484630584716797 8.5791873931884766 0.0000000000000000
2.4014329910278320 8.1817655563354492 0.0000000000000000
8.2908811569213867 2.1905260086059570 0.0000000000000000
6.6533851623535156 8.5525627136230469 0.0000000000000000
6.4803261756896973 7.9816269874572754 0.0000000000000000
4.7992787361145020 8.4460887908935547 0.0000000000000000
4.7492289543151855 8.2457551956176758 0.0000000000000000
2.4183406829833984 1.7151175737380981 0.0000000000000000
5.3099446296691895 1.7510901689529419 0.0000000000000000
5.1653742790222168 1.8942370414733887 0.0000000000000000
4.8912916183471680 8.1000528335571289 0.0000000000000000
5.9140582084655762 8.5284547805786133 0.0000000000000000
1.3950527906417847 8.2213592529296875 0.0000000000000000
2.1987910270690918 1.6607853174209595 0.0000000000000000
3.1161537170410156 8.1772499084472656 0.0000000000000000
3.3084745407104492 8.2277660369873047 0.0000000000000000
1.8607871532440186 1.5927822589874268 0.0000000000000000
1.6539529561996460 1.5420225858688354 0.0000000000000000
1.5088963508605957 1.6748681068420410 0.0000000000000000
1.4632807970046997 1.4848351478576660 0.0000000000000000
8.6267900466918945 7.2776546478271484 0.0000000000000000
8.5649700164794922 7.0754175186157227 0.0000000000000000
8.3742399215698242 7.0359845161437988 0.0000000000000000
8.4982833862304688 6.8897123336791992 0.0000000000000000
8.3140220642089844 6.8528413772583008 0.0000000000000000
8.4289970397949219 6.6824493408203125 0.0000000000000000
8.2395324707031250 6.6672468185424805 0.0000000000000000
8.1235952377319336 6.8179697990417480 0.0000000000000000
8.0574235916137695 6.6303071975708008 0.0000000000000000
7.9280734062194824 6.7774467468261719 0.0000000000000000
8.1941719055175781 6.4743337631225586 0.0000000000000000
7.8627400398254395 6.5911779403686523 0.0000000000000000
1.6986280679702759 3.6756689548492432 0.0000000000000000
1.7574725151062012 3.8832125663757324 0.0000000000000000
8.3020982742309570 8.0923852920532227 0.0000000000000000
8.3512001037597656 8.2755117416381836 0.0000000000000000
8.2330179214477539 8.4074440002441406 0.0000000000000000
8.4052248001098633 8.4512128829956055 0.0000000000000000
8.5516691207885742 8.3116626739501953 0.0000000000000000
8.5869340896606445 8.5005769729614258 0.0000000000000000
8.2562847137451172 8.5769062042236328 0.0000000000000000
7.1089076995849609 8.3165340423583984 0.0000000000000000
8.3834037780761719 3.8304705619812012 0.0000000000000000
7.6349968910217285 8.2793054580688477 0.0000000000000000
5.5329046249389648 1.3032685518264771 0.0000000000000000
1.4307627677917480 6.7094969749450684 0.0000000000000000
1.8261114358901978 6.7760229110717773 0.0000000000000000
1.7387425899505615 6.5759558677673340 0.0000000000000000
8.2308416366577148 5.2226400375366211 0.0000000000000000
1.6564849615097046 2.2565450668334961 0.0000000000000000
8.2166395187377930 5.0223417282104492 0.0000000000000000
1.4976806640625000 2.9245727062225342 0.0000000000000000
1.3409675359725952 2.8727722167968750 0.0000000000000000
1.2213183641433716 2.7015962600708008 0.0000000000000000
6.0977878570556641 7.8818941116333008 0.0000000000000000
6.2426166534423828 7.7373781204223633 0.0000000000000000
7.7320942878723145 6.7336988449096680 0.0000000000000000
5.8996186256408691 7.8271498680114746 0.0000000000000000
8.7603712081909180 2.6513898372650146 0.0000000000000000
6.9348702430725098 1.8336510658264160 0.0000000000000000
1.6020269393920898 3.3266868591308594 0.0000000000000000
1.4222828149795532 3.2508838176727295 0.0000000000000000
1.3413394689559937 3.0681719779968262 0.0000000000000000
6.5325603485107422 8.1690053939819336 0.0000000000000000
8.2543029785156250 7.9002346992492676 0.0000000000000000
8.1166810989379883 6.0699715614318848 0.0000000000000000
8.1748075485229492 6.2621884346008301 0.0000000000000000
3.4552271366119385 8.0835943222045898 0.0000000000000000
8.4675283432006836 2.2495355606079102 0.0000000000000000
8.2536754608154297 1.9927937984466553 0.0000000000000000
8.3930997848510742 1.8628933429718018 0.0000000000000000
8.2129878997802734 1.8033453226089478 0.0000000000000000
8.3482656478881836 1.6763203144073486 0.0000000000000000
8.5315361022949219 1.7304786443710327 0.0000000000000000
8.4797534942626953 1.5491980314254761 0.0000000000000000
8.3055152893066406 1.4997727870941162 0.0000000000000000
8.4267511367797852 1.3587119579315186 0.0000000000000000
8.6103563308715820 1.4064408540725708 0.0000000000000000
8.0142650604248047 1.7438760995864868 0.0000000000000000
7.9697294235229492 6.2205991744995117 0.0000000000000000
2.0241124629974365 6.8194150924682617 0.0000000000000000
6.5486178398132324 1.7337195873260498 0.0000000000000000
6.4014167785644531 1.8709071874618530 0.0000000000000000
6.6805195808410645 1.5722506046295166 0.0000000000000000
6.8745322227478027 1.6434987783432007 0.0000000000000000
6.8357114791870117 1.4521237611770630 0.0000000000000000
6.9606952667236328 1.3256086111068726 0.0000000000000000
5.7790231704711914 1.5375716686248779 0.0000000000000000
5.9716091156005859 1.5837765932083130 0.0000000000000000
6.0219006538391113 1.7667444944381714 0.0000000000000000
6.1561927795410156 1.6326516866683960 0.0000000000000000
6.1176280975341797 1.4412994384765625 0.0000000000000000
5.9182157516479492 1.3918342590332031 0.0000000000000000
6.2085485458374023 1.8178865909576416 0.0000000000000000
6.0738253593444824 1.9602463245391846 0.0000000000000000
6.2648429870605469 2.0148882865905762 0.0000000000000000
2.3346407413482666 2.0639390945434570 0.0000000000000000
6.9918985366821289 2.0225608348846436 0.0000000000000000
1.3793011903762817 2.5387001037597656 0.0000000000000000
1.3509411811828613 2.3612892627716064 0.0000000000000000
1.4549379348754883 2.2185132503509521 0.0000000000000000
3.0562481880187988 1.3278007507324219 0.0000000000000000
3.0966272354125977 1.5340455770492554 0.0000000000000000
3.2451968193054199 1.4060575962066650 0.0000000000000000
3.3170163631439209 1.5910348892211914 0.0000000000000000
8.0621719360351562 7.8500590324401855 0.0000000000000000
4.1092143058776855 1.9883557558059692 0.0000000000000000
5.9371805191040039 2.1056666374206543 0.0000000000000000
1.7933231592178345 2.1094923019409180 0.0000000000000000
1.9087414741516113 6.4285850524902344 0.0000000000000000
1.0217540264129639 2.6252286434173584 0.0000000000000000
6.4611907005310059 2.0665359497070312 0.0000000000000000
7.8053660392761230 1.6997101306915283 0.0000000000000000
8.2448234558105469 1.3162907361984253 0.0000000000000000
1.5349940061569214 4.3602437973022461 0.0000000000000000
1.3646056652069092 4.5215334892272949 0.0000000000000000
1.4509429931640625 4.7314972877502441 0.0000000000000000
1.6409724950790405 4.7421932220458984 0.0000000000000000
8.6783046722412109 3.0188074111938477 0.0000000000000000
8.5539741516113281 3.1409692764282227 0.0000000000000000
8.3668432235717773 3.0932214260101318 0.0000000000000000
8.4301757812500000 3.2926299571990967 0.0000000000000000
8.2309122085571289 3.2371542453765869 0.0000000000000000
8.1752052307128906 3.0453715324401855 0.0000000000000000
3.0658977031707764 7.9827804565429688 0.0000000000000000
5.7571249008178711 7.9678735733032227 0.0000000000000000
8.0591144561767578 5.8781037330627441 0.0000000000000000
1.8527486324310303 7.4855170249938965 0.0000000000000000
1.7126784324645996 7.6254639625549316 0.0000000000000000
1.5248371362686157 7.5678038597106934 0.0000000000000000
1.4726859331130981 7.3858308792114258 0.0000000000000000
1.2831913232803345 7.3518333435058594 0.0000000000000000
3.1506161689758301 1.7296780347824097 0.0000000000000000
5.0873599052429199 8.1486253738403320 0.0000000000000000
8.5321578979492188 4.4014415740966797 0.0000000000000000
6.1862673759460449 7.5398960113525391 0.0000000000000000
6.3800549507141113 7.5859923362731934 0.0000000000000000
5.2149229049682617 2.0956835746765137 0.0000000000000000
5.0208053588867188 2.0461821556091309 0.0000000000000000
4.9651222229003906 1.8550941944122314 0.0000000000000000
3.9691514968872070 2.1304047107696533 0.0000000000000000
4.8806900978088379 2.1903645992279053 0.0000000000000000
7.7693886756896973 2.2226796150207520 0.0000000000000000
6.2835435867309570 1.5159608125686646 0.0000000000000000
8.0042705535888672 5.6855473518371582 0.0000000000000000
1.7431828975677490 7.8455333709716797 0.0000000000000000
7.8680396080017090 7.7987527847290039 0.0000000000000000
8.3505077362060547 4.3466520309448242 0.0000000000000000
8.3951435089111328 7.7565875053405762 0.0000000000000000
7.6741628646850586 7.7484292984008789 0.0000000000000000
8.0994749069213867 8.5302858352661133 0.0000000000000000
4.1627635955810547 2.1808555126190186 0.0000000000000000
8.6009845733642578 5.8287234306335449 0.0000000000000000
7.4804282188415527 7.6979489326477051 0.0000000000000000
3.1967117786407471 1.9285475015640259 0.0000000000000000
2.9535140991210938 1.6827490329742432 0.0000000000000000
3.6507165431976318 1.6745266914367676 0.0000000000000000
3.8096294403076172 1.5538462400436401 0.0000000000000000
3.9984569549560547 1.6070172786712646 0.0000000000000000
3.9419548511505127 1.4292011260986328 0.0000000000000000
4.1410851478576660 1.4747422933578491 0.0000000000000000
4.0542249679565430 1.7973273992538452 0.0000000000000000
2.5958182811737061 8.2216205596923828 0.0000000000000000
7.5745472908020020 2.1740038394927979 0.0000000000000000
8.2374305725097656 7.1802911758422852 0.0000000000000000
7.1465454101562500 7.7897605895996094 0.0000000000000000
7.0934505462646484 7.5968971252441406 0.0000000000000000
7.8645052909851074 5.8283729553222656 0.0000000000000000
2.3461329936981201 7.9736652374267578 0.0000000000000000
7.6276922225952148 2.3667778968811035 0.0000000000000000
7.4866933822631836 2.5095129013061523 0.0000000000000000
7.2869262695312500 7.6473646163940430 0.0000000000000000
7.6209907531738281 7.5553059577941895 0.0000000000000000
8.7965164184570312 7.0966439247131348 0.0000000000000000
7.2337961196899414 7.4544739723205566 0.0000000000000000
7.8507261276245117 7.0849795341491699 0.0000000000000000
4.2289776802062988 8.2826557159423828 0.0000000000000000
4.0887522697448730 8.4253187179565430 0.0000000000000000
3.8959729671478271 8.3773193359375000 0.0000000000000000
3.9613821506500244 8.5727930068969727 0.0000000000000000
3.7549705505371094 8.5191688537597656 0.0000000000000000
3.6982352733612061 8.3221530914306641 0.0000000000000000
3.8411824703216553 8.1844158172607422 0.0000000000000000
7.4571428298950195 6.9786033630371094 0.0000000000000000
6.6540822982788086 7.3012809753417969 0.0000000000000000
6.7936863899230957 7.1605386734008789 0.0000000000000000
2.2926824092864990 7.7793831825256348 0.0000000000000000
7.2669610977172852 6.9267883300781250 0.0000000000000000
7.8935523033142090 3.3309347629547119 0.0000000000000000
8.0347013473510742 3.1880373954772949 0.0000000000000000
7.8405451774597168 3.1379485130310059 0.0000000000000000
7.9808197021484375 2.9951591491699219 0.0000000000000000
5.7344522476196289 5.2745156288146973 0.0000000000000000
5.9280061721801758 5.3248834609985352 0.0000000000000000
6.1215596199035645 5.3752512931823730 0.0000000000000000
6.0684027671813965 5.1824450492858887 0.0000000000000000
6.2619566917419434 5.2328128814697266 0.0000000000000000
7.0211639404296875 6.6831932067871094 0.0000000000000000
2.2695596218109131 5.0887570381164551 0.0000000000000000
7.0321049690246582 3.4645166397094727 0.0000000000000000
7.1725015640258789 3.3220779895782471 0.0000000000000000
6.3001060485839844 6.6745285987854004 0.0000000000000000
5.2450971603393555 6.7579345703125000 0.0000000000000000
5.0515432357788086 6.7075667381286621 0.0000000000000000
4.9983863830566406 6.5147604942321777 0.0000000000000000
4.8579893112182617 6.6571989059448242 0.0000000000000000
4.8048324584960938 6.4643926620483398 0.0000000000000000
4.6644353866577148 6.6068310737609863 0.0000000000000000
7.4192128181457520 3.5652520656585693 0.0000000000000000
7.9318723678588867 4.7723407745361328 0.0000000000000000
3.9774599075317383 6.0701150894165039 0.0000000000000000
3.7839059829711914 6.0197472572326660 0.0000000000000000
4.0306172370910645 6.2629213333129883 0.0000000000000000
4.2241706848144531 6.3132891654968262 0.0000000000000000
4.0837740898132324 6.4557280540466309 0.0000000000000000
4.2773280143737793 6.5060954093933105 0.0000000000000000
4.1369314193725586 6.6485342979431152 0.0000000000000000
3.8902204036712646 6.4053602218627930 0.0000000000000000
3.2373270988464355 5.3405923843383789 0.0000000000000000
3.3777236938476562 5.1981534957885742 0.0000000000000000
3.1841700077056885 5.1477856636047363 0.0000000000000000
6.5086674690246582 5.4759869575500488 0.0000000000000000
7.1574940681457520 4.5709872245788574 0.0000000000000000
1.7951934337615967 5.3232650756835938 0.0000000000000000
1.6549094915390015 5.4656229019165039 0.0000000000000000
1.6112012863159180 5.2848796844482422 0.0000000000000000
1.4666694402694702 5.4200325012207031 0.0000000000000000
1.5180885791778564 5.6079988479614258 0.0000000000000000
1.3147698640823364 5.5620741844177246 0.0000000000000000
1.7242668867111206 5.1204442977905273 0.0000000000000000
1.8824502229690552 4.9880175590515137 0.0000000000000000
2.0231831073760986 4.8451652526855469 0.0000000000000000
2.1632652282714844 4.7030487060546875 0.0000000000000000
2.1100409030914307 4.5102772712707520 0.0000000000000000
1.7081323862075806 5.6585936546325684 0.0000000000000000
1.5709550380706787 5.8001422882080078 0.0000000000000000
1.6181697845458984 5.9919338226318359 0.0000000000000000
1.4441130161285400 5.9263992309570312 0.0000000000000000
1.4658036231994629 6.1197137832641602 0.0000000000000000
1.6754037141799927 6.1763439178466797 0.0000000000000000
1.8118183612823486 6.0421233177185059 0.0000000000000000
6.8616924285888672 6.1047739982604980 0.0000000000000000
6.6681389808654785 6.0544061660766602 0.0000000000000000
7.1956424713134766 6.0127010345458984 0.0000000000000000
4.2882690429687500 3.2874188423156738 0.0000000000000000
3.5562698841094971 6.4974308013916016 0.0000000000000000
3.7307488918304443 5.8269405364990234 0.0000000000000000
3.5903522968292236 5.9693794250488281 0.0000000000000000
3.6435093879699707 6.1621856689453125 0.0000000000000000
3.4499554634094238 6.1118178367614746 0.0000000000000000
5.4686665534973145 4.3104834556579590 0.0000000000000000
3.5031125545501709 6.3046245574951172 0.0000000000000000
5.0324687957763672 5.9867091178894043 0.0000000000000000
7.5405302047729492 2.7020678520202637 0.0000000000000000
7.3360395431518555 5.8702645301818848 0.0000000000000000
4.2964024543762207 7.2269535064697266 0.0000000000000000
4.1560058593750000 7.3693923950195312 0.0000000000000000
3.9624521732330322 7.3190245628356934 0.0000000000000000
4.3495597839355469 7.4197597503662109 0.0000000000000000
2.3414826393127441 6.0025053024291992 0.0000000000000000
2.4821059703826904 5.8600015640258789 0.0000000000000000
7.7040996551513672 5.2501683235168457 0.0000000000000000
7.5636811256408691 5.3925876617431641 0.0000000000000000
4.8689303398132324 3.4385223388671875 0.0000000000000000
5.0093274116516113 3.2960836887359619 0.0000000000000000
3.3627159595489502 6.4470629692077637 0.0000000000000000
6.0152454376220703 4.9896383285522461 0.0000000000000000
4.8500113487243652 2.7178173065185547 0.0000000000000000
5.2641716003417969 7.4787926673889160 0.0000000000000000
3.4118063449859619 4.6701021194458008 0.0000000000000000
3.3586490154266357 4.4772958755493164 0.0000000000000000
3.2182524204254150 4.6197342872619629 0.0000000000000000
3.1650953292846680 4.4269280433654785 0.0000000000000000
3.0246984958648682 4.5693664550781250 0.0000000000000000
6.2578897476196289 3.2630453109741211 0.0000000000000000
6.1174931526184082 3.4054839611053467 0.0000000000000000
6.0643358230590820 3.2126774787902832 0.0000000000000000
3.1500873565673828 5.6758375167846680 0.0000000000000000
6.3532629013061523 6.8673348426818848 0.0000000000000000
2.8352115154266357 6.4887661933898926 0.0000000000000000
7.3169651031494141 5.1494064331054688 0.0000000000000000
3.3054919242858887 4.2844891548156738 0.0000000000000000
3.1119382381439209 4.2341213226318359 0.0000000000000000
3.2523348331451416 4.0916829109191895 0.0000000000000000
3.0587811470031738 4.0413150787353516 0.0000000000000000
3.3927316665649414 3.9492442607879639 0.0000000000000000
5.2369632720947266 2.8183999061584473 0.0000000000000000
3.2564017772674561 6.0614500045776367 0.0000000000000000
6.5721111297607422 2.4504590034484863 0.0000000000000000
4.5881371498107910 3.7233994007110596 0.0000000000000000
4.2351117134094238 3.0946123600006104 0.0000000000000000
4.1478724479675293 3.4298574924468994 0.0000000000000000
4.0074753761291504 3.5722961425781250 0.0000000000000000
3.9543185234069824 3.3794896602630615 0.0000000000000000
2.0568337440490723 4.3175373077392578 0.0000000000000000
6.7703862190246582 4.4702515602111816 0.0000000000000000
6.5768322944641113 4.4198837280273438 0.0000000000000000
6.5236754417419434 4.2270774841308594 0.0000000000000000
6.6640720367431641 4.0846390724182129 0.0000000000000000
6.6109147071838379 3.8918323516845703 0.0000000000000000
6.7513117790222168 3.7493939399719238 0.0000000000000000
3.2141852378845215 2.6499686241149902 0.0000000000000000
3.2673428058624268 2.8427734375000000 0.0000000000000000
4.9943194389343262 4.5449929237365723 0.0000000000000000
3.2714095115661621 4.8125405311584473 0.0000000000000000
4.7326006889343262 5.5507283210754395 0.0000000000000000
3.0478401184082031 7.2599916458129883 0.0000000000000000
3.2413938045501709 7.3103594779968262 0.0000000000000000
3.3817906379699707 7.1679210662841797 0.0000000000000000
2.4479329586029053 6.3881068229675293 0.0000000000000000
3.1991777420043945 3.8988764286041260 0.0000000000000000
5.9129981994628906 6.5737929344177246 0.0000000000000000
4.1669468879699707 4.1507153511047363 0.0000000000000000
2.1972599029541016 4.1751050949096680 0.0000000000000000
5.2069478034973145 5.3162188529968262 0.0000000000000000
5.3473443984985352 5.1737799644470215 0.0000000000000000
5.1537904739379883 5.1234121322631836 0.0000000000000000
6.9448657035827637 3.7997615337371826 0.0000000000000000
3.0969302654266357 5.4830307960510254 0.0000000000000000
4.9561700820922852 3.1032772064208984 0.0000000000000000
6.2769641876220703 3.9839031696319580 0.0000000000000000
6.6490640640258789 5.3335485458374023 0.0000000000000000
6.4555106163024902 5.2831807136535645 0.0000000000000000
3.9092948436737061 7.1262178421020508 0.0000000000000000
5.1387829780578613 6.3723216056823730 0.0000000000000000
5.2560381889343262 3.5392577648162842 0.0000000000000000
2.9183843135833740 4.1837534904479980 0.0000000000000000
7.8785853385925293 4.5796375274658203 0.0000000000000000
2.8802354335784912 2.7420394420623779 0.0000000000000000
7.2447333335876465 4.2357420921325684 0.0000000000000000
7.1043367385864258 4.3781809806823730 0.0000000000000000
3.4990458488464355 4.3348569869995117 0.0000000000000000
5.5599732398986816 5.9450058937072754 0.0000000000000000
2.4099578857421875 4.9463186264038086 0.0000000000000000
4.4177246093750000 6.3636569976806641 0.0000000000000000
6.5468168258666992 6.9177026748657227 0.0000000000000000
5.0474762916564941 4.7377996444702148 0.0000000000000000
5.1878733634948730 4.5953607559204102 0.0000000000000000
3.5140535831451416 3.0859475135803223 0.0000000000000000
3.3736569881439209 3.2283861637115479 0.0000000000000000
4.9752445220947266 3.8241350650787354 0.0000000000000000
6.8194766044616699 2.6932907104492188 0.0000000000000000
2.3799369335174561 7.4441323280334473 0.0000000000000000
2.4330961704254150 7.6369400024414062 0.0000000000000000
4.6262865066528320 5.1651153564453125 0.0000000000000000
4.0687584877014160 7.7046718597412109 0.0000000000000000
7.6509461402893066 5.0573639869689941 0.0000000000000000
3.9433774948120117 6.5981664657592773 0.0000000000000000
3.8139216899871826 3.5219283103942871 0.0000000000000000
2.8883686065673828 6.6815724372863770 0.0000000000000000
5.1347160339355469 4.4025545120239258 0.0000000000000000
2.9524667263031006 3.6557021141052246 0.0000000000000000
3.9733932018280029 4.1003475189208984 0.0000000000000000
2.5122046470642090 3.3621678352355957 0.0000000000000000
2.3188390731811523 3.3119671344757080 0.0000000000000000
2.2658228874206543 3.1195154190063477 0.0000000000000000
2.4059498310089111 2.9768114089965820 0.0000000000000000
2.2121014595031738 2.9280204772949219 0.0000000000000000
2.1786229610443115 3.4544391632080078 0.0000000000000000
2.5162689685821533 5.3319272994995117 0.0000000000000000
2.3758716583251953 5.4743661880493164 0.0000000000000000
4.6944513320922852 4.1090121269226074 0.0000000000000000
5.7644677162170410 2.7766969203948975 0.0000000000000000
2.3227143287658691 5.2815604209899902 0.0000000000000000
7.4382872581481934 4.2861099243164062 0.0000000000000000
7.3851304054260254 4.0933036804199219 0.0000000000000000
2.6267099380493164 7.6874666213989258 0.0000000000000000
6.5277419090270996 6.1968450546264648 0.0000000000000000
3.3395745754241943 3.7564377784729004 0.0000000000000000
5.8898568153381348 3.8831677436828613 0.0000000000000000
5.4643568992614746 2.3404393196105957 0.0000000000000000
3.7688982486724854 7.2686567306518555 0.0000000000000000
3.5753443241119385 7.2182888984680176 0.0000000000000000
3.6284990310668945 7.4111075401306152 0.0000000000000000
5.1728653907775879 5.8442702293395996 0.0000000000000000
3.9393105506896973 4.6283988952636719 0.0000000000000000
2.5802984237670898 2.3068761825561523 0.0000000000000000
3.3967983722686768 5.9190115928649902 0.0000000000000000
5.3432779312133789 3.2040128707885742 0.0000000000000000
6.5386829376220703 2.9781680107116699 0.0000000000000000
7.5105218887329102 5.1997771263122559 0.0000000000000000
3.3014001846313477 2.3148057460784912 0.0000000000000000
7.3891968727111816 6.0630640983581543 0.0000000000000000
2.9865493774414062 3.1276507377624512 0.0000000000000000
4.5540547370910645 4.2514510154724121 0.0000000000000000
4.5199723243713379 4.7795023918151855 0.0000000000000000
5.5940556526184082 5.4169545173645020 0.0000000000000000
6.4023532867431641 5.0903739929199219 0.0000000000000000
4.4558601379394531 7.8054614067077637 0.0000000000000000
5.8257732391357422 6.9090523719787598 0.0000000000000000
5.9661722183227539 6.7666163444519043 0.0000000000000000
6.3151135444641113 5.4256191253662109 0.0000000000000000
2.2314169406890869 3.6470875740051270 0.0000000000000000
4.4286656379699707 3.1449801921844482 0.0000000000000000
3.7416853904724121 2.6082539558410645 0.0000000000000000
6.3451275825500488 2.9278073310852051 0.0000000000000000
7.1765685081481934 5.2918453216552734 0.0000000000000000
3.7948462963104248 2.8010687828063965 0.0000000000000000
3.9352405071258545 2.6586217880249023 0.0000000000000000
4.1328644752502441 4.6787667274475098 0.0000000000000000
4.1137900352478027 3.9579088687896729 0.0000000000000000
2.5735025405883789 7.4945273399353027 0.0000000000000000
2.5884308815002441 6.2456169128417969 0.0000000000000000
2.6416132450103760 6.4384222030639648 0.0000000000000000
2.9906160831451416 5.0974178314208984 0.0000000000000000
3.8370630741119385 6.2125535011291504 0.0000000000000000
4.4625506401062012 2.6169779300689697 0.0000000000000000
3.8670787811279297 3.7147347927093506 0.0000000000000000
5.0435910224914551 2.7682106494903564 0.0000000000000000
2.6716732978820801 3.9405794143676758 0.0000000000000000
5.9048686027526855 2.6342425346374512 0.0000000000000000
6.0343203544616699 5.7104964256286621 0.0000000000000000
4.1860213279724121 4.8715734481811523 0.0000000000000000
4.2050962448120117 5.5924310684204102 0.0000000000000000
4.3454928398132324 5.4499926567077637 0.0000000000000000
2.6948029994964600 6.6312155723571777 0.0000000000000000
2.6075794696807861 6.9664535522460938 0.0000000000000000
6.3832788467407227 4.3695163726806641 0.0000000000000000
6.7212958335876465 6.2472124099731445 0.0000000000000000
6.2278742790222168 5.7608642578125000 0.0000000000000000
2.2353658676147461 5.6168346405029297 0.0000000000000000
4.5922040939331055 5.6931667327880859 0.0000000000000000
4.5240387916564941 6.7492699623107910 0.0000000000000000
3.5221872329711914 7.0254821777343750 0.0000000000000000
3.3286335468292236 6.9751143455505371 0.0000000000000000
4.0456247329711914 5.0140118598937988 0.0000000000000000
4.9111466407775879 6.8500056266784668 0.0000000000000000
5.3964347839355469 3.3968191146850586 0.0000000000000000
2.7288856506347656 6.1031575202941895 0.0000000000000000
4.3645677566528320 6.1708507537841797 0.0000000000000000
7.0020895004272461 5.9623351097106934 0.0000000000000000
3.2945654392242432 7.5031738281250000 0.0000000000000000
3.1010067462921143 7.4527974128723145 0.0000000000000000
6.0493278503417969 4.4615869522094727 0.0000000000000000
3.6966664791107178 6.3549923896789551 0.0000000000000000
5.2028808593750000 3.3464515209197998 0.0000000000000000
3.1269459724426270 2.9852120876312256 0.0000000000000000
5.5790476799011230 6.6658639907836914 0.0000000000000000
6.3780450820922852 2.4017791748046875 0.0000000000000000
3.0056240558624268 3.8485085964202881 0.0000000000000000
6.9489321708679199 5.7695288658142090 0.0000000000000000
6.9639401435852051 4.5206193923950195 0.0000000000000000
2.5544078350067139 6.7736768722534180 0.0000000000000000
6.8767004013061523 4.8558645248413086 0.0000000000000000
6.6258120536804199 2.6429862976074219 0.0000000000000000
4.4708819389343262 6.5564632415771484 0.0000000000000000
6.1747169494628906 5.5680580139160156 0.0000000000000000
3.6012923717498779 2.7507007122039795 0.0000000000000000
5.2982540130615234 6.9507412910461426 0.0000000000000000
5.6963028907775879 3.8327999114990234 0.0000000000000000
6.9680056571960449 6.4903850555419922 0.0000000000000000
6.7744526863098145 6.4400186538696289 0.0000000000000000
4.5390467643737793 5.5003604888916016 0.0000000000000000
6.4364356994628906 4.5623226165771484 0.0000000000000000
3.0737888813018799 2.7924056053161621 0.0000000000000000
5.7385859489440918 7.2443513870239258 0.0000000000000000
5.8790979385375977 7.1020283699035645 0.0000000000000000
5.5749807357788086 4.6960964202880859 0.0000000000000000
5.3814268112182617 4.6457285881042480 0.0000000000000000
5.2410302162170410 4.7881674766540527 0.0000000000000000
6.0002379417419434 6.2385478019714355 0.0000000000000000
4.5008974075317383 4.0586447715759277 0.0000000000000000
5.4106054306030273 2.1464896202087402 0.0000000000000000
4.7966113090515137 2.5253319740295410 0.0000000000000000
5.2941875457763672 4.9809737205505371 0.0000000000000000
5.0965971946716309 2.9608683586120605 0.0000000000000000
7.5977640151977539 4.8645339012145996 0.0000000000000000
3.9052281379699707 5.1564507484436035 0.0000000000000000
4.3073434829711914 4.0082769393920898 0.0000000000000000
7.1615471839904785 6.5407366752624512 0.0000000000000000
5.4195761680603027 6.0874443054199219 0.0000000000000000
3.4608962535858154 2.8931410312652588 0.0000000000000000
5.9239392280578613 3.3551161289215088 0.0000000000000000
2.9715414047241211 4.3765602111816406 0.0000000000000000
3.3204998970031738 3.0355799198150635 0.0000000000000000
5.8707818984985352 3.1623096466064453 0.0000000000000000
6.0111784934997559 3.0198724269866943 0.0000000000000000
2.5352239608764648 6.0528211593627930 0.0000000000000000
5.2260222434997559 6.0370764732360840 0.0000000000000000
2.8843021392822266 4.7118048667907715 0.0000000000000000
5.9580211639404297 2.8270659446716309 0.0000000000000000
5.1497287750244141 3.1536500453948975 0.0000000000000000
6.1897249221801758 4.3191485404968262 0.0000000000000000
7.9126415252685547 4.0516066551208496 0.0000000000000000
4.6560821533203125 2.6674623489379883 0.0000000000000000
6.9789481163024902 3.2717101573944092 0.0000000000000000
6.4855041503906250 2.7853851318359375 0.0000000000000000
3.0778558254241943 4.7621726989746094 0.0000000000000000
2.7779877185821533 4.3261923789978027 0.0000000000000000
7.0170969963073730 4.7134261131286621 0.0000000000000000
4.4858894348144531 5.3075537681579590 0.0000000000000000
4.7516751289367676 6.2715859413146973 0.0000000000000000
2.8652272224426270 3.9909472465515137 0.0000000000000000
3.1610209941864014 2.4571785926818848 0.0000000000000000
6.7661709785461426 2.5005311965942383 0.0000000000000000
4.0606327056884766 3.7651026248931885 0.0000000000000000
3.3436412811279297 5.7262048721313477 0.0000000000000000
2.6225697994232178 5.7175440788269043 0.0000000000000000
6.2047324180603027 3.0702400207519531 0.0000000000000000
5.0624842643737793 3.4888899326324463 0.0000000000000000
4.7816910743713379 3.7737672328948975 0.0000000000000000
7.2143568992614746 6.7337288856506348 0.0000000000000000
4.6412940025329590 3.9162058830261230 0.0000000000000000
5.5408983230590820 5.2241477966308594 0.0000000000000000
5.7494602203369141 4.0256061553955078 0.0000000000000000
4.9220876693725586 3.6313285827636719 0.0000000000000000
4.4327325820922852 5.1147475242614746 0.0000000000000000
5.4386510848999023 6.8083024024963379 0.0000000000000000
4.3795752525329590 4.9219412803649902 0.0000000000000000
6.4705181121826172 4.0342712402343750 0.0000000000000000
7.9916033744812012 4.9664053916931152 0.0000000000000000
4.9452290534973145 6.3219537734985352 0.0000000000000000
6.3301215171813965 4.1767096519470215 0.0000000000000000
6.8917083740234375 3.6069552898406982 0.0000000000000000
7.7924947738647461 4.9150967597961426 0.0000000000000000
6.6981544494628906 3.5565874576568604 0.0000000000000000
7.8594489097595215 3.8589222431182861 0.0000000000000000
5.4155097007751465 4.1176772117614746 0.0000000000000000
5.6090631484985352 4.1680450439453125 0.0000000000000000
5.0856256484985352 6.1795153617858887 0.0000000000000000
6.5577578544616699 3.6990261077880859 0.0000000000000000
5.5107665061950684 7.7221140861511230 0.0000000000000000
3.7648315429687500 5.2988891601562500 0.0000000000000000
4.6112785339355469 6.4140248298645020 0.0000000000000000
5.8598408699035645 6.3809866905212402 0.0000000000000000
2.4289660453796387 5.6671900749206543 0.0000000000000000
5.7726068496704102 6.7162370681762695 0.0000000000000000
7.8062319755554199 3.6662826538085938 0.0000000000000000
6.6004114151000977 7.1098885536193848 0.0000000000000000
3.4349472522735596 7.3607430458068848 0.0000000000000000
6.1365675926208496 4.1263418197631836 0.0000000000000000
5.3282699584960938 4.4529223442077637 0.0000000000000000
6.1597266197204590 6.8169846534729004 0.0000000000000000
3.1310129165649414 4.9549794197082520 0.0000000000000000
7.7531023025512695 3.4734182357788086 0.0000000000000000
3.5712776184082031 5.2485213279724121 0.0000000000000000
3.5181205272674561 5.0557150840759277 0.0000000000000000
5.9430136680603027 4.0759739875793457 0.0000000000000000
7.3128962516784668 3.1796479225158691 0.0000000000000000
7.3660554885864258 3.3724477291107178 0.0000000000000000
7.1193428039550781 3.1292779445648193 0.0000000000000000
7.5596065521240234 3.4228615760803223 0.0000000000000000
3.6815881729125977 7.6041188240051270 0.0000000000000000
4.9301877021789551 7.5710449218750000 0.0000000000000000
3.3245666027069092 5.0053472518920898 0.0000000000000000
4.0156006813049316 7.5118579864501953 0.0000000000000000
6.4064202308654785 7.0601415634155273 0.0000000000000000
4.2091598510742188 7.5622134208679199 0.0000000000000000
4.8770551681518555 7.3781042098999023 0.0000000000000000
3.8220348358154297 7.4615268707275391 0.0000000000000000
5.1237406730651855 7.6214351654052734 0.0000000000000000
4.6835069656372070 7.3277068138122559 0.0000000000000000
5.3172645568847656 7.6717519760131836 0.0000000000000000
4.5431137084960938 7.4701275825500488 0.0000000000000000
4.4027113914489746 7.6125974655151367 0.0000000000000000
7.3398156166076660 7.8403525352478027 0.0000000000000000
2.2164385318756104 4.8959121704101562 0.0000000000000000
2.3036382198333740 4.5606780052185059 0.0000000000000000
1.9658290147781372 2.6877200603485107 0.0000000000000000
3.0554189682006836 2.0709755420684814 0.0000000000000000
2.2780597209930420 1.8661029338836670 0.0000000000000000
1.8853409290313721 6.9626145362854004 0.0000000000000000
3.4417490959167480 2.1727085113525391 0.0000000000000000
3.2483308315277100 2.1221845149993896 0.0000000000000000
2.0793938636779785 7.0099606513977051 0.0000000000000000
2.0189378261566162 2.8790473937988281 0.0000000000000000
7.9644799232482910 2.2684907913208008 0.0000000000000000
2.1260130405426025 3.2621140480041504 0.0000000000000000
2.0461308956146240 8.2630977630615234 0.0000000000000000
8.1042089462280273 2.1296372413635254 0.0000000000000000
7.3467059135437012 2.6526448726654053 0.0000000000000000
7.2934064865112305 2.4587523937225342 0.0000000000000000
7.6810979843139648 2.5598378181457520 0.0000000000000000
5.5636749267578125 7.9157066345214844 0.0000000000000000
2.3001077175140381 2.5915689468383789 0.0000000000000000
1.3419682979583740 6.8503117561340332 0.0000000000000000
1.2894406318664551 7.0195360183715820 0.0000000000000000
4.6312932968139648 1.9469381570816040 0.0000000000000000
4.3362283706665039 1.5235129594802856 0.0000000000000000
8.0082712173461914 7.6564126014709473 0.0000000000000000
8.4754590988159180 8.1449527740478516 0.0000000000000000
1.5686233043670654 7.7566657066345215 0.0000000000000000
5.6157007217407227 8.1085433959960938 0.0000000000000000
2.5287096500396729 2.1128370761871338 0.0000000000000000
4.1635107994079590 8.6154899597167969 0.0000000000000000
8.3541994094848633 6.3373956680297852 0.0000000000000000
7.6852507591247559 6.5065531730651855 0.0000000000000000
1.3472105264663696 7.5357856750488281 0.0000000000000000
5.9512338638305664 8.0227594375610352 0.0000000000000000
8.2777614593505859 3.4392619132995605 0.0000000000000000
1.5478380918502808 8.1159067153930664 0.0000000000000000
8.1194581985473633 1.4374432563781738 0.0000000000000000
4.8242344856262207 1.9948048591613770 0.0000000000000000
1.9285587072372437 8.5568151473999023 0.0000000000000000
2.1592698097229004 2.7359161376953125 0.0000000000000000
1.5633167028427124 1.8587230443954468 0.0000000000000000
4.7068147659301758 8.7285585403442383 0.0000000000000000
6.6746878623962402 8.0261144638061523 0.0000000000000000
1.7195292711257935 6.3655714988708496 0.0000000000000000
2.2452852725982666 2.4020652770996094 0.0000000000000000
5.8825411796569824 1.9128329753875732 0.0000000000000000
2.3871452808380127 2.2579212188720703 0.0000000000000000
5.1054773330688477 1.6787827014923096 0.0000000000000000
1.7823120355606079 1.4161020517349243 0.0000000000000000
8.1584148406982422 1.6184595823287964 0.0000000000000000
5.1392183303833008 8.3325595855712891 0.0000000000000000
5.1995511054992676 8.5242204666137695 0.0000000000000000
5.3975348472595215 8.5675134658813477 0.0000000000000000
8.3093519210815430 2.9001650810241699 0.0000000000000000
1.0720674991607666 7.3561897277832031 0.0000000000000000
8.3442430496215820 4.8530030250549316 0.0000000000000000
3.3428814411163330 8.4185533523559570 0.0000000000000000
1.6117769479751587 1.3566058874130249 0.0000000000000000
1.4296499490737915 1.2413673400878906 0.0000000000000000
1.2410004138946533 1.4374727010726929 0.0000000000000000
4.7374124526977539 2.3337411880493164 0.0000000000000000
1.4431852102279663 3.4035587310791016 0.0000000000000000
6.3428854942321777 1.6844099760055542 0.0000000000000000
8.5235681533813477 5.6309266090393066 0.0000000000000000
4.9352121353149414 2.3834855556488037 0.0000000000000000
1.4113274812698364 3.7962901592254639 0.0000000000000000
2.3716013431549072 8.6875934600830078 0.0000000000000000
8.2550992965698242 2.7057292461395264 0.0000000000000000
8.5455236434936523 3.7022113800048828 0.0000000000000000
8.0144958496093750 6.4231224060058594 0.0000000000000000
8.6017007827758789 6.7400813102722168 0.0000000000000000
6.3229513168334961 2.2083063125610352 0.0000000000000000
6.4317889213562012 7.7848577499389648 0.0000000000000000
7.0785598754882812 1.6966450214385986 0.0000000000000000
1.2710087299346924 3.2305269241333008 0.0000000000000000
7.2757673263549805 1.7451618909835815 0.0000000000000000
6.5713152885437012 7.6370515823364258 0.0000000000000000
6.5166759490966797 7.4443211555480957 0.0000000000000000
2.6471631526947021 1.2438656091690063 0.0000000000000000
2.6378467082977295 1.0374782085418701 0.0000000000000000
8.7073898315429688 3.8117933273315430 0.0000000000000000
8.5386114120483398 6.3298683166503906 0.0000000000000000
8.7163534164428711 4.4657211303710938 0.0000000000000000
2.8892138004302979 8.6405124664306641 0.0000000000000000
2.7595424652099609 8.7998933792114258 0.0000000000000000
8.6750354766845703 6.9034099578857422 0.0000000000000000
7.6616196632385254 8.7282371520996094 0.0000000000000000
8.1838817596435547 6.9950575828552246 0.0000000000000000
4.8293361663818359 1.4587671756744385 0.0000000000000000
8.1239566802978516 0.8842443823814392 0.0000000000000000
9.1437644958496094 7.7897105216979980 0.0000000000000000
2.1808264255523682 8.5495767593383789 0.0000000000000000
8.5568151473999023 1.9285587072372437 0.0000000000000000
3.3830225467681885 9.1424617767333984 0.0000000000000000
8.5622444152832031 3.3998887538909912 0.0000000000000000
5.3222904205322266 1.2896678447723389 0.0000000000000000
6.1818146705627441 1.2714412212371826 0.0000000000000000
0.9799183607101440 6.2025208473205566 0.0000000000000000
7.6568150520324707 1.2714412212371826 0.0000000000000000
0.9783394336700439 7.6724047660827637 0.0000000000000000
5.2900543212890625 8.9683475494384766 0.0000000000000000
5.2988219261169434 9.1278514862060547 0.0000000000000000
6.2025127410888672 9.0201196670532227 0.0000000000000000
8.7285585403442383 6.1818146705627441 0.0000000000000000
7.6831068992614746 9.0235958099365234 0.0000000000000000
1.8760429620742798 9.1157560348510742 0.0000000000000000
2.2036895751953125 9.1350460052490234 0.0000000000000000
2.3426585197448730 8.9864568710327148 0.0000000000000000
9.0111560821533203 2.3286576271057129 0.0000000000000000
9.0192947387695312 3.7964558601379395 0.0000000000000000
8.7126617431640625 3.2168157100677490 0.0000000000000000
3.6834087371826172 9.1347780227661133 0.0000000000000000
3.6933786869049072 9.3923091888427734 0.0000000000000000
9.1424617767333984 3.3830225467681885 0.0000000000000000
8.7285585403442383 8.2431850433349609 0.0000000000000000
1.7487705945968628 8.7279634475708008 0.0000000000000000
5.1306538581848145 1.4733265638351440 0.0000000000000000
1.4434703588485718 4.8818931579589844 0.0000000000000000
6.5992641448974609 1.4500000476837158 0.0000000000000000
1.4310644865036011 6.3659648895263672 0.0000000000000000
4.8640623092651367 0.8687888383865356 0.0000000000000000
4.7143983840942383 0.9058966636657715 0.0000000000000000
4.7603912353515625 0.7097272872924805 0.0000000000000000
5.1383876800537109 0.8682713508605957 0.0000000000000000
5.2883086204528809 0.9082598686218262 0.0000000000000000
5.2522363662719727 0.7132362127304077 0.0000000000000000
0.8687888383865356 5.1359376907348633 0.0000000000000000
0.9058966636657715 5.2856016159057617 0.0000000000000000
0.7097272872924805 5.2396087646484375 0.0000000000000000
0.8682713508605957 4.8616123199462891 0.0000000000000000
0.9077423810958862 4.7120041847229004 0.0000000000000000
0.7131142020225525 4.7478375434875488 0.0000000000000000
6.3147668838500977 0.8657860159873962 0.0000000000000000
6.6120238304138184 0.8551254272460938 0.0000000000000000
0.8575379848480225 6.6169772148132324 0.0000000000000000
0.8577919602394104 6.3214883804321289 0.0000000000000000
0.6066588163375854 6.3077526092529297 0.0000000000000000
7.7963104248046875 0.8649537563323975 0.0000000000000000
0.8480262160301208 7.7943668365478516 0.0000000000000000
8.7285585403442383 1.7568148374557495 0.0000000000000000
8.6650114059448242 1.5948101282119751 0.0000000000000000
3.8503568172454834 8.7114334106445312 0.0000000000000000
1.4443621635437012 5.1150903701782227 0.0000000000000000
1.2813940048217773 4.7023220062255859 0.0000000000000000
1.1813181638717651 4.4211444854736328 0.0000000000000000
6.1824560165405273 1.0097612142562866 0.0000000000000000
1.2742640972137451 6.1750001907348633 0.0000000000000000
7.6573414802551270 1.0135431289672852 0.0000000000000000
2.3413665294647217 1.2722284793853760 0.0000000000000000
2.2088901996612549 0.8554056286811829 0.0000000000000000
0.9775215983390808 2.3198099136352539 0.0000000000000000
3.7958171367645264 0.9814717769622803 0.0000000000000000
3.8173902034759521 8.9903917312622070 0.0000000000000000
3.2253837585449219 8.7309274673461914 0.0000000000000000
3.8538606166839600 1.2884520292282104 0.0000000000000000
3.6776492595672607 0.8599593639373779 0.0000000000000000
0.8575379848480225 3.3830225467681885 0.0000000000000000
1.2714412212371826 1.7568148374557495 0.0000000000000000
3.6565535068511963 1.4637216329574585 0.0000000000000000
3.3879764080047607 0.8551254272460938 0.0000000000000000
0.8659229278564453 3.6819553375244141 0.0000000000000000
0.6080464720726013 3.6928114891052246 0.0000000000000000
1.8760429620742798 0.8842443823814392 0.0000000000000000
0.8842443823814392 1.8760429620742798 0.0000000000000000
4.7152252197265625 1.2953249216079712 0.0000000000000000
1.2741305828094482 5.2858743667602539 0.0000000000000000
6.7780461311340332 1.2917374372482300 0.0000000000000000
5.2970433235168457 8.6998386383056641 0.0000000000000000
4.7090554237365723 8.9674701690673828 0.0000000000000000
4.6996254920959473 9.1244344711303711 0.0000000000000000
8.9683475494384766 5.2900543212890625 0.0000000000000000
9.1278514862060547 5.2988219261169434 0.0000000000000000
8.7175312042236328 4.6770949363708496 0.0000000000000000
8.9674701690673828 4.7090554237365723 0.0000000000000000
9.1244344711303711 4.6996254920959473 0.0000000000000000
8.9742641448974609 6.1750001907348633 0.0000000000000000
9.0117826461791992 7.6614851951599121 0.0000000000000000
1.0118086338043213 3.8126220703125000 0.0000000000000000
2.3403136730194092 1.0004153251647949 0.0000000000000000
8.7285585403442383 2.3431851863861084 0.0000000000000000
2.1929574012756348 1.4646660089492798 0.0000000000000000
0.8570479750633240 2.1994671821594238 0.0000000000000000
3.4024133682250977 1.4417580366134644 0.0000000000000000
1.4408084154129028 3.6456706523895264 0.0000000000000000
0.8838657736778259 8.1241140365600586 0.0000000000000000
9.1157560348510742 1.8760429620742798 0.0000000000000000
9.1401681900024414 3.6777555942535400 0.0000000000000000
8.5434761047363281 5.1304988861083984 0.0000000000000000
8.5442590713500977 4.8710279464721680 0.0000000000000000
6.6169881820678711 9.1424398422241211 0.0000000000000000
6.3214783668518066 9.1422529220581055 0.0000000000000000
6.3077397346496582 9.3933992385864258 0.0000000000000000
9.1424617767333984 6.6169772148132324 0.0000000000000000
9.1499996185302734 6.3507361412048340 0.0000000000000000
9.3660278320312500 6.3001794815063477 0.0000000000000000
8.1239566802978516 9.1157560348510742 0.0000000000000000
7.8018283843994141 9.1432685852050781 0.0000000000000000
7.8207964897155762 8.5349769592285156 0.0000000000000000
9.1157560348510742 8.1239566802978516 0.0000000000000000
8.5702390670776367 7.7925009727478027 0.0000000000000000
9.1487808227539062 2.2048516273498535 0.0000000000000000
6.1818146705627441 8.7285585403442383 0.0000000000000000
0.8160036802291870 9.1843948364257812 0.0000000000000000
9.1741762161254883 9.1741762161254883 0.0000000000000000
0.7857648730278015 0.7857648730278015 0.0000000000000000
9.1741762161254883 0.8258241415023804 0.0000000000000000
7.8386654853820801 8.3357620239257812 0.0000000000000000
1.4054698944091797 7.6967711448669434 0.0000000000000000
8.5596885681152344 6.5967922210693359 0.0000000000000000
6.3053007125854492 0.6068185567855835 0.0000000000000000
3.6904535293579102 0.6081547737121582 0.0000000000000000
9.3918437957763672 3.6904842853546143 0.0000000000000000
4.5363826751708984 8.6898880004882812 0.0000000000000000
1.3444291353225708 8.7459430694580078 0.0000000000000000
8.8397111892700195 5.5743789672851562 0.0000000000000000
6.3533086776733398 8.5712213516235352 0.0000000000000000
1.9303355216979980 1.4400610923767090 0.0000000000000000
1.3902816772460938 5.7458562850952148 0.0000000000000000
4.4261574745178223 8.8383979797363281 0.0000000000000000
1.8938324451446533 8.3878221511840820 0.0000000000000000
7.3861813545227051 1.0006253719329834 0.0000000000000000
7.3826074600219727 9.0051937103271484 0.0000000000000000
2.6212549209594727 8.9519767761230469 0.0000000000000000
8.5490951538085938 1.2031599283218384 0.0000000000000000
8.7666759490966797 1.2531068325042725 0.0000000000000000
8.2388362884521484 8.7303600311279297 0.0000000000000000
3.0679957866668701 8.6824617385864258 0.0000000000000000
9.0471611022949219 2.4997298717498779 0.0000000000000000
3.5092103481292725 8.2697086334228516 0.0000000000000000
1.7605335712432861 1.2728258371353149 0.0000000000000000
9.0324363708496094 7.4534091949462891 0.0000000000000000
7.3941435813903809 8.7128181457519531 0.0000000000000000
8.4341173171997070 8.6452140808105469 0.0000000000000000
8.6433906555175781 8.6891336441040039 0.0000000000000000
8.7843532562255859 8.5436401367187500 0.0000000000000000
4.3491334915161133 8.6528110504150391 0.0000000000000000
7.9886798858642578 6.9522261619567871 0.0000000000000000
4.0754523277282715 1.2743345499038696 0.0000000000000000
6.7609128952026367 8.7094516754150391 0.0000000000000000
2.5746839046478271 8.7218599319458008 0.0000000000000000
2.9490883350372314 8.8318796157836914 0.0000000000000000
3.4039862155914307 8.5578470230102539 0.0000000000000000
6.6155323982238770 8.3464965820312500 0.0000000000000000
4.8799042701721191 8.5600633621215820 0.0000000000000000
7.5895872116088867 6.8439664840698242 0.0000000000000000
8.8119926452636719 1.4590137004852295 0.0000000000000000
4.9273705482482910 8.2872419357299805 0.0000000000000000
5.9650106430053711 8.7103929519653320 0.0000000000000000
1.4396158456802368 7.8300371170043945 0.0000000000000000
7.0820760726928711 1.1735581159591675 0.0000000000000000
8.3268041610717773 3.6512641906738281 0.0000000000000000
6.3745260238647461 8.3087577819824219 0.0000000000000000
1.6658347845077515 8.6027774810791016 0.0000000000000000
7.7902493476867676 6.9039893150329590 0.0000000000000000
0.9695304632186890 4.5335636138916016 0.0000000000000000
1.7049727439880371 4.9219112396240234 0.0000000000000000
1.4148062467575073 1.8151376247406006 0.0000000000000000
7.7933583259582520 0.6255447864532471 0.0000000000000000
7.7989082336425781 9.3928775787353516 0.0000000000000000
2.2066414356231689 9.3744554519653320 0.0000000000000000
0.6073474287986755 2.2021200656890869 0.0000000000000000
5.4593462944030762 9.0139884948730469 0.0000000000000000
9.0145778656005859 5.4574761390686035 0.0000000000000000
1.3446172475814819 4.3013787269592285 0.0000000000000000
4.8965744972229004 1.6904956102371216 0.0000000000000000
4.9117050170898438 0.5417398810386658 0.0000000000000000
5.1018309593200684 0.5442656874656677 0.0000000000000000
0.5417398810386658 5.0882949829101562 0.0000000000000000
0.5442482829093933 4.8981795310974121 0.0000000000000000
9.7311630249023438 6.3089570999145508 0.0000000000000000
6.3089570999145508 0.2688372433185577 0.0000000000000000
0.2688372433185577 6.3089570999145508 0.0000000000000000
0.2688372433185577 3.6910426616668701 0.0000000000000000
6.3089570999145508 9.7311630249023438 0.0000000000000000
3.6910426616668701 9.7311630249023438 0.0000000000000000
9.7311630249023438 3.6910426616668701 0.0000000000000000
3.6910426616668701 0.2688372433185577 0.0000000000000000
4.4243922233581543 1.1718560457229614 0.0000000000000000
5.5557947158813477 8.8378772735595703 0.0000000000000000
5.7165002822875977 1.3851565122604370 0.0000000000000000
9.7388353347778320 7.7996106147766113 0.0000000000000000
7.7996106147766113 0.2611643970012665 0.0000000000000000
0.2611643970012665 7.7996106147766113 0.0000000000000000
7.7996106147766113 9.7388353347778320 0.0000000000000000
0.2611643970012665 2.2003896236419678 0.0000000000000000
2.2003896236419678 9.7388353347778320 0.0000000000000000
9.7388353347778320 2.2003896236419678 0.0000000000000000
2.2003896236419678 0.2611643970012665 0.0000000000000000
1.3215265274047852 4.1099586486816406 0.0000000000000000
7.4971442222595215 1.3153933286666870 0.0000000000000000
1.3478282690048218 1.6245303153991699 0.0000000000000000
7.0559711456298828 8.8372793197631836 0.0000000000000000
9.0177230834960938 4.5398445129394531 0.0000000000000000
4.5415778160095215 9.0109634399414062 0.0000000000000000
9.4028091430664062 7.7848434448242188 0.0000000000000000
0.5962618589401245 7.7866468429565430 0.0000000000000000
2.2132554054260254 0.5968785881996155 0.0000000000000000
9.3956346511840820 2.2157289981842041 0.0000000000000000
1.2065894603729248 1.2119324207305908 0.0000000000000000
5.9402623176574707 1.2219512462615967 0.0000000000000000
3.2270047664642334 1.2650558948516846 0.0000000000000000
0.9227699637413025 7.4880433082580566 0.0000000000000000
2.4962449073791504 0.9226977825164795 0.0000000000000000
4.2973799705505371 1.3408327102661133 0.0000000000000000
8.8452653884887695 2.8775832653045654 0.0000000000000000
8.0459184646606445 8.3552818298339844 0.0000000000000000
8.7332944869995117 5.3013749122619629 0.0000000000000000
6.7891845703125000 1.0399833917617798 0.0000000000000000
8.9598817825317383 6.7891287803649902 0.0000000000000000
1.0401185750961304 6.7891287803649902 0.0000000000000000
1.0401185750961304 3.2108712196350098 0.0000000000000000
3.2108712196350098 8.9598817825317383 0.0000000000000000
6.7892260551452637 8.9596843719482422 0.0000000000000000
3.2108151912689209 1.0399833917617798 0.0000000000000000
8.9598817825317383 3.2108712196350098 0.0000000000000000
4.0617527961730957 8.7639369964599609 0.0000000000000000
6.9703097343444824 9.0014410018920898 0.0000000000000000
8.6928081512451172 2.4958887100219727 0.0000000000000000
8.7370624542236328 6.7619824409484863 0.0000000000000000
8.9703397750854492 1.7594747543334961 0.0000000000000000
1.7594747543334961 1.0296604633331299 0.0000000000000000
1.0296604633331299 1.7594747543334961 0.0000000000000000
1.0296604633331299 8.2405252456665039 0.0000000000000000
1.7594747543334961 8.9703397750854492 0.0000000000000000
8.2405252456665039 8.9703397750854492 0.0000000000000000
8.2405252456665039 1.0296604633331299 0.0000000000000000
8.9703397750854492 8.2405252456665039 0.0000000000000000
1.2688202857971191 7.6682271957397461 0.0000000000000000
8.7723512649536133 5.9280905723571777 0.0000000000000000
5.2118506431579590 9.3154449462890625 0.0000000000000000
5.0772709846496582 9.4832344055175781 0.0000000000000000
9.3154449462890625 5.2118506431579590 0.0000000000000000
9.4832344055175781 5.0772709846496582 0.0000000000000000
3.0337760448455811 0.9971908926963806 0.0000000000000000
9.0063190460205078 3.0319678783416748 0.0000000000000000
0.9976601600646973 3.0332014560699463 0.0000000000000000
0.9946494102478027 6.9569220542907715 0.0000000000000000
3.0333089828491211 9.0018920898437500 0.0000000000000000
6.9715580940246582 0.9990960955619812 0.0000000000000000
9.0000228881835938 6.9730448722839355 0.0000000000000000
7.8351569175720215 1.4209538698196411 0.0000000000000000
1.1226768493652344 5.5756807327270508 0.0000000000000000
9.3025226593017578 4.7265343666076660 0.0000000000000000
4.7265343666076660 9.3025226593017578 0.0000000000000000
3.6233384609222412 8.5812263488769531 0.0000000000000000
2.9512441158294678 1.1581650972366333 0.0000000000000000
1.1996037960052490 7.1853542327880859 0.0000000000000000
0.9304093718528748 2.4832804203033447 0.0000000000000000
1.2592211961746216 3.8090710639953613 0.0000000000000000
1.2565317153930664 8.2342166900634766 0.0000000000000000
1.2981984615325928 8.3471479415893555 0.0000000000000000
8.5762672424316406 2.1660404205322266 0.0000000000000000
1.3030349016189575 6.0138630867004395 0.0000000000000000
8.6836071014404297 5.6552910804748535 0.0000000000000000
5.7898864746093750 8.6320600509643555 0.0000000000000000
8.6344709396362305 4.2806692123413086 0.0000000000000000
5.2541761398315430 1.4098203182220459 0.0000000000000000
0.3721826076507568 4.9957847595214844 0.0000000000000000
5.0042176246643066 0.3721860945224762 0.0000000000000000
3.7868232727050781 1.4118232727050781 0.0000000000000000
8.7934684753417969 4.0666718482971191 0.0000000000000000
1.5503021478652954 6.2943291664123535 0.0000000000000000
5.5700740814208984 1.1222661733627319 0.0000000000000000
5.4727406501770020 0.9799681305885315 0.0000000000000000
8.7010459899902344 8.3969078063964844 0.0000000000000000
1.5568001270294189 8.7270164489746094 0.0000000000000000
1.1737153530120850 4.0757894515991211 0.0000000000000000
1.7010246515274048 3.4843885898590088 0.0000000000000000
1.1589213609695435 2.9521234035491943 0.0000000000000000
3.4630846977233887 1.6947154998779297 0.0000000000000000
1.1929543018341064 5.9220395088195801 0.0000000000000000
4.5343770980834961 0.9630728363990784 0.0000000000000000
0.9586327672004700 5.4654731750488281 0.0000000000000000
1.4500000476837158 1.9512209892272949 0.0000000000000000
6.0473465919494629 1.3022840023040771 0.0000000000000000
8.5160894393920898 8.8245658874511719 0.0000000000000000
5.4465546607971191 8.7175226211547852 0.0000000000000000
8.3635692596435547 5.1266365051269531 0.0000000000000000
7.2968306541442871 8.8548631668090820 0.0000000000000000
8.6104478836059570 8.1699514389038086 0.0000000000000000
8.5788974761962891 8.0612649917602539 0.0000000000000000
8.5962905883789062 4.7458338737487793 0.0000000000000000
1.2934389114379883 3.9496171474456787 0.0000000000000000
1.5338704586029053 1.0141648054122925 0.0000000000000000
8.9929027557373047 1.5447549819946289 0.0000000000000000
1.0136880874633789 1.5345526933670044 0.0000000000000000
1.5431509017944336 8.9578876495361328 0.0000000000000000
1.0149775743484497 8.4454774856567383 0.0000000000000000
8.4454002380371094 8.9929275512695312 0.0000000000000000
8.9891815185546875 8.4611454010009766 0.0000000000000000
8.4565553665161133 1.0085904598236084 0.0000000000000000
8.5960655212402344 3.2755064964294434 0.0000000000000000
1.4353783130645752 5.2605438232421875 0.0000000000000000
6.2419948577880859 8.6107635498046875 0.0000000000000000
0.9392120242118835 3.9627835750579834 0.0000000000000000
0.9371917247772217 6.0387225151062012 0.0000000000000000
6.0365591049194336 9.0642995834350586 0.0000000000000000
3.9621171951293945 0.9435925483703613 0.0000000000000000
2.3078291416168213 1.4006528854370117 0.0000000000000000
1.4386773109436035 6.5775904655456543 0.0000000000000000
8.6050100326538086 2.2739889621734619 0.0000000000000000
6.7019925117492676 1.4115066528320312 0.0000000000000000
7.7028074264526367 8.6096706390380859 0.0000000000000000
4.7005362510681152 1.0458831787109375 0.0000000000000000
1.0455595254898071 5.2994532585144043 0.0000000000000000
8.6313724517822266 1.8311077356338501 0.0000000000000000
1.0481463670730591 4.7002158164978027 0.0000000000000000
5.3000001907348633 1.0520089864730835 0.0000000000000000
6.0346150398254395 0.9391419887542725 0.0000000000000000
9.0509405136108398 6.0651268959045410 0.0000000000000000
3.9636821746826172 9.0648765563964844 0.0000000000000000
9.0600404739379883 3.9635045528411865 0.0000000000000000
1.4268624782562256 8.0657377243041992 0.0000000000000000
1.1261761188507080 7.0382065773010254 0.0000000000000000
8.9574766159057617 2.6670691967010498 0.0000000000000000
1.8152261972427368 8.6197004318237305 0.0000000000000000
9.4123001098632812 4.8819985389709473 0.0000000000000000
4.8819985389709473 9.4123001098632812 0.0000000000000000
6.3623414039611816 1.4176806211471558 0.0000000000000000
6.2525825500488281 1.3856922388076782 0.0000000000000000
1.3962501287460327 6.2537207603454590 0.0000000000000000
7.7236237525939941 1.3924779891967773 0.0000000000000000
7.5235824584960938 0.9238521456718445 0.0000000000000000
7.5236401557922363 9.0714912414550781 0.0000000000000000
2.4784736633300781 9.0668153762817383 0.0000000000000000
2.0192809104919434 1.6951913833618164 0.0000000000000000
6.9048123359680176 8.7192077636718750 0.0000000000000000
5.0979762077331543 8.5912322998046875 0.0000000000000000
8.8831987380981445 4.4343156814575195 0.0000000000000000
1.4315747022628784 6.9919085502624512 0.0000000000000000
5.0981736183166504 9.1499996185302734 0.0000000000000000
9.1499996185302734 5.0981736183166504 0.0000000000000000
9.1829538345336914 4.8949871063232422 0.0000000000000000
4.8949871063232422 9.1829538345336914 0.0000000000000000
4.5682821273803711 1.2855933904647827 0.0000000000000000
8.8194408416748047 8.7905197143554688 0.0000000000000000
1.6766630411148071 8.0132217407226562 0.0000000000000000
4.7743024826049805 8.6206884384155273 0.0000000000000000
4.9125037193298340 9.6912555694580078 0.0000000000000000
9.6912555694580078 4.9125037193298340 0.0000000000000000
1.5595068931579590 6.6160264015197754 0.0000000000000000
2.2717254161834717 8.6151027679443359 0.0000000000000000
8.3245048522949219 6.5373711585998535 0.0000000000000000
1.5611652135848999 5.1502451896667480 0.0000000000000000
1.5559492111206055 3.7024042606353760 0.0000000000000000
1.5683413743972778 4.8610157966613770 0.0000000000000000
2.7823143005371094 1.1434237957000732 0.0000000000000000
1.2407281398773193 2.3094253540039062 0.0000000000000000
5.9139275550842285 8.8442649841308594 0.0000000000000000
1.3080558776855469 5.8687934875488281 0.0000000000000000
1.2677222490310669 6.7404255867004395 0.0000000000000000
8.6213636398315430 6.2131500244140625 0.0000000000000000
1.3264640569686890 5.4023952484130859 0.0000000000000000
8.7149887084960938 3.9563879966735840 0.0000000000000000
9.0765781402587891 6.2222123146057129 0.0000000000000000

CELLS 4666 18664
3 2139 79 2156
3 2076 177 2114
3 2081 163 2169
3 2111 153 2124
3 2088 89 2165
3 60 548 2216
3 103 2067 2143
3 2116 201 2126
3 2085 17 2086
3 2083 211 2175
3 2130 59 2134
3 31 2129 2160
3 2069 239 2155
3 11 2128 2157
3 2047 91 2059
3 2078 225 2117
3 2087 41 2179
3 388 336 389
3 392 337 393
3 340 380 381
3 341 384 385
3 376 342 377
3 372 343 373
3 338 368 369
3 339 364 365
3 27 1418 2070
3 432 262 483
3 434 281 481
3 436 319 482
3 438 300 480
3 205 198 2015
3 362 326 363
3 360 327 361
3 325 358 359
3 324 355 356
3 350 323 351
3 353 322 354
3 320 344 345
3 321 347 348
3 548 549 2216
3 442 1477 2347
3 334 400 401
3 335 396 397
3 404 332 405
3 408 333 409
3 330 412 413
3 331 416 417
3 424 329 425
3 420 328 421
3 301 439 480
3 282 435 481
3 244 437 482
3 263 433 483
3 261 262 432
3 280 281 434
3 318 319 436
3 299 300 438
3 2120 1603 2294
3 2163 223 2301
3 36 1414 1532
3 1473 36 1532
3 2141 9 2299
3 2164 47 2298
3 33 2142 2300
3 19 2084 2302
3 2174 209 2303
3 203 2068 2304
3 233 2177 2305
3 301 302 439
3 282 283 435
3 244 245 437
3 263 264 433
3 167 166 1427
3 1522 37 1523
3 166 171 1427
3 135 1539 2122
3 1583 2133 2216
3 1581 1580 2137
3 366 365 441
3 370 369 440
3 373 374 442
3 386 385 444
3 377 378 443
3 382 381 445
3 389 390 446
3 393 394 447
3 500 451 2192
3 1418 27 1992
3 1477 37 1522
3 397 396 2321
3 408 409 2322
3 198 197 2015
3 2308 121 2409
3 144 2310 2410
3 69 1401 2220
3 2133 60 2216
3 119 2030 2146
3 451 1399 2192
3 216 2204 2211
3 1422 447 2209
3 413 412 2308
3 424 425 2310
3 1386 2026 2095
3 75 1604 2323
3 1417 1416 2285
3 2185 1383 2284
3 16 23 2045
3 337 277 395
3 336 258 391
3 305 341 387
3 286 340 383
3 342 296 379
3 343 315 375
3 267 338 371
3 248 339 367
3 197 196 1537
3 253 420 2337
3 310 404 2336
3 196 204 1537
3 275 392 527
3 256 388 526
3 384 307 524
3 294 376 523
3 380 288 525
3 313 372 522
3 368 269 521
3 364 250 520
3 251 334 403
3 270 335 399
3 329 274 427
3 328 255 423
3 332 312 407
3 308 331 419
3 289 330 415
3 333 293 411
3 1464 215 1574
3 1468 1325 2074
3 72 2120 2294
3 2067 1376 2143
3 215 1464 2204
3 219 2185 2284
3 1401 69 2132
3 29 28 1524
3 1418 1373 2070
3 71 1604 2120
3 1407 2047 2059
3 146 1474 2034
3 1502 1250 1536
3 167 1427 2217
3 2192 2344 2365
3 398 397 456
3 402 401 457
3 409 410 458
3 414 413 460
3 405 406 459
3 418 417 461
3 421 422 462
3 425 426 463
3 103 102 2067
3 259 360 499
3 278 362 498
3 358 304 497
3 316 353 495
3 355 285 496
3 297 350 494
3 344 247 492
3 347 266 493
3 1474 146 2356
3 1503 1490 2048
3 257 336 388
3 276 337 392
3 314 343 372
3 295 342 376
3 340 287 380
3 341 306 384
3 339 249 364
3 338 268 368
3 1516 539 2278
3 145 1417 2285
3 260 327 360
3 279 326 362
3 325 303 358
3 298 323 350
3 317 322 353
3 324 284 355
3 320 246 344
3 321 265 347
3 2201 24 2218
3 1471 180 2022
3 1604 75 1605
3 2063 2201 2218
3 539 1516 2258
3 554 552 2178
3 335 271 396
3 334 252 400
3 311 332 404
3 292 333 408
3 330 290 412
3 331 309 416
3 273 329 424
3 254 328 420
3 131 1540 2096
3 1543 1542 2089
3 92 91 2047
3 205 2015 2028
3 1454 1490 2009
3 1580 61 2137
3 28 36 1524
3 14 2037 2362
3 2026 109 2095
3 1540 131 2122
3 229 1399 2366
3 95 505 2092
3 509 81 2135
3 511 67 2072
3 175 513 2113
3 161 515 2168
3 517 185 2171
3 1454 2009 2421
3 61 1528 2161
3 505 95 2293
3 507 57 2292
3 67 511 2290
3 515 161 2291
3 81 509 2289
3 513 175 2288
3 185 517 2287
3 155 519 2286
3 57 507 2138
3 519 155 2112
3 205 1502 1536
3 98 1545 2073
3 2204 1464 2211
3 1539 1540 2122
3 401 400 2101
3 417 416 2107
3 1490 1454 2048
3 1402 2061 2151
3 2123 135 2233
3 1539 135 2123
3 1262 1418 1992
3 1 263 483
3 2 282 481
3 262 1 483
3 281 2 481
3 0 244 482
3 319 0 482
3 300 3 480
3 3 301 480
3 447 394 2209
3 12 1410 2127
3 471 2130 2134
3 386 444 2033
3 404 405 2110
3 420 421 2104
3 1410 12 2057
3 218 1408 2065
3 99 1542 2283
3 393 337 394
3 389 336 390
3 341 385 386
3 340 381 382
3 377 342 378
3 373 343 374
3 339 365 366
3 338 369 370
3 1545 98 2013
3 432 483 2184
3 436 482 2183
3 434 481 2182
3 438 480 2181
3 334 401 402
3 335 397 398
3 405 332 406
3 409 333 410
3 330 413 414
3 331 417 418
3 421 328 422
3 425 329 426
3 1569 228 2005
3 99 2283 2313
3 1597 193 2318
3 484 15 2141
3 485 48 2164
3 38 486 2142
3 25 488 2084
3 489 217 2174
3 207 491 2068
3 240 490 2177
3 2061 147 2151
3 466 2076 2114
3 469 2139 2156
3 467 2081 2169
3 214 219 1574
3 464 2111 2124
3 470 2088 2165
3 487 230 2163
3 1411 1437 2159
3 1487 2221 2230
3 483 433 2184
3 482 437 2183
3 481 435 2182
3 480 439 2181
3 139 1416 2166
3 362 363 490
3 360 361 491
3 359 358 487
3 353 354 486
3 356 355 489
3 350 351 488
3 348 347 485
3 345 344 484
3 468 2090 2131
3 392 393 516
3 388 389 518
3 385 384 512
3 376 377 510
3 381 380 514
3 372 373 508
3 369 368 504
3 365 364 506
3 1412 171 2194
3 1604 1603 2120
3 2221 171 2230
3 397 2153 2271
3 2148 409 2272
3 14 2036 2037
3 452 500 2192
3 1604 71 2323
3 2189 520 2255
3 2190 521 2254
3 1480 1178 2010
3 215 214 1574
3 1382 543 2257
3 204 1500 1537
3 36 1473 1524
3 475 2078 2117
3 479 2087 2179
3 24 16 2045
3 1584 2216 2282
3 1477 442 1534
3 2030 2031 2146
3 543 1382 2333
3 2153 2152 2271
3 2147 2148 2272
3 108 1468 2074
3 1468 539 2258
3 2129 477 2160
3 473 2069 2155
3 2128 478 2157
3 495 2239 2263
3 494 2238 2264
3 2237 496 2262
3 499 2236 2260
3 102 109 2067
3 1528 61 2348
3 231 1555 2011
3 110 2256 2350
3 2035 1439 2207
3 98 92 2047
3 1428 1343 2051
3 1455 1480 2010
3 413 2080 2240
3 2150 425 2241
3 472 2116 2126
3 476 2085 2086
3 474 2083 2175
3 1427 1424 2217
3 1486 87 2347
3 346 345 448
3 349 348 449
3 354 431 450
3 430 359 451
3 351 352 452
3 357 356 453
3 361 429 454
3 363 428 455
3 1418 1262 1425
3 1423 1419 1424
3 427 274 2248
3 423 255 2249
3 308 419 2250
3 407 312 2251
3 289 415 2252
3 411 293 2253
3 270 399 2254
3 251 403 2255
3 2176 1409 2185
3 416 310 2336
3 400 253 2337
3 395 277 2259
3 391 258 2260
3 305 387 2261
3 286 383 2262
3 379 296 2264
3 375 315 2263
3 267 371 2265
3 248 367 2266
3 228 1569 2415
3 526 2188 2249
3 292 408 2417
3 396 271 2418
3 327 261 432
3 326 280 434
3 322 318 436
3 323 299 438
3 2033 444 2325
3 528 2141 2299
3 529 2164 2298
3 2142 532 2300
3 2084 530 2302
3 531 2174 2303
3 2068 535 2304
3 2177 534 2305
3 1557 2029 2225
3 193 1597 2064
3 977 1425 1592
3 1414 36 2019
3 206 1404 2199
3 403 2189 2255
3 399 2190 2254
3 447 1422 1597
3 533 2163 2301
3 302 325 439
3 283 324 435
3 245 320 437
3 264 321 433
3 2115 524 2250
3 522 2140 2251
3 523 2091 2253
3 2170 525 2252
3 366 441 2058
3 1425 1262 1592
3 2030 119 2406
3 2108 134 2110
3 2102 111 2104
3 256 257 388
3 275 276 392
3 313 314 372
3 306 307 384
3 287 288 380
3 294 295 376
3 249 250 364
3 268 269 368
3 278 279 362
3 259 260 360
3 316 317 353
3 303 304 358
3 297 298 350
3 284 285 355
3 246 247 344
3 265 266 347
3 173 1469 2429
3 459 2123 2233
3 1260 1419 1423
3 252 253 400
3 290 291 412
3 310 311 404
3 309 310 416
3 272 273 424
3 253 254 420
3 1510 1509 2145
3 1555 231 2033
3 1502 205 2028
3 426 427 465
3 422 423 464
3 410 411 468
3 419 418 466
3 406 407 469
3 415 414 467
3 399 398 470
3 403 402 471
3 2034 1334 2167
3 1416 1400 2166
3 2239 375 2263
3 2238 379 2264
3 383 2237 2262
3 2236 391 2260
3 1542 99 2089
3 270 271 335
3 251 252 334
3 257 258 336
3 276 277 337
3 279 280 326
3 260 261 327
3 254 255 328
3 273 274 329
3 283 284 324
3 302 303 325
3 292 293 333
3 311 312 332
3 295 296 342
3 314 315 343
3 317 318 322
3 286 287 340
3 289 290 330
3 298 299 323
3 305 306 341
3 308 309 331
3 245 246 320
3 264 265 321
3 248 249 339
3 267 268 338
3 989 1428 2051
3 1484 84 2040
3 1505 157 1507
3 504 96 2092
3 73 510 2072
3 86 508 2135
3 514 169 2168
3 512 182 2113
3 192 516 2171
3 1278 1423 1424
3 1449 194 2187
3 539 1468 2341
3 1555 2033 2325
3 275 527 2248
3 256 526 2249
3 294 523 2253
3 524 307 2250
3 525 288 2252
3 313 522 2251
3 521 269 2254
3 520 250 2255
3 1662 2125 2331
3 1289 1250 1502
3 1404 446 2199
3 1333 1508 1509
3 506 63 2138
3 159 518 2112
3 394 395 473
3 390 391 472
3 378 379 476
3 383 382 474
3 387 386 475
3 374 375 477
3 367 366 478
3 371 370 479
3 445 381 2295
3 441 365 2312
3 440 369 2313
3 373 442 2314
3 444 385 2315
3 377 443 2316
3 389 446 2317
3 393 447 2318
3 442 374 1534
3 1006 1455 2010
3 1525 62 2279
3 1494 1497 2071
3 370 440 2393
3 1399 451 2366
3 180 1471 2419
3 1034 1032 1533
3 412 291 2417
3 272 424 2418
3 2140 407 2251
3 419 2115 2250
3 2091 411 2253
3 415 2170 2252
3 2188 423 2249
3 2009 194 2421
3 1493 1289 1495
3 1476 1486 2347
3 361 327 429
3 363 326 428
3 354 322 431
3 351 323 352
3 325 359 430
3 324 356 357
3 320 345 346
3 321 348 349
3 2153 2321 2411
3 2322 2148 2412
3 1455 1006 2048
3 171 1412 2230
3 2080 2079 2240
3 2149 2150 2241
3 541 1652 2196
3 446 1404 2228
3 2144 125 2371
3 1276 2013 2229
3 1523 29 1524
3 1433 1562 1563
3 1523 37 2426
3 1046 1556 1578
3 1527 1525 2279
3 1509 1507 2380
3 1278 1424 1427
3 1533 1471 2022
3 1437 13 2159
3 1408 218 2210
3 528 484 2141
3 529 485 2164
3 486 532 2142
3 488 530 2084
3 531 489 2174
3 491 535 2068
3 490 534 2177
3 1507 2097 2380
3 1404 206 2268
3 1416 139 2285
3 1006 1503 2048
3 87 1486 2053
3 2216 549 2282
3 1421 205 1536
3 1333 1509 1510
3 2071 1497 2384
3 2080 2308 2409
3 2310 2150 2410
3 48 485 493
3 15 484 492
3 488 25 494
3 486 38 495
3 230 487 497
3 217 489 496
3 491 207 499
3 490 240 498
3 1507 157 2097
3 527 2173 2248
3 831 959 1559
3 1662 2340 2399
3 1372 1420 2430
3 555 1063 1444
3 1047 1049 1491
3 37 1477 1534
3 219 2176 2185
3 2344 26 2365
3 1420 2082 2430
3 1505 1506 2041
3 495 38 2239
3 494 25 2238
3 217 496 2237
3 499 207 2236
3 1256 1103 1535
3 259 499 2260
3 278 498 2259
3 497 304 2261
3 496 285 2262
3 316 495 2263
3 297 494 2264
3 492 247 2266
3 493 266 2265
3 189 188 2060
3 443 378 2201
3 382 445 2200
3 446 390 2199
3 1407 1247 1466
3 2096 1540 2424
3 50 1493 1494
3 2158 1279 2379
3 1495 1289 1502
3 1444 1063 1445
3 1277 1487 2021
3 1151 1075 2002
3 1422 1444 1597
3 1152 1438 1548
3 1425 977 1586
3 711 2223 2232
3 84 1484 2346
3 1080 1282 1467
3 188 194 2060
3 1329 2077 2400
3 1527 55 2161
3 1392 1391 1393
3 121 2308 2309
3 2310 144 2311
3 459 545 2123
3 462 538 539
3 463 536 537
3 458 546 547
3 459 544 545
3 540 461 541
3 542 460 543
3 548 457 549
3 550 456 551
3 111 2099 2101
3 134 2105 2107
3 533 487 2163
3 1478 835 1479
3 1520 1364 1984
3 1433 1561 1562
3 75 2035 2207
3 1070 1081 1465
3 526 159 2188
3 1388 1437 1984
3 123 2029 2030
3 216 2211 2354
3 1131 1244 1434
3 448 345 2362
3 449 348 2363
3 354 450 2364
3 451 359 2366
3 351 452 2365
3 453 356 2367
3 361 454 2369
3 363 455 2368
3 1399 229 2329
3 1328 1542 1543
3 1500 204 2202
3 1406 551 2334
3 967 1519 2050
3 1084 1552 1553
3 1438 1152 1439
3 1186 1273 1541
3 2256 1377 2282
3 63 520 2189
3 96 521 2190
3 1311 1561 1886
3 1473 1367 1524
3 1411 2159 2377
3 1359 1484 1485
3 338 370 371
3 339 366 367
3 340 382 383
3 341 386 387
3 378 342 379
3 374 343 375
3 394 337 395
3 390 336 391
3 1487 1428 2021
3 1653 132 2234
3 1476 1475 1486
3 1540 1541 2424
3 2061 551 2407
3 2125 1662 2399
3 194 1449 2421
3 146 2034 2167
3 1032 1135 1533
3 1430 1129 1434
3 1258 1034 1533
3 1135 1470 1471
3 1494 1493 1495
3 1528 1371 1556
3 334 402 403
3 335 398 399
3 406 332 407
3 331 418 419
3 410 333 411
3 330 414 415
3 426 329 427
3 422 328 423
3 1279 2158 2296
3 2026 1563 2243
3 1257 1505 1507
3 1392 1393 1394
3 1253 1062 1457
3 1539 1187 1540
3 50 1426 1493
3 1508 1333 2052
3 1038 1036 1664
3 157 1505 2041
3 1556 1046 1579
3 1517 1506 1519
3 1298 1382 2031
3 1661 1660 1662
3 1044 1045 1431
3 386 2033 2280
3 2210 218 2357
3 2103 421 2342
3 1343 1479 2051
3 1374 2067 2243
3 1390 1391 1392
3 1470 1135 1504
3 1356 1367 1473
3 1432 1078 1433
3 1324 1140 1325
3 1049 1326 1491
3 1079 1080 1467
3 551 2061 2334
3 1445 1446 1447
3 447 1597 2318
3 1152 1047 1491
3 1406 1247 1407
3 2029 123 2225
3 1483 1508 2052
3 1582 1082 1585
3 1479 1559 1560
3 242 1458 1488
3 1519 1535 2050
3 553 555 1444
3 1565 935 2016
3 1438 972 1548
3 1260 1423 1465
3 1474 1306 2034
3 1371 1528 2348
3 1289 1493 1993
3 1479 835 1559
3 1082 1582 1584
3 1436 221 2391
3 452 2192 2365
3 1602 1603 1604
3 125 2121 2371
3 1103 1315 1535
3 1506 1517 2041
3 123 2030 2406
3 1426 50 1492
3 1428 989 2021
3 1258 1663 1664
3 1605 1326 1606
3 1081 1260 1465
3 835 831 1559
3 959 1163 1559
3 1265 1143 1387
3 457 401 2350
3 461 417 2351
3 1269 1270 1334
3 1597 1445 2064
3 1255 1159 1372
3 1077 1078 1432
3 1391 1992 2198
3 1516 1511 2258
3 1128 1129 1430
3 121 2396 2412
3 2395 144 2411
3 1518 967 1531
3 1383 1384 1385
3 473 2155 2209
3 1277 1072 1278
3 539 538 2278
3 1045 1520 1984
3 1351 1359 1475
3 1562 1565 2016
3 1068 1070 1465
3 1433 1563 2026
3 1540 1187 1541
3 1306 1474 1934
3 1271 1272 1401
3 1006 1002 1503
3 1553 2005 2186
3 2029 1297 2030
3 1462 1459 2004
3 1488 1155 1572
3 1546 1314 1613
3 1439 1491 2207
3 1385 1459 1460
3 421 462 2342
3 1456 1253 1457
3 1145 983 1147
3 1129 1131 1434
3 1133 1268 1284
3 1356 1355 1367
3 1514 1512 1515
3 1506 1256 1535
3 2013 98 2229
3 405 459 2233
3 456 397 2271
3 409 458 2272
3 1439 1152 1491
3 1603 2008 2294
3 132 1653 2422
3 39 2038 2269
3 527 192 2173
3 1434 1244 1557
3 827 826 1481
3 551 1406 2339
3 2077 1329 2268
3 1002 1003 1503
3 1541 1273 2234
3 1295 1296 1297
3 505 504 2092
3 508 509 2135
3 510 511 2072
3 515 514 2168
3 513 512 2113
3 516 517 2171
3 1133 1285 1586
3 835 1478 1481
3 1351 1349 1359
3 1652 541 2320
3 1662 1660 1663
3 2340 2098 2399
3 1472 1124 1474
3 1381 1456 1457
3 1663 1258 2022
3 1602 1604 1605
3 1285 1284 1373
3 2173 427 2248
3 1127 1044 1431
3 1445 1063 1446
3 1556 1371 1578
3 1075 1082 2002
3 1249 1525 1526
3 460 413 2240
3 425 463 2241
3 538 158 2278
3 1652 133 2431
3 1494 1495 1496
3 1374 1151 1376
3 1431 1045 1984
3 1134 1128 1143
3 1385 1384 1458
3 2087 479 2206
3 1311 1312 1561
3 1139 1511 1512
3 1287 1580 1581
3 967 1518 1519
3 2109 405 2233
3 63 506 520
3 96 504 521
3 508 86 522
3 510 73 523
3 169 514 525
3 182 512 524
3 516 192 527
3 518 159 526
3 402 457 548
3 398 456 550
3 458 410 546
3 459 406 544
3 414 460 542
3 418 461 540
3 462 422 538
3 463 426 536
3 1497 2118 2384
3 242 1488 1572
3 1336 1338 1339
3 1377 1151 2002
3 547 546 2294
3 1528 1527 2161
3 1133 1284 1285
3 1168 1256 1257
3 1141 1079 1467
3 1138 1077 1140
3 1036 1258 1664
3 1066 1038 1664
3 1377 2256 2413
3 2037 448 2362
3 1135 1471 1533
3 2052 1331 2054
3 1062 1180 1457
3 1264 1400 1416
3 981 1150 1251
3 1150 1990 1993
3 1561 1078 1886
3 2030 1297 2031
3 1122 1121 1123
3 1180 1182 1184
3 1139 1512 1513
3 1364 1388 1984
3 133 2320 2351
3 1271 1401 2205
3 1067 1068 1072
3 1081 1079 1141
3 1482 49 2393
3 1278 1072 1423
3 1887 2039 2043
3 1427 171 2221
3 1287 1581 1582
3 1605 75 2207
3 1084 1553 1554
3 182 524 2115
3 522 86 2140
3 169 525 2170
3 523 73 2091
3 1003 1489 1503
3 826 835 1481
3 1441 1415 1442
3 1547 1613 1615
3 1121 1124 1472
3 980 1171 1990
3 1139 1513 2024
3 118 123 2406
3 1359 1349 1484
3 1553 1552 2005
3 2118 1497 2119
3 1144 1142 1267
3 1474 1124 1934
3 37 30 2426
3 1407 1466 2047
3 978 972 1060
3 982 928 983
3 27 22 2017
3 929 980 981
3 1475 1359 1486
3 1512 1511 1516
3 1572 554 2178
3 1526 1525 1527
3 1060 972 1438
3 1328 1543 1544
3 1297 1298 2031
3 1257 1507 1508
3 938 1547 1615
3 1138 1140 1324
3 1332 1333 1510
3 1385 1458 1459
3 1168 1257 1483
3 1389 1415 1440
3 1339 1413 1435
3 1247 1137 1466
3 1137 1274 1466
3 1401 2132 2205
3 546 72 2294
3 1285 1425 1586
3 1483 1257 1508
3 931 970 971
3 2057 12 2058
3 977 927 1586
3 1547 1546 1613
3 1661 1662 2331
3 2045 23 2420
3 932 933 934
3 1513 1518 2024
3 937 1530 1585
3 1376 1151 1377
3 1387 1143 1429
3 2127 1410 2377
3 1489 1003 1550
3 1367 1355 1522
3 2063 443 2201
3 1420 195 2082
3 827 1481 1549
3 1249 1405 1525
3 1456 84 2346
3 1155 1488 1529
3 1410 1127 1411
3 2223 1480 2232
3 1510 156 2228
3 172 180 2378
3 1458 242 2004
3 1395 1393 1398
3 1496 1495 2028
3 971 970 1076
3 1249 1526 1579
3 1390 1261 1391
3 1408 1141 1409
3 1339 1340 1412
3 939 2052 2054
3 1483 939 1521
3 1469 1999 2429
3 1271 1060 1272
3 1135 1026 1504
3 537 536 2307
3 1259 1141 1408
3 1336 1339 1435
3 1026 957 1504
3 1334 1270 1402
3 1143 1128 1430
3 1073 1044 1127
3 1281 1328 2032
3 171 166 2194
3 157 150 2097
3 852 850 1521
3 1281 1327 1328
3 212 218 2065
3 1546 1545 2013
3 401 2100 2350
3 417 2106 2351
3 83 1485 2040
3 1375 1563 2016
3 168 160 2217
3 1358 1473 1532
3 1184 1182 1379
3 1123 1121 1472
3 1479 1560 2051
3 1171 1566 1990
3 1140 1077 1432
3 1297 1296 1298
3 220 228 2391
3 229 222 2328
3 1409 1467 2185
3 2256 457 2350
3 1998 716 2018
3 1515 1512 1516
3 1508 1507 1509
3 507 506 2138
3 518 519 2112
3 1566 1171 1593
3 1495 1502 2028
3 2007 1800 2025
3 1328 1327 1542
3 1494 1496 1497
3 498 240 2273
3 230 497 2274
3 48 493 2276
3 15 492 2275
3 1325 1140 1386
3 1426 1150 1993
3 1286 1530 1564
3 1442 1415 2019
3 44 50 2071
3 197 1537 2015
3 1187 1186 1541
3 1252 1251 1279
3 1437 1431 1984
3 1519 1506 1535
3 1570 1161 1573
3 729 728 1531
3 1155 1529 2003
3 1314 1546 2013
3 1180 1184 1457
3 1513 1512 1514
3 186 193 2297
3 1659 1066 1660
3 1082 937 1585
3 1332 1331 1333
3 1248 1127 1410
3 1498 1496 1499
3 1485 83 2053
3 1576 537 2307
3 1072 1068 1465
3 2093 1462 2358
3 1084 1551 1552
3 1530 1286 1585
3 116 122 2020
3 90 97 2059
3 123 118 2222
3 1184 1379 1380
3 1339 1412 1413
3 1514 1515 1567
3 1779 1360 1781
3 1563 1562 2016
3 934 933 937
3 1587 1566 1593
3 1481 1478 2012
3 194 188 2187
3 1046 941 1579
3 109 2026 2243
3 1538 1187 1539
3 1493 1426 1993
3 971 1076 1142
3 1372 1159 1420
3 70 75 2323
3 181 174 2429
3 934 937 1075
3 1257 1256 1505
3 972 924 1548
3 1122 1123 1126
3 1183 1187 1538
3 138 145 2285
3 934 1136 2001
3 228 220 2227
3 1478 1341 2012
3 978 1133 1586
3 1358 1356 1473
3 216 208 2204
3 1076 1084 1554
3 964 1153 1551
3 837 1570 1573
3 226 231 2306
3 1459 1458 2004
3 1462 2093 2343
3 989 987 2021
3 123 1429 2225
3 150 157 2397
3 75 70 2220
3 1529 1570 2003
3 1551 1153 1552
3 853 982 1587
3 536 195 2307
3 218 2200 2357
3 850 963 1521
3 1067 1072 1277
3 1337 1549 2012
3 1134 1143 1265
3 939 852 1521
3 1279 1251 1492
3 1552 1569 2005
3 1359 1485 1486
3 1460 1461 1464
3 1156 1158 1550
3 968 1047 1152
3 1485 1484 2040
3 971 1144 1985
3 1549 1481 2012
3 1051 1053 1606
3 1345 1253 1456
3 1255 1372 2009
3 1278 1427 2221
3 1378 1267 1469
3 1158 1489 1550
3 1339 1338 1340
3 1564 1530 1575
3 1366 1477 1522
3 2226 543 2333
3 85 78 2327
3 1333 1331 2052
3 924 923 1548
3 978 1132 1133
3 1781 1360 1989
3 1073 1249 1579
3 1346 1347 1348
3 1446 1063 1588
3 1346 1345 1347
3 746 1564 1575
3 728 919 1531
3 967 729 1531
3 982 983 1145
3 1417 145 2193
3 1283 1161 1570
3 1520 1045 2007
3 1373 1284 2045
3 1582 1581 1583
3 1504 957 1988
3 1985 1504 1988
3 1344 1558 1571
3 1677 1594 1996
3 1138 1324 1511
3 981 980 1150
3 1447 1446 1448
3 1526 1527 1528
3 1499 1496 2028
3 1346 1348 1991
3 1470 1504 1985
3 1659 1660 1661
3 1147 983 1148
3 82 87 2053
3 968 1152 1548
3 1328 1544 2032
3 62 56 2279
3 1326 1051 1606
3 164 170 2180
3 50 44 2330
3 1285 1373 1418
3 1440 1415 1441
3 941 1073 1579
3 1550 1003 1591
3 84 76 2040
3 1367 1522 1523
3 2002 1584 2282
3 1394 1396 1436
3 931 971 1985
3 1042 1125 1571
3 1386 1432 2026
3 1362 1358 1532
3 1394 1393 1395
3 1433 1078 1561
3 1092 853 1587
3 1414 1365 1532
3 934 1075 1136
3 1246 1295 1557
3 981 1251 1252
3 1368 1998 2018
3 1059 1601 1602
3 1365 1362 1532
3 1434 1557 2225
3 1353 1351 1475
3 918 964 1551
3 1126 1123 1264
3 1132 1060 1271
3 1561 1312 1562
3 1156 1550 1568
3 1594 1593 1996
3 1544 1547 2032
3 1526 1556 1579
3 984 2055 2056
3 1994 690 1995
3 1287 1582 1585
3 1568 1550 1591
3 1647 1649 1653
3 1554 1553 2011
3 1348 1360 1991
3 1184 1380 1381
3 242 236 2359
3 1059 1600 1601
3 1263 1076 1554
3 2039 1565 2043
3 1602 1605 1606
3 140 146 2167
3 1647 1648 1649
3 746 1023 1564
3 2032 938 2046
3 1326 1605 2207
3 726 746 1575
3 1246 1294 1295
3 1348 1347 1349
3 1074 1042 1571
3 1360 1779 1991
3 1559 1163 1560
3 1244 1246 1557
3 2228 156 2317
3 999 1009 1568
3 1552 1153 1569
3 1520 2007 2025
3 1030 1149 1286
3 1391 1261 1992
3 1009 1122 1568
3 156 1510 2145
3 1125 1344 1571
3 100 108 2074
3 1053 1059 1606
3 1082 1584 2002
3 1264 1416 1417
3 982 1146 1587
3 1272 1060 1438
3 1139 1138 1511
3 1294 1997 2006
3 1445 1447 2064
3 1154 1390 1569
3 999 1568 1591
3 932 934 2001
3 735 726 1575
3 837 1573 1596
3 1059 1055 1600
3 1367 1523 1524
3 22 27 2070
3 1150 980 1990
3 1314 1612 1613
3 1260 1403 1419
3 1613 1614 1615
3 1023 1029 1030
3 1286 1149 1287
3 987 988 1067
3 964 1091 1153
3 1295 1294 1296
3 1649 1648 1650
3 564 562 1596
3 696 1577 1595
3 1602 1601 1603
3 741 742 1614
3 1614 742 1615
3 1063 557 1588
3 716 1780 1781
3 1191 1778 1779
3 1055 1057 1600
3 923 968 1548
3 198 205 2319
3 1023 1030 1564
3 1562 1312 1565
3 559 936 1588
3 1342 1428 1487
3 1577 696 1596
3 1286 1287 1585
3 1030 1286 1564
3 716 708 1780
3 1067 988 1068
3 1211 1653 1654
3 1030 1083 1149
3 1349 1347 1484
3 1153 1154 1569
3 1302 1592 1610
3 696 564 1596
3 562 837 1596
3 696 1595 1598
3 921 741 1614
3 1780 1779 1781
3 1211 1647 1653
3 1092 1587 1593
3 1573 1577 1596
3 1302 977 1592
3 745 938 1615
3 742 745 1615
3 1046 1578 1983
3 1191 1777 1778
3 1777 858 1778
3 54 61 2161
3 1032 1026 1135
3 840 838 1590
3 827 1549 1997
3 1529 1283 1570
3 1651 1658 1659
3 708 706 1780
3 1613 1612 1614
3 1030 1029 1083
3 158 152 2075
3 1595 1590 1598
3 1254 1346 1782
3 1153 1091 1154
3 556 554 1572
3 1660 1066 1664
3 1590 838 1598
3 1040 1066 1658
3 236 242 2178
3 1592 1162 1610
3 1003 1000 1591
3 997 999 1591
3 1589 1595 1979
3 109 102 2095
3 986 840 1590
3 1658 1066 1659
3 1215 1211 1654
3 1254 1782 1816
3 1595 1577 1979
3 1657 1185 1718
3 1064 1040 1658
3 1778 858 1782
3 1654 1273 1655
3 1549 1337 2006
3 1069 1589 1979
3 922 1656 1981
3 1594 1994 1995
3 1655 1188 1656
3 1273 1188 1655
3 1656 1657 1981
3 830 1657 1718
3 1188 1185 1657
3 1589 986 1590
3 568 566 1598
3 1302 1610 1767
3 1071 1069 1979
3 1215 1654 1655
3 1092 1593 1594
3 1589 1590 1595
3 1610 1090 1767
3 838 568 1598
3 566 696 1598
3 1000 997 1591
3 1160 1071 1979
3 1276 1314 2013
3 1083 1029 1986
3 563 711 1599
3 561 563 1599
3 1655 1656 1980
3 1656 1188 1657
3 711 565 1607
3 1290 1607 1611
3 1607 567 1611
3 1608 1237 1952
3 1609 1608 1952
3 839 1608 1609
3 567 569 1611
3 570 839 1609
3 1120 1971 1978
3 571 570 1609
3 1810 1015 1927
3 1290 1611 1925
3 1089 1165 1970
3 1118 1966 1973
3 1801 796 1920
3 596 1616 1617
3 670 669 1909
3 1631 905 1846
3 1644 820 1828
3 1934 1199 1938
3 1761 1774 1955
3 1629 905 1631
3 1616 1170 1617
3 1058 1056 1812
3 820 1642 1742
3 1616 596 1810
3 1642 820 1644
3 991 1619 1690
3 1166 1814 1956
3 1616 1810 1927
3 795 1669 1858
3 1623 670 1909
3 1969 1118 1973
3 1633 930 1751
3 1619 1170 1690
3 806 1921 1949
3 1190 1633 1751
3 1617 1170 1619
3 1796 1732 1847
3 1642 1291 1742
3 1797 1106 1953
3 1865 1646 1913
3 795 1641 1771
3 1641 795 1858
3 1619 991 1620
3 1291 1701 1742
3 905 1629 1850
3 1094 892 1948
3 1720 911 1877
3 1907 897 1940
3 1761 1882 1883
3 1883 1234 1888
3 1626 817 1627
3 670 1937 1939
3 1130 1058 1812
3 1015 1739 1927
3 1957 1728 1968
3 1784 1209 1787
3 1679 800 1682
3 1841 1720 1877
3 1813 1166 1880
3 1234 1233 1888
3 1708 1750 1916
3 1683 1684 1901
3 1011 1675 1689
3 1217 1801 1920
3 1627 817 1850
3 1915 1630 1947
3 1321 1112 1632
3 1882 1234 1883
3 841 809 1692
3 1641 1638 1771
3 1772 1716 1831
3 1893 1177 1925
3 1874 1218 1893
3 579 578 1625
3 1195 1224 1919
3 1819 845 1922
3 1629 1627 1850
3 1897 958 1912
3 1229 911 1719
3 1842 1309 1875
3 1814 1320 1956
3 1684 906 1901
3 1775 1189 1863
3 1717 1716 1772
3 842 791 1679
3 1165 1702 1970
3 1221 1220 1722
3 809 815 1692
3 1963 744 1965
3 805 1796 1847
3 1316 1725 1917
3 1669 1675 1858
3 1217 1671 1801
3 1936 1906 1954
3 1937 1724 1939
3 1734 1189 1792
3 1213 1827 1839
3 1088 1758 1853
3 796 1701 1920
3 1229 1865 1913
3 1621 1874 1893
3 1011 1673 1675
3 1704 1300 1820
3 1849 1117 1891
3 1700 1896 1899
3 1703 774 1773
3 1056 1120 1812
3 1902 1206 1943
3 1223 1720 1721
3 1217 1670 1671
3 1756 856 1894
3 1827 1703 1839
3 1675 1669 1689
3 823 1945 1976
3 1697 958 1897
3 817 1626 1872
3 1928 1793 1961
3 1709 1734 1792
3 998 1001 1806
3 921 1612 1958
3 1638 1640 1771
3 1639 816 1640
3 1213 1839 1866
3 1001 1005 1806
3 1836 1319 1849
3 1621 576 1874
3 1686 1300 1804
3 580 1842 1875
3 791 793 1679
3 1724 1723 1944
3 974 1872 1931
3 1783 1784 1787
3 854 1622 1757
3 1622 854 1787
3 1233 1739 1888
3 1639 1758 1869
3 573 576 1621
3 590 856 1756
3 1900 1014 1904
3 1882 1761 1955
3 1300 1704 1804
3 1095 1197 1748
3 1872 1626 1931
3 1699 648 1896
3 1620 991 1811
3 1308 1813 1880
3 1094 1735 1950
3 1020 780 1848
3 661 657 1698
3 1620 1746 1815
3 1638 1639 1640
3 882 1770 1804
3 1206 1095 1748
3 910 891 1811
3 1113 916 1789
3 1243 1967 1974
3 678 676 1765
3 1117 962 1891
3 1869 1758 1947
3 1236 1907 1940
3 1921 1684 1949
3 944 1088 1853
3 755 958 1903
3 966 1190 1751
3 1715 1716 1717
3 1735 1814 1950
3 669 673 1909
3 767 765 1701
3 1750 1207 1916
3 1221 1722 1723
3 1876 1838 1914
3 1625 578 1702
3 772 774 1703
3 994 1300 1686
3 1701 765 1742
3 842 1679 1680
3 1106 1855 1953
3 1214 1887 1908
3 1189 1734 1863
3 875 1704 1820
3 1112 1114 1632
3 582 579 1625
3 1855 1731 1953
3 1086 952 1670
3 1217 1086 1670
3 1939 1724 1944
3 641 639 1709
3 676 697 1765
3 1229 1719 1865
3 653 1723 1933
3 1711 796 1801
3 1770 1685 1804
3 1012 1008 1685
3 1319 1117 1849
3 1682 800 1977
3 1702 578 1759
3 1209 1784 1844
3 1830 1214 1908
3 1223 1719 1720
3 830 1718 1737
3 654 1705 1707
3 1668 710 1714
3 710 1668 1715
3 1037 1227 1683
3 1647 1064 1648
3 1790 1767 1825
3 1194 1221 1741
3 671 686 1786
3 812 1790 1825
3 1868 1712 1918
3 892 855 1948
3 1736 1824 1892
3 845 1698 1922
3 881 879 1646
3 578 575 1759
3 811 797 1730
3 871 875 1820
3 1220 1223 1722
3 1124 1199 1934
3 1946 1087 1959
3 686 720 1786
3 1166 990 1880
3 1770 1890 1938
3 699 730 1794
3 1232 1107 1862
3 1691 1176 1832
3 890 1745 1746
3 1746 1620 1811
3 1177 1290 1925
3 1016 863 1843
3 1752 955 1878
3 1065 1064 1647
3 958 1697 1903
3 1824 1224 1892
3 803 799 1850
3 1725 955 1917
3 1210 1622 1787
3 1673 1711 1801
3 713 695 1677
3 1890 930 1938
3 1174 1195 1715
3 1633 1934 1938
3 1754 1646 1865
3 952 951 1670
3 904 1665 1666
3 1017 632 1873
3 797 784 1730
3 1718 1179 1737
3 1170 1085 1690
3 1668 1174 1715
3 1701 1291 1920
3 605 733 1740
3 1226 1667 1854
3 1700 1899 1900
3 1868 697 1910
3 1685 1686 1804
3 710 688 1714
3 1940 1111 1951
3 991 910 1811
3 799 905 1850
3 1111 1321 1951
3 1676 1902 1943
3 786 795 1771
3 1107 961 1862
3 1705 654 1755
3 1732 1020 1848
3 1646 879 1913
3 1054 1052 1769
3 1667 1226 1678
3 926 828 1856
3 865 1016 1645
3 1292 582 1320
3 863 586 1843
3 790 788 1640
3 1224 1824 1919
3 1213 1031 1733
3 1693 1096 1728
3 1774 691 1955
3 955 1725 1878
3 1173 1231 1713
3 1719 911 1720
3 995 998 1678
3 996 994 1686
3 591 590 1756
3 856 907 1894
3 1221 1724 1741
3 1683 1227 1684
3 1676 620 1798
3 1634 1007 1636
3 769 796 1711
3 1209 1210 1787
3 1052 1118 1769
3 870 871 1820
3 1941 1017 1942
3 688 700 1714
3 1221 1723 1724
3 1035 1037 1683
3 1181 1179 1718
3 911 909 1877
3 1320 582 1625
3 619 624 1736
3 1736 624 1776
3 1700 1699 1896
3 631 633 1749
3 965 857 1886
3 1101 973 1881
3 1115 1194 1741
3 1204 1819 1922
3 639 654 1709
3 773 1011 1689
3 1618 1620 1815
3 654 1707 1709
3 1098 1216 1743
3 1796 1797 1953
3 1750 1897 1912
3 694 1962 1964
3 1226 1854 1864
3 976 698 1710
3 1786 720 1834
3 816 1639 1869
3 1678 998 1806
3 825 822 1879
3 868 872 1864
3 664 1013 1763
3 913 991 1690
3 1672 1635 1829
3 750 830 1737
3 1687 1108 1688
3 1715 1195 1716
3 1680 1679 1682
3 1204 1900 1904
3 758 854 1757
3 805 787 1747
3 1085 915 1690
3 948 1007 1634
3 906 1684 1921
3 950 1775 1863
3 1673 1011 1711
3 916 896 1789
3 774 776 1773
3 1238 1130 1242
3 1175 1173 1713
3 1709 1707 1734
3 1836 895 1932
3 756 758 1757
3 762 806 1783
3 1109 1108 1687
3 600 603 1738
3 828 811 1856
3 859 861 1845
3 1952 1237 1970
3 887 1753 1788
3 1758 1637 1853
3 930 1633 1938
3 1618 1815 1870
3 856 855 892
3 721 699 1794
3 862 1666 1791
3 959 917 990
3 1716 1195 1919
3 1131 1130 1238
3 1190 1269 1306
3 1222 1754 1865
3 604 609 1768
3 1665 1309 1842
3 1723 1722 1933
3 720 722 1834
3 801 803 804
3 1164 1086 1217
3 1218 1104 1893
3 775 773 1689
3 884 887 1788
3 1025 1213 1866
3 829 925 1790
3 854 1783 1787
3 1189 663 1792
3 698 685 1710
3 1025 1031 1213
3 615 1019 1808
3 1027 642 1799
3 703 702 1777
3 760 762 1783
3 842 1680 1681
3 1031 1033 1733
3 710 1715 1717
3 1002 1000 1003
3 643 1772 1831
3 771 769 1711
3 891 890 1811
3 1274 1236 1275
3 1305 1623 1624
3 829 923 924
3 1698 657 1699
3 1055 1054 1056
3 1632 1963 1965
3 603 605 1740
3 812 829 1790
3 844 902 1817
3 945 944 946
3 1114 1115 1304
3 1194 1193 1219
3 577 575 578
3 671 685 686
3 742 713 743
3 850 849 963
3 862 864 1666
3 902 1099 1817
3 1108 1098 1743
3 1621 1893 1925
3 1785 1885 1926
3 589 592 1835
3 763 820 1742
3 909 910 912
3 1042 1043 1125
3 1219 1193 1753
3 1687 1923 1929
3 1721 1720 1841
3 1244 1245 1246
3 781 778 1669
3 1640 788 1771
3 948 946 1007
3 1014 1786 1904
3 1100 1233 1234
3 1223 1721 1722
3 598 600 1738
3 1896 659 1899
3 750 752 830
3 1114 1305 1632
3 1636 1637 1638
3 642 629 1799
3 727 726 735
3 759 757 975
3 1725 1726 1878
3 593 594 595
3 1770 882 1890
3 907 1095 1206
3 1201 596 1617
3 590 588 855
3 595 594 597
3 641 1709 1792
3 1205 707 1752
3 793 798 800
3 1100 1085 1169
3 1137 1236 1274
3 581 583 584
3 584 585 586
3 675 693 1807
3 824 826 827
3 874 873 877
3 975 1903 1911
3 1712 1102 1918
3 787 786 788
3 867 1645 1745
3 927 924 972
3 1176 976 1832
3 1165 990 1166
3 1303 1027 1307
3 1216 1691 1832
3 672 668 1803
3 680 682 1717
3 929 836 980
3 890 873 1745
3 908 909 911
3 1115 1193 1194
3 1183 1186 1187
3 626 625 627
3 630 638 1776
3 643 641 644
3 730 1311 1794
3 748 750 1737
3 949 948 951
3 1005 1105 1806
3 1232 1868 1910
3 1760 1727 1761
3 1731 1855 1856
3 1735 1320 1814
3 860 620 1676
3 674 1189 1775
3 819 813 1766
3 842 1681 1747
3 851 850 852
3 875 876 878
3 919 965 979
3 999 996 1008
3 1005 1004 1010
3 731 739 858
3 782 781 786
3 795 781 1669
3 816 790 1640
3 902 1097 1098
3 1235 1101 1241
3 1246 1245 1293
3 1639 1637 1758
3 949 952 953
3 951 1634 1635
3 1099 1172 1817
3 1635 1634 1829
3 639 637 654
3 658 657 661
3 662 661 668
3 743 713 1677
3 834 819 1766
3 826 831 835
3 942 915 973
3 959 1089 1163
3 1186 1188 1273
3 668 845 1803
3 693 705 1807
3 779 778 781
3 907 1093 1095
3 1630 1629 1631
3 715 736 1800
3 784 1020 1730
3 824 822 825
3 1105 1218 1301
3 1712 1232 1862
3 600 601 602
3 741 713 742
3 959 990 1089
3 1197 1626 1627
3 607 610 1760
3 681 666 1762
3 1191 703 1777
3 1207 749 1833
3 768 767 769
3 787 789 1747
3 872 1226 1864
3 877 873 890
3 968 926 969
3 947 948 949
3 595 597 598
3 610 612 1727
3 643 644 655
3 655 656 666
3 793 800 1679
3 862 863 864
3 898 1694 1755
3 925 927 977
3 1047 1048 1049
3 1185 1181 1718
3 1694 1693 1695
3 1694 1705 1755
3 596 593 1810
3 692 674 1775
3 690 678 847
3 702 731 1777
3 776 780 783
3 812 828 829
3 887 881 1646
3 883 884 885
3 908 891 909
3 1195 1175 1224
3 1014 671 1786
3 779 781 782
3 861 944 945
3 1057 1056 1058
3 1100 1169 1233
3 1636 1638 1641
3 855 588 1884
3 613 614 615
3 845 661 1698
3 793 794 798
3 815 814 821
3 919 857 965
3 902 901 1097
3 1307 1027 1799
3 1315 1102 1712
3 1168 1103 1256
3 1190 1306 1633
3 601 620 859
3 623 618 1823
3 622 621 625
3 772 773 774
3 789 790 791
3 798 799 801
3 867 865 1645
3 968 969 1047
3 1041 1064 1065
3 1049 1050 1051
3 1128 1058 1129
3 1211 1065 1647
3 1194 1220 1221
3 1308 1310 1813
3 610 1727 1760
3 632 635 1873
3 1765 697 1868
3 818 813 819
3 917 825 1879
3 1061 843 1062
3 1062 843 1179
3 1018 860 1676
3 997 996 999
3 1005 1104 1105
3 1230 1175 1713
3 1761 1727 1774
3 607 608 610
3 622 691 1774
3 628 627 631
3 628 632 1017
3 950 704 1775
3 764 763 765
3 791 790 792
3 793 792 794
3 956 832 957
3 878 880 882
3 1224 1175 1230
3 1201 1617 1618
3 733 607 1760
3 693 692 702
3 694 695 712
3 826 825 831
3 900 1096 1693
3 951 948 1634
3 953 952 954
3 995 996 997
3 1242 1130 1812
3 1743 1216 1889
3 1344 1247 1406
3 589 588 590
3 656 644 663
3 1802 660 1851
3 664 663 674
3 690 847 848
3 776 777 780
3 785 784 797
3 945 947 1200
3 1169 1085 1170
3 1183 1181 1185
3 1204 1203 1819
3 1205 1752 1878
3 1319 1836 1932
3 609 602 1729
3 637 636 1755
3 651 652 653
3 785 797 802
3 985 840 986
3 1179 843 1737
3 871 874 875
3 1696 1697 1897
3 581 579 582
3 583 582 1292
3 650 648 1699
3 673 672 676
3 686 685 698
3 717 718 719
3 824 825 826
3 844 901 902
3 848 850 851
3 864 865 866
3 942 1101 1119
3 944 943 1088
3 973 1100 1881
3 1731 1020 1732
3 1241 1101 1881
3 1631 1846 1869
3 1019 619 1736
3 638 637 639
3 1744 653 1933
3 687 678 690
3 903 735 932
3 754 755 756
3 770 769 771
3 905 794 1846
3 861 945 1845
3 872 870 992
3 993 992 994
3 1037 1038 1039
3 1125 1043 1137
3 1209 1065 1210
3 1090 1766 1767
3 1119 1235 1239
3 1180 1179 1181
3 1182 1181 1183
3 702 692 704
3 724 701 725
3 715 714 736
3 717 955 1752
3 747 740 748
3 764 765 766
3 1783 806 1784
3 833 834 918
3 878 879 880
3 966 1042 1074
3 1636 1007 1637
3 1199 1012 1685
3 1031 1032 1033
3 1039 1038 1040
3 587 589 1835
3 649 648 650
3 668 661 845
3 722 728 729
3 792 790 816
3 799 794 905
3 973 915 1085
3 979 1077 1138
3 1173 1109 1231
3 1197 1628 1748
3 1707 1708 1734
3 1611 572 1925
3 584 862 1791
3 915 913 1690
3 976 1710 1832
3 999 1008 1009
3 1120 1054 1769
3 1210 1065 1211
3 1859 1688 1905
3 598 597 599
3 601 859 1729
3 610 608 611
3 640 641 643
3 655 644 656
3 674 663 1189
3 664 675 1013
3 675 692 693
3 677 678 687
3 682 681 683
3 682 688 710
3 694 687 695
3 700 689 701
3 758 760 854
3 770 771 772
3 808 803 817
3 821 974 1308
3 866 865 867
3 888 966 1751
3 914 915 942
3 942 973 1101
3 954 952 1086
3 1029 1024 1192
3 1231 1109 1687
3 1114 1304 1305
3 1174 1173 1175
3 1197 1196 1626
3 624 630 1776
3 665 667 671
3 671 667 685
3 712 741 744
3 718 715 1800
3 722 729 960
3 762 761 763
3 763 761 820
3 770 772 810
3 914 913 915
3 1025 957 1026
3 1025 1026 1031
3 1099 1109 1172
3 1119 1240 1857
3 1169 1170 1616
3 1197 1627 1628
3 1220 1219 1222
3 577 579 580
3 603 602 604
3 720 699 721
3 815 822 823
3 815 823 1692
3 918 834 964
3 875 874 876
3 877 891 908
3 885 884 886
3 898 1693 1694
3 1111 916 1112
3 949 953 1837
3 1167 1642 1643
3 1223 1222 1719
3 1235 1241 1674
3 1667 1301 1854
3 1708 1706 1750
3 1743 1889 1905
3 1767 1766 1825
3 611 608 1809
3 682 683 688
3 719 737 738
3 748 740 749
3 812 811 828
3 831 917 959
3 872 993 1226
3 883 881 884
3 897 916 1111
3 993 995 1678
3 1111 1112 1321
3 1618 1619 1620
3 598 599 600
3 1015 598 1738
3 608 606 1198
3 815 821 822
3 889 896 897
3 897 896 916
3 953 954 962
3 998 1000 1001
3 1061 1062 1253
3 1193 1113 1789
3 1739 1233 1927
3 581 584 1791
3 584 586 862
3 631 627 633
3 634 631 1749
3 646 645 659
3 697 672 1803
3 847 678 1765
3 823 822 824
3 943 860 1018
3 964 1090 1091
3 1001 1002 1004
3 1023 1022 1024
3 1745 1645 1746
3 1703 1773 1839
3 604 602 609
3 730 698 976
3 884 881 887
3 1009 1008 1012
3 1033 1035 1225
3 1040 1038 1066
3 1062 1179 1180
3 1765 1868 1918
3 649 679 1793
3 783 780 784
3 1121 1012 1124
3 1037 1039 1227
3 1053 1054 1055
3 1053 1055 1059
3 1180 1181 1182
3 1628 1629 1630
3 602 601 1729
3 647 648 649
3 651 650 652
3 652 657 658
3 658 661 662
3 675 674 692
3 782 786 787
3 787 788 789
3 809 814 815
3 829 924 925
3 861 943 944
3 923 926 968
3 1051 1052 1053
3 1239 1235 1942
3 1676 1798 1902
3 630 629 636
3 649 650 651
3 652 650 657
3 656 663 664
3 960 729 961
3 756 755 757
3 772 771 773
3 1057 1058 1128
3 1210 1215 1622
3 1671 1673 1801
3 1726 1860 1878
3 624 623 629
3 677 676 678
3 712 713 741
3 719 718 737
3 731 858 1777
3 788 786 1771
3 871 869 873
3 1005 1010 1104
3 1024 1022 1818
3 1061 1253 1254
3 1174 1175 1195
3 1183 1185 1186
3 1210 1211 1215
3 593 591 594
3 592 596 1201
3 619 618 623
3 651 653 1744
3 717 715 718
3 739 732 740
3 843 748 1737
3 762 763 764
3 818 819 832
3 951 1635 1670
3 1192 1212 1316
3 1314 1313 1612
3 1725 1317 1726
3 613 611 614
3 699 698 730
3 731 704 732
3 705 706 707
3 707 708 709
3 932 735 933
3 748 749 750
3 758 757 759
3 766 765 767
3 777 775 778
3 776 783 1773
3 777 778 779
3 782 787 805
3 902 1098 1099
3 1033 1034 1035
3 1033 1225 1733
3 1035 1036 1037
3 1167 1291 1642
3 1694 1695 1696
3 1694 1696 1705
3 747 843 1061
3 776 775 777
3 903 932 935
3 931 918 970
3 949 951 952
3 993 994 995
3 1254 1253 1345
3 1705 1706 1707
3 589 590 591
3 626 627 628
3 654 637 1755
3 638 639 640
3 638 899 1776
3 656 664 1763
3 680 666 681
3 676 672 697
3 682 710 1717
3 688 683 689
3 685 734 1710
3 704 692 1775
3 693 702 703
3 705 703 706
3 732 704 950
3 707 706 708
3 727 735 903
3 783 784 785
3 1090 834 1766
3 839 984 1608
3 889 886 896
3 900 1027 1028
3 1665 904 1854
3 941 940 1044
3 963 1103 1168
3 1023 1024 1029
3 1028 1027 1303
3 1099 1108 1109
3 1688 1108 1743
3 1172 1109 1173
3 1311 1110 1312
3 630 637 638
3 636 898 1755
3 640 639 641
3 898 642 900
3 665 660 667
3 702 704 731
3 706 703 1191
3 737 718 893
3 724 726 727
3 728 857 919
3 961 729 967
3 731 732 739
3 754 756 922
3 796 767 1701
3 810 772 1703
3 784 780 1020
3 1685 1008 1686
3 1225 1683 1901
3 612 611 613
3 612 617 1727
3 895 614 1809
3 625 621 846
3 700 701 723
3 725 701 1822
3 722 721 728
3 730 976 1110
3 780 777 1848
3 818 832 956
3 872 992 993
3 894 940 941
3 894 941 1046
3 956 957 1025
3 979 1138 1139
3 1226 993 1678
3 612 613 616
3 615 619 1019
3 662 669 670
3 686 699 720
3 717 719 955
3 728 721 857
3 769 767 796
3 804 803 808
3 809 808 814
3 865 863 1016
3 1041 1040 1064
3 610 611 612
3 614 611 1809
3 638 640 899
3 662 668 669
3 789 788 790
3 888 920 966
3 1044 940 1045
3 1137 1043 1236
3 1105 1104 1218
3 1112 1113 1114
3 1176 1691 1887
3 1254 1345 1346
3 1671 1672 1673
3 1673 1672 1675
3 577 578 579
3 580 579 581
3 664 674 675
3 685 667 734
3 709 715 717
3 720 721 722
3 742 743 745
3 802 818 1840
3 804 808 809
3 1095 1196 1197
3 1228 1117 1319
3 632 631 634
3 635 634 645
3 747 748 843
3 754 753 755
3 774 773 775
3 774 775 776
3 807 797 811
3 833 918 931
3 848 849 850
3 898 900 1693
3 1112 916 1113
3 925 977 1302
3 1735 1094 1948
3 1172 1173 1174
3 1805 1316 1917
3 1643 1642 1644
3 684 681 1762
3 705 707 1205
3 707 709 1752
3 760 759 761
3 964 834 1090
3 984 840 985
3 853 928 982
3 1203 1107 1232
3 1807 1205 1860
3 615 614 618
3 680 681 682
3 709 708 714
3 739 747 1816
3 750 749 751
3 848 847 849
3 928 852 939
3 885 886 888
3 1004 1002 1006
3 1087 1086 1164
3 1103 1102 1315
3 1276 1275 1313
3 601 599 620
3 612 616 617
3 617 621 622
3 859 620 860
3 622 625 626
3 649 651 679
3 712 695 713
3 737 893 894
3 798 794 799
3 802 797 807
3 851 853 1092
3 861 860 943
3 1093 892 1094
3 925 924 927
3 954 1086 1087
3 1172 1174 1668
3 624 629 630
3 628 631 632
3 635 645 646
3 677 687 694
3 739 740 747
3 786 781 795
3 783 785 1208
3 802 813 818
3 947 946 948
3 1015 1738 1739
3 1192 1024 1212
3 1033 1032 1034
3 1056 1054 1120
3 1167 1164 1291
3 587 588 589
3 592 591 593
3 597 594 1318
3 595 598 1015
3 647 646 648
3 714 708 716
3 709 714 715
3 724 725 726
3 726 725 746
3 747 1061 1816
3 750 751 752
3 877 890 891
3 1077 965 1078
3 1110 976 1176
3 1124 1012 1199
3 1049 1051 1326
3 1052 1050 1118
3 1119 1101 1235
3 1860 1205 1878
3 1316 1212 1317
3 592 593 596
3 615 618 619
3 693 703 705
3 723 701 724
3 727 1214 1830
3 730 1110 1311
3 758 759 760
3 880 881 883
3 1225 1035 1683
3 1322 1946 1959
3 1698 1699 1700
3 581 582 583
3 584 583 585
3 586 585 587
3 655 666 680
3 688 689 700
3 700 844 1714
3 893 718 1800
3 857 721 1794
3 768 769 770
3 807 811 812
3 883 885 930
3 945 946 947
3 1308 974 1310
3 1216 1097 1691
3 1695 1693 1728
3 580 581 1791
3 700 723 844
3 789 791 842
3 831 825 917
3 856 892 907
3 859 860 861
3 864 866 904
3 907 892 1093
3 913 910 991
3 912 913 914
3 912 914 1021
3 942 1119 1857
3 1055 1056 1057
3 1095 1093 1196
3 1618 1617 1619
3 1696 1695 1697
3 862 586 863
3 608 1198 1809
3 636 629 642
3 659 645 660
3 665 671 1014
3 727 903 1214
3 745 743 836
3 746 1022 1023
3 751 749 1207
3 864 863 865
3 864 904 1666
3 871 873 874
3 880 879 881
3 1089 990 1165
3 1001 1004 1005
3 1212 1024 1818
3 1041 1209 1844
3 1863 1708 1916
3 605 604 606
3 752 751 753
3 833 819 834
3 877 908 1867
3 909 891 910
3 900 1028 1096
3 908 911 1229
3 1037 1036 1038
3 1116 1117 1228
3 1220 1222 1223
3 576 575 577
3 659 660 665
3 804 809 841
3 878 876 879
3 1021 1841 1877
3 1705 1696 1706
3 851 852 853
3 888 889 920
3 998 997 1000
3 1671 1635 1672
3 587 585 588
3 1013 675 1807
3 1871 684 1895
3 868 870 872
3 963 1102 1103
3 994 992 1300
3 1202 1203 1204
3 1216 1832 1889
3 630 636 637
3 632 634 635
3 801 799 803
3 866 867 868
3 1047 969 1048
3 635 646 647
3 683 681 684
3 765 763 1742
3 857 1794 1886
3 1847 1732 1848
3 619 623 624
3 701 689 1822
3 844 723 901
3 979 965 1077
3 1009 1121 1122
3 1051 1050 1052
3 575 574 1759
3 600 599 601
3 1799 623 1823
3 669 668 672
3 673 676 677
3 705 1205 1807
3 745 836 929
3 802 807 813
3 832 819 833
3 1039 1040 1041
3 1039 1041 1844
3 1638 1637 1639
3 1831 1716 1919
3 679 651 1744
3 669 672 673
3 1022 725 1822
3 756 757 758
3 922 756 1757
3 1669 778 1689
3 622 626 691
3 752 753 754
3 760 761 762
3 854 760 1783
3 791 792 793
3 1001 1000 1002
3 1009 1012 1121
3 1053 1052 1054
3 1702 1165 1956
3 607 606 608
3 709 717 1752
3 762 764 806
3 766 767 768
3 894 893 940
3 912 910 913
3 966 920 1042
3 953 962 1116
3 1114 1113 1115
3 1707 1706 1708
3 618 895 1823
3 829 828 923
3 963 849 1102
3 1194 1219 1220
3 1316 1317 1725
3 1736 1776 1824
3 1036 1034 1258
3 1962 1624 1964
3 636 642 898
3 733 1883 1888
3 773 771 1011
3 1035 1034 1036
3 1186 1185 1188
3 1303 1307 1849
3 605 607 733
3 617 616 621
3 900 642 1027
3 686 698 699
3 746 725 1022
3 1115 1113 1193
3 1125 1247 1344
3 1192 1316 1805
3 618 614 895
3 625 846 1764
3 745 929 938
3 817 803 1850
3 1714 844 1817
3 987 986 988
3 1307 1799 1823
3 1821 684 1871
3 945 1200 1845
3 973 1085 1100
3 1031 1026 1032
3 1099 1098 1108
3 1201 1618 1870
3 643 655 1772
3 853 852 928
3 1116 962 1117
3 1098 1097 1216
3 1244 1243 1245
3 605 606 607
3 818 956 1840
3 980 836 1171
3 960 961 1107
3 1129 1130 1131
3 590 855 856
3 603 604 605
3 789 842 1747
3 927 972 978
3 985 987 989
3 1674 1941 1942
3 755 753 958
3 947 949 1837
3 1838 1228 1914
3 600 602 603
3 1762 666 1763
3 1855 926 1856
3 1200 1838 1876
3 1305 1304 1623
3 946 944 1853
3 985 986 987
3 1819 1203 1910
3 585 583 1884
3 593 595 1810
3 974 814 1872
3 1057 1128 1134
3 1061 1254 1816
3 1119 1239 1240
3 573 574 575
3 589 591 592
3 733 1760 1883
3 766 768 906
3 794 792 1846
3 868 869 870
3 1042 920 1043
3 1088 1915 1947
3 1625 1702 1956
3 588 585 1884
3 1923 633 1929
3 663 644 1792
3 1048 969 1106
3 995 994 996
3 1087 1164 1167
3 1166 1813 1814
3 1172 1668 1817
3 1821 1818 1822
3 1818 1821 1871
3 1021 914 1857
3 1818 1022 1822
3 1129 1058 1130
3 1301 1218 1309
3 629 623 1799
3 866 868 1864
3 868 867 869
3 874 877 1867
3 1746 1645 1815
3 1688 1859 1923
3 822 821 1879
3 888 886 889
3 1202 1107 1203
3 597 1318 1798
3 684 1762 1895
3 858 739 1816
3 870 869 871
3 897 1111 1940
3 1028 1303 1322
3 1105 1301 1667
3 1304 1115 1741
3 1303 1849 1891
3 1636 1641 1829
3 1668 1714 1817
3 744 741 921
3 757 755 1903
3 890 1746 1811
3 995 997 998
3 1238 1242 1323
3 1246 1293 1294
3 1666 1665 1842
3 960 1107 1202
3 1078 965 1886
3 1104 1010 1177
3 1177 1010 1178
3 574 571 1609
3 573 575 576
3 785 802 1840
3 908 1229 1867
3 1730 1020 1731
3 1177 1178 1290
3 1301 1309 1665
3 1854 904 1864
3 930 885 1751
3 1041 1065 1209
3 1131 1238 1243
3 662 670 1939
3 1852 1826 1901
3 820 761 1828
3 1861 1310 1931
3 620 599 1798
3 670 1623 1937
3 1131 1243 1244
3 901 723 1830
3 1895 1762 1898
3 689 1821 1822
3 1670 1635 1671
3 666 656 1763
3 680 1717 1772
3 1163 1089 1237
3 1839 1208 1866
3 1634 1636 1829
3 613 615 1808
3 821 1308 1879
3 749 740 1833
3 1199 1685 1770
3 783 1208 1773
3 923 828 926
3 577 580 1875
3 770 810 1852
3 778 775 1689
3 1729 859 1845
3 901 1830 1908
3 1733 1225 1826
3 1125 1137 1247
3 592 1201 1835
3 886 884 1788
3 1292 1320 1735
3 1740 733 1888
3 846 1785 1926
3 1049 1048 1050
3 1841 1906 1936
3 839 840 984
3 907 1206 1894
3 1763 1013 1898
3 1116 1228 1838
3 1826 1225 1901
3 1237 1089 1970
3 606 604 1768
3 1749 633 1923
3 683 684 1821
3 1791 1666 1842
3 1011 771 1711
3 722 960 1834
3 814 808 1872
3 821 814 974
3 595 1015 1810
3 966 1074 1190
3 1309 1218 1874
3 810 1826 1852
3 992 870 1820
3 1645 1016 1815
3 1016 1843 1870
3 807 812 1825
3 1776 899 1824
3 960 1202 1834
3 633 627 1764
3 953 1116 1837
3 1203 1232 1910
3 1887 1691 1908
3 647 649 1793
3 1723 653 1944
3 740 732 1833
3 1208 785 1840
3 689 683 1821
3 1227 1039 1844
3 572 573 1621
3 1206 1748 1943
3 732 950 1833
3 1190 1074 1269
3 1200 947 1837
3 1207 1750 1912
3 846 621 1785
3 869 867 1745
3 1019 1736 1892
3 644 641 1792
3 1924 846 1926
3 1823 895 1836
3 1734 1708 1863
3 1815 1016 1870
3 1269 1074 1270
3 1738 603 1740
3 1889 734 1905
3 1100 1234 1881
3 1796 1795 1797
3 724 727 1830
3 1784 806 1949
3 1753 887 1754
3 1222 1219 1754
3 599 597 1798
3 805 1795 1796
3 1212 1818 1871
3 627 625 1764
3 660 645 1851
3 667 660 1802
3 1165 1166 1956
3 1196 1861 1931
3 1239 1928 1961
3 1966 1797 1973
3 1727 617 1774
3 1310 974 1931
3 1224 1230 1892
3 1760 1761 1883
3 1301 1665 1854
3 1307 1836 1849
3 1612 1313 1958
3 887 1646 1754
3 1628 1627 1629
3 1835 1201 1870
3 1793 679 1961
3 1231 1687 1929
3 876 874 1867
3 1307 1823 1836
3 1644 1957 1968
3 617 622 1774
3 719 738 1917
3 1766 813 1825
3 1276 1313 1314
3 723 724 1830
3 580 1791 1842
3 759 975 1828
3 792 816 1846
3 1013 1807 1860
3 1829 1641 1858
3 1232 1712 1868
3 1688 1743 1905
3 1808 1019 1885
3 1667 1678 1806
3 1762 1763 1898
3 1704 882 1804
3 1644 1828 1957
3 1317 1212 1871
3 896 886 1788
3 1903 1697 1911
3 609 1876 1914
3 1300 992 1820
3 1200 1837 1838
3 1845 1200 1876
3 1739 1740 1888
3 958 753 1912
3 1317 1871 1895
3 586 587 1843
3 697 1803 1910
3 1744 1933 1936
3 899 640 1831
3 734 667 1802
3 655 680 1772
3 738 1805 1917
3 1219 1753 1754
3 1885 1230 1926
3 808 817 1872
3 1087 1167 1959
3 1803 1819 1910
3 628 1017 1941
3 1769 1118 1969
3 648 646 1896
3 1322 1303 1891
3 811 1730 1856
3 896 1788 1789
3 1741 1724 1937
3 1730 1731 1856
3 640 643 1831
3 899 1831 1919
3 1794 1311 1886
3 1713 1231 1924
3 925 1302 1790
3 573 571 574
3 616 613 1808
3 621 616 1785
3 1302 1767 1790
3 1812 1120 1978
3 1859 1749 1923
3 1785 1808 1885
3 1198 606 1768
3 1802 1859 1905
3 634 1749 1851
3 645 634 1851
3 1309 1874 1875
3 583 1292 1884
3 646 659 1896
3 1236 1043 1907
3 975 757 1903
3 1008 996 1686
3 1637 1007 1853
3 806 764 1921
3 914 942 1857
3 768 770 1852
3 1208 1840 1866
3 694 712 1962
3 1118 1050 1966
3 1726 1895 1898
3 920 889 1907
3 1105 1667 1806
3 1630 1631 1947
3 1017 1873 1928
3 1768 609 1914
3 635 647 1873
3 1674 691 1941
3 1719 1222 1865
3 761 759 1828
3 1837 1116 1838
3 1230 1885 1892
3 1007 946 1853
3 1832 1710 1889
3 766 906 1921
3 824 827 1945
3 1013 1860 1898
3 1228 1319 1930
3 1623 1304 1937
3 1315 1712 1862
3 813 807 1825
3 1021 1857 1906
3 1207 1833 1916
3 885 888 1751
3 1274 1275 1276
3 875 878 1704
3 1739 1738 1740
3 609 1729 1876
3 1764 846 1924
3 1798 1318 1902
3 1785 616 1808
3 1857 1240 1906
3 1945 1293 1976
3 878 882 1704
3 1788 1753 1789
3 1241 1881 1882
3 657 650 1699
3 1726 1317 1895
3 751 1207 1912
3 906 1852 1901
3 1928 1239 1942
3 691 1674 1955
3 1802 1851 1859
3 810 1703 1827
3 1198 1930 1932
3 1630 1915 1935
3 904 866 1864
3 1310 1861 1950
3 1860 1726 1898
3 1043 920 1907
3 805 1747 1795
3 906 768 1852
3 962 954 1946
3 873 869 1745
3 1753 1193 1789
3 744 921 1965
3 1672 1829 1858
3 990 917 1880
3 1867 1229 1913
3 1104 1177 1893
3 1626 1196 1931
3 1213 1733 1827
3 855 1884 1948
3 1881 1234 1882
3 1624 1623 1909
3 1731 1732 1953
3 1732 1796 1953
3 1786 1834 1904
3 1879 1308 1880
3 1318 1756 1894
3 1675 1672 1858
3 1803 845 1819
3 1841 1021 1906
3 1713 1924 1926
3 1833 950 1916
3 782 805 1847
3 1196 1093 1861
3 1199 1770 1938
3 1710 734 1889
3 1106 969 1855
3 1747 1681 1795
3 753 751 1912
3 1958 1321 1965
3 1826 810 1827
3 895 1809 1932
3 950 1863 1916
3 1164 1217 1920
3 1631 1869 1947
3 1894 1206 1902
3 734 1802 1905
3 653 652 1944
3 955 719 1917
3 889 897 1907
3 1930 1319 1932
3 594 591 1756
3 691 626 1941
3 1698 1700 1922
3 1885 1019 1892
3 1906 1240 1954
3 1687 1688 1923
3 883 930 1890
3 969 926 1855
3 1291 1164 1920
3 1674 1241 1955
3 1322 1891 1946
3 1235 1674 1942
3 673 677 1964
3 777 779 1848
3 1275 1236 1940
3 1304 1741 1937
3 587 1835 1843
3 647 1793 1873
3 1093 1094 1861
3 804 841 1972
3 1843 1835 1870
3 1722 1721 1933
3 1318 594 1756
3 1321 1632 1965
3 1202 1204 1904
3 1824 899 1919
3 1951 1321 1958
3 879 876 1913
3 1809 1198 1932
3 1911 1728 1957
3 1729 1845 1876
3 1914 1228 1930
3 882 880 1890
3 1891 962 1946
3 779 782 1847
3 1706 1696 1897
3 1813 1310 1950
3 1744 1936 1954
3 1695 1728 1911
3 1840 956 1866
3 847 1765 1918
3 1198 1768 1930
3 1697 1695 1911
3 956 1025 1866
3 1018 1676 1943
3 1773 1208 1839
3 1230 1713 1926
3 1721 1841 1936
3 1728 1096 1968
3 1097 901 1908
3 917 1879 1880
3 849 847 1918
3 876 1867 1913
3 1899 1014 1900
3 1884 1292 1948
3 1750 1706 1897
3 764 766 1921
3 1900 1204 1922
3 1851 1749 1859
3 1102 849 1918
3 1768 1914 1930
3 633 1764 1929
3 1814 1813 1950
3 1915 1018 1935
3 1733 1826 1827
3 1924 1231 1929
3 909 912 1877
3 1106 1797 1966
3 1846 816 1869
3 1844 1784 1949
3 659 665 1899
3 779 1847 1848
3 1691 1097 1908
3 626 628 1941
3 1834 1202 1904
3 658 662 1939
3 1227 1844 1949
3 1628 1630 1935
3 1971 1682 1978
3 572 1621 1925
3 954 1087 1946
3 1313 1275 1951
3 1828 975 1957
3 1967 841 1974
3 572 571 573
3 1873 1793 1928
3 1935 1018 1943
3 975 1911 1957
3 1933 1721 1936
3 1700 1900 1922
3 569 572 1611
3 839 838 840
3 712 744 1962
3 880 883 1890
3 1318 1894 1902
3 1632 1305 1963
3 576 577 1875
3 1305 1624 1963
3 1275 1940 1951
3 1758 1088 1947
3 1764 1924 1929
3 665 1014 1899
3 1684 1227 1949
3 679 1744 1954
3 1909 673 1964
3 1233 1169 1927
3 1874 576 1875
3 1028 1322 1960
3 1748 1628 1935
3 677 694 1964
3 1241 1882 1955
3 652 658 1944
3 1861 1094 1950
3 1624 1909 1964
3 1320 1625 1956
3 912 1021 1877
3 1167 1643 1959
3 1096 1028 1960
3 658 1939 1944
3 1748 1935 1943
3 1292 1735 1948
3 1243 1238 1967
3 1169 1616 1927
3 1088 943 1915
3 1017 1928 1942
3 943 1018 1915
3 1240 1239 1961
3 1633 1306 1934
3 1313 1951 1958
3 1238 1323 1967
3 823 824 1945
3 1759 1952 1970
3 1954 1240 1961
3 1692 823 1976
3 1681 1969 1973
3 679 1954 1961
3 800 798 1975
3 1322 1959 1960
3 1048 1106 1966
3 1096 1960 1968
3 921 1958 1965
3 1245 1243 1974
3 1624 1962 1963
3 1050 1048 1966
3 841 1967 1972
3 1643 1644 1968
3 1960 1643 1968
3 1962 744 1963
3 1682 1977 1978
3 1120 1769 1971
3 1959 1643 1960
3 1702 1759 1970
3 801 804 1972
3 1759 574 1952
3 574 1609 1952
3 841 1692 1974
3 1681 1680 1969
3 800 1975 1977
3 1972 1323 1975
3 801 1972 1975
3 1680 1682 1971
3 798 801 1975
3 1293 1245 1976
3 1323 1242 1977
3 1769 1969 1971
3 1967 1323 1972
3 1797 1795 1973
3 1795 1681 1973
3 1975 1323 1977
3 1245 1974 1976
3 1969 1680 1971
3 1974 1692 1976
3 569 571 572
3 570 838 839
3 1242 1812 1978
3 1977 1242 1978
3 570 568 838
3 569 570 571
3 569 568 570
3 567 568 569
3 565 567 1607
3 567 566 568
3 565 566 567
3 566 564 696
3 563 565 711
3 565 564 566
3 563 564 565
3 563 562 564
3 936 561 1599
3 562 560 837
3 561 562 563
3 559 561 936
3 561 560 562
3 559 560 561
3 1068 1069 1070
3 1264 1123 1400
3 1155 556 1572
3 559 558 560
3 1262 1162 1592
3 557 558 559
3 558 556 1155
3 1191 1779 1780
3 1091 1090 1610
3 1215 1655 1980
3 1657 830 1981
3 1656 922 1980
3 1622 1215 1980
3 922 1757 1980
3 830 752 1981
3 754 922 1981
3 1383 1283 1384
3 1154 1261 1390
3 1261 1162 1262
3 1573 1160 1577
3 1371 1370 1578
3 752 754 1981
3 1757 1622 1980
3 1282 1283 1383
3 1161 1160 1573
3 1282 1161 1283
3 1080 1161 1282
3 988 986 1589
3 1080 1071 1160
3 1389 1414 1415
3 1577 1160 1979
3 1080 1160 1161
3 555 557 1063
3 557 556 558
3 1648 1064 1658
3 1146 1566 1587
3 1389 1365 1414
3 1070 1071 1079
3 1079 1071 1080
3 1370 1083 1986
3 1070 1069 1071
3 1342 1343 1428
3 1782 858 1816
3 1388 1365 1389
3 1364 1362 1365
3 1162 1091 1610
3 1154 1162 1261
3 1364 1365 1388
3 1369 1370 1371
3 894 1046 1983
3 738 737 1983
3 1363 1364 1520
3 1343 1478 1479
3 1069 988 1589
3 1363 1362 1364
3 1146 1288 1566
3 1489 1490 1503
3 1370 1986 1987
3 738 1983 1987
3 1288 1250 1289
3 1779 1778 1991
3 1601 1266 2008
3 1461 1459 1462
3 706 1191 1780
3 1578 1370 1987
3 1068 988 1069
3 1489 1255 1490
3 178 183 2125
3 555 556 557
3 1361 1362 1363
3 1357 1361 1368
3 737 894 1983
3 1144 1267 1378
3 1057 1134 1600
3 1455 1453 1480
3 1029 1192 1986
3 557 559 1588
3 1612 921 1614
3 1983 1578 1987
3 1158 1255 1489
3 1354 1356 1357
3 1650 1651 1652
3 1361 1358 1362
3 1357 1368 1982
3 1343 1341 1478
3 4 12 2127
3 1149 1083 1369
3 1651 1648 1658
3 1154 1091 1162
3 1357 1358 1361
3 1570 837 2003
3 1452 1453 1455
3 1369 1083 1370
3 1122 1156 1568
3 1357 1356 1358
3 1352 1354 1982
3 1354 1355 1356
3 1518 1531 2024
3 1158 1159 1255
3 1287 1149 1580
3 957 832 1988
3 833 931 1988
3 1149 1369 1580
3 1342 1341 1343
3 1146 1250 1288
3 1600 1266 1601
3 1336 1337 1338
3 120 112 2146
3 1192 1805 1986
3 1354 1357 1982
3 1986 1805 1987
3 1447 1448 1449
3 92 98 2073
3 1805 738 1987
3 1354 1353 1355
3 1335 1336 1435
3 1182 1183 1538
3 1352 1353 1354
3 1997 1549 2006
3 1782 1346 1991
3 1059 1602 1606
3 1352 1351 1353
3 933 735 1575
3 99 94 2089
3 1158 1157 1159
3 1450 1452 1454
3 61 54 2137
3 2067 109 2243
3 1081 1141 1259
3 1992 27 2198
3 555 554 556
3 1452 1451 1453
3 1650 1648 1651
3 234 241 2093
3 1336 1299 1337
3 1594 1677 1994
3 1593 1171 1996
3 1677 695 1994
3 687 690 1994
3 1092 1594 1995
3 690 848 1995
3 851 1092 1995
3 1171 836 1996
3 743 1677 1996
3 1145 1147 1536
3 1350 1351 1352
3 1350 1352 1989
3 1945 827 1997
3 1294 1293 1997
3 716 1781 2018
3 714 716 1998
3 1295 1297 2029
3 2212 453 2354
3 1270 1074 1571
3 1156 1157 1158
3 558 1155 2003
3 1437 1388 2404
3 837 560 2003
3 1337 1299 2006
3 1350 1349 1351
3 1348 1349 1350
3 1133 1132 1268
3 931 1985 1988
3 970 918 1551
3 893 1800 2007
3 1045 940 2007
3 1383 1385 2284
3 1156 1126 1157
3 1394 1436 2014
3 2321 2395 2411
3 2396 2322 2412
3 1136 1375 2001
3 1144 1470 1985
3 42 49 2158
3 1348 1350 1360
3 1159 1157 1576
3 1146 1145 1250
3 1401 1272 2035
3 1990 1288 1993
3 1566 1288 1990
3 1178 1010 2010
3 1004 1006 2010
3 832 833 1988
3 1360 1350 1989
3 1352 1982 1989
3 148 156 2145
3 195 190 2082
3 971 1142 1144
3 1076 970 1084
3 1460 1464 1574
3 1415 1414 2019
3 2259 498 2273
3 497 2261 2274
3 493 2265 2276
3 492 2266 2275
3 110 104 2143
3 1340 1341 1342
3 1288 1289 1993
3 1778 1782 1991
3 1469 1267 1999
3 695 687 1994
3 848 851 1995
3 836 743 1996
3 1134 1266 1600
3 34 39 2136
3 124 132 2121
3 1411 1127 1431
3 927 978 1586
3 1293 1945 1997
3 1298 1335 1382
3 146 140 2166
3 52 60 2133
3 736 714 1998
3 180 172 2098
3 14 8 2208
3 84 1456 2423
3 20 26 2094
3 1263 2000 2408
3 1450 1451 1452
3 560 558 2003
3 979 1139 2024
3 6 13 2195
3 219 214 2176
3 68 74 2132
3 987 1067 2021
3 1432 1433 2026
3 1070 1079 1081
3 1800 736 2025
3 736 2023 2025
3 206 200 2077
3 394 473 2209
3 940 893 2007
3 1251 1426 1492
3 1413 2180 2226
3 1530 933 1575
3 1384 1283 1529
3 1324 1325 1468
3 1296 1294 2006
3 1603 1601 2008
3 51 46 2118
3 1781 1989 2018
3 1269 1334 2034
3 1335 1299 1336
3 130 135 2122
3 1341 1338 2012
3 1281 2032 2046
3 1010 1004 2010
3 553 554 555
3 1458 1384 1488
3 1298 1299 1335
3 463 537 2193
3 1136 1075 1151
3 935 2001 2016
3 1409 1141 1467
3 147 142 2151
3 1368 1361 2023
3 12 2157 2281
3 736 1998 2023
3 1261 1262 1992
3 72 64 2120
3 963 1168 1521
3 1084 970 1551
3 978 1060 1132
3 1338 1337 2012
3 1558 1270 1571
3 2100 401 2101
3 2106 417 2107
3 1073 1127 1248
3 551 456 2407
3 2038 39 2364
3 1251 1150 1426
3 1250 1145 1536
3 1989 1982 2018
3 1075 937 1082
3 935 932 2001
3 133 126 2144
3 1147 1148 1329
3 937 933 1530
3 1147 1329 1421
3 1444 1445 1597
3 187 2049 2187
3 1263 1554 1555
3 132 124 2096
3 1136 1151 1374
3 2080 413 2308
3 425 2150 2310
3 1073 1248 1249
3 1379 1182 1538
3 935 1565 2039
3 50 1494 2071
3 1998 1368 2023
3 13 6 2159
3 1557 1295 2029
3 1544 1543 1545
3 291 292 2417
3 271 272 2418
3 1535 1315 2050
3 1379 2242 2267
3 1460 1459 1461
3 1330 1332 1404
3 1374 1376 2067
3 1404 1332 2228
3 1513 1517 1518
3 1136 1374 1375
3 1982 1368 2018
3 1531 919 2024
3 2044 2162 2423
3 903 935 2039
3 1887 1214 2039
3 1576 1157 2042
3 1299 1296 2006
3 205 1421 2319
3 1312 1110 2043
3 1176 1887 2043
3 1513 1514 1517
3 1565 1312 2043
3 76 84 2162
3 1400 1123 1472
3 1168 1483 1521
3 1122 1126 1156
3 1272 1438 1439
3 1440 13 2404
3 982 1145 1146
3 1330 1331 1332
3 2055 1560 2056
3 1467 1282 2185
3 1470 1378 1471
3 1081 1259 1260
3 1505 1256 1506
3 1452 1455 2048
3 1488 1384 1529
3 939 1483 2052
3 2145 1509 2380
3 1442 2235 2269
3 1178 1480 2223
3 1544 1546 1547
3 1361 1363 2023
3 133 2351 2383
3 110 2350 2382
3 479 370 2206
3 2023 1363 2025
3 961 967 2050
3 1315 1862 2050
3 1547 938 2032
3 1363 1520 2025
3 1662 1663 2340
3 1184 1381 1457
3 2008 1266 2214
3 1411 1431 1437
3 1490 1255 2009
3 1450 1448 1451
3 1560 1163 2056
3 919 979 2024
3 1555 1554 2011
3 981 1252 2046
3 2086 24 2403
3 218 2083 2402
3 2126 206 2401
3 1608 984 2056
3 1163 1237 2056
3 985 989 2055
3 150 149 2097
3 941 1044 1073
3 1298 1296 1299
3 929 981 2046
3 1134 1265 1266
3 1340 1338 1341
3 1366 1353 1475
3 13 1437 2404
3 2153 397 2321
3 409 2148 2322
3 1518 1517 1519
3 1402 1270 1558
3 1497 1496 1498
3 1249 1248 1405
3 1258 1533 2022
3 2001 1375 2016
3 458 547 2197
3 2235 2136 2269
3 1366 1476 1477
3 2044 77 2162
3 1498 1499 1500
3 1582 1583 1584
3 550 551 2339
3 111 2101 2244
3 134 2107 2246
3 938 929 2046
3 13 1440 2195
3 2325 444 2392
3 547 2008 2214
3 1306 1269 2034
3 1447 1449 2049
3 1327 1280 1482
3 133 1652 2320
3 2193 145 2241
3 1663 1660 1664
3 55 1527 2279
3 1148 983 2054
3 983 928 2054
3 1420 1159 1576
3 1423 1072 1465
3 1067 1277 2021
3 1588 936 2066
3 1355 1353 1366
3 240 2069 2273
3 2128 15 2275
3 2179 48 2276
3 2117 230 2274
3 928 939 2054
3 2180 170 2226
3 1214 903 2039
3 1331 1148 2054
3 1392 1394 2014
3 2033 231 2280
3 1285 1418 1425
3 1147 1421 1536
3 1110 1176 2043
3 1449 1448 1450
3 1282 1383 2185
3 1252 1281 2046
3 1144 1378 1470
3 1355 1366 1522
3 2270 1403 2357
3 1544 1545 1546
3 1500 1499 1537
3 1514 1567 2041
3 1652 1651 2196
3 1260 1259 1403
3 2186 2005 2227
3 29 1523 2426
3 1429 1143 1430
3 553 552 554
3 231 2078 2280
3 1386 1140 1432
3 405 2109 2110
3 421 2103 2104
3 549 457 2256
3 543 460 2257
3 2058 12 2281
3 1517 1514 2041
3 1422 553 1444
3 1429 1430 2225
3 1567 157 2041
3 349 449 503
3 346 448 502
3 357 453 501
3 430 451 500
3 452 352 500
3 450 431 502
3 455 428 501
3 454 429 503
3 1659 1661 2196
3 181 1999 2000
3 1157 1126 2042
3 1486 1485 2053
3 1454 1452 2048
3 1142 1076 1263
3 1440 1441 2027
3 141 140 2167
3 1862 961 2050
3 1394 1395 1396
3 1126 1264 2042
3 1526 1528 1556
3 1330 1148 1331
3 97 550 2339
3 1393 1391 2198
3 2129 37 2326
3 989 2051 2055
3 23 22 2070
3 1420 1576 2307
3 537 1576 2332
3 984 985 2055
3 1484 1347 2346
3 1469 173 2378
3 1248 1410 2057
3 192 184 2172
3 162 169 2169
3 73 66 2090
3 176 182 2114
3 86 80 2139
3 237 236 2178
3 159 154 2111
3 88 96 2165
3 58 63 2134
3 102 101 2095
3 1366 1475 1476
3 1237 1608 2056
3 1252 1279 1280
3 2047 1466 2229
3 179 178 2125
3 207 202 2116
3 210 217 2175
3 25 18 2085
3 38 32 2160
3 240 232 2069
3 224 230 2117
3 40 48 2179
3 10 15 2128
3 1381 2044 2423
3 2045 1284 2218
3 1342 1487 2230
3 142 147 2152
3 122 116 2147
3 112 120 2079
3 145 138 2149
3 711 1607 2223
3 1290 1178 2223
3 190 195 2154
3 152 158 2124
3 64 72 2131
3 97 90 2088
3 170 164 2081
3 78 85 2156
3 183 178 2076
3 60 52 2130
3 466 418 2374
3 406 469 2373
3 467 414 2375
3 471 402 2376
3 112 119 2146
3 93 92 2073
3 48 40 2164
3 15 10 2141
3 18 25 2084
3 217 210 2174
3 32 38 2142
3 232 240 2177
3 202 207 2068
3 230 224 2163
3 96 88 2092
3 169 162 2168
3 182 176 2113
3 66 73 2072
3 80 86 2135
3 184 192 2171
3 63 58 2138
3 154 159 2112
3 1401 2035 2220
3 1281 1280 1327
3 1441 1442 1443
3 2036 14 2208
3 231 226 2078
3 30 37 2129
3 49 42 2087
3 238 243 2155
3 200 206 2126
3 16 24 2086
3 218 212 2083
3 12 4 2157
3 111 106 2099
3 134 128 2105
3 128 134 2108
3 106 111 2102
3 1446 1588 2066
3 1451 1448 2066
3 22 21 2017
3 1429 123 2222
3 1654 1653 2234
3 1537 1499 2015
3 231 2011 2306
3 94 99 2293
3 56 62 2292
3 160 168 2291
3 174 181 2288
3 74 68 2290
3 87 82 2289
3 193 186 2287
3 156 148 2286
3 1389 1440 2404
3 542 543 2427
3 214 213 2176
3 2066 936 2215
3 1274 1276 2229
3 2110 134 2247
3 2104 111 2245
3 1252 1280 1281
3 422 464 2387
3 426 465 2388
3 410 468 2389
3 470 398 2390
3 1132 1271 2062
3 545 544 2345
3 36 28 2352
3 1398 1393 2198
3 540 541 2349
3 2166 1400 2356
3 62 1525 2324
3 1402 1558 2061
3 1264 1417 2042
3 345 484 528
3 348 485 529
3 356 489 531
3 486 354 532
3 488 351 530
3 359 487 533
3 490 363 534
3 491 361 535
3 454 503 2203
3 1272 1439 2035
3 2078 475 2280
3 51 2118 2119
3 91 90 2059
3 1381 1380 2044
3 1410 1411 2377
3 936 1599 2215
3 61 1580 2348
3 2000 1263 2325
3 1379 1538 2242
3 462 539 2341
3 1329 1148 1330
3 2283 440 2313
3 2014 1436 2391
3 166 165 2194
3 213 212 2065
3 1501 1500 2202
3 37 1534 2326
3 195 536 2388
3 158 538 2387
3 72 546 2389
3 550 97 2390
3 2191 2197 2214
3 24 2201 2403
3 2200 218 2402
3 206 2199 2401
3 227 2186 2227
3 1448 1446 2066
3 195 1420 2307
3 1472 1474 2356
3 1344 1406 2334
3 45 44 2071
3 1345 1456 2346
3 1332 1510 2228
3 1382 1335 2333
3 2011 1553 2186
3 2051 1560 2055
3 46 51 2298
3 8 14 2299
3 208 216 2303
3 26 20 2302
3 222 229 2301
3 39 34 2300
3 241 234 2305
3 204 196 2304
3 117 116 2020
3 1375 1374 2243
3 419 466 2115
3 415 467 2170
3 469 407 2140
3 468 411 2091
3 1569 1390 2415
3 1412 1340 2230
3 188 187 2187
3 2069 473 2273
3 475 2117 2274
3 478 2128 2275
3 479 2179 2276
3 399 470 2190
3 403 471 2189
3 541 461 2320
3 542 170 2375
3 85 544 2373
3 540 183 2374
3 548 60 2376
3 2215 1599 2232
3 1419 1403 2270
3 2009 1372 2060
3 49 2206 2393
3 2144 2371 2431
3 1461 1462 1463
3 243 238 552
3 1460 1574 2284
3 1491 1326 2207
3 98 2047 2229
3 2242 545 2267
3 165 164 2180
3 76 83 2040
3 2017 1398 2198
3 183 540 2349
3 2015 1499 2028
3 1580 1369 2348
3 1497 1498 2119
3 104 110 2382
3 126 133 2383
3 135 130 2385
3 108 100 2386
3 1451 2066 2215
3 70 69 2220
3 243 553 1422
3 1651 1659 2196
3 365 506 507
3 369 504 505
3 508 373 509
3 510 377 511
3 381 514 515
3 385 512 513
3 516 393 517
3 518 389 519
3 1999 1267 2408
3 544 85 2345
3 2206 370 2393
3 2261 387 2274
3 2265 371 2276
3 2266 367 2275
3 395 2259 2273
3 1456 1381 2423
3 1447 2049 2064
3 83 82 2053
3 1396 1395 1397
3 101 100 2074
3 1268 1132 2062
3 2074 1325 2335
3 1574 219 2284
3 2240 120 2257
3 429 327 432
3 431 322 436
3 352 323 438
3 428 326 434
3 55 54 2161
3 152 151 2075
3 2027 7 2195
3 2136 39 2269
3 5 4 2127
3 1449 1450 2421
3 1599 711 2232
3 1405 1248 2057
3 118 117 2222
3 221 1436 2328
3 94 93 2089
3 1543 2089 2370
3 54 53 2137
3 2037 1443 2038
3 1435 1413 2226
3 235 234 2093
3 1430 1434 2225
3 1268 2062 2063
3 43 42 2158
3 149 148 2145
3 190 189 2082
3 7 2027 2208
3 1277 1278 2221
3 104 103 2143
3 453 2212 2414
3 1501 2202 2203
3 2027 1441 2036
3 1265 1387 2191
3 35 34 2136
3 125 124 2121
3 1487 1277 2221
3 477 2129 2326
3 543 2226 2427
3 140 139 2166
3 53 52 2133
3 1453 1451 2215
3 172 179 2098
3 2299 14 2362
3 2298 51 2363
3 39 2300 2364
3 26 2302 2365
3 2301 229 2366
3 2303 216 2367
3 241 2305 2368
3 204 2304 2369
3 21 20 2094
3 220 227 2227
3 69 68 2132
3 200 199 2077
3 325 430 439
3 324 357 435
3 320 346 437
3 321 349 433
3 184 191 2172
3 163 162 2169
3 66 65 2090
3 177 176 2114
3 80 79 2139
3 46 45 2118
3 131 130 2122
3 24 2045 2218
3 503 449 2203
3 2061 1558 2334
3 211 210 2175
3 202 201 2116
3 18 17 2085
3 32 31 2160
3 1541 2234 2424
3 142 141 2151
3 1266 1265 2214
3 1330 1404 2268
3 143 142 2152
3 116 115 2147
3 191 190 2154
3 153 152 2124
3 65 64 2131
3 90 89 2088
3 64 71 2120
3 97 2088 2390
3 2131 72 2389
3 2154 195 2388
3 2124 158 2387
3 464 423 2188
3 160 167 2217
3 224 223 2163
3 1265 2191 2214
3 126 125 2144
3 208 215 2204
3 1387 1429 2416
3 58 57 2138
3 155 154 2112
3 124 131 2096
3 1284 1268 2218
3 1581 2137 2338
3 1525 1405 2324
3 1466 1274 2229
3 6 5 2159
3 1464 1461 2211
3 239 238 2155
3 201 200 2126
3 212 211 2083
3 17 16 2086
3 4 11 2157
3 129 128 2108
3 107 106 2102
3 1392 2014 2415
3 381 515 2295
3 2133 1583 2338
3 1382 2257 2355
3 549 2256 2282
3 1563 1375 2243
3 445 2270 2357
3 2197 122 2272
3 1584 1583 2216
3 77 76 2162
3 2000 1999 2408
3 28 35 2352
3 374 477 2326
3 1453 2215 2232
3 365 507 2312
3 369 505 2313
3 509 373 2314
3 511 377 2316
3 385 513 2315
3 517 393 2318
3 519 389 2317
3 390 472 2401
3 474 382 2402
3 378 476 2403
3 193 2064 2297
3 1324 1468 2258
3 1607 1290 2223
3 463 2193 2241
3 1538 1539 2242
3 478 366 2281
3 424 2311 2418
3 2309 412 2417
3 2157 478 2281
3 114 2409 2412
3 2410 136 2411
3 345 528 2362
3 348 529 2363
3 532 354 2364
3 359 533 2366
3 530 351 2365
3 356 531 2367
3 535 361 2369
3 534 363 2368
3 1576 2042 2332
3 2283 1482 2393
3 1259 1408 2210
3 170 542 2427
3 2038 1443 2269
3 1396 1397 1399
3 2062 1271 2205
3 2107 416 2246
3 2101 400 2244
3 2130 471 2376
3 2076 466 2374
3 469 2156 2373
3 2081 467 2375
3 2197 547 2214
3 7 6 2195
3 465 427 2173
3 2022 180 2340
3 2231 2094 2344
3 2064 2049 2297
3 1340 1342 2230
3 1492 50 2330
3 1498 1500 1501
3 60 2130 2376
3 170 2081 2375
3 2156 85 2373
3 183 2076 2374
3 1327 1482 2283
3 242 1572 2178
3 1480 1453 2232
3 1273 1654 2234
3 2291 168 2295
3 475 386 2280
3 1442 2019 2235
3 1511 1324 2258
3 2292 62 2312
3 2293 99 2313
3 87 2289 2314
3 74 2290 2316
3 2288 181 2315
3 193 2287 2318
3 156 2286 2317
3 8 7 2208
3 2027 2036 2208
3 366 2058 2281
3 1515 2075 2398
3 51 2119 2224
3 1395 1398 2231
3 2049 1449 2187
3 274 275 2248
3 255 256 2249
3 288 289 2252
3 307 308 2250
3 293 294 2253
3 312 313 2251
3 269 270 2254
3 250 251 2255
3 1408 1409 2381
3 194 2009 2060
3 1142 1263 2408
3 1403 1259 2210
3 243 1422 2209
3 2075 1515 2353
3 157 1567 2397
3 105 104 2382
3 127 126 2383
3 130 129 2385
3 100 107 2386
3 476 2086 2403
3 2083 474 2402
3 472 2126 2401
3 2031 1382 2355
3 49 1482 2296
3 2095 101 2335
3 448 2037 2277
3 1268 2063 2218
3 1435 2226 2333
3 154 153 2111
3 59 58 2134
3 89 88 2165
3 277 278 2259
3 258 259 2260
3 304 305 2261
3 315 316 2263
3 285 286 2262
3 296 297 2264
3 247 248 2266
3 266 267 2265
3 1471 1378 2419
3 232 239 2069
3 225 224 2117
3 11 10 2128
3 41 40 2179
3 113 112 2079
3 138 137 2149
3 178 177 2076
3 79 78 2156
3 164 163 2081
3 52 59 2130
3 1280 1279 2296
3 10 9 2141
3 40 47 2164
3 210 209 2174
3 33 32 2142
3 19 18 2084
3 203 202 2068
3 233 232 2177
3 1421 1329 2400
3 88 95 2092
3 81 80 2135
3 176 175 2113
3 162 161 2168
3 67 66 2072
3 185 184 2171
3 226 225 2078
3 31 30 2129
3 42 41 2087
3 2137 53 2338
3 106 105 2099
3 128 127 2105
3 1385 1460 2284
3 1441 1443 2036
3 1387 2020 2191
3 2205 74 2219
3 53 2133 2338
3 2320 461 2351
3 101 2074 2335
3 114 113 2409
3 137 136 2410
3 1545 1543 2370
3 136 143 2411
3 115 114 2412
3 1498 1501 2119
3 1440 2027 2195
3 2062 2205 2219
3 2257 120 2355
3 2132 74 2205
3 1399 1397 2192
3 1424 1419 2405
3 2014 228 2415
3 1380 1379 2267
3 404 2110 2247
3 420 2104 2245
3 1397 1395 2231
3 1539 2123 2242
3 1999 181 2429
3 2049 187 2297
3 2088 470 2390
3 468 2131 2389
3 464 2124 2387
3 77 2044 2327
3 472 391 2236
3 383 474 2237
3 477 375 2239
3 476 379 2238
3 1406 1407 2432
3 2036 1443 2037
3 243 552 553
3 2011 2186 2306
3 2094 26 2344
3 2063 2062 2219
3 1501 2203 2224
3 1413 1412 2372
3 2005 228 2227
3 2172 465 2173
3 502 448 2277
3 2267 2345 2361
3 2192 1397 2344
3 1376 1377 2413
3 2004 242 2359
3 1377 2002 2282
3 238 237 552
3 1334 1402 2360
3 27 2017 2198
3 2212 2213 2414
3 1462 2004 2358
3 2123 545 2242
3 1325 1386 2335
3 1386 2095 2335
3 2111 464 2188
3 148 155 2286
3 186 185 2287
3 161 160 2291
3 68 67 2290
3 175 174 2288
3 82 81 2289
3 95 94 2293
3 57 56 2292
3 2191 122 2197
3 1583 1581 2338
3 1429 2222 2416
3 47 46 2298
3 9 8 2299
3 223 222 2301
3 34 33 2300
3 20 19 2302
3 209 208 2303
3 196 203 2304
3 234 233 2305
3 446 2228 2317
3 129 2108 2109
3 107 2102 2103
3 2350 2100 2382
3 2351 2106 2383
3 443 2063 2219
3 1482 1280 2296
3 1396 1399 2329
3 450 2038 2364
3 2202 454 2203
3 141 2167 2360
3 146 2166 2356
3 352 438 2181
3 428 434 2182
3 431 436 2183
3 429 432 2184
3 192 2172 2173
3 1558 1344 2334
3 2213 241 2368
3 471 2134 2189
3 470 2165 2190
3 2008 547 2294
3 35 2136 2235
3 2256 110 2413
3 1335 1435 2333
3 2139 469 2140
3 466 2114 2115
3 467 2169 2170
3 2090 468 2091
3 2073 1545 2370
3 139 138 2285
3 1542 1327 2283
3 460 2240 2257
3 56 55 2279
3 1463 1462 2343
3 93 2073 2370
3 199 198 2319
3 2371 1650 2431
3 433 349 2184
3 435 357 2182
3 437 346 2183
3 439 430 2181
3 357 501 2182
3 430 500 2181
3 500 352 2181
3 349 503 2184
3 501 428 2182
3 346 502 2183
3 502 431 2183
3 503 429 2184
3 458 2197 2272
3 1461 1463 2211
3 1468 108 2341
3 2231 1398 2394
3 1567 1515 2398
3 450 502 2277
3 228 2014 2391
3 485 347 493
3 484 344 492
3 353 486 495
3 350 488 494
3 487 358 497
3 489 355 496
3 360 491 499
3 362 490 498
3 473 395 2273
3 387 475 2274
3 371 479 2276
3 367 478 2275
3 1663 2022 2340
3 2186 227 2306
3 1329 1330 2268
3 1267 1142 2408
3 2219 74 2316
3 501 453 2414
3 2035 75 2220
3 44 43 2330
3 71 70 2323
3 2203 449 2224
3 2099 105 2100
3 2105 127 2106
3 2211 1463 2212
3 1347 1345 2346
3 1373 2045 2420
3 2213 455 2414
3 5 2127 2377
3 528 2299 2362
3 529 2298 2363
3 2300 532 2364
3 2302 530 2365
3 531 2303 2367
3 533 2301 2366
3 2305 534 2368
3 2304 535 2369
3 1534 374 2326
3 35 2235 2352
3 2212 1463 2213
3 143 2152 2153
3 2147 115 2148
3 1390 1392 2415
3 1649 1650 2371
3 187 186 2297
3 2089 93 2370
3 465 2172 2433
3 2094 2231 2394
3 1369 1371 2348
3 2151 141 2360
3 515 2291 2295
3 2159 5 2377
3 227 226 2306
3 2020 122 2191
3 1515 1516 2353
3 222 221 2328
3 1443 1442 2269
3 507 2292 2312
3 505 2293 2313
3 2289 509 2314
3 2290 511 2316
3 513 2288 2315
3 2287 517 2318
3 2286 519 2317
3 455 501 2414
3 1650 1652 2431
3 1419 2270 2405
3 78 77 2327
3 1436 1396 2329
3 2270 168 2405
3 181 2000 2392
3 159 2111 2188
3 2103 2342 2386
3 1653 1649 2422
3 440 2283 2393
3 2378 180 2419
3 2202 204 2369
3 1279 1492 2379
3 1263 1555 2325
3 2065 1408 2381
3 2196 1661 2428
3 113 2079 2080
3 2149 137 2150
3 418 540 2374
3 544 406 2373
3 414 542 2375
3 402 548 2376
3 2037 2038 2277
3 206 2077 2268
3 2143 1376 2413
3 2042 1417 2332
3 111 2244 2245
3 134 2246 2247
3 2079 120 2240
3 145 2149 2241
3 1388 1389 2404
3 2354 453 2367
3 129 2109 2385
3 107 2103 2386
3 189 2060 2430
3 180 2098 2340
3 2019 36 2352
3 1402 2151 2360
3 1450 1454 2421
3 2100 105 2382
3 2106 127 2383
3 2119 1501 2224
3 2409 121 2412
3 144 2410 2411
3 1400 1472 2356
3 2233 135 2385
3 2345 85 2361
3 506 364 520
3 504 368 521
3 372 508 522
3 376 510 523
3 514 380 525
3 512 384 524
3 392 516 527
3 388 518 526
3 173 172 2378
3 236 235 2359
3 2200 445 2357
3 221 220 2391
3 119 118 2406
3 538 422 2387
3 536 426 2388
3 546 410 2389
3 398 550 2390
3 2244 400 2337
3 2246 416 2336
3 1380 2267 2361
3 151 150 2397
3 2044 1380 2361
3 443 2219 2316
3 2371 2121 2422
3 1417 2193 2332
3 2162 84 2423
3 158 2075 2353
3 43 2158 2379
3 49 2087 2206
3 2057 2058 2425
3 30 29 2426
3 2109 2233 2385
3 2193 537 2332
3 2038 450 2277
3 2342 108 2386
3 2109 2108 2110
3 2103 2102 2104
3 241 2213 2343
3 2099 2100 2101
3 2105 2106 2107
3 2311 2395 2418
3 2396 2309 2417
3 2152 147 2271
3 122 2147 2272
3 2146 2031 2355
3 174 173 2429
3 51 2224 2363
3 2165 96 2190
3 2134 63 2189
3 2155 243 2209
3 2154 2388 2433
3 2167 1334 2360
3 229 2328 2329
3 168 2270 2295
3 143 2153 2411
3 2148 115 2412
3 2395 396 2418
3 408 2396 2417
3 2097 149 2380
3 1378 1469 2419
3 2341 108 2342
3 133 2144 2431
3 113 2080 2409
3 2150 137 2410
3 2169 169 2170
3 2114 182 2115
3 73 2090 2091
3 86 2139 2140
3 455 2213 2368
3 2158 49 2296
3 1412 2194 2372
3 23 2070 2420
3 2278 158 2353
3 1407 2059 2432
3 2017 21 2394
3 216 2354 2367
3 2116 472 2236
3 474 2175 2237
3 2160 477 2239
3 2085 476 2238
3 2060 1372 2430
3 207 2116 2236
3 2175 217 2237
3 25 2085 2238
3 38 2160 2239
3 2058 441 2425
3 117 2020 2416
3 1398 2017 2394
3 2213 1463 2343
3 85 2327 2361
3 2020 1387 2416
3 1403 2210 2357
3 179 2125 2399
3 2330 43 2379
3 1397 2231 2344
3 2311 144 2395
3 121 2309 2396
3 21 2094 2394
3 235 2093 2358
3 2315 181 2392
3 2176 213 2381
3 1649 2371 2422
3 2194 165 2372
3 2224 449 2363
3 213 2065 2381
3 2312 62 2324
3 45 2071 2384
3 1469 2378 2419
3 147 2061 2407
3 2093 241 2343
3 165 2180 2372
3 2222 117 2416
3 2211 2212 2354
3 541 2196 2428
3 2125 183 2331
3 1405 2057 2425
3 149 2145 2380
3 120 2146 2355
3 2199 390 2401
3 382 2200 2402
3 2201 378 2403
3 2118 45 2384
3 2267 545 2345
3 2075 151 2398
3 2098 179 2399
3 2226 170 2427
3 1409 2176 2381
3 2327 2044 2361
3 2247 2246 2336
3 2245 2244 2337
3 2388 465 2433
3 2070 1373 2420
3 2180 1413 2372
3 1516 2278 2353
3 87 2314 2347
3 2328 1436 2329
3 2270 445 2295
3 2234 132 2424
3 404 2247 2336
3 420 2245 2337
3 2077 199 2400
3 2082 189 2430
3 462 2341 2342
3 441 2312 2324
3 454 2202 2369
3 2235 2019 2352
3 168 2217 2405
3 2308 412 2309
3 424 2310 2311
3 2331 183 2349
3 2314 442 2347
3 110 2143 2413
3 2324 1405 2425
3 2000 2325 2392
3 2217 1424 2405
3 2172 191 2433
3 191 2154 2433
3 2059 97 2432
3 2271 147 2407
3 2321 396 2395
3 408 2322 2396
3 441 2324 2425
3 2121 132 2422
3 132 2096 2424
3 2331 2349 2428
3 1661 2331 2428
3 199 2319 2400
3 235 2358 2359
3 151 2397 2398
3 444 2315 2392
3 1492 2330 2379
3 2339 1406 2432
3 97 2339 2432
3 2349 541 2428
3 456 2271 2407
3 2319 1421 2400
3 2358 2004 2359
3 2397 1567 2398
3 2090 65 2131
3 552 237 2178
3 1477 1476 2347

CELL_TYPES 4666
5
5
5
5
5
5
5
5
5
5
5
5
5
5
5
5
5
5
5
5
5
5
5
5
5
5
5
5
5
5
5
5
5
5
5
5
5
5
5
5
5
5
5
5
5
5
5
5
5
5
5
5
5
5
5
5
5
5
5
5
5
5
5
5
5
5
5
5
5
5
5
5
5
5
5
5
5
5
5
5
5
5
5
5
5
5
5
5
5
5
5
5
5
5
5
5
5
5
5
5
5
5
5
5
5
5
5
5
5
5
5
5
5
5
5
5
5
5
5
5
5
5
5
5
5
5
5
5
5
5
5
5
5
5
5
5
5
5
5
5
5
5
5
5
5
5
5
5
5
5
5
5
5
5
5
5
5
5
5
5
5
5
5
5
5
5
5
5
5
5
5
5
5
5
5
5
5
5
5
5
5
5
5
5
5
5
5
5
5
5
5
5
5
5
5
5
5
5
5
5
5
5
5
5
5
5
5
5
5
5
5
5
5
5
5
5
5
5
5
5
5
5
5
5
5
5
5
5
5
5
5
5
5
5
5
5
5
5
5
5
5
5
5
5
5
5
5
5
5
5
5
5
5
5
5
5
5
5
5
5
5
5
5
5
5
5
5
5
5
5
5
5
5
5
5
5
5
5
5
5
5
5
5
5
5
5
5
5
5
5
5
5
5
5
5
5
5
5
5
5
5
5
5
5
5
5
5
5
5
5
5
5
5
5
5
5
5
5
5
5
5
5
5
5
5
5
5
5
5
5
5
5
5
5
5
5
5
5
5
5
5
5
5
5
5
5
5
5
5
5
5
5
5
5
5
5
5
5
5
5
5
5
5
5
5
5
5
5
5
5
5
5
5
5
5
5
5
5
5
5
5
5
5
5
5
5
5
5
5
5
5
5
5
5
5
5
5
5
5
5
5
5
5
5
5
5
5
5
5
5
5
5
5
5
5
5
5
5
5
5
5
5
5
5
5
5
5
5
5
5
5
5
5
5
5
5
5
5
5
5
5
5
5
5
5
5
5
5
5
5
5
5
5
5
5
5
5
5
5
5
5
5
5
5
5
5
5
5
5
5
5
5
5
5
5
5
5
5
5
5
5
5
5
5
5
5
5
5
5
5
5
5
5
5
5
5
5
5
5
5
5
5
5
5
5
5
5
5
5
5
5
5
5
5
5
5
5
5
5
5
5
5
5
5
5
5
5
5
5
5
5
5
5
5
5
5
5
5
5
5
5
5
5
5
5
5
5
5
5
5
5
5
5
5
5
5
5
5
5
5
5
5
5
5
5
5
5
5
5
5
5
5
5
5
5
5
5
5
5
5
5
5
5
5
5
5
5
5
5
5
5
5
5
5
5
5
5
5
5
5
5
5
5
5
5
5
5
5
5
5
5
5
5
5
5
5
5
5
5
5
5
5
5
5
5
5
5
5
5
5
5
5
5
5
5
5
5
5
5
5
5
5
5
5
5
5
5
5
5
5
5
5
5
5
5
5
5
5
5
5
5
5
5
5
5
5
5
5
5
5
5
5
5
5
5
5
5
5
5
5
5
5
5
5
5
5
5
5
5
5
5
5
5
5
5
5
5
5
5
5
5
5
5
5
5
5
5
5
5
5
5
5
5
5
5
5
5
5
5
5
5
5
5
5
5
5
5
5
5
5
5
5
5
5
5
5
5
5
5
5
5
5
5
5
5
5
5
5
5
5
5
5
5
5
5
5
5
5
5
5
5
5
5
5
5
5
5
5
5
5
5
5
5
5
5
5
5
5
5
5
5
5
5
5
5
5
5
5
5
5
5
5
5
5
5
5
5
5
5
5
5
5
5
5
5
5
5
5
5
5
5
5
5
5
5
5
5
5
5
5
5
5
5
5
5
5
5
5
5
5
5
5
5
5
5
5
5
5
5
5
5
5
5
5
5
5
5
5
5
5
5
5
5
5
5
5
5
5
5
5
5
5
5
5
5
5
5
5
5
5
5
5
5
5
5
5
5
5
5
5
5
5
5
5
5
5
5
5
5
5
5
5
5
5
5
5
5
5
5
5
5
5
5
5
5
5
5
5
5
5
5
5
5
5
5
5
5
5
5
5
5
5
5
5
5
5
5
5
5
5
5
5
5
5
5
5
5
5
5
5
5
5
5
5
5
5
5
5
5
5
5
5
5
5
5
5
5
5
5
5
5
5
5
5
5
5
5
5
5
5
5
5
5
5
5
5
5
5
5
5
5
5
5
5
5
5
5
5
5
5
5
5
5
5
5
5
5
5
5
5
5
5
5
5
5
5
5
5
5
5
5
5
5
5
5
5
5
5
5
5
5
5
5
5
5
5
5
5
5
5
5
5
5
5
5
5
5
5
5
5
5
5
5
5
5
5
5
5
5
5
5
5
5
5
5
5
5
5
5
5
5
5
5
5
5
5
5
5
5
5
5
5
5
5
5
5
5
5
5
5
5
5
5
5
5
5
5
5
5
5
5
5
5
5
5
5
5
5
5
5
5
5
5
5
5
5
5
5
5
5
5
5
5
5
5
5
5
5
5
5
5
5
5
5
5
5
5
5
5
5
5
5
5
5
5
5
5
5
5
5
5
5
5
5
5
5
5
5
5
5
5
5
5
5
5
5
5
5
5
5
5
5
5
5
5
5
5
5
5
5
5
5
5
5
5
5
5
5
5
5
5
5
5
5
5
5
5
5
5
5
5
5
5
5
5
5
5
5
5
5
5
5
5
5
5
5
5
5
5
5
5
5
5
5
5
5
5
5
5
5
5
5
5
5
5
5
5
5
5
5
5
5
5
5
5
5
5
5
5
5
5
5
5
5
5
5
5
5
5
5
5
5
5
5
5
5
5
5
5
5
5
5
5
5
5
5
5
5
5
5
5
5
5
5
5
5
5
5
5
5
5
5
5
5
5
5
5
5
5
5
5
5
5
5
5
5
5
5
5
5
5
5
5
5
5
5
5
5
5
5
5
5
5
5
5
5
5
5
5
5
5
5
5
5
5
5
5
5
5
5
5
5
5
5
5
5
5
5
5
5
5
5
5
5
5
5
5
5
5
5
5
5
5
5
5
5
5
5
5
5
5
5
5
5
5
5
5
5
5
5
5
5
5
5
5
5
5
5
5
5
5
5
5
5
5
5
5
5
5
5
5
5
5
5
5
5
5
5
5
5
5
5
5
5
5
5
5
5
5
5
5
5
5
5
5
5
5
5
5
5
5
5
5
5
5
5
5
5
5
5
5
5
5
5
5
5
5
5
5
5
5
5
5
5
5
5
5
5
5
5
5
5
5
5
5
5
5
5
5
5
5
5
5
5
5
5
5
5
5
5
5
5
5
5
5
5
5
5
5
5
5
5
5
5
5
5
5
5
5
5
5
5
5
5
5
5
5
5
5
5
5
5
5
5
5
5
5
5
5
5
5
5
5
5
5
5
5
5
5
5
5
5
5
5
5
5
5
5
5
5
5
5
5
5
5
5
5
5
5
5
5
5
5
5
5
5
5
5
5
5
5
5
5
5
5
5
5
5
5
5
5
5
5
5
5
5
5
5
5
5
5
5
5
5
5
5
5
5
5
5
5
5
5
5
5
5
5
5
5
5
5
5
5
5
5
5
5
5
5
5
5
5
5
5
5
5
5
5
5
5
5
5
5
5
5
5
5
5
5
5
5
5
5
5
5
5
5
5
5
5
5
5
5
5
5
5
5
5
5
5
5
5
5
5
5
5
5
5
5
5
5
5
5
5
5
5
5
5
5
5
5
5
5
5
5
5
5
5
5
5
5
5
5
5
5
5
5
5
5
5
5
5
5
5
5
5
5
5
5
5
5
5
5
5
5
5
5
5
5
5
5
5
5
5
5
5
5
5
5
5
5
5
5
5
5
5
5
5
5
5
5
5
5
5
5
5
5
5
5
5
5
5
5
5
5
5
5
5
5
5
5
5
5
5
5
5
5
5
5
5
5
5
5
5
5
5
5
5
5
5
5
5
5
5
5
5
5
5
5
5
5
5
5
5
5
5
5
5
5
5
5
5
5
5
5
5
5
5
5
5
5
5
5
5
5
5
5
5
5
5
5
5
5
5
5
5
5
5
5
5
5
5
5
5
5
5
5
5
5
5
5
5
5
5
5
5
5
5
5
5
5
5
5
5
5
5
5
5
5
5
5
5
5
5
5
5
5
5
5
5
5
5
5
5
5
5
5
5
5
5
5
5
5
5
5
5
5
5
5
5
5
5
5
5
5
5
5
5
5
5
5
5
5
5
5
5
5
5
5
5
5
5
5
5
5
5
5
5
5
5
5
5
5
5
5
5
5
5
5
5
5
5
5
5
5
5
5
5
5
5
5
5
5
5
5
5
5
5
5
5
5
5
5
5
5
5
5
5
5
5
5
5
5
5
5
5
5
5
5
5
5
5
5
5
5
5
5
5
5
5
5
5
5
5
5
5
5
5
5
5
5
5
5
5
5
5
5
5
5
5
5
5
5
5
5
5
5
5
5
5
5
5
5
5
5
5
5
5
5
5
5
5
5
5
5
5
5
5
5
5
5
5
5
5
5
5
5
5
5
5
5
5
5
5
5
5
5
5
5
5
5
5
5
5
5
5
5
5
5
5
5
5
5
5
5
5
5
5
5
5
5
5
5
5
5
5
5
5
5
5
5
5
5
5
5
5
5
5
5
5
5
5
5
5
5
5
5
5
5
5
5
5
5
5
5
5
5
5
5
5
5
5
5
5
5
5
5
5
5
5
5
5
5
5
5
5
5
5
5
5
5
5
5
5
5
5
5
5
5
5
5
5
5
5
5
5
5
5
5
5
5
5
5
5
5
5
5
5
5
5
5
5
5
5
5
5
5
5
5
5
5
5
5
5
5
5
5
5
5
5
5
5
5
5
5
5
5
5
5
5
5
5
5
5
5
5
5
5
5
5
5
5
5
5
5
5
5
5
5
5
5
5
5
5
5
5
5
5
5
5
5
5
5
5
5
5
5
5
5
5
5
5
5
5
5
5
5
5
5
5
5
5
5
5
5
5
5
5
5
5
5
5
5
5
5
5
5
5
5
5
5
5
5
5
5
5
5
5
5
5
5
5
5
5
5
5
5
5
5
5
5
5
5
5
5
5
5
5
5
5
5
5
5
5
5
5
5
5
5
5
5
5
5
5
5
5
5
5
5
5
5
5
5
5
5
5
5
5
5
5
5
5
5
5
5
5
5
5
5
5
5
5
5
5
5
5
5
5
5
5
5
5
5
5
5
5
5
5
5
5
5
5
5
5
5
5
5
5
5
5
5
5
5
5
5
5
5
5
5
5
5
5
5
5
5
5
5
5
5
5
5
5
5
5
5
5
5
5
5
5
5
5
5
5
5
5
5
5
5
5
5
5
5
5
5
5
5
5
5
5
5
5
5
5
5
5
5
5
5
5
5
5
5
5
5
5
5
5
5
5
5
5
5
5
5
5
5
5
5
5
5
5
5
5
5
5
5
5
5
5
5
5
5
5
5
5
5
5
5
5
5
5
5
5
5
5
5
5
5
5
5
5
5
5
5
5
5
5
5
5
5
5
5
5
5
5
5
5
5
5
5
5
5
5
5
5
5
5
5
5
5
5
5
5
5
5
5
5
5
5
5
5
5
5
5
5
5
5
5
5
5
5
5
5
5
5
5
5
5
5
5
5
5
5
5
5
5
5
5
5
5
5
5
5
5
5
5
5
5
5
5
5
5
5
5
5
5
5
5
5
5
5
5
5
5
5
5
5
5
5
5
5
5
5
5
5
5
5
5
5
5
5
5
5
5
5
5
5
5
5
5
5
5
5
5
5
5
5
5
5
5
5
5
5
5
5
5
5
5
5
5
5
5
5
5
5
5
5
5
5
5
5
5
5
5
5
5
5
5
5
5
5
5
5
5
5
5
5
5
5
5
5
5
5
5
5
5
5
5
5
5
5
5
5
5
5
5
5
5
5
5
5
5
5
5
5
5
5
5
5
5
5
5
5
5
5
5
5
5
5
5
5
5
5
5
5
5
5
5
5
5
5
5
5
5
5
5
5
5
5
5
5
5
5
5
5
5
5
5
5
5
5
5
5
5
5
5
5
5
5
5
5
5
5
5
5
5
5
5
5
5
5
5
5
5
5
5
5
5
5
5
5
5
5
5
5
5
5
5
5
5
5
5
5
5
5
5
5
5
5
5
5
5
5
5
5
5
5
5
5
5
5
5
5
5
5
5
5
5
5
5
5
5
5
5
5
5
5
5
5
5
5
5
5
5
5
5
5
5
5
5
5
5
5
5
5
5
5
5
5
5
5
5
5
5
5
5
5
5
5
5
5
5
5
5
5
5
5
5
5
5
5
5
5
5
5
5
5
5
5
5
5
5
5
5
5
5
5
5
5
5
5
5
5
5
5
5
5
5
5
5
5
5
5
5
5
5
5
5
5
5
5
5
5
5
5
5
5
5
5
5
5
5
5
5
5
5
5
5
5
5
5
5
5
5
5
5
5
5
5
5
5
5
5
5
5
5
5
5
5
5
5
5
5
5
5
5
5
5
5
5
5
5
5
5
5
5
5
5
5
5
5
5
5
5
5
5
5
5
5
5
5
5
5
5
5
5
5
5
5
5
5
5
5
5
5
5
5
5
5
5
5
5
5
5
5
5
5
5
5
5
5
5
5
5
5
5
5
5
5
5
5
5
5
5
5
5
5
5
5
5
5
5
5
5
5
5
5
5
5
5
5
5
5
5
5
5
5
5
5
5
5
5
5
5
5
5
5
5
5
5
5
5
5
5
5
5
5
5
5
5
5
5
5
5
5
5
5
5
5
5
5
5
5
5
5
5
5
5
5
5
5
5
5
5
5
5
5
5
5
5
5
5
5
5
5
5
5
5
5
5
5
5
5
5
5
5
5
5
5
5
5
5
5
5
5
5
5
5
5
5
5
5
5
5
5
5
5
5
5
5
5
5
5
5
5
5
5
5
5
5
5
5
5
5
5
5
5
5
5
5
5
5
5
5
5
5
5
5
5
5
5
5
5
5
5
5
5
5
5
5
5
5
5
5
5
5
5
5
5
5
5
5
5
5
5
5
5
5
5
5
5
5
5
5
5
5
5
5
5
5
5
5
5
5
5
5
5
5
5
5
5
5
5
5
5
5
5
5
5
5
5
5
5
5
5
5
5
5
5
5
5
5
5
5
5
5
5
5
5
5
5
5
5
5
5
5
5
5
5
5
5
5
5
5
5
5
5
5
5
5
5
5
5
5
5
5
5
5
5
5
5
5
5
5
5
5
5
5
5
5
5
5
5
5
5
5
5
5
5
5
5
5
5
5
5
5
5
5
5
5
5
5
5
5
5
5
5
5
5
5
5
5
5
5
5
5
5
5
5
5
5
5
5
5
5
5
5
5
5
5
5
5
5
5
5
5
5
5
5
5
5
5
5
5
5
5
5
5
5
5
5
5
5
5
5
5
5
5
5
5
5
5
5
5
5
5
5
5
5
5
5
5
5
5
5
5
5
5
5
5
5
5
5
5
5
5
5
5
5
5
5
5
5
5
5
5
5
5
5
5
5
5
5
5
5
5
5
5
5
5
5
5
5
5
5
5
5
5
5
5
5
5
5
5
5
5
5
5
5
5
5
5
5
5
5
5
5
5
5
5
5
5
5
5
5
5
5
5
5
5
5
5
5
5
5
5
5
5
5
5
5
5
5
5
5
5
5
5
5
5
5
5
5
5
5
5
5
5
5
5
5
5
5
5
5
5
5
5
5
5
5
5
5
5
5
5
5
5
5
5
5
5
5
5
5
5
5
5
5
5
5
5
5
5
5
5
5
5
5
5
5
5
5
5
5
5
5
5
5
5
5
5
5
5
5
5
5
5
5
5
5
5
5
5
5
5
5
5
5
5
5
5
5
5
5
5
5
5
5
5
5
5
5
5
5
5
5
5
5
5
5
5
5
5
5
5
5
5
5
5
5
5
5
5
5
5
5
5
5
5
5
5
5
5
5
5
5
5
5
5
5
5
5
5
5
5
5
5
5
5
5
5
5
5
5
5
5
5
5
5
5
5
5
5
5
5
5
5
5
5
5
5
5
5
5
5
5
5
5
5
5
5
5
5
5
5
5
5
5
5
5
5
5
5
5
5
5
5
5
5
5
5
5
5
5
5
5
5
5
5
5
5
5
5
5
5
5
5
5
5
5
5
5
5
5
5
5
5
5
5
5
5
5
5
5
5
5
5
5
5
5
5
5
5
5
5
5
5
5
5
5
5
5
5
5
5
5
5
5
5
5
5
5
5
5
5
5
5
5
5
5
5
5
5
5
5
5
5
5
5
5
5
5
5
5
5
5
5
5
5
5
5
5
5
5
5
5
5
5
5
5
5
5
5
5
5
5
5
5
5
5
5
5
5
5
5
5
5
5
5
5
5
5
5
5
5
5
5
5
5
5
5
5
5
5
5
5
5
5
5
5
5
5
5
5
5
5
5
5
5
5
5
5
5
5
5
5
5
5
5
5
5
5
5
5
5
5
5
5
5
5
5
5
5
5
5
5
5
5
5
5
5
5
5
5
5
5
5
5
5
5
5
5
5
5
5
5
5
5
5
5
5
5
5
5
5
5
5
5
5
5
5
5
5
5
5
5
5
5
5
5
5
5
5
5
5
5
5
5
5
5
5
5
5
5
5
5
5
5
5
5
5
5
5
5
5
5
5
5
5
5
5
5
5
5
5
5
5
5
5
5
5
5
5
5
5
5
5
5
5
5
5
5
5
5
5
5
5
5
5
5
5
5
5
5
5
5
5
5
5
5
5
5
5
5
5
5
5
5
5
5
5
5
5
5
5
5
5
5
5
5
5
5
5
5
5
5
5
5
5
5
5
5
5
5
5
5
5
5
5
5
5
5
5
5
5
5
5
5
5
5
5
5
5
5
5
5
5
5
5
5
5
5
5
5
5
5
5
5
5
5
5
5
5
5
5
5
5
5
5
5
5
5
5
5
5
5
5
5
5
5
5
5
5
5
5
5
5
5
5
5
5
5
5
5
5
5
5
5
5
5
5
5
5
5
5
5
5
5
5
5
5
5
5
5
5
5
5
5
5
5
5
5
5
5
5
5
5
5
5
5
5
5
5
5
5
5
5
5
5
5
5
5
5
5
5
5
5
5
5
5
5
5
5
5
5
5
5
5
5
5
5
5
5
5
5
5
5
5
5
5
5
5
5
5
5
5
5
5
5
5
5
5
5
5
5
5
5
5
5
5
5
5
5
5
5
5
5
5
5
5
5
5
5
5
5
5
5
5
5
5
5
5
5
5
5
5
5
5
5
5
5
5
5
5
5
5
5
5
5
5
5
5
5
5
5
5
5
5
5
5
5
5
5
5
5
5
5
5
5
5
5
5
5
5
5
5
5
5
5
5
5
5
5
5
5
5
5
5
5
5
5
5
5
5
5
5
5
5
5
5
5
5
5
5
5
5
5
5
5
5
5
5
5
5
5
5
5
5
5
5
5
5
5
5
5
5
5
5
5
5
5
5
5
5
5
5
5
5
5
5
5
5
5
5
5
5
5
5
5
5
5
5
5
5
5
5
5
5
5
5
5
5
5
5
5
5
5
5
5
5
5
5
5
5
5
5
5
5
5
5
5
5
5
5
5
5
5
5
5
5
5
5
5
5
5
5
5
5
5
5
5
5
5
5
5
5
5
5
5
5
5
5
5
5
5
5
5
5
5
5
5
5
5
5
5
5
5
5
5
5
5
5
5
5
5
5
5
5
5
5
5
5
5
5
5
5
5
5
5
5
5
5
5
5
5
5
5
5
5
5
5
5
5
5
5
5
5
5
5
5
5
5
5
5
5
5
5
5
5
5
5
5
5
5
5
5
5
5
5
5
5
5
5
5
5
5
5
5
5
5
5
5
5
5
5
5
5
5
5
5
5
5
5
5
5
5
5
5
5
5
5
5
5
5
5
5
5
5
5
5
5
5
5
5
5
5
5
5
5
5
5
5
5
5
5
5
5
5
5
5
5
5
5
5
5
5
5
5
5
5
5
5
5
5
5
5
5
5
5
5
5
5
5
5
5
5
5
5
5
5
5
5
5
5
5
5
5
5
5
5
5
5
5
5
5
5
5
5
5
5
5
5
5
5
5
5
5
5
5
5
5
5
5
5
5
5
5
5
5
5
5
5
5
5
5
5
5
5
5
5
5
5
5
5
5
5
5
5
5
5
5
5
5
5
5
5
5
5
5
5
5
5
5
5
5
5
5
5
5
5
5
5
5
5
5
5
5
5
5
5
5
5
5
5
5
5
5
5
5
5
5
5
5
5
5
5
5
5
5
5
5
5
5
5
5
5
5
5
5
5
5
5
5
5
5
5
5
5
5
5
5
5
5
5
5
5
5
5
5
5
5
5
5
5
5
5
5
5
5
5
5
5
5
5
5
5
5
5
5
5
5
5
5
5
5
5
5
5
5
5
5
5
5
5
5
5
5
5
5
5
5
5
5
5
5
5
5
5
5
5
5
5
5
5

POINT_DATA 2434
SCALARS v:bnd int 1
LOOKUP_TABLE default
4
4
4
4
4
4
4
4
4
141
141
141
4
4
4
4
4
142
142
142
142
4
4
4
4
4
4
4
4
4
4
131
131
131
131
4
4
4
4
4
132
132
132
4
4
4
4
132
4
4
4
4
4
4
4
4
4
141
141
141
4
4
4
4
4
142
142
142
142
4
4
4
4
4
4
4
4
4
4
131
131
131
131
4
4
4
4
4
132
132
132
4
4
4
4
132
4
4
4
4
4
4
4
4
4
141
141
141
4
4
4
4
4
142
142
142
142
4
4
4
4
4
4
4
4
4
4
131
131
131
131
4
4
4
4
4
132
132
132
4
4
4
4
132
4
4
4
4
4
4
4
4
4
141
141
141
4
4
4
4
4
142
142
142
142
4
4
4
4
4
4
4
4
4
4
131
131
131
131
4
4
4
4
4
132
132
132
4
4
4
4
132
4
4
4
4
4
4
4
4
4
141
141
141
4
4
4
4
4
142
142
142
142
4
4
4
4
4
4
4
4
4
4
131
131
131
131
4
4
4
4
4
132
132
132
4
4
4
4
132
4
4
4
4
4
4
4
4
4
4
4
4
4
4
4
4
4
4
4
4
4
4
4
4
4
4
4
4
4
4
4
4
4
4
4
4
4
4
4
4
4
4
4
4
4
4
4
4
4
4
4
4
4
4
4
4
4
4
4
4
4
4
4
4
4
4
4
4
4
4
4
4
4
4
4
4
4
4
4
4
4
4
4
4
4
4
4
4
4
4
4
4
4
4
4
4
4
4
4
4
4
4
4
4
4
4
4
4
4
4
4
4
4
4
4
4
4
4
4
4
4
4
4
4
4
4
4
4
4
4
4
4
4
4
4
4
4
4
4
4
4
4
4
4
4
4
4
4
4
4
4
4
4
4
4
4
4
4
4
4
4
4
4
4
4
4
4
4
4
4
4
4
4
4
4
4
4
4
4
4
4
4
4
4
4
4
4
4
4
4
4
4
4
4
4
4
4
4
4
4
4
4
4
4
4
4
4
4
4
4
4
4
4
4
4
4
4
4
4
4
4
4
4
4
4
4
4
4
4
4
4
4
4
4
4
4
4
4
4
4
4
4
4
4
4
4
4
4
4
4
4
4
4
4
4
4
4
4
4
4
4
4
4
4
4
4
4
4
4
4
4
4
4
4
4
4
4
4
4
4
4
4
4
4
4
4
4
4
4
4
4
4
4
4
4
4
4
4
4
4
4
4
4
4
4
4
4
4
4
4
4
4
4
4
4
4
4
4
4
4
4
4
4
4
4
4
4
4
4
4
4
4
4
4
4
4
4
4
4
4
4
4
4
4
4
4
4
4
4
4
4
4
4
4
4
4
4
4
4
4
4
4
4
4
4
4
4
4
4
4
4
4
4
4
4
4
4
4
4
4
4
4
4
4
4
4
4
4
4
4
4
4
4
4
4
4
4
4
4
4
4
4
4
4
4
4
4
4
4
4
4
4
4
4
4
4
4
4
4
4
4
4
4
4
4
4
4
4
4
4
4
4
4
4
4
4
4
4
4
4
4
4
4
4
4
4
4
4
4
4
4
4
4
4
4
4
4
4
4
4
4
4
4
4
4
4
4
4
4
4
4
4
4
4
4
4
4
4
4
4
4
4
4
4
4
4
4
4
4
4
4
4
4
4
4
4
4
4
4
4
4
4
4
4
4
4
4
4
4
4
4
4
4
4
4
4
4
4
4
4
4
4
4
4
4
4
4
4
4
4
4
4
4
4
4
4
4
4
4
4
4
4
4
4
4
4
4
4
4
4
4
4
4
4
4
4
4
4
4
4
4
4
4
4
4
4
4
4
4
4
4
4
4
4
4
4
4
4
4
4
4
4
4
4
4
4
4
4
4
4
4
4
4
4
4
4
4
4
4
4
4
4
4
4
4
4
4
4
4
4
4
4
4
4
4
4
4
4
4
4
4
4
4
4
4
4
4
4
4
4
4
4
4
4
4
4
4
4
4
4
4
4
4
4
4
4
4
4
4
4
4
4
4
4
4
4
4
4
4
4
4
4
4
4
4
4
4
4
4
4
4
4
4
4
4
4
4
4
4
4
4
4
4
4
4
4
4
4
4
4
4
4
4
4
4
4
4
4
4
4
4
4
4
4
4
4
4
4
4
4
4
4
4
4
4
4
4
4
4
4
4
4
4
4
4
4
4
4
4
4
4
4
4
4
4
4
4
4
4
4
4
4
4
4
4
4
4
4
4
4
4
4
4
4
4
4
4
4
4
4
4
4
4
4
4
4
4
4
4
4
4
4
4
4
4
4
4
4
4
4
4
4
4
4
4
4
4
4
4
4
4
4
4
4
4
4
4
4
4
4
4
4
4
4
4
4
4
4
4
4
4
4
4
4
4
4
4
4
4
4
4
4
4
4
4
4
4
4
4
4
4
4
4
4
4
4
4
4
4
4
4
4
4
4
4
4
4
4
4
4
4
4
4
4
4
4
4
4
4
4
4
4
4
4
4
4
4
4
4
4
4
4
4
4
4
4
4
4
4
4
4
4
4
4
4
4
4
4
4
4
4
4
4
4
4
4
4
4
4
4
4
4
4
4
4
4
4
4
4
4
4
4
4
4
4
4
4
4
4
4
4
4
4
4
4
4
4
4
4
4
4
4
4
4
4
4
4
4
4
4
4
4
4
4
4
4
4
4
4
4
4
4
4
4
4
4
4
4
4
4
4
4
4
4
4
4
4
4
4
4
4
4
4
4
4
4
4
4
4
4
4
4
4
4
4
4
4
4
4
4
4
4
4
4
4
4
4
4
4
4
4
4
4
4
4
4
4
4
4
4
4
4
4
4
4
4
4
4
4
4
4
4
4
4
4
4
4
4
4
4
4
4
4
4
4
4
4
4
4
4
4
4
4
4
4
4
4
4
4
4
4
4
4
4
4
4
4
4
4
4
4
4
4
4
4
4
4
4
4
4
4
4
4
4
4
4
4
4
4
4
4
4
4
4
4
4
4
4
4
4
4
4
4
4
4
4
4
4
4
4
4
4
4
4
4
4
4
4
4
4
4
4
4
4
4
4
4
4
4
4
4
4
4
4
4
4
4
4
4
4
4
4
4
4
4
4
4
4
4
4
4
4
4
4
4
4
4
4
4
4
4
4
4
4
4
4
4
4
4
4
4
4
4
4
4
4
4
4
4
4
4
4
4
4
4
4
4
4
4
4
4
4
4
4
4
4
4
4
4
4
4
4
4
4
4
4
4
4
4
4
4
4
4
4
4
4
4
4
4
4
4
4
4
4
4
4
4
4
4
4
4
4
4
4
4
4
4
4
4
4
4
4
4
4
4
4
4
4
4
4
4
4
4
4
4
4
4
4
4
4
4
4
4
4
4
4
4
4
4
4
4
4
4
4
4
4
4
4
4
4
4
4
4
4
4
4
4
4
4
4
4
4
4
4
4
4
4
4
4
4
4
4
4
4
4
4
4
4
4
4
4
4
4
4
4
4
4
4
4
4
4
4
4
4
4
4
4
4
4
4
4
4
4
4
4
4
4
4
4
4
4
4
4
4
4
4
4
4
4
4
4
4
4
4
4
4
4
4
4
4
4
4
4
4
4
4
4
4
4
4
4
4
4
4
4
4
4
4
4
4
4
4
4
4
4
4
4
4
4
4
4
4
4
4
4
4
4
4
4
4
4
4
4
4
4
4
4
4
4
4
4
4
4
4
4
4
4
4
4
4
4
4
4
4
4
4
4
4
4
4
4
4
4
4
4
4
4
4
4
4
4
4
4
4
4
4
4
4
4
4
4
4
4
4
4
4
4
4
4
4
4
4
4
4
4
4
4
4
4
4
4
4
4
4
4
4
4
4
4
4
4
4
4
4
4
4
4
4
4
4
4
4
4
4
4
4
4
4
4
4
4
4
4
4
4
4
4
4
4
4
4
4
4
4
4
4
4
4
4
4
4
4
4
4
4
4
4
4
4
4
4
4
4
4
4
4
4
4
4
4
4
4
4
4
4
4
4
4
4
4
4
4
4
4
4
4
4
4
4
4
4
4
4
4
4
4
4
4
4
4
4
4
4
4
4
4
4
4
4
4
4
4
4
4
4
4
4
4
4
4
4
4
4
4
4
4
4
4
4
4
4
4
4
4
4
4
4
4
4
4
4
4
4
4
4
4
4
4
4
4
4
4
4
4
4
4
4
4
4
4
4
4
4
4
4
4
4
4
4
4
4
4
4
4
4
4
4
4
4
4
4
4
4
4
4
4
4
4
4
4
4
4
4
4
4
4
4
4
4
4
4
4
4
4
4
4
4
4
4
4
4
4
4
4
4
4
4
4
4
4
4
4
4
4
4
4
4
4
4
4
4
4
4
4
4
4
4
4
4
4
4
4
4
4
4
4
4
4
4
4
4
4
4
4
4
4
4
4
4
4
4
4
4
4
4
4
4
4
4
4
4
4
4
4
4
4
4
4
4
4
4
4
4
4
4
4
4
4
4
4
4
4
4
4
4
4
4
4
4
4
4
4
4
4
4
4
4
4
4
4
4
4
4
4
4
4
4
4
4
4
4
4
4
4
4
4
4
4
4
4
4
4
4
4
4
4
4
4
4
4
4
4
4
4
4
4
4
4
4
4
4
4
4
4
4
4
4
4
4
4
4
4
4
4
4
4
4
4
4
4
4
4
4
4
4
4
4
4
4
4
4
4
4
4
4
4
4
4
4
4
4
4
4
4
4
4
4
4
4
4
4
4
4
4
4
4
4
4
4
4
4
4
4
4
4
4
4
4
4
4
4
4
4
4
4
4
4
4
4
4
4
4
4
4
4
4
4
4
4
4
4
4
4
4
4
4
4
4
4
4
4
4
4
4
4
4
4
4
4
4
4
4
4
4
4
4
4
4
4
4
4
4
4
4
4
4
4
4
4
4
4
4
4
4
4
4
4
4
4
4
4
4
4
4
4
4
4
4
4
4
4
4
4
4
4
4
4
4
4
4
4
4
4
4
4
4
4
4
4
4
4
4
4
4
4
4
4
4
4
4
4
4
4
4
4
4
4
4
4
4
4
4
4
4
4
4
4
4
4
4
4
4
4
4
4
4
4
4
4
4
4
4
4
4
4
4
4
4
4
4
4
4
4
4
4
4
4
4
4
4
4
4
4
4
4
4
4
4
4
4
4
4
4
4
4
4
4
4
4
4
4
4
4
4
4
4
4
4
4
4
4
4
4
4
4
4
4
4
4
4
4
4
4
4
4
4
4
4
4
4
4
4
4
4
4
4
4
4
4
4
4
4
4
4
4
4
4
4
4
4
4
4
4
4
4
4
4
4
4
4
4
4
4
4
4
4
4
4
4
4
4
4
4
4
4
4
4
4
4
4
4
4
4
4
4
4
4
4
4
4
4
4
4
4
4
4
4
4
4
4
4
4
4
4
4
4
4
4
4
4
4
4
4
4
4
4
4
4
4
4
4
4
4
4
4
4
4
4
4
4
4
4
4
4

SCALARS v:bnd_sim int 1
LOOKUP_TABLE default
4
4
4
4
4
4
4
4
4
14
14
14
4
4
4
4
4
14
14
14
14
4
4
4
4
4
4
4
4
4
4
13
13
13
13
4
4
4
4
4
13
13
13
4
4
4
4
13
4
4
4
4
4
4
4
4
4
14
14
14
4
4
4
4
4
14
14
14
14
4
4
4
4
4
4
4
4
4
4
13
13
13
13
4
4
4
4
4
13
13
13
4
4
4
4
13
4
4
4
4
4
4
4
4
4
14
14
14
4
4
4
4
4
14
14
14
14
4
4
4
4
4
4
4
4
4
4
13
13
13
13
4
4
4
4
4
13
13
13
4
4
4
4
13
4
4
4
4
4
4
4
4
4
14
14
14
4
4
4
4
4
14
14
14
14
4
4
4
4
4
4
4
4
4
4
13
13
13
13
4
4
4
4
4
13
13
13
4
4
4
4
13
4
4
4
4
4
4
4
4
4
14
14
14
4
4
4
4
4
14
14
14
14
4
4
4
4
4
4
4
4
4
4
13
13
13
13
4
4
4
4
4
13
13
13
4
4
4
4
13
4
4
4
4
4
4
4
4
4
4
4
4
4
4
4
4
4
4
4
4
4
4
4
4
4
4
4
4
4
4
4
4
4
4
4
4
4
4
4
4
4
4
4
4
4
4
4
4
4
4
4
4
4
4
4
4
4
4
4
4
4
4
4
4
4
4
4
4
4
4
4
4
4
4
4
4
4
4
4
4
4
4
4
4
4
4
4
4
4
4
4
4
4
4
4
4
4
4
4
4
4
4
4
4
4
4
4
4
4
4
4
4
4
4
4
4
4
4
4
4
4
4
4
4
4
4
4
4
4
4
4
4
4
4
4
4
4
4
4
4
4
4
4
4
4
4
4
4
4
4
4
4
4
4
4
4
4
4
4
4
4
4
4
4
4
4
4
4
4
4
4
4
4
4
4
4
4
4
4
4
4
4
4
4
4
4
4
4
4
4
4
4
4
4
4
4
4
4
4
4
4
4
4
4
4
4
4
4
4
4
4
4
4
4
4
4
4
4
4
4
4
4
4
4
4
4
4
4
4
4
4
4
4
4
4
4
4
4
4
4
4
4
4
4
4
4
4
4
4
4
4
4
4
4
4
4
4
4
4
4
4
4
4
4
4
4
4
4
4
4
4
4
4
4
4
4
4
4
4
4
4
4
4
4
4
4
4
4
4
4
4
4
4
4
4
4
4
4
4
4
4
4
4
4
4
4
4
4
4
4
4
4
4
4
4
4
4
4
4
4
4
4
4
4
4
4
4
4
4
4
4
4
4
4
4
4
4
4
4
4
4
4
4
4
4
4
4
4
4
4
4
4
4
4
4
4
4
4
4
4
4
4
4
4
4
4
4
4
4
4
4
4
4
4
4
4
4
4
4
4
4
4
4
4
4
4
4
4
4
4
4
4
4
4
4
4
4
4
4
4
4
4
4
4
4
4
4
4
4
4
4
4
4
4
4
4
4
4
4
4
4
4
4
4
4
4
4
4
4
4
4
4
4
4
4
4
4
4
4
4
4
4
4
4
4
4
4
4
4
4
4
4
4
4
4
4
4
4
4
4
4
4
4
4
4
4
4
4
4
4
4
4
4
4
4
4
4
4
4
4
4
4
4
4
4
4
4
4
4
4
4
4
4
4
4
4
4
4
4
4
4
4
4
4
4
4
4
4
4
4
4
4
4
4
4
4
4
4
4
4
4
4
4
4
4
4
4
4
4
4
4
4
4
4
4
4
4
4
4
4
4
4
4
4
4
4
4
4
4
4
4
4
4
4
4
4
4
4
4
4
4
4
4
4
4
4
4
4
4
4
4
4
4
4
4
4
4
4
4
4
4
4
4
4
4
4
4
4
4
4
4
4
4
4
4
4
4
4
4
4
4
4
4
4
4
4
4
4
4
4
4
4
4
4
4
4
4
4
4
4
4
4
4
4
4
4
4
4
4
4
4
4
4
4
4
4
4
4
4
4
4
4
4
4
4
4
4
4
4
4
4
4
4
4
4
4
4
4
4
4
4
4
4
4
4
4
4
4
4
4
4
4
4
4
4
4
4
4
4
4
4
4
4
4
4
4
4
4
4
4
4
4
4
4
4
4
4
4
4
4
4
4
4
4
4
4
4
4
4
4
4
4
4
4
4
4
4
4
4
4
4
4
4
4
4
4
4
4
4
4
4
4
4
4
4
4
4
4
4
4
4
4
4
4
4
4
4
4
4
4
4
4
4
4
4
4
4
4
4
4
4
4
4
4
4
4
4
4
4
4
4
4
4
4
4
4
4
4
4
4
4
4
4
4
4
4
4
4
4
4
4
4
4
4
4
4
4
4
4
4
4
4
4
4
4
4
4
4
4
4
4
4
4
4
4
4
4
4
4
4
4
4
4
4
4
4
4
4
4
4
4
4
4
4
4
4
4
4
4
4
4
4
4
4
4
4
4
4
4
4
4
4
4
4
4
4
4
4
4
4
4
4
4
4
4
4
4
4
4
4
4
4
4
4
4
4
4
4
4
4
4
4
4
4
4
4
4
4
4
4
4
4
4
4
4
4
4
4
4
4
4
4
4
4
4
4
4
4
4
4
4
4
4
4
4
4
4
4
4
4
4
4
4
4
4
4
4
4
4
4
4
4
4
4
4
4
4
4
4
4
4
4
4
4
4
4
4
4
4
4
4
4
4
4
4
4
4
4
4
4
4
4
4
4
4
4
4
4
4
4
4
4
4
4
4
4
4
4
4
4
4
4
4
4
4
4
4
4
4
4
4
4
4
4
4
4
4
4
4
4
4
4
4
4
4
4
4
4
4
4
4
4
4
4
4
4
4
4
4
4
4
4
4
4
4
4
4
4
4
4
4
4
4
4
4
4
4
4
4
4
4
4
4
4
4
4
4
4
4
4
4
4
4
4
4
4
4
4
4
4
4
4
4
4
4
4
4
4
4
4
4
4
4
4
4
4
4
4
4
4
4
4
4
4
4
4
4
4
4
4
4
4
4
4
4
4
4
4
4
4
4
4
4
4
4
4
4
4
4
4
4
4
4
4
4
4
4
4
4
4
4
4
4
4
4
4
4
4
4
4
4
4
4
4
4
4
4
4
4
4
4
4
4
4
4
4
4
4
4
4
4
4
4
4
4
4
4
4
4
4
4
4
4
4
4
4
4
4
4
4
4
4
4
4
4
4
4
4
4
4
4
4
4
4
4
4
4
4
4
4
4
4
4
4
4
4
4
4
4
4
4
4
4
4
4
4
4
4
4
4
4
4
4
4
4
4
4
4
4
4
4
4
4
4
4
4
4
4
4
4
4
4
4
4
4
4
4
4
4
4
4
4
4
4
4
4
4
4
4
4
4
4
4
4
4
4
4
4
4
4
4
4
4
4
4
4
4
4
4
4
4
4
4
4
4
4
4
4
4
4
4
4
4
4
4
4
4
4
4
4
4
4
4
4
4
4
4
4
4
4
4
4
4
4
4
4
4
4
4
4
4
4
4
4
4
4
4
4
4
4
4
4
4
4
4
4
4
4
4
4
4
4
4
4
4
4
4
4
4
4
4
4
4
4
4
4
4
4
4
4
4
4
4
4
4
4
4
4
4
4
4
4
4
4
4
4
4
4
4
4
4
4
4
4
4
4
4
4
4
4
4
4
4
4
4
4
4
4
4
4
4
4
4
4
4
4
4
4
4
4
4
4
4
4
4
4
4
4
4
4
4
4
4
4
4
4
4
4
4
4
4
4
4
4
4
4
4
4
4
4
4
4
4
4
4
4
4
4
4
4
4
4
4
4
4
4
4
4
4
4
4
4
4
4
4
4
4
4
4
4
4
4
4
4
4
4
4
4
4
4
4
4
4
4
4
4
4
4
4
4
4
4
4
4
4
4
4
4
4
4
4
4
4
4
4
4
4
4
4
4
4
4
4
4
4
4
4
4
4
4
4
4
4
4
4
4
4
4
4
4
4
4
4
4
4
4
4
4
4
4
4
4
4
4
4
4
4
4
4
4
4
4
4
4
4
4
4
4
4
4
4
4
4
4
4
4
4
4
4
4
4
4
4
4
4
4
4
4
4
4
4
4
4
4
4
4
4
4
4
4
4
4
4
4
4
4
4
4
4
4
4
4
4
4
4
4
4
4
4
4
4
4
4
4
4
4
4
4
4
4
4
4
4
4
4
4
4
4
4
4
4
4
4
4
4
4
4
4
4
4
4
4
4
4
4
4
4
4
4
4
4
4
4
4
4
4
4
4
4
4
4
4
4
4
4
4
4
4
4
4
4
4
4
4
4
4
4
4
4
4
4
4
4
4
4
4
4
4
4
4
4
4
4
4
4
4
4
4
4
4
4
4
4
4
4
4
4
4
4
4
4
4
4
4
4
4
4
4
4
4
4
4
4
4
4
4
4
4
4
4
4
4
4
4
4
4
4
4
4
4
4
4
4
4
4
4
4
4
4
4
4
4
4
4
4
4
4
4
4
4
4
4
4
4
4
4
4
4
4
4
4
4
4
4
4
4
4
4
4
4
4
4
4
4
4
4
4
4
4
4
4
4
4
4
4
4
4
4
4
4
4
4
4
4
4
4
4
4
4
4
4
4
4
4
4
4
4
4
4
4
4
4
4
4
4
4
4
4
4
4
4
4
4
4
4
4
4
4
4
4
4
4
4
4
4
4
4
4
4
4
4
4
4
4
4
4
4
4
4
4
4
4
4
4
4
4
4
4
4
4
4
4
4
4
4
4
4
4
4
4
4
4
4
4
4
4
4
4
4
4
4
4
4
4
4
4
4
4
4
4
4
4
4
4
4
4
4
4
4
4
4
4
4
4
4
4
4
4
4
4
4
4
4
4
4
4
4
4
4
4
4
4
4
4
4
4
4
4
4
4
4
4
4
4
4
4
4
4
4
4
4
4
4
4
4
4
4
4
4
4
4
4
4
4
4
4
4
4
4
4
4
4
4
4
4
4
4
4
4
4
4
4
4
4
4
4
4
4
4
4
4
4
4
4
4
4
4
4
4
4
4
4
4
4
4
4
4
4
4
4
4
4
4
4
4
4
4
4
4
4
4
4
4
4
4
4
4
4
4
4
4
4
4
4
4
4
4
4
4
4
4
4
4
4
4
4
4
4
4
4
4
4
4
4
4
4
4
4
4
4
4
4
4
4
4
4
4
4
4
4
4
4
4
4
4
4
4
4
4
4
4
4
4
4
4
4
4
4
4
4
4
4
4
4
4
4
4
4
4
4
4
4
4
4
4
4
4
4
4
4
4
4
4
4
4
4
4
4
4
4
4
4
4
4
4
4
4
4
4
4
4
4
4
4
4
4
4
4
4
4
4
4
4
4
4
4
4
4
4
4
4
4
4
4
4
4
4
4
4
4
4
4
4
4
4
4
4
4
4
4
4
4
4
4
4
4
4
4
4
4
4
4
4
4
4
4
4
4
4
4
4
4
4
4
4
4
4
4
4
4
4
4
4
4

SCALARS v:x double 3
LOOKUP_TABLE default
0.0000000000000000 0.0000000000000000 0.0000000000000000
10.0000000000000000 0.0000000000000000 0.0000000000000000
10.0000000000000000 10.0000000000000000 0.0000000000000000
0.0000000000000000 10.0000000000000000 0.0000000000000000
2.2500000000000000 1.1499999999999999 0.0000000000000000
2.1914213562373090 1.2914213562373089 0.0000000000000000
2.0499999999999998 1.3500000000000001 0.0000000000000000
1.9085786437626899 1.2914213562373089 0.0000000000000000
1.8500000000000001 1.1499999999999999 0.0000000000000000
1.9085786437626899 1.0033286437626900 0.0000000000000000
2.0499999999999998 0.9447500000000000 0.0000000000000000
2.1914213562373090 1.0033286437626900 0.0000000000000000
2.4500000000000002 1.1499999999999999 0.0000000000000000
2.0499999999999998 1.5500000000000000 0.0000000000000000
1.6499999999999999 1.1499999999999999 0.0000000000000000
2.0499999999999998 0.7499999999999999 0.0000000000000000
2.2500000000000000 8.8499999999999996 0.0000000000000000
2.1914213562373090 8.9966713562373091 0.0000000000000000
2.0499999999999998 9.0552499999999991 0.0000000000000000
1.9085786437626899 8.9966713562373091 0.0000000000000000
1.8500000000000001 8.8552499999999998 0.0000000000000000
1.9085786437626899 8.7085786437626904 0.0000000000000000
2.0499999999999998 8.6500000000000004 0.0000000000000000
2.1914213562373090 8.7085786437626904 0.0000000000000000
2.4500000000000002 8.8499999999999996 0.0000000000000000
2.0499999999999998 9.2500000000000000 0.0000000000000000
1.6499999999999999 8.8499999999999996 0.0000000000000000
2.0499999999999998 8.4499999999999993 0.0000000000000000
1.3500000000000001 2.0499999999999998 0.0000000000000000
1.2914213562373089 2.1914213562373090 0.0000000000000000
1.1499999999999999 2.2500000000000000 0.0000000000000000
1.0033286437626900 2.1914213562373090 0.0000000000000000
0.9447500000000000 2.0499999999999998 0.0000000000000000
1.0033286437626900 1.9085786437626899 0.0000000000000000
1.1447499999999999 1.8500000000000001 0.0000000000000000
1.2914213562373089 1.9085786437626899 0.0000000000000000
1.5500000000000000 2.0499999999999998 0.0000000000000000
1.1499999999999999 2.4500000000000002 0.0000000000000000
0.7499999999999999 2.0499999999999998 0.0000000000000000
1.1499999999999999 1.6499999999999999 0.0000000000000000
9.0552499999999991 2.0499999999999998 0.0000000000000000
8.9966713562373091 2.1914213562373090 0.0000000000000000
8.8552499999999998 2.2500000000000000 0.0000000000000000
8.7085786437626904 2.1914213562373090 0.0000000000000000
8.6500000000000004 2.0499999999999998 0.0000000000000000
8.7085786437626904 1.9085786437626899 0.0000000000000000
8.8499999999999996 1.8500000000000001 0.0000000000000000
8.9966713562373091 1.9085786437626899 0.0000000000000000
9.2500000000000000 2.0499999999999998 0.0000000000000000
8.8499999999999996 2.4500000000000002 0.0000000000000000
8.4499999999999993 2.0499999999999998 0.0000000000000000
8.8499999999999996 1.6499999999999999 0.0000000000000000
3.7250000000000001 1.1499999999999999 0.0000000000000000
3.6664213562373100 1.2914213562373089 0.0000000000000000
3.5249999999999999 1.3500000000000001 0.0000000000000000
3.3835786437626898 1.2914213562373089 0.0000000000000000
3.3250000000000002 1.1499999999999999 0.0000000000000000
3.3835786437626898 1.0033286437626900 0.0000000000000000
3.5249999999999999 0.9447500000000000 0.0000000000000000
3.6664213562373100 1.0033286437626900 0.0000000000000000
3.9249999999999998 1.1499999999999999 0.0000000000000000
3.5249999999999999 1.5500000000000000 0.0000000000000000
3.1250000000000000 1.1499999999999999 0.0000000000000000
3.5249999999999999 0.7499999999999999 0.0000000000000000
3.7250000000000001 8.8499999999999996 0.0000000000000000
3.6664213562373100 8.9966713562373091 0.0000000000000000
3.5249999999999999 9.0552499999999991 0.0000000000000000
3.3835786437626898 8.9966713562373091 0.0000000000000000
3.3250000000000002 8.8552499999999998 0.0000000000000000
3.3835786437626898 8.7085786437626904 0.0000000000000000
3.5249999999999999 8.6500000000000004 0.0000000000000000
3.6664213562373100 8.7085786437626904 0.0000000000000000
3.9249999999999998 8.8499999999999996 0.0000000000000000
3.5249999999999999 9.2500000000000000 0.0000000000000000
3.1250000000000000 8.8499999999999996 0.0000000000000000
3.5249999999999999 8.4499999999999993 0.0000000000000000
1.3500000000000001 3.5249999999999999 0.0000000000000000
1.2914213562373089 3.6664213562373100 0.0000000000000000
1.1499999999999999 3.7250000000000001 0.0000000000000000
1.0033286437626900 3.6664213562373100 0.0000000000000000
0.9447500000000000 3.5249999999999999 0.0000000000000000
1.0033286437626900 3.3835786437626898 0.0000000000000000
1.1447499999999999 3.3250000000000002 0.0000000000000000
1.2914213562373089 3.3835786437626898 0.0000000000000000
1.5500000000000000 3.5249999999999999 0.0000000000000000
1.1499999999999999 3.9249999999999998 0.0000000000000000
0.7499999999999999 3.5249999999999999 0.0000000000000000
1.1499999999999999 3.1250000000000000 0.0000000000000000
9.0552499999999991 3.5249999999999999 0.0000000000000000
8.9966713562373091 3.6664213562373100 0.0000000000000000
8.8552499999999998 3.7250000000000001 0.0000000000000000
8.7085786437626904 3.6664213562373100 0.0000000000000000
8.6500000000000004 3.5249999999999999 0.0000000000000000
8.7085786437626904 3.3835786437626898 0.0000000000000000
8.8499999999999996 3.3250000000000002 0.0000000000000000
8.9966713562373091 3.3835786437626898 0.0000000000000000
9.2500000000000000 3.5249999999999999 0.0000000000000000
8.8499999999999996 3.9249999999999998 0.0000000000000000
8.4499999999999993 3.5249999999999999 0.0000000000000000
8.8499999999999996 3.1250000000000000 0.0000000000000000
5.2000000000000002 1.1499999999999999 0.0000000000000000
5.1414213562373092 1.2914213562373089 0.0000000000000000
5.0000000000000000 1.3500000000000001 0.0000000000000000
4.8585786437626908 1.2914213562373089 0.0000000000000000
4.7999999999999998 1.1499999999999999 0.0000000000000000
4.8585786437626908 1.0033286437626900 0.0000000000000000
5.0000000000000000 0.9447500000000000 0.0000000000000000
5.1414213562373092 1.0033286437626900 0.0000000000000000
5.4000000000000004 1.1499999999999999 0.0000000000000000
5.0000000000000000 1.5500000000000000 0.0000000000000000
4.5999999999999996 1.1499999999999999 0.0000000000000000
5.0000000000000000 0.7499999999999999 0.0000000000000000
5.2000000000000002 8.8499999999999996 0.0000000000000000
5.1414213562373092 8.9966713562373091 0.0000000000000000
5.0000000000000000 9.0552499999999991 0.0000000000000000
4.8585786437626908 8.9966713562373091 0.0000000000000000
4.7999999999999998 8.8552499999999998 0.0000000000000000
4.8585786437626908 8.7085786437626904 0.0000000000000000
5.0000000000000000 8.6500000000000004 0.0000000000000000
5.1414213562373092 8.7085786437626904 0.0000000000000000
5.4000000000000004 8.8499999999999996 0.0000000000000000
5.0000000000000000 9.2500000000000000 0.0000000000000000
4.5999999999999996 8.8499999999999996 0.0000000000000000
5.0000000000000000 8.4499999999999993 0.0000000000000000
1.3500000000000001 5.0000000000000000 0.0000000000000000
1.2914213562373089 5.1414213562373092 0.0000000000000000
1.1499999999999999 5.2000000000000002 0.0000000000000000
1.0033286437626900 5.1414213562373092 0.0000000000000000
0.9447500000000000 5.0000000000000000 0.0000000000000000
1.0033286437626900 4.8585786437626908 0.0000000000000000
1.1447499999999999 4.7999999999999998 0.0000000000000000
1.2914213562373089 4.8585786437626908 0.0000000000000000
1.5500000000000000 5.0000000000000000 0.0000000000000000
1.1499999999999999 5.4000000000000004 0.0000000000000000
0.7499999999999999 5.0000000000000000 0.0000000000000000
1.1499999999999999 4.5999999999999996 0.0000000000000000
9.0552499999999991 5.0000000000000000 0.0000000000000000
8.9966713562373091 5.1414213562373092 0.0000000000000000
8.8552499999999998 5.2000000000000002 0.0000000000000000
8.7085786437626904 5.1414213562373092 0.0000000000000000
8.6500000000000004 5.0000000000000000 0.0000000000000000
8.7085786437626904 4.8585786437626908 0.0000000000000000
8.8499999999999996 4.7999999999999998 0.0000000000000000
8.9966713562373091 4.8585786437626908 0.0000000000000000
9.2500000000000000 5.0000000000000000 0.0000000000000000
8.8499999999999996 5.4000000000000004 0.0000000000000000
8.4499999999999993 5.0000000000000000 0.0000000000000000
8.8499999999999996 4.5999999999999996 0.0000000000000000
6.6750000000000007 1.1499999999999999 0.0000000000000000
6.6164213562373098 1.2914213562373089 0.0000000000000000
6.4750000000000014 1.3500000000000001 0.0000000000000000
6.3335786437626913 1.2914213562373089 0.0000000000000000
6.2750000000000004 1.1499999999999999 0.0000000000000000
6.3335786437626913 1.0033286437626900 0.0000000000000000
6.4750000000000014 0.9447500000000000 0.0000000000000000
6.6164213562373098 1.0033286437626900 0.0000000000000000
6.8750000000000009 1.1499999999999999 0.0000000000000000
6.4750000000000014 1.5500000000000000 0.0000000000000000
6.0750000000000002 1.1499999999999999 0.0000000000000000
6.4750000000000014 0.7499999999999999 0.0000000000000000
6.6750000000000007 8.8499999999999996 0.0000000000000000
6.6164213562373098 8.9966713562373091 0.0000000000000000
6.4750000000000014 9.0552499999999991 0.0000000000000000
6.3335786437626913 8.9966713562373091 0.0000000000000000
6.2750000000000004 8.8552499999999998 0.0000000000000000
6.3335786437626913 8.7085786437626904 0.0000000000000000
6.4750000000000014 8.6500000000000004 0.0000000000000000
6.6164213562373098 8.7085786437626904 0.0000000000000000
6.8750000000000009 8.8499999999999996 0.0000000000000000
6.4750000000000014 9.2500000000000000 0.0000000000000000
6.0750000000000002 8.8499999999999996 0.0000000000000000
6.4750000000000014 8.4499999999999993 0.0000000000000000
1.3500000000000001 6.4750000000000014 0.0000000000000000
1.2914213562373089 6.6164213562373098 0.0000000000000000
1.1499999999999999 6.6750000000000007 0.0000000000000000
1.0033286437626900 6.6164213562373098 0.0000000000000000
0.9447500000000000 6.4750000000000014 0.0000000000000000
1.0033286437626900 6.3335786437626913 0.0000000000000000
1.1447499999999999 6.2750000000000004 0.0000000000000000
1.2914213562373089 6.3335786437626913 0.0000000000000000
1.5500000000000000 6.4750000000000014 0.0000000000000000
1.1499999999999999 6.8750000000000009 0.0000000000000000
0.7499999999999999 6.4750000000000014 0.0000000000000000
1.1499999999999999 6.0750000000000002 0.0000000000000000
9.0552499999999991 6.4750000000000014 0.0000000000000000
8.9966713562373091 6.6164213562373098 0.0000000000000000
8.8552499999999998 6.6750000000000007 0.0000000000000000
8.7085786437626904 6.6164213562373098 0.0000000000000000
8.6500000000000004 6.4750000000000014 0.0000000000000000
8.7085786437626904 6.3335786437626913 0.0000000000000000
8.8499999999999996 6.2750000000000004 0.0000000000000000
8.9966713562373091 6.3335786437626913 0.0000000000000000
9.2500000000000000 6.4750000000000014 0.0000000000000000
8.8499999999999996 6.8750000000000009 0.0000000000000000
8.4499999999999993 6.4750000000000014 0.0000000000000000
8.8499999999999996 6.0750000000000002 0.0000000000000000
8.1500000000000004 1.1499999999999999 0.0000000000000000
8.0914213562373103 1.2914213562373089 0.0000000000000000
7.9500000000000002 1.3500000000000001 0.0000000000000000
7.8085786437626910 1.2914213562373089 0.0000000000000000
7.7500000000000000 1.1499999999999999 0.0000000000000000
7.8085786437626910 1.0033286437626900 0.0000000000000000
7.9500000000000002 0.9447500000000000 0.0000000000000000
8.0914213562373103 1.0033286437626900 0.0000000000000000
8.3499999999999996 1.1499999999999999 0.0000000000000000
7.9500000000000002 1.5500000000000000 0.0000000000000000
7.5499999999999998 1.1499999999999999 0.0000000000000000
7.9500000000000002 0.7499999999999999 0.0000000000000000
8.1500000000000004 8.8499999999999996 0.0000000000000000
8.0914213562373103 8.9966713562373091 0.0000000000000000
7.9500000000000002 9.0552499999999991 0.0000000000000000
7.8085786437626910 8.9966713562373091 0.0000000000000000
7.7500000000000000 8.8552499999999998 0.0000000000000000
7.8085786437626910 8.7085786437626904 0.0000000000000000
7.9500000000000002 8.6500000000000004 0.0000000000000000
8.0914213562373103 8.7085786437626904 0.0000000000000000
8.3499999999999996 8.8499999999999996 0.0000000000000000
7.9500000000000002 9.2500000000000000 0.0000000000000000
7.5499999999999998 8.8499999999999996 0.0000000000000000
7.9500000000000002 8.4499999999999993 0.0000000000000000
1.3500000000000001 7.9500000000000002 0.0000000000000000
1.2914213562373089 8.0914213562373103 0.0000000000000000
1.1499999999999999 8.1500000000000004 0.0000000000000000
1.0033286437626900 8.0914213562373103 0.0000000000000000
0.9447500000000000 7.9500000000000002 0.0000000000000000
1.0033286437626900 7.8085786437626910 0.0000000000000000
1.1447499999999999 7.7500000000000000 0.0000000000000000
1.2914213562373089 7.8085786437626910 0.0000000000000000
1.5500000000000000 7.9500000000000002 0.0000000000000000
1.1499999999999999 8.3499999999999996 0.0000000000000000
0.7499999999999999 7.9500000000000002 0.0000000000000000
1.1499999999999999 7.5499999999999998 0.0000000000000000
9.0552499999999991 7.9500000000000002 0.0000000000000000
8.9966713562373091 8.0914213562373103 0.0000000000000000
8.8552499999999998 8.1500000000000004 0.0000000000000000
8.7085786437626904 8.0914213562373103 0.0000000000000000
8.6500000000000004 7.9500000000000002 0.0000000000000000
8.7085786437626904 7.8085786437626910 0.0000000000000000
8.8499999999999996 7.7500000000000000 0.0000000000000000
8.9966713562373091 7.8085786437626910 0.0000000000000000
9.2500000000000000 7.9500000000000002 0.0000000000000000
8.8499999999999996 8.3499999999999996 0.0000000000000000
8.4499999999999993 7.9500000000000002 0.0000000000000000
8.8499999999999996 7.5499999999999998 0.0000000000000000
0.4999999999995512 0.0000000000000000 0.0000000000000000
0.9999999999991893 0.0000000000000000 0.0000000000000000
1.4999999999982849 0.0000000000000000 0.0000000000000000
1.9999999999968270 0.0000000000000000 0.0000000000000000
2.4999999999953681 0.0000000000000000 0.0000000000000000
2.9999999999939102 0.0000000000000000 0.0000000000000000
3.4999999999924509 0.0000000000000000 0.0000000000000000
3.9999999999910272 0.0000000000000000 0.0000000000000000
4.4999999999916493 0.0000000000000000 0.0000000000000000
4.9999999999924114 0.0000000000000000 0.0000000000000000
5.4999999999931717 0.0000000000000000 0.0000000000000000
5.9999999999939320 0.0000000000000000 0.0000000000000000
6.4999999999946940 0.0000000000000000 0.0000000000000000
6.9999999999954552 0.0000000000000000 0.0000000000000000
7.4999999999962164 0.0000000000000000 0.0000000000000000
7.9999999999969784 0.0000000000000000 0.0000000000000000
8.4999999999977334 0.0000000000000000 0.0000000000000000
8.9999999999984901 0.0000000000000000 0.0000000000000000
9.4999999999992450 0.0000000000000000 0.0000000000000000
10.0000000000000000 0.4999999999995512 0.0000000000000000
10.0000000000000000 0.9999999999991893 0.0000000000000000
10.0000000000000000 1.4999999999982849 0.0000000000000000
10.0000000000000000 1.9999999999968270 0.0000000000000000
10.0000000000000000 2.4999999999953681 0.0000000000000000
10.0000000000000000 2.9999999999939102 0.0000000000000000
10.0000000000000000 3.4999999999924509 0.0000000000000000
10.0000000000000000 3.9999999999910272 0.0000000000000000
10.0000000000000000 4.4999999999916493 0.0000000000000000
10.0000000000000000 4.9999999999924114 0.0000000000000000
10.0000000000000000 5.4999999999931717 0.0000000000000000
10.0000000000000000 5.9999999999939320 0.0000000000000000
10.0000000000000000 6.4999999999946940 0.0000000000000000
10.0000000000000000 6.9999999999954552 0.0000000000000000
10.0000000000000000 7.4999999999962164 0.0000000000000000
10.0000000000000000 7.9999999999969784 0.0000000000000000
10.0000000000000000 8.4999999999977334 0.0000000000000000
10.0000000000000000 8.9999999999984901 0.0000000000000000
10.0000000000000000 9.4999999999992450 0.0000000000000000
9.4999999999999982 10.0000000000000000 0.0000000000000000
8.9999999999999982 10.0000000000000000 0.0000000000000000
8.4999999999999964 10.0000000000000000 0.0000000000000000
7.9999999999999956 10.0000000000000000 0.0000000000000000
7.4999999999999947 10.0000000000000000 0.0000000000000000
6.9999999999999938 10.0000000000000000 0.0000000000000000
6.4999999999999929 10.0000000000000000 0.0000000000000000
5.9999999999999911 10.0000000000000000 0.0000000000000000
5.4999999999999902 10.0000000000000000 0.0000000000000000
4.9999999999999893 10.0000000000000000 0.0000000000000000
4.4999999999999876 10.0000000000000000 0.0000000000000000
3.9999999999999880 10.0000000000000000 0.0000000000000000
3.4999999999999871 10.0000000000000000 0.0000000000000000
2.9999999999999849 10.0000000000000000 0.0000000000000000
2.4999999999999840 10.0000000000000000 0.0000000000000000
1.9999999999999820 10.0000000000000000 0.0000000000000000
1.4999999999999880 10.0000000000000000 0.0000000000000000
0.9999999999999911 10.0000000000000000 0.0000000000000000
0.4999999999999964 10.0000000000000000 0.0000000000000000
0.0000000000000000 9.4999999999999982 0.0000000000000000
0.0000000000000000 8.9999999999999982 0.0000000000000000
0.0000000000000000 8.4999999999999964 0.0000000000000000
0.0000000000000000 7.9999999999999956 0.0000000000000000
0.0000000000000000 7.4999999999999947 0.0000000000000000
0.0000000000000000 6.9999999999999938 0.0000000000000000
0.0000000000000000 6.4999999999999929 0.0000000000000000
0.0000000000000000 5.9999999999999911 0.0000000000000000
0.0000000000000000 5.4999999999999902 0.0000000000000000
0.0000000000000000 4.9999999999999893 0.0000000000000000
0.0000000000000000 4.4999999999999876 0.0000000000000000
0.0000000000000000 3.9999999999999880 0.0000000000000000
0.0000000000000000 3.4999999999999871 0.0000000000000000
0.0000000000000000 2.9999999999999849 0.0000000000000000
0.0000000000000000 2.4999999999999840 0.0000000000000000
0.0000000000000000 1.9999999999999820 0.0000000000000000
0.0000000000000000 1.4999999999999880 0.0000000000000000
0.0000000000000000 0.9999999999999911 0.0000000000000000
0.0000000000000000 0.4999999999999964 0.0000000000000000
1.2893627605677971 0.4039453131408748 0.0000000000000000
9.5960546868591283 1.2893627605677851 0.0000000000000000
0.4039453131416964 1.2893627605693720 0.0000000000000000
1.2893627605693680 9.5960546868583023 0.0000000000000000
8.7106372394306248 9.5960546868583041 0.0000000000000000
0.4039453131416960 8.7106372394306231 0.0000000000000000
9.5960546868577801 8.7106372394285660 0.0000000000000000
8.7106372394285518 0.4039453131422275 0.0000000000000000
5.7075233914240791 0.4042393686776080 0.0000000000000000
9.5957606313223884 5.7075233914240791 0.0000000000000000
5.7075233914302368 9.5957606313225146 0.0000000000000000
0.4042393686774852 5.7075233914302341 0.0000000000000000
0.4042393686774870 4.2924766085697446 0.0000000000000000
4.2924766085697446 9.5957606313225163 0.0000000000000000
4.2924766085613086 0.4042393686777679 0.0000000000000000
9.5957606313222321 4.2924766085613069 0.0000000000000000
7.2069014692790221 0.4049680369470985 0.0000000000000000
9.5950319630528966 7.2069014692790212 0.0000000000000000
9.5950319630544136 2.7930985307109211 0.0000000000000000
2.7930985307109228 0.4049680369455825 0.0000000000000000
7.2069014692833626 9.5950319630534118 0.0000000000000000
0.4049680369465854 7.2069014692833644 0.0000000000000000
2.7930985307166170 9.5950319630534118 0.0000000000000000
0.4049680369465844 2.7930985307166138 0.0000000000000000
1.6708501783167731 0.3863520175059511 0.0000000000000000
1.4885952842359449 0.7425995741786342 0.0000000000000000
1.1412865090567641 0.7721447548851975 0.0000000000000000
9.6136479824940473 1.6708501783167720 0.0000000000000000
9.2574004258213645 1.4885952842359440 0.0000000000000000
9.2278552451148013 1.1412865090567650 0.0000000000000000
1.6708501783182761 9.6136479824933581 0.0000000000000000
1.4885952842374850 9.2574004258210483 0.0000000000000000
1.1412865090584210 9.2278552451134228 0.0000000000000000
0.3863520175066478 1.6708501783182710 0.0000000000000000
0.7425995741789606 1.4885952842374710 0.0000000000000000
8.3291498216817104 9.6136479824933527 0.0000000000000000
8.5114047157625006 9.2574004258210447 0.0000000000000000
8.8587134909415628 9.2278552451134157 0.0000000000000000
0.3863520175066551 8.3291498216817210 0.0000000000000000
0.7425995741789655 8.5114047157625219 0.0000000000000000
8.3291498216798718 0.3863520175071021 0.0000000000000000
8.5114047157606176 0.7425995741789477 0.0000000000000000
9.6136479824928998 8.3291498216798736 0.0000000000000000
9.2574004258210554 8.5114047157606265 0.0000000000000000
3.1674386036702278 0.3860908059164893 0.0000000000000000
2.9863879636863939 0.7354510674391217 0.0000000000000000
2.6418218847319102 0.7717396649900677 0.0000000000000000
2.4421404012633641 0.4849557342742457 0.0000000000000000
9.6139091940834991 3.1674386036702189 0.0000000000000000
9.2645489325608725 2.9863879636863890 0.0000000000000000
9.2170866278041359 2.6572742118381929 0.0000000000000000
9.5137140624869581 2.4439799640141149 0.0000000000000000
0.3860908059173203 3.1674386036752100 0.0000000000000000
0.7354510674380645 2.9863879636915631 0.0000000000000000
0.7717396649917603 2.6418218847376682 0.0000000000000000
0.5043563073679382 2.4236159203324301 0.0000000000000000
3.1674386036752100 9.6139091940826766 0.0000000000000000
2.9863879636915671 9.2645489325619348 0.0000000000000000
2.6413943757926082 9.2341267297758520 0.0000000000000000
2.4235973729847569 9.4958982044139386 0.0000000000000000
6.8325613963247713 9.6139091940826784 0.0000000000000000
7.0136752201178334 9.2644205831630035 0.0000000000000000
7.3586146504658654 9.2341083941474267 0.0000000000000000
7.5764030186167490 9.4958974089281796 0.0000000000000000
0.3860908059173205 6.8325613963247740 0.0000000000000000
0.7354510674380570 7.0136120363084178 0.0000000000000000
0.7780257977669484 7.3493021401191028 0.0000000000000000
0.4857040834158266 7.5568029350244226 0.0000000000000000
6.8325613963210259 0.3860908059177289 0.0000000000000000
7.0136120363045116 0.7354510674370440 0.0000000000000000
7.3586056242037383 0.7658732702247277 0.0000000000000000
7.5764026270113334 0.5041017955868261 0.0000000000000000
9.6139091940822645 6.8325613963210294 0.0000000000000000
9.2645489325629402 7.0136120363045196 0.0000000000000000
9.2613161964755868 7.3446308197128616 0.0000000000000000
9.5189794873264617 7.5562468254491737 0.0000000000000000
9.5602283186989716 4.6398490411693736 0.0000000000000000
9.2639816785339377 4.4954771650922796 0.0000000000000000
9.2329423744454449 4.1383944557875179 0.0000000000000000
9.4949208302289119 3.9220746832577640 0.0000000000000000
4.7056942027770106 0.3866054676351999 0.0000000000000000
4.4958895133822354 0.7315017099269715 0.0000000000000000
4.1379057800088779 0.7670694956050578 0.0000000000000000
3.9220534822053130 0.5050796847496811 0.0000000000000000
0.3883194512592068 4.6981430621294828 0.0000000000000000
0.7372522921741206 4.4941305957451467 0.0000000000000000
0.7678910073554632 4.1376545060671290 0.0000000000000000
0.5017562409619658 3.9251666943802248 0.0000000000000000
4.6398490411773814 9.5602283186996413 0.0000000000000000
4.4954771651011036 9.2639816785348010 0.0000000000000000
4.1383944557951864 9.2329423744447556 0.0000000000000000
3.9252116378768251 9.4982943774661450 0.0000000000000000
5.2947100690205406 9.6040294294199864 0.0000000000000000
5.5021284417890994 9.2775552710567588 0.0000000000000000
5.8618110707234656 9.2342243588203790 0.0000000000000000
6.0748008455122884 9.4983722433781654 0.0000000000000000
0.3866054676356619 5.2943057972187146 0.0000000000000000
0.7315017099253526 5.5041104866126647 0.0000000000000000
0.7670694956056403 5.8620942199839714 0.0000000000000000
0.5017063435038865 6.0748180435966219 0.0000000000000000
5.3018569378670657 0.3883194512589082 0.0000000000000000
5.5067699914037931 0.7387433879024016 0.0000000000000000
5.8619265665579698 0.7674469207614164 0.0000000000000000
6.0776526501802373 0.5047702211490738 0.0000000000000000
9.6040294294208977 5.2947100690156246 0.0000000000000000
9.2775552710571194 5.5021284417843068 0.0000000000000000
9.2348814590899408 5.8612634880408949 0.0000000000000000
9.5039548243824719 6.0690877204539584 0.0000000000000000
9.2278552451125417 8.8587134909395147 0.0000000000000000
8.8587134909394987 0.7721447548874716 0.0000000000000000
0.7721447548865750 8.8587134909415841 0.0000000000000000
0.7721447548865701 1.1412865090584050 0.0000000000000000
9.1259408469164818 0.4357333388125131 0.0000000000000000
9.5642666611878333 0.8740591530804849 0.0000000000000000
9.5642666611875136 9.1259408469168726 0.0000000000000000
9.1259408469186329 9.5642666611874816 0.0000000000000000
0.4357333388119069 0.8740591530815960 0.0000000000000000
0.8740591530803483 0.4357333388115386 0.0000000000000000
0.8740591530812307 9.5642666611880944 0.0000000000000000
0.4357333388119001 9.1259408469187626 0.0000000000000000
9.0474984166707149 2.8408807246459542 0.0000000000000000
2.8346081498466491 0.9770757470854671 0.0000000000000000
0.9882811367307173 2.8184455416926948 0.0000000000000000
2.8287352057129640 9.0185939352020235 0.0000000000000000
0.9971865586379027 7.1542214836592368 0.0000000000000000
7.1808383803653424 9.0322064563803455 0.0000000000000000
7.1909262461483046 0.9858886899138815 0.0000000000000000
9.0245405826444074 7.2109598443798220 0.0000000000000000
1.3045775636074299 1.0162461115407151 0.0000000000000000
8.9956586796161471 1.3229624830162889 0.0000000000000000
1.0056231776190121 1.3124796367467519 0.0000000000000000
1.0368568771204201 8.6807084305137074 0.0000000000000000
1.3106337913671939 9.0326713459893142 0.0000000000000000
8.6796990146581194 8.9542277286486716 0.0000000000000000
8.6843410453713439 1.0067512459337800 0.0000000000000000
9.0027192837576369 8.6868847995373599 0.0000000000000000
9.0301741085752099 4.3247255213340381 0.0000000000000000
4.3193941404221761 0.9670503228922767 0.0000000000000000
4.3191512850643514 9.0214940081388164 0.0000000000000000
0.9833836303383299 4.3215829360297171 0.0000000000000000
5.6799231652581081 9.0262594814121826 0.0000000000000000
0.9640143597029136 5.6787722083905168 0.0000000000000000
5.6780245132309108 0.9722792226852467 0.0000000000000000
9.0240025875599770 5.6794717131233039 0.0000000000000000
6.1340713335665438 0.7915265892928753 0.0000000000000000
9.2066793771128577 6.1437872577800920 0.0000000000000000
0.7908151411389894 6.1366379947892016 0.0000000000000000
6.1365879368983904 9.2094135990790349 0.0000000000000000
3.8652230503333418 9.2104240405091122 0.0000000000000000
0.7909603760069677 3.8633175825487820 0.0000000000000000
9.2066793771181565 3.8562127422075840 0.0000000000000000
3.8562127422075880 0.7933206228818490 0.0000000000000000
7.6375011287760870 0.7872330439880770 0.0000000000000000
9.2162698532532321 7.6037178793095634 0.0000000000000000
7.6375011287796841 9.2127669560136276 0.0000000000000000
0.7818732451610495 7.6092483064647194 0.0000000000000000
2.3624988712202968 9.2127669560136365 0.0000000000000000
0.7880126510953401 2.3673549073721869 0.0000000000000000
2.3878874013774749 0.7787532331316621 0.0000000000000000
9.2094712130602883 2.3849992124453210 0.0000000000000000
0.4460632726950174 9.5539367273049827 0.0000000000000000
9.5607305604428383 9.5607305604421420 0.0000000000000000
0.4392694395567217 0.4392694395571430 0.0000000000000000
9.5607305604417867 0.4392694395570849 0.0000000000000000
1.7960806972377441 0.6890732429553671 0.0000000000000000
9.3109267570446299 1.7960806972377401 0.0000000000000000
0.6890732429559432 1.7960806972385730 0.0000000000000000
0.6879374371655873 8.2043897689240168 0.0000000000000000
1.7960806972385801 9.3109267570440597 0.0000000000000000
8.2039193027614079 9.3109267570440544 0.0000000000000000
9.3109267570436636 8.2039193027603154 0.0000000000000000
8.2039193027603154 0.6890732429563371 0.0000000000000000
1.9902254063380040 0.4509926195223025 0.0000000000000000
9.5490073804776863 1.9902254063380069 0.0000000000000000
1.9718934663286740 9.5164967051050127 0.0000000000000000
0.4835032948950029 1.9718934663286629 0.0000000000000000
8.0281065336713198 9.5164967051049949 0.0000000000000000
0.4508033185581742 8.0098530046872121 0.0000000000000000
9.5490073804761710 8.0097745936584062 0.0000000000000000
8.0281065336705524 0.4835032948961339 0.0000000000000000
1.0592996012066200 8.9498866795175758 0.0000000000000000
8.9604339286528738 8.9487294527823931 0.0000000000000000
1.0520960834175079 1.0520960834191460 0.0000000000000000
8.9512367847647756 1.0536793350827289 0.0000000000000000
9.3127193347674950 3.2847992024859471 0.0000000000000000
9.1081694575205230 3.1967349582474158 0.0000000000000000
3.2843287363233711 0.6861448594421280 0.0000000000000000
3.1964549188649332 0.8911544676042529 0.0000000000000000
0.6872806652324497 3.2847992024888870 0.0000000000000000
0.8918305424773868 3.1967349582513509 0.0000000000000000
3.2847992024888830 9.3127193347675448 0.0000000000000000
3.1967349582513478 9.1081694575226102 0.0000000000000000
0.6872806652324495 6.7152007975111072 0.0000000000000000
0.8918305424773775 6.8032650417486362 0.0000000000000000
6.7152113281460117 9.3126979432010550 0.0000000000000000
6.8033089193940706 9.1080803259955729 0.0000000000000000
9.3127193347677402 6.7152007975088690 0.0000000000000000
9.1081694575242764 6.8032650417457301 0.0000000000000000
6.7156712636714477 0.6861448594418775 0.0000000000000000
6.8035450811281990 0.8911544676004776 0.0000000000000000
3.4707634395206202 0.4717317658260226 0.0000000000000000
9.5281330191989149 3.4708194473970981 0.0000000000000000
0.4708020417966963 3.4703865989755251 0.0000000000000000
3.4703865989755212 9.5291979582032997 0.0000000000000000
0.4708020417967024 6.5296134010244682 0.0000000000000000
6.5296146546714784 9.5291954115882422 0.0000000000000000
6.5213566347061738 0.4599912858922749 0.0000000000000000
9.5426378087513068 6.5209095945844009 0.0000000000000000
1.6921235503199090 0.8781539140001073 0.0000000000000000
9.1218460859998931 1.6921235503199010 0.0000000000000000
1.6921235503211620 9.1218460859997013 0.0000000000000000
8.3078764496788224 9.1218460859996995 0.0000000000000000
0.8781539140003047 1.6921235503211500 0.0000000000000000
0.8770181082099445 8.3083469158414403 0.0000000000000000
9.1218460859996515 8.3078764496773321 0.0000000000000000
8.3078764496773339 0.8781539140003536 0.0000000000000000
8.9584465264241437 5.8920818401897392 0.0000000000000000
8.7986556018431781 5.7649120200089783 0.0000000000000000
5.8921420174956909 1.0423760943607689 0.0000000000000000
5.7667005951961343 1.2058150323324510 0.0000000000000000
1.0321167673441509 5.8911980359955134 0.0000000000000000
1.2058150323331880 5.7667005952076140 0.0000000000000000
5.8916565712577311 8.9965708098812964 0.0000000000000000
5.7693487883116639 8.8059122270975436 0.0000000000000000
1.0190582509993980 4.1087173474049639 0.0000000000000000
1.1776786210253081 4.2272542885067832 0.0000000000000000
4.1074787601268694 8.9568607471726267 0.0000000000000000
4.2329635681738029 8.8067507059835126 0.0000000000000000
4.1082318479315969 1.0530529991848150 0.0000000000000000
4.2431340271187894 1.1776220909263040 0.0000000000000000
8.9623993104067630 4.1091486001666846 0.0000000000000000
8.8017446927649079 4.2412884910711330 0.0000000000000000
8.6948252881457666 7.6702302240222249 0.0000000000000000
8.6730988893871892 7.4798362823805986 0.0000000000000000
8.5228860398851225 7.6196101175415167 0.0000000000000000
8.4833477990574284 7.4222488193449694 0.0000000000000000
8.3400269879034106 7.5648606542620458 0.0000000000000000
8.2886708251383840 7.3713454142552157 0.0000000000000000
8.1482022560550380 7.5134576088177836 0.0000000000000000
8.0951583636496807 7.3208338753260254 0.0000000000000000
7.9548591533084592 7.4628980257747060 0.0000000000000000
7.9016935741762380 7.2702774540259121 0.0000000000000000
7.7612838963013147 7.4127404512740549 0.0000000000000000
7.7081376474076606 7.2199136869232250 0.0000000000000000
7.5677261331433119 7.3624083657102002 0.0000000000000000
7.5145827610657303 7.1695525196775280 0.0000000000000000
7.3741851365113433 7.3119950910225322 0.0000000000000000
7.3210314872725561 7.1191761765687946 0.0000000000000000
7.1806349978192179 7.2616141201381517 0.0000000000000000
7.1274781898487234 7.0688065281982597 0.0000000000000000
6.9870814850872858 7.2112451472708701 0.0000000000000000
6.9339244476016892 7.0184384180378991 0.0000000000000000
7.0743211437938571 6.8759998381137430 0.0000000000000000
6.8807673273593091 6.8256319930291696 0.0000000000000000
6.7403706188025483 6.9680706171326534 0.0000000000000000
6.6872135008868323 6.7752641838106094 0.0000000000000000
6.8276102114268058 6.6328255526210160 0.0000000000000000
6.6340563835029300 6.5824577485883706 0.0000000000000000
6.4936596728743190 6.7248963800946742 0.0000000000000000
6.4405025550897106 6.5320899463041719 0.0000000000000000
6.5808992656515359 6.3896513150364989 0.0000000000000000
6.3873454372508904 6.3392835127073912 0.0000000000000000
6.2469487266997721 6.4817221439367909 0.0000000000000000
6.1937916088531191 6.2889157103680251 0.0000000000000000
6.3341883194037489 6.1464770791403316 0.0000000000000000
6.1406344910038122 6.0961092768086989 0.0000000000000000
6.2810312015548471 5.9536706455795514 0.0000000000000000
6.0874773731546394 5.9033028432489001 0.0000000000000000
5.9470806626035824 6.0457414744781097 0.0000000000000000
5.8939235447543554 5.8529350409185010 0.0000000000000000
5.7535268342033081 5.9953736721476796 0.0000000000000000
5.7003697163540714 5.8025672385881020 0.0000000000000000
5.8407664269051232 5.6601286073589172 0.0000000000000000
5.6472125985048374 5.6097608050285288 0.0000000000000000
5.5068158879537847 5.7521994362577118 0.0000000000000000
5.4536587701045516 5.5593930026981386 0.0000000000000000
5.7876093090558864 5.4673221737993334 0.0000000000000000
5.3132620595535007 5.7018316339273269 0.0000000000000000
5.2601049417042676 5.5090252003677502 0.0000000000000000
5.1197082311532149 5.6514638315969368 0.0000000000000000
5.0665511133039827 5.4586573980373627 0.0000000000000000
4.9261544027529300 5.6010960292665501 0.0000000000000000
4.8729972849036969 5.4082895957069752 0.0000000000000000
5.0133939954547504 5.2658509644777878 0.0000000000000000
4.8198401670544628 5.2154831621473994 0.0000000000000000
4.9602368776055146 5.0730445309182137 0.0000000000000000
4.7666830492052306 5.0226767285878244 0.0000000000000000
4.9070797597562814 4.8802380973586388 0.0000000000000000
4.7135259313559974 4.8298702950282504 0.0000000000000000
4.6794434565034173 5.3579217933765841 0.0000000000000000
4.8539226419070491 4.6874316637990630 0.0000000000000000
4.6603688135067634 4.6370638614686754 0.0000000000000000
4.8007655240578142 4.4946252302394880 0.0000000000000000
4.6072116956575293 4.4442574279091014 0.0000000000000000
4.4668149851064776 4.5866960591382888 0.0000000000000000
4.4136578672572444 4.3938896255787139 0.0000000000000000
4.7476084062085810 4.3018187966799148 0.0000000000000000
4.9411622346088624 4.3521865990102997 0.0000000000000000
4.2732611567061927 4.5363282568079004 0.0000000000000000
4.2201040388569604 4.3435218232483237 0.0000000000000000
4.9793115206021641 5.7939024628261260 0.0000000000000000
4.8880051167596301 4.1593801654507256 0.0000000000000000
5.0815589451599150 4.2097479677811123 0.0000000000000000
4.0797073283059087 4.4859604544775111 0.0000000000000000
4.0265502104566746 4.2931540209179362 0.0000000000000000
5.0284018273106810 4.0169415342215373 0.0000000000000000
5.2219556557109623 4.0673093365519231 0.0000000000000000
5.1687985378617318 3.8745029029923490 0.0000000000000000
5.3623523662620132 3.9248707053227361 0.0000000000000000
3.8861534999056229 4.4355926521471236 0.0000000000000000
3.8329963820563879 4.2427862185875496 0.0000000000000000
5.3091952484127836 3.7320642717631629 0.0000000000000000
5.5027490768130711 3.7824320740935500 0.0000000000000000
5.1156414200125049 3.6816964694327781 0.0000000000000000
5.4495919589638371 3.5896256405339768 0.0000000000000000
5.6431457873641229 3.6399934428643670 0.0000000000000000
3.6925996715053371 4.3852248498167370 0.0000000000000000
3.6394425536561039 4.1924184162571621 0.0000000000000000
3.7798392642071561 4.0499797850279746 0.0000000000000000
3.5862854358068699 3.9996119826975871 0.0000000000000000
3.7266821463579221 3.8571733514684010 0.0000000000000000
3.5331283179576380 3.8068055491380108 0.0000000000000000
3.7457567893545720 4.5780312833763102 0.0000000000000000
3.6735250285086889 3.6643669179088252 0.0000000000000000
3.4799712001084071 3.6139991155784350 0.0000000000000000
5.5899886695148897 3.4471870093047920 0.0000000000000000
5.7835424979151719 3.4975548116351818 0.0000000000000000
5.8366996157644069 3.6903612451947549 0.0000000000000000
5.9770963263154604 3.5479226139655711 0.0000000000000000
6.0302534441646918 3.7407290475251460 0.0000000000000000
6.1706501547157453 3.5982904162959590 0.0000000000000000
6.2238072725649767 3.7910968498555340 0.0000000000000000
6.3642039831160249 3.6486582186263439 0.0000000000000000
6.4173611009652660 3.8414646521859050 0.0000000000000000
3.4458887252558150 4.1420506139267754 0.0000000000000000
3.6203679106594588 3.4715604843492489 0.0000000000000000
3.4268140822591762 3.4211926820188610 0.0000000000000000
6.3110468652667970 3.4558517850667680 0.0000000000000000
6.5046006936670757 3.5062195873971560 0.0000000000000000
5.7303853800659406 3.3047483780756051 0.0000000000000000
5.5368315516656574 3.2543805757452162 0.0000000000000000
6.4514435758178461 3.3134131538375802 0.0000000000000000
6.6449974042181266 3.3637809561679681 0.0000000000000000
3.2864173717081222 3.5636313132480462 0.0000000000000000
3.2332602538588908 3.3708248796884712 0.0000000000000000
5.6772282622167030 3.1119419445160288 0.0000000000000000
3.5672107928102288 3.2787540507896740 0.0000000000000000
5.4836744338164216 3.0615741421856399 0.0000000000000000
6.5918402863688987 3.1709745226083981 0.0000000000000000
6.7853941147691907 3.2213423249387789 0.0000000000000000
6.8385512326184363 3.4141487584983401 0.0000000000000000
5.6240711443674751 2.9191355109564570 0.0000000000000000
6.7322369969199514 3.0285358913792080 0.0000000000000000
6.9257908253202336 3.0789036937095990 0.0000000000000000
3.0928635433078360 3.5132635109176560 0.0000000000000000
3.0397064254586050 3.3204570773580802 0.0000000000000000
6.8726337074710031 2.8860972601500219 0.0000000000000000
7.0661875358712880 2.9364650624804089 0.0000000000000000
7.0130304180220566 2.7436586289208340 0.0000000000000000
6.0834105620139294 3.9335354810847138 0.0000000000000000
3.7607646212105128 3.3291218531200628 0.0000000000000000
3.7076075033612832 3.1363154195604892 0.0000000000000000
3.9011613317615672 3.1866832218908798 0.0000000000000000
3.8480042139123358 2.9938767883313049 0.0000000000000000
3.6544503855120518 2.9435089860009160 0.0000000000000000
5.4305173159671876 2.8687677086260668 0.0000000000000000
5.5709140265182437 2.7263290773968820 0.0000000000000000
7.2065383999425281 2.7942026105021829 0.0000000000000000
4.0415580423126212 3.0442445906616951 0.0000000000000000
3.9884009244633889 2.8514381571021201 0.0000000000000000
7.1534271285731119 2.6012199976916550 0.0000000000000000
5.2751127735602061 4.2601157701114829 0.0000000000000000
2.8993097149075511 3.4628957085872649 0.0000000000000000
2.8461525970583210 3.2700892750276900 0.0000000000000000
7.2597337231916086 2.9868622280192931 0.0000000000000000
7.4000833137495192 2.8446046699091481 0.0000000000000000
7.4273317797589362 7.5049040890751382 0.0000000000000000
6.6790798790707173 2.8357294578196299 0.0000000000000000
5.3773601981179580 2.6759612750664901 0.0000000000000000
5.5177569086690132 2.5335226438373049 0.0000000000000000
4.1819547528636747 2.9018059594325090 0.0000000000000000
4.1287976350144424 2.7089995258729340 0.0000000000000000
2.7057558865072671 3.4125279062568752 0.0000000000000000
2.6525987686580370 3.2197214726972989 0.0000000000000000
2.7589130043564971 3.6053343398164510 0.0000000000000000
2.7929954792090919 3.0772828414681150 0.0000000000000000
2.5994328597207010 3.0269488395682380 0.0000000000000000
2.7398368961785100 2.8844820413136238 0.0000000000000000
2.5462740324932280 2.8341489783145959 0.0000000000000000
2.6866792492360130 2.6916776420392181 0.0000000000000000
4.0947151601618561 3.2370510242212722 0.0000000000000000
7.6523356118599013 7.0316176579452589 0.0000000000000000
7.4532847923130179 3.0372406337305340 0.0000000000000000
7.5936810429842563 2.8948037697314901 0.0000000000000000
2.4933305972853921 2.6412535868884119 0.0000000000000000
2.6335576569781369 2.4988567212160691 0.0000000000000000
2.3526429677630780 2.7844132193391018 0.0000000000000000
2.8270832102353700 2.5492314844725992 0.0000000000000000
2.7739273007941891 2.3564237965234520 0.0000000000000000
2.9674760599407608 2.4067925962139332 0.0000000000000000
5.7113107370693008 2.5838904461676981 0.0000000000000000
5.6581536192200694 2.3910840126081201 0.0000000000000000
5.8517074476203534 2.4414518149385138 0.0000000000000000
4.3223514634147264 2.7593673282033242 0.0000000000000000
4.2691943455654924 2.5665608946437488 0.0000000000000000
4.0756405171652066 2.5161930923133600 0.0000000000000000
4.2160692174045078 2.3736136815734410 0.0000000000000000
4.4095963877312530 2.4240988001627759 0.0000000000000000
5.7986952555292577 2.2480884594164370 0.0000000000000000
5.9922732382225634 2.2983634414197449 0.0000000000000000
5.3242030802687283 2.4831548415069120 0.0000000000000000
2.5653591759562122 3.5549665374860600 0.0000000000000000
2.6185162938054432 3.7477729710456340 0.0000000000000000
5.1006335881565663 4.9306058996890263 0.0000000000000000
5.2901206054161376 3.0112063398552542 0.0000000000000000
4.3564721481727222 2.2311476765505032 0.0000000000000000
2.4396108569254351 2.4497838866246369 0.0000000000000000
2.9142986020255601 2.2139916578129051 0.0000000000000000
3.1078349152098892 2.2644115759947172 0.0000000000000000
2.4249624654051600 3.6974051687152438 0.0000000000000000
2.4781195832543901 3.8902116022748179 0.0000000000000000
7.6468824158270872 3.0876184948689911 0.0000000000000000
7.7872863689132901 2.9451815975822191 0.0000000000000000
7.7342238580491598 2.7524674006674510 0.0000000000000000
7.5064533081260922 3.2300110049761952 0.0000000000000000
7.9276716991179841 2.8027238903750331 0.0000000000000000
4.0223988275813616 2.3231024849264390 0.0000000000000000
2.2845657548541061 3.8398437999444281 0.0000000000000000
2.3377228727033370 4.0326502335040031 0.0000000000000000
2.5312767011036219 4.0830180358343942 0.0000000000000000
2.3908799905525702 4.2254566670635789 0.0000000000000000
2.5844338189528520 4.2758244693939691 0.0000000000000000
2.4440400794969341 4.4182622814863084 0.0000000000000000
2.6375914319846081 4.4686307664307350 0.0000000000000000
2.4971977750591110 4.6110685557692737 0.0000000000000000
2.6907487286497571 4.6614371506904089 0.0000000000000000
2.5503520479013568 4.8038757737029432 0.0000000000000000
2.7439054021338132 4.8542437067623494 0.0000000000000000
2.6035086175218960 4.9966823584102613 0.0000000000000000
2.7970623545507318 5.0470501859319397 0.0000000000000000
2.6566656164276292 5.1894888247627957 0.0000000000000000
2.8502194250039969 5.2398566325586762 0.0000000000000000
2.7098227065536191 5.3822952659657242 0.0000000000000000
2.9033765303333632 5.4326630695700047 0.0000000000000000
2.7629798176956699 5.5751017013744830 0.0000000000000000
2.9565336449780899 5.6254695040130702 0.0000000000000000
2.8161369338929529 5.7679081353895034 0.0000000000000000
3.0096907620179119 5.8182759377958044 0.0000000000000000
2.8692940513319560 5.9607145690621781 0.0000000000000000
3.0628478796638681 6.0110823714114234 0.0000000000000000
2.9224511690789350 6.1535210026499430 0.0000000000000000
3.1160049974621762 6.2038888049850360 0.0000000000000000
2.9756082869026299 6.3463274362165576 0.0000000000000000
3.1691621152986631 6.3966952385481246 0.0000000000000000
3.0287654047454788 6.5391338697778938 0.0000000000000000
3.2223192331447050 6.5895016721085797 0.0000000000000000
3.0819225225931159 6.7319403033379093 0.0000000000000000
3.2754763509931388 6.7823081056683723 0.0000000000000000
3.4158730615441502 6.6398694744392044 0.0000000000000000
3.4690301793932399 6.8326759079988131 0.0000000000000000
3.1350796404419512 6.9247467368975926 0.0000000000000000
3.6094268899442632 6.6902372767696434 0.0000000000000000
3.6625840077934622 6.8830437103292246 0.0000000000000000
2.9415258120416410 6.8743789345672113 0.0000000000000000
2.9946829298907711 7.0671853681268137 0.0000000000000000
2.8011291014904960 7.0168175657964156 0.0000000000000000
3.8029807183445090 6.7406050791000496 0.0000000000000000
3.8561378361937289 6.9334115126596281 0.0000000000000000
3.9965345467447810 6.7909728814304451 0.0000000000000000
4.0496916645940084 6.9837793149900236 0.0000000000000000
4.1900883751450646 6.8413406837608370 0.0000000000000000
4.2432454929942933 7.0341471173204173 0.0000000000000000
4.3836422035453460 6.8917084860912290 0.0000000000000000
4.4367993213945800 7.0845149196508084 0.0000000000000000
4.5771960319456308 6.9420762884216192 0.0000000000000000
3.7498236004952852 6.5477986455404613 0.0000000000000000
3.2032445902035320 5.8686437401853668 0.0000000000000000
2.8542862193397069 7.2096239993559994 0.0000000000000000
4.6303531497948676 7.1348827219811817 0.0000000000000000
4.7707498603459157 6.9924440907520031 0.0000000000000000
4.4899564392438203 7.2773213532103611 0.0000000000000000
4.8239069781951516 7.1852505243115656 0.0000000000000000
2.6607323909394229 7.1592561970256030 0.0000000000000000
4.9643036887462033 7.0428118930823818 0.0000000000000000
5.0174608065954391 7.2356183266419487 0.0000000000000000
3.7157411256426780 7.0758501438888084 0.0000000000000000
2.5694259889476050 5.5247338991399717 0.0000000000000000
2.7138895087886450 7.3520626305851797 0.0000000000000000
5.1578575171464882 7.0931796954127702 0.0000000000000000
5.2110146349957276 7.2859861289723460 0.0000000000000000
2.7820544585009328 6.2959596338865476 0.0000000000000000
2.9074433371889290 7.4024304329155726 0.0000000000000000
2.7670466266378679 7.5448690641447573 0.0000000000000000
2.5203356803883619 7.3016948282547824 0.0000000000000000
5.3514113455467713 7.1435474977431506 0.0000000000000000
5.4045684633960152 7.3363539313027291 0.0000000000000000
4.3304850856961199 6.6989020525316523 0.0000000000000000
5.1047003992972542 6.9003732618531837 0.0000000000000000
2.4671785625391371 7.1088883946952066 0.0000000000000000
2.3267818519880779 7.2513270259243896 0.0000000000000000
3.0437732401143340 5.2902244385531167 0.0000000000000000
5.5449651739470571 7.1939153000735283 0.0000000000000000
5.5981222917963027 7.3867217336331024 0.0000000000000000
5.4577255812452501 7.5291603648622898 0.0000000000000000
5.6512794096455474 7.5795281671926684 0.0000000000000000
5.7916761201965912 7.4370895359634783 0.0000000000000000
5.8456258553131706 7.6312282936618736 0.0000000000000000
5.7047664879978157 7.7740501815029903 0.0000000000000000
2.9606004550381528 7.5952368664751484 0.0000000000000000
2.8202037444870962 7.7376754977043358 0.0000000000000000
2.2504832800015180 4.3678952982927672 0.0000000000000000
5.9876380316150524 7.4899227452769122 0.0000000000000000
2.2737717163733242 7.0586654675440466 0.0000000000000000
2.1333995028613439 7.2011282446364362 0.0000000000000000
2.1864137213159460 7.3937938273273121 0.0000000000000000
6.0433995520418637 7.6859989256493488 0.0000000000000000
7.8746430226281294 2.6100426338027951 0.0000000000000000
7.8150110812193541 7.6054042208746431 0.0000000000000000
7.0402484366336573 7.4040683884986978 0.0000000000000000
6.8466864670626757 7.3536863826633567 0.0000000000000000
6.8998544373185924 7.5465072254499654 0.0000000000000000
5.0706179244446741 7.4284247602015103 0.0000000000000000
4.1028487824432363 7.1765857485496038 0.0000000000000000
2.1441690443030521 3.9822824311736120 0.0000000000000000
4.3755085812639596 2.9521737617628978 0.0000000000000000
6.3982864579686058 3.1206067202780070 0.0000000000000000
4.8348479989103996 3.9665737318911520 0.0000000000000000
6.9598733001728270 2.5508521953612600 0.0000000000000000
7.1001397312647621 2.4082851522865338 0.0000000000000000
6.9066944690804108 2.3580243598274300 0.0000000000000000
7.0465813367464287 2.2150784028286878 0.0000000000000000
7.2404261358845936 2.2657369977924571 0.0000000000000000
7.1868746891614403 2.0725369634270949 0.0000000000000000
7.3812083997928024 2.1236412717734221 0.0000000000000000
2.4631117834319940 5.1391210236993459 0.0000000000000000
5.8066839520525413 6.1881801057072554 0.0000000000000000
5.6131301236522484 6.1378123033768563 0.0000000000000000
5.6050206556638607 2.1981847587214598 0.0000000000000000
2.3718203752948379 3.5045945919781132 0.0000000000000000
4.7857576922018801 5.7435346604957367 0.0000000000000000
4.8389148100511132 5.9363410940553152 0.0000000000000000
4.6453609816508292 5.8859732917249268 0.0000000000000000
6.4745850299551346 6.0040384479099451 0.0000000000000000
6.4214279121059512 5.8112320143501721 0.0000000000000000
6.6149817405062503 5.8615998166805250 0.0000000000000000
6.5618246226570216 5.6687933831209110 0.0000000000000000
6.7553784510573118 5.7191611854512852 0.0000000000000000
6.7022213332080831 5.5263547518916996 0.0000000000000000
6.8957751616083662 5.5767225542220871 0.0000000000000000
6.8426180437591366 5.3839161206625086 0.0000000000000000
7.0361718721594224 5.4342839229928952 0.0000000000000000
6.9830147543101901 5.2414774894333220 0.0000000000000000
7.0893289900086511 5.6270903565524728 0.0000000000000000
6.7894609259099052 5.1911096871029283 0.0000000000000000
6.9298576364609588 5.0486710558737444 0.0000000000000000
7.1234114648612419 5.0990388582041346 0.0000000000000000
7.0702543470120096 4.9062324246445588 0.0000000000000000
6.7363038080606756 4.9983032535433498 0.0000000000000000
7.2638081754122918 4.9566002269749392 0.0000000000000000
7.2106510575630596 4.7637937934153669 0.0000000000000000
7.4042048859633400 4.8141615957457518 0.0000000000000000
7.3510477681141104 4.6213551621861768 0.0000000000000000
7.4573620038125821 5.0069680293053267 0.0000000000000000
7.5446015965143918 4.6717229645165688 0.0000000000000000
7.4914444786651666 4.4789165309569947 0.0000000000000000
7.6849983070654488 4.5292843332873884 0.0000000000000000
7.6318411892162246 4.3364778997278126 0.0000000000000000
7.2978906502648844 4.4285487286265983 0.0000000000000000
7.8253950176165050 4.3868457020582037 0.0000000000000000
7.7722378997672799 4.1940392684986314 0.0000000000000000
6.5959070975096239 5.1407418847725399 0.0000000000000000
6.5427499796603934 4.9479354512129596 0.0000000000000000
5.6662872415014824 6.3306187369364304 0.0000000000000000
2.7210116014472590 2.1635502717473818 0.0000000000000000
2.8611783305823830 2.0211749582436722 0.0000000000000000
4.3264182745554276 4.7291346903674762 0.0000000000000000
7.5786840713669994 4.1436714661682359 0.0000000000000000
7.7190807819180520 4.0012328349390458 0.0000000000000000
3.5522029609542849 4.5276634810459244 0.0000000000000000
3.9202359747582052 3.9075411537987912 0.0000000000000000
3.6053600788035221 4.7204699146054976 0.0000000000000000
4.5159052918150087 2.8097351305337162 0.0000000000000000
4.5690624096642436 3.0025415640932880 0.0000000000000000
4.5489734797037897 2.2819333377766018 0.0000000000000000
6.8085355689065477 5.9119676190108654 0.0000000000000000
4.7175927424966844 6.7996376571924104 0.0000000000000000
2.6757402229091918 5.9103467667379768 0.0000000000000000
5.4727334131011922 6.2802509346060393 0.0000000000000000
6.6831466902114514 4.8054968199837740 0.0000000000000000
6.4895928618111656 4.7551290176533776 0.0000000000000000
6.3491961512601094 4.8975676488825659 0.0000000000000000
6.6299895723622129 4.6126903864241946 0.0000000000000000
6.2960390334108753 4.7047612153229901 0.0000000000000000
6.1556423228598236 4.8471998465521713 0.0000000000000000
6.1024852050105958 4.6543934129925937 0.0000000000000000
5.9620884944595396 4.7968320442217758 0.0000000000000000
7.5255269535177733 3.9508650326086561 0.0000000000000000
5.9324741779173253 7.2950618058981256 0.0000000000000000
1.9926329984711910 7.3432074570910268 0.0000000000000000
5.7453932119218951 2.0558389478193622 0.0000000000000000
7.9657917281675612 4.2444070708290207 0.0000000000000000
7.7000488091692576 3.2804202999725511 0.0000000000000000
2.3568018381128439 4.7535152798849936 0.0000000000000000
3.0140135480688230 7.7879727271672410 0.0000000000000000
2.8736595000480070 7.9303995962518501 0.0000000000000000
2.6798568068879889 7.8801004064315103 0.0000000000000000
3.1541969459686769 7.6455929066609594 0.0000000000000000
2.7338168153512870 8.0737132451038693 0.0000000000000000
7.3292442596259608 1.9320413598690320 0.0000000000000000
8.0668515864835761 2.6590830785871602 0.0000000000000000
7.7381554249146776 4.7220907668469687 0.0000000000000000
1.9396084237964830 7.1515331179928658 0.0000000000000000
4.4957890009121373 2.0891331240116271 0.0000000000000000
4.3032768204180893 2.0385093962954128 0.0000000000000000
4.4414566775026074 1.8982464374272610 0.0000000000000000
4.6864845462004912 2.1412494609000539 0.0000000000000000
8.0444321813733044 7.1321962442598803 0.0000000000000000
4.2500122053286677 1.8483414231448569 0.0000000000000000
8.1195080560608766 2.8516916786704072 0.0000000000000000
7.1330881888361057 1.8838313763662200 0.0000000000000000
2.6679008610827530 1.9707309453167821 0.0000000000000000
2.8090317837246430 1.8280952671810060 0.0000000000000000
5.9089313766103100 4.6040256106622000 0.0000000000000000
4.6985180995000606 6.0787797252844964 0.0000000000000000
4.5049642710997766 6.0284119229541071 0.0000000000000000
4.4518071532505470 5.8356054893945322 0.0000000000000000
4.3114104426994908 5.9780441206237143 0.0000000000000000
4.2582533248502621 5.7852376870641384 0.0000000000000000
4.1178566142992086 5.9276763182933214 0.0000000000000000
4.0646994964499799 5.7348698847337429 0.0000000000000000
2.8120701222057218 3.7981407733760282 0.0000000000000000
3.9243027858989228 5.8773085159629277 0.0000000000000000
3.8711456680496972 5.6845020824033492 0.0000000000000000
4.0115423786007538 5.5420634511741662 0.0000000000000000
3.8179885502004698 5.4916956488437734 0.0000000000000000
3.0206328910455840 2.5995991497295332 0.0000000000000000
2.4140459417289888 6.9161061069988392 0.0000000000000000
2.2201300642529662 6.8664077810072843 0.0000000000000000
2.8311448646225248 4.5189986778736024 0.0000000000000000
6.1283708776528476 7.3477414447157248 0.0000000000000000
6.0452894560291632 2.4917113268873079 0.0000000000000000
6.1853332642755783 2.3506288317004680 0.0000000000000000
3.9583852607515260 5.3492570176145922 0.0000000000000000
6.8529606289012897 2.1646438811819229 0.0000000000000000
2.0457284840139001 7.5359539875215074 0.0000000000000000
5.5518434092371098 2.0054556754344568 0.0000000000000000
8.0189488460167908 4.4372135043885947 0.0000000000000000
6.1325008687224614 2.1565745524801452 0.0000000000000000
3.2076171494210559 7.8383268069956191 0.0000000000000000
3.3477661802826590 7.6959564615502494 0.0000000000000000
1.7998255478636160 7.2921728403766206 0.0000000000000000
1.7472281256709370 7.1031991555524323 0.0000000000000000
2.9265340361684591 8.1249579331446640 0.0000000000000000
5.7685346660592511 4.7464642418913803 0.0000000000000000
5.4918080560978142 7.0011088665139534 0.0000000000000000
2.9374590498732069 4.9046115589013057 0.0000000000000000
5.1838063697176748 2.6255934727360990 0.0000000000000000
2.5413405189167428 8.0282166018224750 0.0000000000000000
2.7861212696344988 8.2657269960526758 0.0000000000000000
5.6913377158167933 1.8632778055752590 0.0000000000000000
8.0148820348760879 2.4674461422244689 0.0000000000000000
8.2054809414285685 2.5164698084517458 0.0000000000000000
7.5210855465156730 1.9816384407281220 0.0000000000000000
7.4694698016170582 1.7906540835991360 0.0000000000000000
6.7081390266480359 7.4942658765756054 0.0000000000000000
6.7612138500570982 7.6882630942709520 0.0000000000000000
6.9533025259584491 7.7392176611341172 0.0000000000000000
6.8134501870914264 7.8821097069666681 0.0000000000000000
7.0062865133808341 7.9321408158507412 0.0000000000000000
6.6236409761728474 7.8337254038297717 0.0000000000000000
6.0729938022444419 7.1527345466409011 0.0000000000000000
6.2087994407090514 5.0400062801117613 0.0000000000000000
7.2297257005597064 5.4846517253232898 0.0000000000000000
7.2828828184089360 5.6774581588828639 0.0000000000000000
7.4232795289599922 5.5350195276536791 0.0000000000000000
7.4764366468092227 5.7278259612132540 0.0000000000000000
7.6168333573602780 5.5853873299840657 0.0000000000000000
7.6699722981066332 5.7781987750071160 0.0000000000000000
7.5295907351413121 5.9206332300167404 0.0000000000000000
7.8103987152488301 5.6358392620042697 0.0000000000000000
7.7231258815191994 5.9710061830179209 0.0000000000000000
7.5827467589982476 6.1134399651921720 0.0000000000000000
7.7780536573912258 6.1641034589813630 0.0000000000000000
7.9201506627377132 6.0215418207329039 0.0000000000000000
7.6359772389208711 6.3060765337259186 0.0000000000000000
7.4423650244657296 6.2558495276772099 0.0000000000000000
7.8281036707449632 6.3601285318345129 0.0000000000000000
4.1710137321484364 6.1204827518528981 0.0000000000000000
7.7572319894927100 5.4429627203698452 0.0000000000000000
7.9507838963116164 5.4933165010852694 0.0000000000000000
7.4953030730530266 6.4484327274169786 0.0000000000000000
3.3095588258490141 6.2542566073191326 0.0000000000000000
7.8976270987259447 5.3005124044615171 0.0000000000000000
3.1801031360096621 3.1780184461288981 0.0000000000000000
5.8176249727677556 2.9695033132868431 0.0000000000000000
5.4005016522553220 5.3665865691385486 0.0000000000000000
6.3682707942567376 5.6184255807905217 0.0000000000000000
5.5559061946623034 3.9752385076531138 0.0000000000000000
4.8920719279003446 6.1291475276148928 0.0000000000000000
4.3605007494080157 4.2010831920191407 0.0000000000000000
3.1882367582910729 7.1175531704571977 0.0000000000000000
6.2428819155616413 4.5119547817634151 0.0000000000000000
3.8820725934758200 2.4657779276784160 0.0000000000000000
3.8287912333741692 2.2728436693365892 0.0000000000000000
3.6885074548928669 2.4154203960873590 0.0000000000000000
2.3608121510077549 6.7233951555869300 0.0000000000000000
2.1667324296454131 6.6735638437968863 0.0000000000000000
3.7989139072038078 4.7708377169358851 0.0000000000000000
3.6585171966527592 4.9132763481650690 0.0000000000000000
3.6353709104311029 2.2226971422700519 0.0000000000000000
3.7755464660571971 2.0801917691257348 0.0000000000000000
2.3076021682201411 6.5305983851101566 0.0000000000000000
2.1103795201898818 6.4812412650132529 0.0000000000000000
2.2539036076134620 6.3378742045270373 0.0000000000000000
2.0565995299466908 6.2885291827457426 0.0000000000000000
2.2005524372389940 6.1450972050122168 0.0000000000000000
2.0052100865409170 6.0952144936011026 0.0000000000000000
2.1476575897094610 5.9522109678625892 0.0000000000000000
1.9523912928188729 5.9023100501790129 0.0000000000000000
2.0946005709347020 5.7593748987275877 0.0000000000000000
1.9010554351444520 5.7089944797196361 0.0000000000000000
2.0419216197452781 5.5664369262185982 0.0000000000000000
8.1595275110567247 4.2949274302782010 0.0000000000000000
8.1062187644667532 4.1019938657862962 0.0000000000000000
2.6138451798988389 1.7754658257691449 0.0000000000000000
2.4740527721137040 1.9204442401106629 0.0000000000000000
3.0043021132867760 1.8755059186243110 0.0000000000000000
3.3999393548773029 7.8915442567184124 0.0000000000000000
3.5411173058445482 7.7467984972058490 0.0000000000000000
3.5932541289805209 7.9424660391683917 0.0000000000000000
3.7345975080555909 7.7973376684436939 0.0000000000000000
3.7877511008231481 7.9905218312008417 0.0000000000000000
3.9283321781408498 7.8472150715362012 0.0000000000000000
3.9814922600779870 8.0404225652752519 0.0000000000000000
4.1219114464882773 7.8975569216237211 0.0000000000000000
4.1751137973116412 8.0904173955782142 0.0000000000000000
4.3154807996853171 7.9478582365757093 0.0000000000000000
4.3686814979836166 8.1407119546742877 0.0000000000000000
4.5090395275970119 7.9982027504706332 0.0000000000000000
4.0350686633038482 8.2336271049705481 0.0000000000000000
2.9776821999778811 8.3172339803997026 0.0000000000000000
2.0910119264538229 3.7894759976140362 0.0000000000000000
1.9488031831872621 3.9324326595439070 0.0000000000000000
8.4327079215005618 7.2259568364864091 0.0000000000000000
1.8482815551009850 5.5160812668518560 0.0000000000000000
1.9887501291887071 5.3736325164862961 0.0000000000000000
1.7589012432435240 5.8519128596470589 0.0000000000000000
6.8673204387534073 8.0747537187163108 0.0000000000000000
7.0572277275533253 8.1253688454218338 0.0000000000000000
7.1992449973110251 7.9826311851274818 0.0000000000000000
7.2498881398681947 8.1759196258173823 0.0000000000000000
7.3924656097910741 8.0331674260007180 0.0000000000000000
6.9159807073243336 8.2645066659134034 0.0000000000000000
2.7566333999575861 1.6341094229394220 0.0000000000000000
8.2127149546541105 4.4877592900242398 0.0000000000000000
4.3855107181104307 1.7073341090420611 0.0000000000000000
1.6100094967357299 7.2440490637525716 0.0000000000000000
5.4991523035501970 1.8103892701165620 0.0000000000000000
5.3579254487326624 1.9503944142683269 0.0000000000000000
7.4452268361577660 8.2282087764856815 0.0000000000000000
7.5859246667294036 8.0861519005168994 0.0000000000000000
7.3025760613160928 8.3686336918139599 0.0000000000000000
4.1903528274188204 1.6563182399412659 0.0000000000000000
3.5822147216045481 2.0301184819229481 0.0000000000000000
1.6609808137806099 7.4352721496384842 0.0000000000000000
5.8216917839084781 4.9392706754509561 0.0000000000000000
3.6775918396494118 5.6341342800729501 0.0000000000000000
3.6244347218001818 5.4413278465133734 0.0000000000000000
4.5581213889490106 6.2212183565136829 0.0000000000000000
6.2665681162740912 7.2031209109666037 0.0000000000000000
2.2395008851308771 7.5865358714323294 0.0000000000000000
2.0990959317941820 7.7289105109343978 0.0000000000000000
7.4339194164454172 2.3168931077671351 0.0000000000000000
5.5258905309504209 6.4730573681656134 0.0000000000000000
5.7194443593507067 6.5234251704959920 0.0000000000000000
5.3323367025501369 6.4226895658352223 0.0000000000000000
3.4649633682524779 4.8629085458346779 0.0000000000000000
4.7094591202152927 2.8601029328641019 0.0000000000000000
4.7626162380645312 3.0529093664236728 0.0000000000000000
4.6222195275134830 3.1953479976528620 0.0000000000000000
5.6281379555081932 4.8889028731205606 0.0000000000000000
5.7153775482100233 4.5536578083318036 0.0000000000000000
6.7130589957872679 2.3075751512988920 0.0000000000000000
6.6569560781518167 2.1154258710392169 0.0000000000000000
7.3019245673649760 6.3982695745260223 0.0000000000000000
7.2487966699677688 6.2054972492063492 0.0000000000000000
3.4880903947313588 7.5536075422657243 0.0000000000000000
6.2387656807063232 2.5423773454791530 0.0000000000000000
4.8157733559137714 3.2457157999832469 0.0000000000000000
4.6753766453627197 3.3881544312124370 0.0000000000000000
5.1314479568528402 2.4335742943722658 0.0000000000000000
7.6659236640688322 3.8084264013794580 0.0000000000000000
7.4723698356685544 3.7580585990490749 0.0000000000000000
7.3319731251174911 3.9004972302782588 0.0000000000000000
7.2788160072682659 3.7076907967186781 0.0000000000000000
7.1384192967172080 3.8501294279478619 0.0000000000000000
4.1519390891518100 5.3996248199449859 0.0000000000000000
4.0987819713025821 5.2068183863854101 0.0000000000000000
3.8751698659432749 7.6543975755768461 0.0000000000000000
5.8557742587610822 4.4112191771026241 0.0000000000000000
4.2623187304731980 7.7550317150539279 0.0000000000000000
8.0923547577362296 5.3520538164314440 0.0000000000000000
8.1440116406599614 5.5430224585994319 0.0000000000000000
8.2838176593862158 5.4037461816094332 0.0000000000000000
8.0389637995711070 5.1589176212134138 0.0000000000000000
8.2999596016472807 4.1525184629332212 0.0000000000000000
8.3345562860354612 5.5917729661966646 0.0000000000000000
2.5620512400973952 1.5807375644249559 0.0000000000000000
4.5615749295444914 8.1933490899843111 0.0000000000000000
4.7021784289887476 8.0503535154290056 0.0000000000000000
4.6493614534089298 7.8560456361111202 0.0000000000000000
4.8425107687180713 7.9086756028283407 0.0000000000000000
2.8394080758367219 8.4553498951709045 0.0000000000000000
2.6494278790138601 8.4112101576162601 0.0000000000000000
4.4222480323406099 8.3328467998299978 0.0000000000000000
1.9654803489250761 6.6288858621560056 0.0000000000000000
4.5758873714590500 1.7563878016574690 0.0000000000000000
8.2466264259824076 3.9595644162355499 0.0000000000000000
5.6387694526869616 1.6708028236647441 0.0000000000000000
5.8307571329736252 1.7202926990159031 0.0000000000000000
5.4500099311264139 1.6186031640037091 0.0000000000000000
7.4957775200187378 8.4210097768473151 0.0000000000000000
1.5673599046047411 7.0529921168638703 0.0000000000000000
4.6111855176086163 8.3852938113899569 0.0000000000000000
1.6940321308314250 6.9164953934206039 0.0000000000000000
7.6586547581284830 1.8395808197581320 0.0000000000000000
7.7144616599238844 2.0303284090910338 0.0000000000000000
7.6058147709983608 1.6535070267494929 0.0000000000000000
7.4191525233298954 1.6077117528397531 0.0000000000000000
3.7224380744531498 1.8879150491213390 0.0000000000000000
8.1540843840227151 2.3295972133771379 0.0000000000000000
4.5224396233455630 1.5695680075449290 0.0000000000000000
3.2574084236172269 8.0377751379651805 0.0000000000000000
1.9053464129895730 7.6781898783157603 0.0000000000000000
1.9586744171254991 7.8711041727624051 0.0000000000000000
8.2013437193941048 7.7079027164941829 0.0000000000000000
8.1978794270670718 5.7344116540755694 0.0000000000000000
8.3903062375357731 5.7817145250741433 0.0000000000000000
8.2545064229415495 5.9256474493418807 0.0000000000000000
8.4474017308102205 5.9725462137442351 0.0000000000000000
7.5332824908729528 7.8912417979518583 0.0000000000000000
7.7273521835427852 7.9417028817059050 0.0000000000000000
2.1521868115016898 7.9217345118903539 0.0000000000000000
6.3253731184618696 7.3957401918247871 0.0000000000000000
3.4840380112491300 5.5837664777425449 0.0000000000000000
6.2128662518497126 7.0097736422758832 0.0000000000000000
6.0193998002737299 6.9594928854681486 0.0000000000000000
3.4308808933999000 5.3909600441829664 0.0000000000000000
6.7993671300418894 1.9723009588411320 0.0000000000000000
5.6812950733574201 5.0817093066801329 0.0000000000000000
5.8748489017577059 5.1320771090105461 0.0000000000000000
7.8213282064758012 2.4170783398940738 0.0000000000000000
4.4818228169624330 3.3377866288820508 0.0000000000000000
4.5349799348116697 3.5305930624416271 0.0000000000000000
4.3414261064113822 3.4802252601112378 0.0000000000000000
4.3945832242606171 3.6730316936708149 0.0000000000000000
4.9911843637991860 2.5761441348007490 0.0000000000000000
7.3550743941225933 6.5910729106888741 0.0000000000000000
7.5429723666659472 6.6505611508540561 0.0000000000000000
2.0034703282994131 4.1248074008529114 0.0000000000000000
1.8080541329415249 4.0749720189648908 0.0000000000000000
1.8629645602238121 4.2672772098557470 0.0000000000000000
1.6702163218792700 4.2163665756917723 0.0000000000000000
1.7230955110335100 4.4090665871270751 0.0000000000000000
1.6159686894904179 4.0270448023172563 0.0000000000000000
1.9164880536097619 4.4599014179329952 0.0000000000000000
1.7745633795491409 4.6013021583478793 0.0000000000000000
1.5806773102235070 4.5494088142706106 0.0000000000000000
1.9694215875442660 4.6525942685791000 0.0000000000000000
3.1460206611570651 3.7060699444772340 0.0000000000000000
8.0721413439055354 4.6300496018323827 0.0000000000000000
2.4590457859547650 3.1694040470173879 0.0000000000000000
3.4949617045360011 2.3651384045591848 0.0000000000000000
7.1915764145664420 4.0429358615074404 0.0000000000000000
6.9980225861661554 3.9925680591770440 0.0000000000000000
4.2010293958603251 3.6226638913404270 0.0000000000000000
5.3854938203993674 6.6154959993947999 0.0000000000000000
5.1919399919990772 6.5651281970644062 0.0000000000000000
4.5731292208049457 4.9723089262574351 0.0000000000000000
7.8446264324167014 5.1078450542748968 0.0000000000000000
4.3986500354013174 5.6427990558349546 0.0000000000000000
5.9811631374561758 5.5176899761297289 0.0000000000000000
6.0984148532521889 2.6846396567448538 0.0000000000000000
6.2919633948814351 2.7350277751249079 0.0000000000000000
6.1515734503846904 2.8774404057017882 0.0000000000000000
2.9333919455632542 2.9348451491397789 0.0000000000000000
5.2791795847009020 6.2298831322756500 0.0000000000000000
2.7248305295039001 4.1333858381647879 0.0000000000000000
2.7479719836412690 6.8240111322368451 0.0000000000000000
2.1823159348451111 5.4239986322939622 0.0000000000000000
2.1291584177540051 5.2311922549518108 0.0000000000000000
1.9356045228134080 5.1808244619909880 0.0000000000000000
3.5481361498135882 2.5578961188817750 0.0000000000000000
2.5012348346243640 6.5808783828642987 0.0000000000000000
4.6019551814081492 2.4748094144854629 0.0000000000000000
2.0760037943272400 5.0383936902615094 0.0000000000000000
4.9030129486155776 2.9104707351944810 0.0000000000000000
3.5371951290983561 5.7765729113021340 0.0000000000000000
7.1083975384004479 6.3479384677454593 0.0000000000000000
7.0511797040153823 4.1853744927366208 0.0000000000000000
6.8576258756150930 4.1350066904062270 0.0000000000000000
6.8044687577658616 3.9422002568466490 0.0000000000000000
6.9107829934643208 4.3278131239658011 0.0000000000000000
6.7172291650640350 4.2774453216354136 0.0000000000000000
4.2541865137095547 3.8154703248999988 0.0000000000000000
2.3946989650961572 6.1952994495918858 0.0000000000000000
7.1424861078578807 5.8198967901120513 0.0000000000000000
2.2884564939291181 5.8096599476876003 0.0000000000000000
4.2923357997028626 5.2571861887158011 0.0000000000000000
6.8235434007624960 4.6630581887545830 0.0000000000000000
4.4477403421098440 3.8658381272303881 0.0000000000000000
4.7285337632119511 3.5809608647720141 0.0000000000000000
6.4323592243039842 2.5925925299039929 0.0000000000000000
5.4877412449571370 5.0313415043497427 0.0000000000000000
5.4345841271079074 4.8385350707901713 0.0000000000000000
5.6622204303607946 4.3608513747722331 0.0000000000000000
8.0530432546128576 3.9091720117154769 0.0000000000000000
6.4610906004790154 7.2515963240711452 0.0000000000000000
4.7897349713665038 7.7137807107983090 0.0000000000000000
5.8026171409118437 4.2184127435430634 0.0000000000000000
5.9961709693121286 4.2687805458734536 0.0000000000000000
5.5218237198097428 4.5032900060014152 0.0000000000000000
4.5962446963825254 7.6630648320561816 0.0000000000000000
4.9832849343345460 7.7641774641147698 0.0000000000000000
5.0361521324363139 7.9591756328997656 0.0000000000000000
5.1768527077157849 7.8145721295663542 0.0000000000000000
5.2301149231876991 8.0073547054653176 0.0000000000000000
8.4401820795434617 4.0099337488456790 0.0000000000000000
2.7040740015094680 1.4403689693206401 0.0000000000000000
2.9020867448968088 1.4912135142494960 0.0000000000000000
7.8580508115979733 1.8850865958813969 0.0000000000000000
8.3405609098253457 2.3782008621746908 0.0000000000000000
8.3904171070521159 2.5638501473334210 0.0000000000000000
1.8953440598854490 3.7397125644344449 0.0000000000000000
2.0375174966488232 3.5967661490687042 0.0000000000000000
8.3120059491102651 6.1156223616107219 0.0000000000000000
6.6042248882303660 1.9233757931572839 0.0000000000000000
6.7431104622204021 1.7828378186616540 0.0000000000000000
1.8608340410185540 6.2350262903843294 0.0000000000000000
7.3572264434287007 8.5574317626377905 0.0000000000000000
7.1602235010811350 8.5097037455092508 0.0000000000000000
2.0111752094940329 8.0635249541154099 0.0000000000000000
2.2090807457832078 8.1227866251874019 0.0000000000000000
1.4157093906469700 7.1697279879148237 0.0000000000000000
8.4710560503114589 5.4535525146510189 0.0000000000000000
4.4764916121906122 8.5203013112046708 0.0000000000000000
4.2837025654955099 8.4716544591003000 0.0000000000000000
1.5196395078768890 6.8677189463658417 0.0000000000000000
2.7044690322356351 8.5953457212422126 0.0000000000000000
8.2662368388093697 4.6783634871847637 0.0000000000000000
8.4049690861092792 4.5386644397510523 0.0000000000000000
3.0255960569580869 8.5023877077629315 0.0000000000000000
3.1639879671329911 8.3684192315250314 0.0000000000000000
1.8315748831853329 4.7928494986725729 0.0000000000000000
8.1922667684317183 3.7712274015039169 0.0000000000000000
7.9996826481459529 3.7171079112086720 0.0000000000000000
8.1385967882260459 3.5784976843451419 0.0000000000000000
6.7308290819066077 8.2154669802625655 0.0000000000000000
6.7807439729658494 8.4027761027815284 0.0000000000000000
8.5441182115774570 2.4197622132482470 0.0000000000000000
8.5809920427244304 2.6151063536396491 0.0000000000000000
8.4437031944736098 2.7564574856832320 0.0000000000000000
7.7798059600521361 8.1341792278487564 0.0000000000000000
7.9214152675603113 7.9922258811812883 0.0000000000000000
2.5165862773675500 8.5487822101922468 0.0000000000000000
2.4627703348427228 8.3690916297903826 0.0000000000000000
3.9158864719088560 1.9378309855883420 0.0000000000000000
3.8614280401025090 1.7461009455009779 0.0000000000000000
7.9093016942488763 2.0769573145318621 0.0000000000000000
8.0578189621365066 1.9346643950168980 0.0000000000000000
7.4070741174385564 6.7845819031073997 0.0000000000000000
3.2904841828488478 5.5333986754121511 0.0000000000000000
6.0533948983016330 6.4313543415987340 0.0000000000000000
5.3703313998067053 7.8644360874641821 0.0000000000000000
5.4231804472840999 8.0572409549851507 0.0000000000000000
5.2851160854095083 8.1989679243315514 0.0000000000000000
5.4758670691909170 8.2492648929964503 0.0000000000000000
5.3359121130204432 8.3863013711897256 0.0000000000000000
5.5235944524784202 8.4377179914508158 0.0000000000000000
5.6662715981135747 8.3003274870627166 0.0000000000000000
7.3701224111107626 5.3422130940940971 0.0000000000000000
7.0552465151560781 6.1551418549008234 0.0000000000000000
2.4865630657941300 7.8307145478766254 0.0000000000000000
3.8520710250530401 4.9636441504954600 0.0000000000000000
7.0852621788679793 3.6573229943882848 0.0000000000000000
7.2256588894190239 3.5148843631591031 0.0000000000000000
8.1262060462110934 4.8220910150011704 0.0000000000000000
3.9924677356040918 4.8212055192662726 0.0000000000000000
5.6853618844980973 7.0514766688443311 0.0000000000000000
6.9148487888375492 6.2975788493441849 0.0000000000000000
5.6322047666488597 6.8586702352847553 0.0000000000000000
5.2695638691784126 2.2887797675127488 0.0000000000000000
5.0739258782104359 2.2417574051233702 0.0000000000000000
7.9464061384677169 3.5244379858913599 0.0000000000000000
8.0871137957220132 3.3811105076919130 0.0000000000000000
6.5157933149031777 2.2594303187389642 0.0000000000000000
3.3545794335085759 2.5075364364242181 0.0000000000000000
3.4077389579450830 2.7003361034230990 0.0000000000000000
5.3664191774027312 5.8946380674868948 0.0000000000000000
4.2391786818536303 5.0643797551562280 0.0000000000000000
6.1065520161507809 6.6241607751585549 0.0000000000000000
7.6127665462196186 3.6156199678198981 0.0000000000000000
3.7116743145019928 5.1060827817246324 0.0000000000000000
4.7366481337373694 7.5205971390777950 0.0000000000000000
5.5856566501416873 1.4872930752389890 0.0000000000000000
5.3994532568896201 1.4341240538709210 0.0000000000000000
3.6499730391967149 8.1356951252902885 0.0000000000000000
8.6327746271219699 2.8052436028041430 0.0000000000000000
8.4965731373482996 2.9508360838032650 0.0000000000000000
7.5721578325077950 1.4523628136766920 0.0000000000000000
7.3691309948500852 1.4217342959394179 0.0000000000000000
7.2250898258761298 1.5600880690673671 0.0000000000000000
7.1678076826747166 1.3742710207286410 0.0000000000000000
7.0205128770279446 1.5124817699873330 0.0000000000000000
8.4563748797725964 4.7194871667453038 0.0000000000000000
5.7186148618385317 8.4831566050205858 0.0000000000000000
5.8589619304128524 8.3520813236648621 0.0000000000000000
5.8080847899768884 8.1608478862742224 0.0000000000000000
6.0001054649969348 8.2149539629158976 0.0000000000000000
6.0495844110125647 8.4040047430439468 0.0000000000000000
6.1878345978783713 8.2698663520413689 0.0000000000000000
6.1437754157546793 8.0772939987199734 0.0000000000000000
6.3316593926905940 8.1317697904145572 0.0000000000000000
6.2894556998599436 7.9340159376176276 0.0000000000000000
8.4853587181594676 4.2060276740493583 0.0000000000000000
1.8522726682368671 3.5441081367940042 0.0000000000000000
1.9860889451563510 3.4038903419307802 0.0000000000000000
1.8021955744773119 3.3504791041811171 0.0000000000000000
1.9339096157170750 3.2120821827978290 0.0000000000000000
1.7420188194338710 3.1611071706077669 0.0000000000000000
1.8796421240631369 3.0210383767315081 0.0000000000000000
1.6870240875377731 2.9714022826039099 0.0000000000000000
1.8262488484073980 2.8300575351893671 0.0000000000000000
1.6338430748131050 2.7799156074849920 0.0000000000000000
1.7735326726007159 2.6381183504238961 0.0000000000000000
1.5818579068567020 2.5875731855445179 0.0000000000000000
1.7208386753411371 2.4458287885686421 0.0000000000000000
1.9136734092019820 2.4961880759509820 0.0000000000000000
1.8607954071539790 2.3037485774428799 0.0000000000000000
1.5534775943173300 3.1137084418296470 0.0000000000000000
2.0726734822583590 3.0701540008699610 0.0000000000000000
2.0535348105891038 2.3537391998845290 0.0000000000000000
2.0009426038500919 2.1614681531482058 0.0000000000000000
2.1943268686315589 2.2120265085997288 0.0000000000000000
2.1417312769848742 2.0167447816587520 0.0000000000000000
1.9480050305285750 1.9684058367738839 0.0000000000000000
1.4409095864962309 2.7299192213724921 0.0000000000000000
1.5307799635594530 2.4018232218560258 0.0000000000000000
2.1059991691174380 2.5447264588721290 0.0000000000000000
3.5269942795519822 1.8459240945959090 0.0000000000000000
3.3883589601300779 1.9812692954923179 0.0000000000000000
3.3342129705610550 1.7910286956340229 0.0000000000000000
8.4884149719551427 6.1638378085929588 0.0000000000000000
2.3430524120947762 8.5146632172491152 0.0000000000000000
4.7082329919225900 1.6218448601531770 0.0000000000000000
4.7645163388453406 1.8044981075190449 0.0000000000000000
4.6351529557647462 1.4361673328886579 0.0000000000000000
4.4630843568933303 1.3858438264778190 0.0000000000000000
1.6393518994010681 6.7420895379934489 0.0000000000000000
1.4875803089164610 4.1681374394061930 0.0000000000000000
1.4448428647201641 3.9815936093342690 0.0000000000000000
1.5780367178657440 3.8494442076955271 0.0000000000000000
5.5823993999051940 8.6323831284126396 0.0000000000000000
7.9801448926958054 8.1802106308922138 0.0000000000000000
8.1138237859146010 8.0424984024794792 0.0000000000000000
8.1742056557998808 8.2279870780714557 0.0000000000000000
5.2770617924023684 1.5605621316865761 0.0000000000000000
4.6501828748275038 8.5639209756251660 0.0000000000000000
2.0864229684560831 1.8299694946939860 0.0000000000000000
1.8918865683945589 1.7868251811561711 0.0000000000000000
1.8273624830513759 8.0215262901144300 0.0000000000000000
1.8690070720664840 8.2039257941327044 0.0000000000000000
1.6961093989100711 8.1642498273444719 0.0000000000000000
1.7336845678939521 8.3354344115244583 0.0000000000000000
1.5612054703594700 8.2897403829583993 0.0000000000000000
1.6064923547793879 8.4587846520559538 0.0000000000000000
1.4375223787680900 8.4149115129958609 0.0000000000000000
1.4824595177527780 8.5836683731694947 0.0000000000000000
1.7749630666844221 8.4987833577346343 0.0000000000000000
1.2518855355322640 8.5152534031883675 0.0000000000000000
8.4206642091804085 5.2731528451512819 0.0000000000000000
3.2306481389291308 8.5663006534122967 0.0000000000000000
8.5839643629373441 4.5924346856679694 0.0000000000000000
7.2174235296308176 8.6916829232371757 0.0000000000000000
7.3220705788081668 1.2053969899040970 0.0000000000000000
2.8407099782219620 1.3005344562084611 0.0000000000000000
8.6367402410765326 4.0888680052128823 0.0000000000000000
8.5720623980250910 3.8973531161260691 0.0000000000000000
7.5482304620871981 8.6093063617147259 0.0000000000000000
7.6748130284794147 8.4672558146026802 0.0000000000000000
2.4840418507216580 1.3753750760876471 0.0000000000000000
2.3620008726487081 1.5302574337468919 0.0000000000000000
6.2377878337450783 8.4566639726921675 0.0000000000000000
6.1034847688667684 8.5887968299481194 0.0000000000000000
1.7437108089833311 1.9167866615654461 0.0000000000000000
1.7005124814183790 1.7259480812222090 0.0000000000000000
8.5912158046750520 5.2939561889394593 0.0000000000000000
8.6666786686106096 5.4714970192758194 0.0000000000000000
2.2436894705580812 8.3505283805865247 0.0000000000000000
7.0202215043478642 8.6336953755136321 0.0000000000000000
8.6426536029199799 6.0566505744147534 0.0000000000000000
7.7454115147656584 1.5262104661942999 0.0000000000000000
8.8307083648904925 7.3496605349738333 0.0000000000000000
6.9675507201104381 8.4550715032878188 0.0000000000000000
6.8484629977336384 8.5791869434226946 0.0000000000000000
2.4014330412740419 8.1817651641188682 0.0000000000000000
8.2908813540818826 2.1905259703899258 0.0000000000000000
6.6533850393893150 8.5525625717874991 0.0000000000000000
6.4803259574505674 7.9816269655673464 0.0000000000000000
4.7992789418393569 8.4460891967081597 0.0000000000000000
4.7492291294539211 8.2457556235621716 0.0000000000000000
2.4183406777756682 1.7151176094365590 0.0000000000000000
5.3099447480949413 1.7510901918752819 0.0000000000000000
5.1653741427544801 1.8942370187569599 0.0000000000000000
4.8912916968837648 8.1000524710625399 0.0000000000000000
5.9140581928603391 8.5284552259150921 0.0000000000000000
1.3950528081695011 8.2213595808521376 0.0000000000000000
2.1987911032887011 1.6607853708115230 0.0000000000000000
3.1161537316814498 8.1772502708461321 0.0000000000000000
3.3084746487081071 8.2277660593149680 0.0000000000000000
1.8607871140563090 1.5927822581561910 0.0000000000000000
1.6539529024801920 1.5420225794339710 0.0000000000000000
1.5088963070396659 1.6748680596837939 0.0000000000000000
1.4632808556418730 1.4848350951523290 0.0000000000000000
8.6267900787323590 7.2776547541664396 0.0000000000000000
8.5649702673783761 7.0754176883262412 0.0000000000000000
8.3742401008607068 7.0359847138531144 0.0000000000000000
8.4982829635292276 6.8897123393257083 0.0000000000000000
8.3140224017492006 6.8528414865637117 0.0000000000000000
8.4289965873096424 6.6824492087821756 0.0000000000000000
8.2395326005081131 6.6672467475071118 0.0000000000000000
8.1235953723410468 6.8179697879341834 0.0000000000000000
8.0574234267309368 6.6303070980115288 0.0000000000000000
7.9280732370186264 6.7774466292529620 0.0000000000000000
8.1941718646459201 6.4743339687457571 0.0000000000000000
7.8627399938101554 6.5911778410513140 0.0000000000000000
1.6986281038390980 3.6756689870180632 0.0000000000000000
1.7574724812015829 3.8832125399956809 0.0000000000000000
8.3020984657669690 8.0923853953331513 0.0000000000000000
8.3511997325706915 8.2755117497589303 0.0000000000000000
8.2330178351891377 8.4074436675666888 0.0000000000000000
8.4052252251933464 8.4512129906655229 0.0000000000000000
8.5516692311885532 8.3116623449876403 0.0000000000000000
8.5869343561745310 8.5005765274677003 0.0000000000000000
8.2562851145736182 8.5769066547767281 0.0000000000000000
7.1089078095422531 8.3165340129606058 0.0000000000000000
8.3834034306935532 3.8304706315873851 0.0000000000000000
7.6349969008159722 8.2793051311791483 0.0000000000000000
5.5329048413361166 1.3032685304648111 0.0000000000000000
1.4307628224127329 6.7094967524372038 0.0000000000000000
1.8261114506282770 6.7760230230745577 0.0000000000000000
1.7387426252831539 6.5759559269432977 0.0000000000000000
8.2308419914702586 5.2226399957220639 0.0000000000000000
1.6564849635417260 2.2565450696542229 0.0000000000000000
8.2166398348558012 5.0223416264535139 0.0000000000000000
1.4976806636972970 2.9245727333962099 0.0000000000000000
1.3409675192563959 2.8727721895044001 0.0000000000000000
1.2213183350034080 2.7015963393633591 0.0000000000000000
6.0977880623036276 7.8818942847876698 0.0000000000000000
6.2426168571868574 7.7373779208367406 0.0000000000000000
7.7320943912125113 6.7336989164598888 0.0000000000000000
5.8996187418384363 7.8271500898846940 0.0000000000000000
8.7603713463561803 2.6513898130673490 0.0000000000000000
6.9348703936228322 1.8336510080942920 0.0000000000000000
1.6020269460358869 3.3266869221962159 0.0000000000000000
1.4222828386416650 3.2508837548431111 0.0000000000000000
1.3413394485820920 3.0681720484932180 0.0000000000000000
6.5325604200372478 8.1690053616326708 0.0000000000000000
8.2543033632614300 7.9002345765304023 0.0000000000000000
8.1166810811166190 6.0699714447528699 0.0000000000000000
8.1748073473585610 6.2621883694201443 0.0000000000000000
3.4552271038844160 8.0835945027153855 0.0000000000000000
8.4675282621018102 2.2495356155026021 0.0000000000000000
8.2536757749662844 1.9927937822222961 0.0000000000000000
8.3930996943824567 1.8628933610880241 0.0000000000000000
8.2129878984321678 1.8033452882822560 0.0000000000000000
8.3482659497950653 1.6763202568811491 0.0000000000000000
8.5315363186556077 1.7304785902169610 0.0000000000000000
8.4797531922278218 1.5491980557753491 0.0000000000000000
8.3055148270977615 1.4997728105399599 0.0000000000000000
8.4267510045824743 1.3587119134127801 0.0000000000000000
8.6103563861983350 1.4064408715955070 0.0000000000000000
8.0142653001166355 1.7438761525316751 0.0000000000000000
7.9697296204963353 6.2205991096938984 0.0000000000000000
2.0241124139124000 6.8194149741397494 0.0000000000000000
6.5486179454698892 1.7337195548318900 0.0000000000000000
6.4014169396871994 1.8709072264127591 0.0000000000000000
6.6805194480163701 1.5722505861129119 0.0000000000000000
6.8745321840181157 1.6434987648478740 0.0000000000000000
6.8357116293510636 1.4521237636079429 0.0000000000000000
6.9606951513305093 1.3256086020506330 0.0000000000000000
5.7790229342878217 1.5375717172963990 0.0000000000000000
5.9716089817639304 1.5837765812859981 0.0000000000000000
6.0219004959765181 1.7667445059820770 0.0000000000000000
6.1561930088540979 1.6326516400334781 0.0000000000000000
6.1176279583620126 1.4412994699781769 0.0000000000000000
5.9182155687585416 1.3918342007926010 0.0000000000000000
6.2085486907409209 1.8178865932341690 0.0000000000000000
6.0738254620132546 1.9602463549679270 0.0000000000000000
6.2648432197165977 2.0148883730200140 0.0000000000000000
2.3346408262900180 2.0639390465314071 0.0000000000000000
6.9918984049535888 2.0225607306222568 0.0000000000000000
1.3793011633608481 2.5387002222048118 0.0000000000000000
1.3509411882492941 2.3612893650924822 0.0000000000000000
1.4549379119312971 2.2185131688066728 0.0000000000000000
3.0562482287405861 1.3278007189414480 0.0000000000000000
3.0966272131263670 1.5340456085247549 0.0000000000000000
3.2451969381493702 1.4060575485682700 0.0000000000000000
3.3170162660000870 1.5910348864739070 0.0000000000000000
8.0621718793138708 7.8500592047736664 0.0000000000000000
4.1092143828926648 1.9883557361733630 0.0000000000000000
5.9371806106052780 2.1056665484401909 0.0000000000000000
1.7933231356762840 2.1094923830974390 0.0000000000000000
1.9087414987593680 6.4285848193230963 0.0000000000000000
1.0217539898578969 2.6252287413739710 0.0000000000000000
6.4611905906625893 2.0665358406357419 0.0000000000000000
7.8053661926011850 1.6997101768524989 0.0000000000000000
8.2448233213588988 1.3162907664400390 0.0000000000000000
1.5349939727799620 4.3602437346409308 0.0000000000000000
1.3646057143558961 4.5215335827084324 0.0000000000000000
1.4509430476911289 4.7314973794472408 0.0000000000000000
1.6409724484284260 4.7421932125366340 0.0000000000000000
8.6783045468071016 3.0188074768907489 0.0000000000000000
8.5539737564294001 3.1409693367668901 0.0000000000000000
8.3668429714044024 3.0932214946979220 0.0000000000000000
8.4301754892961167 3.2926298548937121 0.0000000000000000
8.2309125360793338 3.2371542118936381 0.0000000000000000
8.1752048563618462 3.0453715380332000 0.0000000000000000
3.0658977315008369 7.9827804120617802 0.0000000000000000
5.7571248322831368 7.9678737882266706 0.0000000000000000
8.0591144748540362 5.8781035197110647 0.0000000000000000
1.8527486206031540 7.4855168576176441 0.0000000000000000
1.7126784103290040 7.6254640179355206 0.0000000000000000
1.5248371953152431 7.5678039010322191 0.0000000000000000
1.4726859307972791 7.3858310750209046 0.0000000000000000
1.2831912788218740 7.3518335561381418 0.0000000000000000
3.1506160896575759 1.7296780497734221 0.0000000000000000
5.0873598998008376 8.1486249908078285 0.0000000000000000
8.5321576671837676 4.4014417893799136 0.0000000000000000
6.1862673241879360 7.5398960695711086 0.0000000000000000
6.3800550128447089 7.5859924750570329 0.0000000000000000
5.2149228055474044 2.0956834792177501 0.0000000000000000
5.0208052051114169 2.0461822682616440 0.0000000000000000
4.9651222614287267 1.8550942366344629 0.0000000000000000
3.9691515716351269 2.1304046659351110 0.0000000000000000
4.8806901903689814 2.1903645678616290 0.0000000000000000
7.7693884884871682 2.2226796619031481 0.0000000000000000
6.2835434092946354 1.5159608563541720 0.0000000000000000
8.0042705658556716 5.6855475050217459 0.0000000000000000
1.7431828529453570 7.8455333245145349 0.0000000000000000
7.8680396513378774 7.7987528136665656 0.0000000000000000
8.3505078818302465 4.3466521821550170 0.0000000000000000
8.3951434997725904 7.7565877087292820 0.0000000000000000
7.6741629841256831 7.7484292260681720 0.0000000000000000
8.0994749718310324 8.5302854312364218 0.0000000000000000
4.1627638280174111 2.1808556069090450 0.0000000000000000
8.6009841913897169 5.8287233243169947 0.0000000000000000
7.4804282513962486 7.6979491572337064 0.0000000000000000
3.1967118777252379 1.9285474607087889 0.0000000000000000
2.9535140730307319 1.6827490880918281 0.0000000000000000
3.6507165272221052 1.6745267167265669 0.0000000000000000
3.8096294083196982 1.5538462718668189 0.0000000000000000
3.9984568838219898 1.6070173356511199 0.0000000000000000
3.9419548183405149 1.4292011576132599 0.0000000000000000
4.1410851474985728 1.4747423274216320 0.0000000000000000
4.0542251352455843 1.7973274443333209 0.0000000000000000
2.5958183098388590 8.2216206324174212 0.0000000000000000
7.5745472156884057 2.1740037719556251 0.0000000000000000
8.2374307692447530 7.1802914070918753 0.0000000000000000
7.1465452922659027 7.7897606962151240 0.0000000000000000
7.0934504429492842 7.5968971142313819 0.0000000000000000
7.8645054330536794 5.8283728442491682 0.0000000000000000
2.3461331056319681 7.9736653909098836 0.0000000000000000
7.6276923269332721 2.3667777801565788 0.0000000000000000
7.4866935278201137 2.5095128743308979 0.0000000000000000
7.2869264111843011 7.6473645794717520 0.0000000000000000
7.6209906876574731 7.5553059183726514 0.0000000000000000
8.7965164106875502 7.0966440227661591 0.0000000000000000
7.2337962008094552 7.4544738970729414 0.0000000000000000
7.8507259143828749 7.0849794479335957 0.0000000000000000
4.2289776240978174 8.2826555843902891 0.0000000000000000
4.0887520816286891 8.4253187238497578 0.0000000000000000
3.8959730427821762 8.3773198070135138 0.0000000000000000
3.9613821704317722 8.5727929823506059 0.0000000000000000
3.7549704905552201 8.5191689717635217 0.0000000000000000
3.6982353467496001 8.3221533751827081 0.0000000000000000
3.8411824800368621 8.1844159491938466 0.0000000000000000
7.4571428305841980 6.9786035869531080 0.0000000000000000
6.6540825154379597 7.3012808915179237 0.0000000000000000
6.7936865737737584 7.1605384505932292 0.0000000000000000
2.2926824991963990 7.7793833392753156 0.0000000000000000
7.2669609396069461 6.9267881980868156 0.0000000000000000
7.8935521927670074 3.3309348213427370 0.0000000000000000
8.0347011799417274 3.1880372980263769 0.0000000000000000
7.8405450311231597 3.1379484162020121 0.0000000000000000
7.9808195319198134 2.9951590698148740 0.0000000000000000
5.7344521912066568 5.2745157402397354 0.0000000000000000
5.9280060196069408 5.3248835425701433 0.0000000000000000
6.1215598480072284 5.3752513449005406 0.0000000000000000
6.0684027301579953 5.1824449113409496 0.0000000000000000
6.2619565585582819 5.2328127136713496 0.0000000000000000
7.0211640374320989 6.6831933635088463 0.0000000000000000
2.2695596074507489 5.0887568348564152 0.0000000000000000
7.0321050610187399 3.4645165608287170 0.0000000000000000
7.1725017715697827 3.3220779295995388 0.0000000000000000
6.3001058445359890 6.6745285775428780 0.0000000000000000
5.2450971098483059 6.7579346306239874 0.0000000000000000
5.0515432814480228 6.7075668282936007 0.0000000000000000
4.9983861635987914 6.5147603947340169 0.0000000000000000
4.8579894530477397 6.6571990259632088 0.0000000000000000
4.8048323351985092 6.4643925924036312 0.0000000000000000
4.6644356246474530 6.6068312236328204 0.0000000000000000
7.4192127178193168 3.5652521654895071 0.0000000000000000
7.9318723107375364 4.7723409537402937 0.0000000000000000
3.9774599037481528 6.0701149495225044 0.0000000000000000
3.7839060753478688 6.0197471471921142 0.0000000000000000
4.0306170215973864 6.2629213830820829 0.0000000000000000
4.2241708499976678 6.3132891854124757 0.0000000000000000
4.0837741394466152 6.4557278166416676 0.0000000000000000
4.2773279678468974 6.5060956189720596 0.0000000000000000
4.1369312572958439 6.6485342502012541 0.0000000000000000
3.8902203110463320 6.4053600143112668 0.0000000000000000
3.2373270655854531 5.3405922416910698 0.0000000000000000
3.3777237756483109 5.1981536105964832 0.0000000000000000
3.1841699478501200 5.1477858081001067 0.0000000000000000
6.5086675048078009 5.4759869495613192 0.0000000000000000
7.1574939397138291 4.5709873598557849 0.0000000000000000
1.7951934284649660 5.3232651186090427 0.0000000000000000
1.6549094681677270 5.4656231154158226 0.0000000000000000
1.6112012641637561 5.2848799036504266 0.0000000000000000
1.4666694252425430 5.4200324051002804 0.0000000000000000
1.5180885671562070 5.6079988160968366 0.0000000000000000
1.3147698899930120 5.5620739688848007 0.0000000000000000
1.7242668958616680 5.1204442605320466 0.0000000000000000
1.8824502661975870 4.9880176255398876 0.0000000000000000
2.0231831465000440 4.8451651694813416 0.0000000000000000
2.1632652801291430 4.7030485346586151 0.0000000000000000
2.1100409795512420 4.5102773054095202 0.0000000000000000
1.7081324146588810 5.6585937080978326 0.0000000000000000
1.5709550427415999 5.8001423580393396 0.0000000000000000
1.6181697806866531 5.9919335946224841 0.0000000000000000
1.4441130659249850 5.9263990134289521 0.0000000000000000
1.4658036556898411 6.1197138532222626 0.0000000000000000
1.6754037592877080 6.1763439613891880 0.0000000000000000
1.8118183672660380 6.0421235416371957 0.0000000000000000
6.8616925174612078 6.1047737797727937 0.0000000000000000
6.6681388301397213 6.0544062047738247 0.0000000000000000
7.1956426134423523 6.0127011556674859 0.0000000000000000
4.2882689885621446 3.2874188265516628 0.0000000000000000
3.5562697720950380 6.4974308432100560 0.0000000000000000
3.7307489574986330 5.8269407136325402 0.0000000000000000
3.5903522469475839 5.9693793448617223 0.0000000000000000
3.6435093647968189 6.1621857784212972 0.0000000000000000
3.4499555363971219 6.1118179760907534 0.0000000000000000
5.4686666019605008 4.3104835724418553 0.0000000000000000
3.5031126542464581 6.3046244096502981 0.0000000000000000
5.0324686384513964 5.9867088963857009 0.0000000000000000
7.5405301038599069 2.7020678572255670 0.0000000000000000
7.3360393292945174 5.8702643869823996 0.0000000000000000
4.2964026108435194 7.2269535508799958 0.0000000000000000
4.1560059002924596 7.3693921821091717 0.0000000000000000
3.9624520718921832 7.3190243797787664 0.0000000000000000
4.3495597286927747 7.4197599844395228 0.0000000000000000
2.3414825654355269 6.0025053220986253 0.0000000000000000
2.4821058626683650 5.8600017164353169 0.0000000000000000
7.7040994523368500 5.2501685616718916 0.0000000000000000
7.5636809768204003 5.3925876161064128 0.0000000000000000
4.8689304737630001 3.4385222335428240 0.0000000000000000
5.0093271843140528 3.2960836023136322 0.0000000000000000
3.3627159436963381 6.4470630408792324 0.0000000000000000
6.0152456123087656 4.9896384777813578 0.0000000000000000
4.8500111345133083 2.7178173790340838 0.0000000000000000
5.2641717528449572 7.4787925625318943 0.0000000000000000
3.4118062504032349 4.6701021122751110 0.0000000000000000
3.3586491325540000 4.4772956787155378 0.0000000000000000
3.2182524220029500 4.6197343099447252 0.0000000000000000
3.1650953041537169 4.4269278763851512 0.0000000000000000
3.0246986101726940 4.5693665030459423 0.0000000000000000
6.2578897474175559 3.2630453515071922 0.0000000000000000
6.1174930368665112 3.4054839827363850 0.0000000000000000
6.0643359190172621 3.2126775491768118 0.0000000000000000
3.1500874725325012 5.6758373065766508 0.0000000000000000
6.3532629623852914 6.8673350111021962 0.0000000000000000
2.8352115763445709 6.4887660674476679 0.0000000000000000
7.3169652932615268 5.1494066605345186 0.0000000000000000
3.3054920147047642 4.2844892451559629 0.0000000000000000
3.1119381863044802 4.2341214428255780 0.0000000000000000
3.2523348968555230 4.0916828115963888 0.0000000000000000
3.0587810684552359 4.0413150092660022 0.0000000000000000
3.3927316074065761 3.9492441803671992 0.0000000000000000
5.2369634875669080 2.8183999062956748 0.0000000000000000
3.2564017080205021 6.0614501737538404 0.0000000000000000
6.5721109304934098 2.4504590342671442 0.0000000000000000
4.5881370526608967 3.7233994960011980 0.0000000000000000
4.2351118707129114 3.0946123929920870 0.0000000000000000
4.1478722780110910 3.4298574577808498 0.0000000000000000
4.0074755674600304 3.5722960890100341 0.0000000000000000
3.9543184496107990 3.3794896554504552 0.0000000000000000
2.0568338152001151 4.3175373199270046 0.0000000000000000
6.7703862829132628 4.4702517551949974 0.0000000000000000
6.5768324545129770 4.4198839528646179 0.0000000000000000
6.5236753366637474 4.2270775193050341 0.0000000000000000
6.6640720472148063 4.0846388880758413 0.0000000000000000
6.6109149293655634 3.8918324545162761 0.0000000000000000
6.7513116399166364 3.7493938232870732 0.0000000000000000
3.2141852340891561 2.6499685273579572 0.0000000000000000
3.2673427287114900 2.8427733813401530 0.0000000000000000
4.9943193524581000 4.5449930325698764 0.0000000000000000
3.2714095398521881 4.8125407435042904 0.0000000000000000
4.7326005743526487 5.5507282269361617 0.0000000000000000
3.0478400477399958 7.2599918016863940 0.0000000000000000
3.2413938761402750 7.3103596040167762 0.0000000000000000
3.3817905866913391 7.1679209727875923 0.0000000000000000
2.4479329922650792 6.3881067531281932 0.0000000000000000
3.1991777790062899 3.8988763780368139 0.0000000000000000
5.9129981877508344 6.5737929728269329 0.0000000000000000
4.1669469210077281 4.1507153896887514 0.0000000000000000
2.1972598885100010 4.1751048918023113 0.0000000000000000
5.2069478238550371 5.3162187668081744 0.0000000000000000
5.3473445344060879 5.1737801355789879 0.0000000000000000
5.1537907060058004 5.1234123332486030 0.0000000000000000
6.9448654683169231 3.7997616256174682 0.0000000000000000
3.0969303560654322 5.4830308726360109 0.0000000000000000
4.9561700664648161 3.1032771687540550 0.0000000000000000
6.2769643904142196 3.9839032834150969 0.0000000000000000
6.6490642153588606 5.3335483183321193 0.0000000000000000
6.4555103869585686 5.2831805160017362 0.0000000000000000
3.9092949540429549 7.1262179462192039 0.0000000000000000
5.1387828741498467 6.3723217635048366 0.0000000000000000
5.2560381305635566 3.5392578382035849 0.0000000000000000
2.9183843579041890 4.1837536404951914 0.0000000000000000
7.8785852083760819 4.5796374770256394 0.0000000000000000
2.8802353887090621 2.7420394892541609 0.0000000000000000
7.2447335324156628 4.2357422950670198 0.0000000000000000
7.1043368218646030 4.3781809262962001 0.0000000000000000
3.4990458431050508 4.3348570474863486 0.0000000000000000
5.5599730058030161 5.9450058698172841 0.0000000000000000
2.4099579782022480 4.9463185080080088 0.0000000000000000
4.4177246783979456 6.3636569877428748 0.0000000000000000
6.5468167906415760 6.9177028139471783 0.0000000000000000
5.0474764703073323 4.7377994661294496 0.0000000000000000
5.1878731808583911 4.5953608349002497 0.0000000000000000
3.5140536749609979 3.0859476172301008 0.0000000000000000
3.3736569644099492 3.2283862484592860 0.0000000000000000
4.9752447094614531 3.8241351006619668 0.0000000000000000
6.8194765896217717 2.6932908265904381 0.0000000000000000
2.3799368374578962 7.4441321179661184 0.0000000000000000
2.4330960876865291 7.6369398930435466 0.0000000000000000
4.6262863386541850 5.1651153598170083 0.0000000000000000
4.0687583640009137 7.7046718754191588 0.0000000000000000
7.6509463778925788 5.0573637844332797 0.0000000000000000
3.9433774288955612 6.5981664478708604 0.0000000000000000
3.8139217390597420 3.5219282866796409 0.0000000000000000
2.8883686941930180 6.6815725010074694 0.0000000000000000
5.1347160630091579 4.4025544013406748 0.0000000000000000
2.9524668327567780 3.6557021421468452 0.0000000000000000
3.9733930926074401 4.1003475873583621 0.0000000000000000
2.5122047036796360 3.3621678095053049 0.0000000000000000
2.3188389735652621 3.3119672337990682 0.0000000000000000
2.2658228874064972 3.1195153590796671 0.0000000000000000
2.4059498288170080 2.9768113201853810 0.0000000000000000
2.2121015127387951 2.9280205670008250 0.0000000000000000
2.1786229991478470 3.4544391731282311 0.0000000000000000
2.5162688740714700 5.3319274647607093 0.0000000000000000
2.3758717605671631 5.4743661532305410 0.0000000000000000
4.6944512883593497 4.1090123631203426 0.0000000000000000
5.7644678549185357 2.7766968797272731 0.0000000000000000
2.3227143963534149 5.2815603939654636 0.0000000000000000
7.4382873608159414 4.2861100973974189 0.0000000000000000
7.3851302429667172 4.0933036638378413 0.0000000000000000
2.6267098549551999 7.6874667785025199 0.0000000000000000
6.5277421431009603 6.1968448738945998 0.0000000000000000
3.3395744895573531 3.7564377468076220 0.0000000000000000
5.8898567336136454 3.8831676787543241 0.0000000000000000
5.4643568009951053 2.3404393001507828 0.0000000000000000
3.7688982434919089 7.2686565774483736 0.0000000000000000
3.5753444150916249 7.2182887751179843 0.0000000000000000
3.6284991283310979 7.4111074924040441 0.0000000000000000
5.1728653490024481 5.8442702651565064 0.0000000000000000
3.9393106177548578 4.6283990857066986 0.0000000000000000
2.5802984027003029 2.3068761440306620 0.0000000000000000
3.3967984185608620 5.9190115425275867 0.0000000000000000
5.3432777232653788 3.2040127734148292 0.0000000000000000
6.5386831685196629 2.9781680890488240 0.0000000000000000
7.5105218021969957 5.1997771079848230 0.0000000000000000
3.3014001935310859 2.3148056753540800 0.0000000000000000
7.3891968552183203 6.0630642524570586 0.0000000000000000
2.9865492669098939 3.1276508002819812 0.0000000000000000
4.5540545778083006 4.2514509943495300 0.0000000000000000
4.5199721029557134 4.7795024926978602 0.0000000000000000
5.5940554806556051 5.4169543714689290 0.0000000000000000
6.4023532691093372 5.0903740824421533 0.0000000000000000
4.4558603423481777 7.8054615980444346 0.0000000000000000
5.8257731578531926 6.9090525452022433 0.0000000000000000
5.9661722955381613 6.7666163319046300 0.0000000000000000
6.3151136764075133 5.4256191472309307 0.0000000000000000
2.2314168363007658 3.6470874800747919 0.0000000000000000
4.4286656991131954 3.1449801953224750 0.0000000000000000
3.7416852757423400 2.6082538671800419 0.0000000000000000
6.3451275253321846 2.9278072605984020 0.0000000000000000
7.1765685827104742 5.2918452917637087 0.0000000000000000
3.7948463123178491 2.8010686790997110 0.0000000000000000
3.9352405430298409 2.6586218748744308 0.0000000000000000
4.1328644461551418 4.6787668880370870 0.0000000000000000
4.1137898031584959 3.9579089561291809 0.0000000000000000
2.5735024326524170 7.4945275520828156 0.0000000000000000
2.5884308361156529 6.2456171166752954 0.0000000000000000
2.6416132606071039 6.4384221087798803 0.0000000000000000
2.9906161411155820 5.0974179997964342 0.0000000000000000
3.8370631931971069 6.2125535807516910 0.0000000000000000
4.4625507787167820 2.6169780112222618 0.0000000000000000
3.8670788569089729 3.7147347202392180 0.0000000000000000
5.0435908468714192 2.7682106942643241 0.0000000000000000
2.6716734116546692 3.9405794046052098 0.0000000000000000
5.9048686720347270 2.6342424677538809 0.0000000000000000
6.0343202553054054 5.7104964096893100 0.0000000000000000
4.1860215640043767 4.8715733215966592 0.0000000000000000
4.2050962070010351 5.5924312535045608 0.0000000000000000
4.3454929175520904 5.4499926222753761 0.0000000000000000
2.6948030841085471 6.6312155870404368 0.0000000000000000
2.6075793559300449 6.9664537877765627 0.0000000000000000
6.3832786261126930 4.3695161505342277 0.0000000000000000
6.7212957732074923 6.2472123566968527 0.0000000000000000
6.2278740837056734 5.7608642120197624 0.0000000000000000
2.2353659427612009 5.6168348481729442 0.0000000000000000
4.5922038638015961 5.6931668581653447 0.0000000000000000
4.5240389140963968 6.7492698548620451 0.0000000000000000
3.5221872972424029 7.0254823415584031 0.0000000000000000
3.3286334688421899 6.9751145392279934 0.0000000000000000
4.0456248534533232 5.0140119528258484 0.0000000000000000
4.9111465708969728 6.8500054595227997 0.0000000000000000
5.3964348411146101 3.3968192069744041 0.0000000000000000
2.7288857083635012 6.1031574145017453 0.0000000000000000
4.3645675605487213 6.1708505541832910 0.0000000000000000
7.0020892670469426 5.9623350312076129 0.0000000000000000
3.2945653778754558 7.5031736926811359 0.0000000000000000
3.1010066733252479 7.4527975507393309 0.0000000000000000
6.0493280871613608 4.4615869794330223 0.0000000000000000
3.6966664826461728 6.3549922119808446 0.0000000000000000
5.2028810127143341 3.3464514046440161 0.0000000000000000
3.1269459706777010 2.9852121951333812 0.0000000000000000
5.5790476487996452 6.6658638017251741 0.0000000000000000
6.3780452529948093 2.4017792535893232 0.0000000000000000
3.0056239506060050 3.8485085757064201 0.0000000000000000
6.9489322577476154 5.7695289227593953 0.0000000000000000
6.9639401113135406 4.5206195575253831 0.0000000000000000
2.5544078918401611 6.7736766920839857 0.0000000000000000
6.8767005186117292 4.8558646223141668 0.0000000000000000
6.6258120243221450 2.6429863161835532 0.0000000000000000
4.4708817962471707 6.5564634213024604 0.0000000000000000
6.1747169658564554 5.5680577784601333 0.0000000000000000
3.6012922730737800 2.7507008230426790 0.0000000000000000
5.2982542276975364 6.9507410641835676 0.0000000000000000
5.6963029052133614 3.8327998764239339 0.0000000000000000
6.9680057368342432 6.4903850120997832 0.0000000000000000
6.7744526932434246 6.4400184723977851 0.0000000000000000
4.5390467459523691 5.5003604246057680 0.0000000000000000
6.4364357439619262 4.5623225840938026 0.0000000000000000
3.0737889003111980 2.7924055790097539 0.0000000000000000
5.7385858935422913 7.2443515859312146 0.0000000000000000
5.8790981193881793 7.1020283396641597 0.0000000000000000
5.5749808376589671 4.6960964395609874 0.0000000000000000
5.3814270092586849 4.6457286372306079 0.0000000000000000
5.2410302987076163 4.7881672684598353 0.0000000000000000
6.0002377804527463 6.2385479080379387 0.0000000000000000
4.5008974599590701 4.0586445607899559 0.0000000000000000
5.4106054982257579 2.1464895658842540 0.0000000000000000
4.7966112730315107 2.5253318884721310 0.0000000000000000
5.2941874165568459 4.9809737020194103 0.0000000000000000
5.0965969749666584 2.9608683025747049 0.0000000000000000
7.5977638053102483 4.8645340568757378 0.0000000000000000
3.9052281429022782 5.1564505840550270 0.0000000000000000
4.3073436315587870 4.0082767584595693 0.0000000000000000
7.1615473571430233 6.5407367473580962 0.0000000000000000
5.4195762952519626 6.0874445010464662 0.0000000000000000
3.4608963111273519 2.8931411209894451 0.0000000000000000
5.9239392084662157 3.3551161804059979 0.0000000000000000
2.9715414950851211 4.3765600687249702 0.0000000000000000
3.3204998465607130 3.0355798148997208 0.0000000000000000
5.8707820906169790 3.1623097468464181 0.0000000000000000
6.0111784576122993 3.0198724358361888 0.0000000000000000
2.5352240267647330 6.0528212976734732 0.0000000000000000
5.2260224668516750 6.0370766987160822 0.0000000000000000
2.8843020611506511 4.7118050897412509 0.0000000000000000
5.9580213768283663 2.8270658598418041 0.0000000000000000
5.1497289278568958 3.1536499319260809 0.0000000000000000
6.1897247977124126 4.3191483482038464 0.0000000000000000
7.9126416535669346 4.0516065425797159 0.0000000000000000
4.6560821299500077 2.6674624594352929 0.0000000000000000
6.9789479431694854 3.2717101272691549 0.0000000000000000
6.4855042027383547 2.7853852381132178 0.0000000000000000
3.0778557520587988 4.7621729299784956 0.0000000000000000
2.7779877496755319 4.3261922435138747 0.0000000000000000
7.0170972291627756 4.7134259910849732 0.0000000000000000
4.4858896281031404 5.3075539910461913 0.0000000000000000
4.7516752173492884 6.2715861588440562 0.0000000000000000
2.8652272400549532 3.9909472069356058 0.0000000000000000
3.1610210845900322 2.4571784756196182 0.0000000000000000
6.7661710515796374 2.5005313139214520 0.0000000000000000
4.0606326853092636 3.7651025225696082 0.0000000000000000
3.3436413007488710 5.7262051089577390 0.0000000000000000
2.6225696837766042 5.7175441249927719 0.0000000000000000
6.2047323732710868 3.0702399028487828 0.0000000000000000
5.0624843021632788 3.4888900358732071 0.0000000000000000
4.7816908810611771 3.7737672983315820 0.0000000000000000
7.2143569982561786 6.7337288268106281 0.0000000000000000
4.6412941705101209 3.9162059295607690 0.0000000000000000
5.5408983628063746 5.2241479379093194 0.0000000000000000
5.7494600230626016 4.0256063099835000 0.0000000000000000
4.9220875916122271 3.6313286671023950 0.0000000000000000
4.4327325102539081 5.1147475574866199 0.0000000000000000
5.4386509382485846 6.8083024329543678 0.0000000000000000
4.3795753924046741 4.9219411239270414 0.0000000000000000
6.4705182188145134 4.0342710857454680 0.0000000000000000
7.9916034944260268 4.9664055785149701 0.0000000000000000
4.9452290457495636 6.3219539611744517 0.0000000000000000
6.3301215082634670 4.1767097169746554 0.0000000000000000
6.8917083504676757 3.6069551920579030 0.0000000000000000
7.7924946409496272 4.9150966991143568 0.0000000000000000
6.6981545220673500 3.5565873897275342 0.0000000000000000
7.8594487294887534 3.8589222453287690 0.0000000000000000
5.4155094841112561 4.1176771388822964 0.0000000000000000
5.6090633125115490 4.1680449412126768 0.0000000000000000
5.0856257563006171 6.1795153299452714 0.0000000000000000
6.5577578115163186 3.6990260209567141 0.0000000000000000
5.5107663068574881 7.7221143048571967 0.0000000000000000
3.7648314323512300 5.2988892152841967 0.0000000000000000
4.6112785067982287 6.4140247900732543 0.0000000000000000
5.8598410699016563 6.3809865392672132 0.0000000000000000
2.4289659554416758 5.6671901149431898 0.0000000000000000
5.7726067359902320 6.7162368429066213 0.0000000000000000
7.8062318305269232 3.6662826413698082 0.0000000000000000
6.6004111965641563 7.1098884236447333 0.0000000000000000
3.4349472964768588 7.3607430132122094 0.0000000000000000
6.1365676798631750 4.1263419146442759 0.0000000000000000
5.3282698914094464 4.4529222036710472 0.0000000000000000
6.1597265284556091 6.8169845372420479 0.0000000000000000
3.1310128480752240 4.9549793695574138 0.0000000000000000
7.7531024909201509 3.4734182084427840 0.0000000000000000
3.5712776039672232 5.2485214129493141 0.0000000000000000
3.5181204861207021 5.0557149793890046 0.0000000000000000
5.9430138514628874 4.0759741123138884 0.0000000000000000
7.3128964530929856 3.1796480167124250 0.0000000000000000
7.3660554280662636 3.3724478356995200 0.0000000000000000
7.1193430420358981 3.1292778429650689 0.0000000000000000
7.5596065500534504 3.4228615804000762 0.0000000000000000
3.6815882607078319 7.6041186311506737 0.0000000000000000
4.9301875170369014 7.5710447043040867 0.0000000000000000
3.3245666609665041 5.0053471761636628 0.0000000000000000
4.0156007636019364 7.5118579399267533 0.0000000000000000
6.4064200802500810 7.0601414446062760 0.0000000000000000
4.2091600556005604 7.5622133524912627 0.0000000000000000
4.8770552712756077 7.3781041016796003 0.0000000000000000
3.8220347223280391 7.4615270993809091 0.0000000000000000
5.1237406178451694 7.6214351028016774 0.0000000000000000
4.6835069252006889 7.3277068571819077 0.0000000000000000
5.3172647277192251 7.6717517586805979 0.0000000000000000
4.5431135570930996 7.4701277867698694 0.0000000000000000
4.4027116121775398 7.6125974609586784 0.0000000000000000
7.3398155088035839 7.8403524736667736 0.0000000000000000
2.2164384472397489 4.8959121033602786 0.0000000000000000
2.3036382053917981 4.5606778759169124 0.0000000000000000
1.9658290015858930 2.6877199871612021 0.0000000000000000
3.0554190404281099 2.0709755372344132 0.0000000000000000
2.2780597762853172 1.8661028915518290 0.0000000000000000
1.8853408906641520 6.9626146175483399 0.0000000000000000
3.4417491489952732 2.1727084419367779 0.0000000000000000
3.2483307575766931 2.1221844845408291 0.0000000000000000
2.0793938353101109 7.0099607004781186 0.0000000000000000
2.0189379093180779 2.8790474803533721 0.0000000000000000
7.9644799967211490 2.2684908726409598 0.0000000000000000
2.1260130314966701 3.2621141363171922 0.0000000000000000
2.0461308311353612 8.2630980414447635 0.0000000000000000
8.1042088597516422 2.1296373492317549 0.0000000000000000
7.3467058780945136 2.6526448755277769 0.0000000000000000
7.2934063104487148 2.4587522802774480 0.0000000000000000
7.6810979391220284 2.5598377113535040 0.0000000000000000
5.5636747792774086 7.9157064087991387 0.0000000000000000
2.3001076772029898 2.5915689885227162 0.0000000000000000
1.3419682401548960 6.8503116515232367 0.0000000000000000
1.2894406273553860 7.0195359329129063 0.0000000000000000
4.6312932437452874 1.9469381919600319 0.0000000000000000
4.3362285109449781 1.5235129167927861 0.0000000000000000
8.0082712901047834 7.6564124317335907 0.0000000000000000
8.4754588681781016 8.1449526352760131 0.0000000000000000
1.5686232535535209 7.7566658303558524 0.0000000000000000
5.6157005860210036 8.1085435697240573 0.0000000000000000
2.5287096686233750 2.1128371817056331 0.0000000000000000
4.1635107029535412 8.6154902086374641 0.0000000000000000
8.3541989874522944 6.3373959037951577 0.0000000000000000
7.6852507244656127 6.5065532263858286 0.0000000000000000
1.3472104861527820 7.5357857405581168 0.0000000000000000
5.9512336806950152 8.0227594039098857 0.0000000000000000
8.2777612036705808 3.4392620243731682 0.0000000000000000
1.5478380978805100 8.1159063364752502 0.0000000000000000
8.1194577650009805 1.4374432045800281 0.0000000000000000
4.8242342537755398 1.9948048249784469 0.0000000000000000
1.9285587282636130 8.5568148347421875 0.0000000000000000
2.1592697062877120 2.7359161168748911 0.0000000000000000
1.5633167095968150 1.8587230082508679 0.0000000000000000
4.7068148347421914 8.7285587282636072 0.0000000000000000
6.6746878435686838 8.0261146894958877 0.0000000000000000
1.7195293067093680 6.3655714842904274 0.0000000000000000
2.2452851923375499 2.4020652323524891 0.0000000000000000
5.8825409684096108 1.9128329696060471 0.0000000000000000
2.3871453025847060 2.2579213333074262 0.0000000000000000
5.1054773279547474 1.6787827340813120 0.0000000000000000
1.7823120229644309 1.4161020114397280 0.0000000000000000
8.1584152900737674 1.6184596188025111 0.0000000000000000
5.1392183096919846 8.3325594611379046 0.0000000000000000
5.1995512464120912 8.5242207118669455 0.0000000000000000
5.3975348567216699 8.5675130017412364 0.0000000000000000
8.3093521406795663 2.9001651886850301 0.0000000000000000
1.0720675346956690 7.3561897643315390 0.0000000000000000
8.3442429332748063 4.8530032044454678 0.0000000000000000
3.3428814597943970 8.4185535623706595 0.0000000000000000
1.6117769657574661 1.3566058616158609 0.0000000000000000
1.4296499685623081 1.2413673243393579 0.0000000000000000
1.2410004426250980 1.4374726657951871 0.0000000000000000
4.7374123317649106 2.3337412846193750 0.0000000000000000
1.4431851652578149 3.4035587282636199 0.0000000000000000
6.3428852559884099 1.6844099560236281 0.0000000000000000
8.5235678862395723 5.6309267336815001 0.0000000000000000
4.9352119990046432 2.3834855958749199 0.0000000000000000
1.4113275312268270 3.7962900947819831 0.0000000000000000
2.3716013160977631 8.6875931592316746 0.0000000000000000
8.2550994426807573 2.7057292015689312 0.0000000000000000
8.5455239428415535 3.7022114288227912 0.0000000000000000
8.0144959872978099 6.4231224864595262 0.0000000000000000
8.6017003715361753 6.7400811991748064 0.0000000000000000
6.3229510852125346 2.2083061950274430 0.0000000000000000
6.4317890195969607 7.7848576094232023 0.0000000000000000
7.0785600476168860 1.6966449898772560 0.0000000000000000
1.2710087286922129 3.2305268894198038 0.0000000000000000
7.2757674411503377 1.7451619386031270 0.0000000000000000
6.5713155133115571 7.6370513830314168 0.0000000000000000
6.5166759645305250 7.4443211903463187 0.0000000000000000
2.6471630406580902 1.2438656014600740 0.0000000000000000
2.6378465913926550 1.0374782679843060 0.0000000000000000
8.7073895099861662 3.8117933737530829 0.0000000000000000
8.5386111387914791 6.3298684314274789 0.0000000000000000
8.7163538064563522 4.4657212151054928 0.0000000000000000
2.8892138068932018 8.6405120480904465 0.0000000000000000
2.7595425439807331 8.7998931423812863 0.0000000000000000
8.6750350122683990 6.9034100840888444 0.0000000000000000
7.6616194752868907 8.7282370095289679 0.0000000000000000
8.1838819274004688 6.9950574771441687 0.0000000000000000
4.8293362440690002 1.4587671972330609 0.0000000000000000
8.1239570557009948 0.8842443853488213 0.0000000000000000
9.1437648697614442 7.7897107443885014 0.0000000000000000
2.1808265150749579 8.5495771585837179 0.0000000000000000
8.5568148347421893 1.9285587282636121 0.0000000000000000
3.3830225609005842 9.1424620297054915 0.0000000000000000
8.5622447497655525 3.3998887077237501 0.0000000000000000
5.3222903105086141 1.2896678049913890 0.0000000000000000
6.1818148347421831 1.2714412717363761 0.0000000000000000
0.9799183868818195 6.2025209666705132 0.0000000000000000
7.6568148347421836 1.2714412717363801 0.0000000000000000
0.9783394484684511 7.6724048226448058 0.0000000000000000
5.2900544993659544 8.9683474910129029 0.0000000000000000
5.2988219260151173 9.1278514354476883 0.0000000000000000
6.2025126236887056 9.0201197364878585 0.0000000000000000
8.7285587282636126 6.1818148347421884 0.0000000000000000
7.6831069373042364 9.0235960543602580 0.0000000000000000
1.8760429442984170 9.1157556146513166 0.0000000000000000
2.2036894826061451 9.1350462438716455 0.0000000000000000
2.3426586053583889 8.9864568251051757 0.0000000000000000
9.0111556936947466 2.3286575440768091 0.0000000000000000
9.0192948440203509 3.7964558697890110 0.0000000000000000
8.7126615488252277 3.2168156730518209 0.0000000000000000
3.6834087829382320 9.1347782870644707 0.0000000000000000
3.6933788044715090 9.3923095677612096 0.0000000000000000
9.1424620297050652 3.3830225608992102 0.0000000000000000
8.7285587282635966 8.2431851652578061 0.0000000000000000
1.7487706510213199 8.7279632346935436 0.0000000000000000
5.1306538141971778 1.4733265185634150 0.0000000000000000
1.4434703376006579 4.8818930263721958 0.0000000000000000
6.5992640687119444 1.4500000000000000 0.0000000000000000
1.4310645337402090 6.3659651227701950 0.0000000000000000
4.8640621704376912 0.8687888590152109 0.0000000000000000
4.7143985078039368 0.9058966870246041 0.0000000000000000
4.7603910523509754 0.7097272742297303 0.0000000000000000
5.1383874553254216 0.8682713536314657 0.0000000000000000
5.2883084426441673 0.9082598936843995 0.0000000000000000
5.2522362769427042 0.7132362074462745 0.0000000000000000
0.8687888590151414 5.1359378295623426 0.0000000000000000
0.9058966870242885 5.2856014921956929 0.0000000000000000
0.7097272742296612 5.2396089476482679 0.0000000000000000
0.8682713536315323 4.8616125446746183 0.0000000000000000
0.9077423677477392 4.7120041309890270 0.0000000000000000
0.7131142066165171 4.7478374087217761 0.0000000000000000
6.3147666470479269 0.8657859929432321 0.0000000000000000
6.6120236912086927 0.8551254244007207 0.0000000000000000
0.8575379702945036 6.6169774390994114 0.0000000000000000
0.8577919858091747 6.3214882190272732 0.0000000000000000
0.6066587948207529 6.3077524836220658 0.0000000000000000
7.7963105173927971 0.8649537561280802 0.0000000000000000
0.8480262328375213 7.7943666193555652 0.0000000000000000
8.7285587282636055 1.7568148347421910 0.0000000000000000
8.6650111535757262 1.5948100934901821 0.0000000000000000
3.8503569306293830 8.7114334275264742 0.0000000000000000
1.4443621655862500 5.1150904559419592 0.0000000000000000
1.2813940236568671 4.7023219211836729 0.0000000000000000
1.1813181449168380 4.4211446834224120 0.0000000000000000
6.1824560723892343 1.0097612272532830 0.0000000000000000
1.2742640687119151 6.1750000000000087 0.0000000000000000
7.6573413946413016 1.0135431748950099 0.0000000000000000
2.3413665957524850 1.2722285275628500 0.0000000000000000
2.2088901357250310 0.8554056446355798 0.0000000000000000
0.9775215954065232 2.3198099238851362 0.0000000000000000
3.7958170233322659 0.9814717729617437 0.0000000000000000
3.8173902476959558 8.9903915248005291 0.0000000000000000
3.2253837000801591 8.7309277862972046 0.0000000000000000
3.8538607331626702 1.2884520589287141 0.0000000000000000
3.6776492232667932 0.8599593783878996 0.0000000000000000
0.8575379702945054 3.3830225609005851 0.0000000000000000
1.2714412717363841 1.7568148347421859 0.0000000000000000
3.6565535209256170 1.4637216634855010 0.0000000000000000
3.3879763087895931 0.8551254244012958 0.0000000000000000
0.8659229151841360 3.6819553991837739 0.0000000000000000
0.6080464717709193 3.6928115052989110 0.0000000000000000
1.8760429442979250 0.8842443853484966 0.0000000000000000
0.8842443853486848 1.8760429442984130 0.0000000000000000
4.7152250060089687 1.2953248716409700 0.0000000000000000
1.2741306277123210 5.2858742087039694 0.0000000000000000
6.7780459222458642 1.2917374432517079 0.0000000000000000
5.2970432313141584 8.6998385389350190 0.0000000000000000
4.7090552894336026 8.9674697669081489 0.0000000000000000
4.6996253204297851 9.1244348736129446 0.0000000000000000
8.9683474910123433 5.2900544993652971 0.0000000000000000
9.1278514354473828 5.2988219260126899 0.0000000000000000
8.7175311985812218 4.6770947077086849 0.0000000000000000
8.9674697669088488 4.7090552894327056 0.0000000000000000
9.1244348736132039 4.6996253204260476 0.0000000000000000
8.9742640687119248 6.1750000000000087 0.0000000000000000
9.0117827234388983 7.6614850377722910 0.0000000000000000
1.0118086129672930 3.8126221256708259 0.0000000000000000
2.3403135788382321 1.0004152771780250 0.0000000000000000
8.7285587282636055 2.3431851652578088 0.0000000000000000
2.1929574780744079 1.4646659495112431 0.0000000000000000
0.8570479679995963 2.1994671426123138 0.0000000000000000
3.4024132787943389 1.4417580497325351 0.0000000000000000
1.4408084743336180 3.6456705942152769 0.0000000000000000
0.8838657834185635 8.1241138777557858 0.0000000000000000
9.1157556146515031 1.8760429442979210 0.0000000000000000
9.1401683911091176 3.6777556976762482 0.0000000000000000
8.5434762935552477 5.1304990525463197 0.0000000000000000
8.5442594044667732 4.8710279094793316 0.0000000000000000
6.6169883207554792 9.1424399250867889 0.0000000000000000
6.3214784855485036 9.1422524914554444 0.0000000000000000
6.3077398609875832 9.3933994148041862 0.0000000000000000
9.1424620297058645 6.6169774390983820 0.0000000000000000
9.1500000000000128 6.3507359312880407 0.0000000000000000
9.3660276400756679 6.3001793940598736 0.0000000000000000
8.1239570557015739 9.1157556146513148 0.0000000000000000
7.8018283402778899 9.1432682414796975 0.0000000000000000
7.8207966666948261 8.5349769727919167 0.0000000000000000
9.1157556146511780 8.1239570557009912 0.0000000000000000
8.5702389119276958 7.7925011156759521 0.0000000000000000
9.1487803672268733 2.2048516949158099 0.0000000000000000
6.1818148347421884 8.7285587282636126 0.0000000000000000
0.8160036607995860 9.1843948832412714 0.0000000000000000
9.1741758545508887 9.1741758545492544 0.0000000000000000
0.7857648798016365 0.7857648798021712 0.0000000000000000
9.1741758545471672 0.8258241454499605 0.0000000000000000
7.8386656836456332 8.3357623411044059 0.0000000000000000
1.4054698640185430 7.6967709208000272 0.0000000000000000
8.5596887117152036 6.5967924486164664 0.0000000000000000
6.3053007514654063 0.6068185576592924 0.0000000000000000
3.6904536073169241 0.6081547847528679 0.0000000000000000
9.3918440601638835 3.6904842212066460 0.0000000000000000
4.5363827970091641 8.6898877532557144 0.0000000000000000
1.3444291394966981 8.7459433413556376 0.0000000000000000
8.8397113123526658 5.5743788540845873 0.0000000000000000
6.3533087709644098 8.5712213926650183 0.0000000000000000
1.9303355561566859 1.4400611251666460 0.0000000000000000
1.3902817354995629 5.7458563982399138 0.0000000000000000
4.4261573859327736 8.8383979491373399 0.0000000000000000
1.8938324889103610 8.3878224946465476 0.0000000000000000
7.3861815839524319 1.0006253557459230 0.0000000000000000
7.3826074726808821 9.0051933750001503 0.0000000000000000
2.6212550136956230 8.9519769612272349 0.0000000000000000
8.5490947335867844 1.2031598700513080 0.0000000000000000
8.7666763929997096 1.2531068721521070 0.0000000000000000
8.2388362833547077 8.7303600941290220 0.0000000000000000
3.0679958188398562 8.6824616254936515 0.0000000000000000
9.0471613168203699 2.4997297972673871 0.0000000000000000
3.5092104285026031 8.2697081731636111 0.0000000000000000
1.7605335264969180 1.2728258458585799 0.0000000000000000
9.0324362867837671 7.4534090193580624 0.0000000000000000
7.3941436809867476 8.7128181757297938 0.0000000000000000
8.4341172184169544 8.6452137245597562 0.0000000000000000
8.6433907683085636 8.6891339295577090 0.0000000000000000
8.7843537092268242 8.5436402999784953 0.0000000000000000
4.3491335986978568 8.6528113441911891 0.0000000000000000
7.9886797124119422 6.9522262204588827 0.0000000000000000
4.0754521380650406 1.2743345177719620 0.0000000000000000
6.7609127090882826 8.7094513721168756 0.0000000000000000
2.5746838766824438 8.7218599460935948 0.0000000000000000
2.9490883003221460 8.8318795321562718 0.0000000000000000
3.4039862924045949 8.5578470658901242 0.0000000000000000
6.6155323644942250 8.3464970370115825 0.0000000000000000
4.8799042034223588 8.5600630991182722 0.0000000000000000
7.5895873427698586 6.8439665681261603 0.0000000000000000
8.8119927355772880 1.4590137101462970 0.0000000000000000
4.9273705135090378 8.2872417686313842 0.0000000000000000
5.9650107690323972 8.7103926909984235 0.0000000000000000
1.4396158543116011 7.8300371852658586 0.0000000000000000
7.0820762054085620 1.1735581434707010 0.0000000000000000
8.3268039535830027 3.6512642901988901 0.0000000000000000
6.3745262360030113 8.3087581292149899 0.0000000000000000
1.6658347873145061 8.6027771381123799 0.0000000000000000
7.7902493682759522 6.9039892400294578 0.0000000000000000
0.9695304768863304 4.5335635546538429 0.0000000000000000
1.7049727701261741 4.9219110478798251 0.0000000000000000
1.4148062200782570 1.8151375997500190 0.0000000000000000
7.7933584877938697 0.6255447726423793 0.0000000000000000
7.7989082526003290 9.3928774857471087 0.0000000000000000
2.2066415122040199 9.3744552273572861 0.0000000000000000
0.6073474364002868 2.2021201570648699 0.0000000000000000
5.4593463375784390 9.0139883379044417 0.0000000000000000
9.0145780162382483 5.4574759057283631 0.0000000000000000
1.3446172063811810 4.3013787558114949 0.0000000000000000
4.8965742822907936 1.6904955596159030 0.0000000000000000
4.9117052364496603 0.5417398860711733 0.0000000000000000
5.1018309307994576 0.5442657163080167 0.0000000000000000
0.5417398860722852 5.0882947635500830 0.0000000000000000
0.5442482876185404 4.8981795957239180 0.0000000000000000
9.7311627433216987 6.3089572432915544 0.0000000000000000
6.3089572432915579 0.2688372566782986 0.0000000000000000
0.2688372566757640 6.3089572432948327 0.0000000000000000
0.2688372566757506 3.6910427567051620 0.0000000000000000
6.3089572432948442 9.7311627433242371 0.0000000000000000
3.6910427567051358 9.7311627433242407 0.0000000000000000
9.7311627433282073 3.6910427567011781 0.0000000000000000
3.6910427567012269 0.2688372566717552 0.0000000000000000
4.4243922641900433 1.1718560911188689 0.0000000000000000
5.5557949365945456 8.8378770085110077 0.0000000000000000
5.7165001179440598 1.3851565112250499 0.0000000000000000
9.7388356029542660 7.7996104942545177 0.0000000000000000
7.7996104942545283 0.2611643970457305 0.0000000000000000
0.2611643970438655 7.7996104942563704 0.0000000000000000
7.7996104942563411 9.7388356029561614 0.0000000000000000
0.2611643970438434 2.2003895057436300 0.0000000000000000
2.2003895057436509 9.7388356029561756 0.0000000000000000
9.7388356029585594 2.2003895057412821 0.0000000000000000
2.2003895057412830 0.2611643970414433 0.0000000000000000
1.3215264762926211 4.1099588061842214 0.0000000000000000
7.4971440839831613 1.3153933135500691 0.0000000000000000
1.3478282417350100 1.6245303621117999 0.0000000000000000
7.0559710913292637 8.8372797568861721 0.0000000000000000
9.0177229033834827 4.5398443487814717 0.0000000000000000
4.5415777409936027 9.0109630460553412 0.0000000000000000
9.4028095322952616 7.7848434228433598 0.0000000000000000
0.5962618795027395 7.7866468932980482 0.0000000000000000
2.2132554750741931 0.5968786047675388 0.0000000000000000
9.3956345337018696 2.2157288951928029 0.0000000000000000
1.2065894471662710 1.2119323643682320 0.0000000000000000
5.9402622888288281 1.2219512129333781 0.0000000000000000
3.2270047621305298 1.2650559247494060 0.0000000000000000
0.9227699671447788 7.4880432573778153 0.0000000000000000
2.4962449728560689 0.9226978118257347 0.0000000000000000
4.2973802028021186 1.3408327104425559 0.0000000000000000
8.8452654897521690 2.8775831516979111 0.0000000000000000
8.0459181731935789 8.3552815248118630 0.0000000000000000
8.7332946234096696 5.3013749128905179 0.0000000000000000
6.7891848021710359 1.0399833339180251 0.0000000000000000
8.9598814511069182 6.7891287942945473 0.0000000000000000
1.0401185488939650 6.7891287942959622 0.0000000000000000
1.0401185488939699 3.2108712057040312 0.0000000000000000
3.2108712057040321 8.9598814511060301 0.0000000000000000
6.7892260271582323 8.9596839356421167 0.0000000000000000
3.2108151978256392 1.0399833339200810 0.0000000000000000
8.9598814511048754 3.2108712057021349 0.0000000000000000
4.0617529759735671 8.7639370440199595 0.0000000000000000
6.9703095365709089 9.0014413838977063 0.0000000000000000
8.6928080657843356 2.4958887090426112 0.0000000000000000
8.7370628055134514 6.7619825279001926 0.0000000000000000
8.9703394886271983 1.7594747744671979 0.0000000000000000
1.7594747744672090 1.0296605113728150 0.0000000000000000
1.0296605113731701 1.7594747744680650 0.0000000000000000
1.0296605113731589 8.2405252255319450 0.0000000000000000
1.7594747744680710 8.9703394886268342 0.0000000000000000
8.2405252255319130 8.9703394886268359 0.0000000000000000
8.2405252255310053 1.0296605113735480 0.0000000000000000
8.9703394886264576 8.2405252255309964 0.0000000000000000
1.2688203412817269 7.6682270610241678 0.0000000000000000
8.7723515220921655 5.9280903688614739 0.0000000000000000
5.2118508335269036 9.3154451126453530 0.0000000000000000
5.0772709818997104 9.4832345399476825 0.0000000000000000
9.3154451126459445 5.2118508335239166 0.0000000000000000
9.4832345399502618 5.0772709818939266 0.0000000000000000
3.0337761413867321 0.9971908682039795 0.0000000000000000
9.0063185758660218 3.0319678895087661 0.0000000000000000
0.9976601662320330 3.0332015444707001 0.0000000000000000
0.9946493952602702 6.9569218492574052 0.0000000000000000
3.0333088911954631 9.0018921620039229 0.0000000000000000
6.9715583184146412 0.9990960926300856 0.0000000000000000
9.0000228741574322 6.9730449111681203 0.0000000000000000
7.8351569894435311 1.4209538617226081 0.0000000000000000
1.1226768406639760 5.5756808908181839 0.0000000000000000
9.3025222150880218 4.7265343604944867 0.0000000000000000
4.7265343604998504 9.3025222150886098 0.0000000000000000
3.6233385291833189 8.5812267264645818 0.0000000000000000
2.9512442106655681 1.1581650847064500 0.0000000000000000
1.1996038421908919 7.1853544543868892 0.0000000000000000
0.9304093503817192 2.4832803745018408 0.0000000000000000
1.2592211681866241 3.8090710448064771 0.0000000000000000
1.2565317602138679 8.2342170083996855 0.0000000000000000
1.2981984965367439 8.3471483010872092 0.0000000000000000
8.5762676384247190 2.1660403547660931 0.0000000000000000
1.3030348476553359 6.0138632991537513 0.0000000000000000
8.6836070610777956 5.6552911509309434 0.0000000000000000
5.7898864023896248 8.6320599754888558 0.0000000000000000
8.6344710251282049 4.2806694349637562 0.0000000000000000
5.2541761060470176 1.4098203730699219 0.0000000000000000
0.3721826185171389 4.9957846437244378 0.0000000000000000
5.0042174615771202 0.3721861042546596 0.0000000000000000
3.7868232318287611 1.4118232318287600 0.0000000000000000
8.7934684017182505 4.0666720255544409 0.0000000000000000
1.5503021488287210 6.2943293407790550 0.0000000000000000
5.5700741010349422 1.1222661864941270 0.0000000000000000
5.4727405554115487 0.9799681469881268 0.0000000000000000
8.7010463776314282 8.3969075446429908 0.0000000000000000
1.5568000911719140 8.7270161631293188 0.0000000000000000
1.1737153601051780 4.0757893151790681 0.0000000000000000
1.7010246585178330 3.4843886300378801 0.0000000000000000
1.1589213078762299 2.9521234851535878 0.0000000000000000
3.4630846163910198 1.6947154907431110 0.0000000000000000
1.1929543032816960 5.9220395458337176 0.0000000000000000
4.5343772336549124 0.9630728377553199 0.0000000000000000
0.9586327685652251 5.4654730642864067 0.0000000000000000
1.4500000000000000 1.9512209933412581 0.0000000000000000
6.0473467394398739 1.3022839471146681 0.0000000000000000
8.5160890121517063 8.8245658367681674 0.0000000000000000
5.4465544849071144 8.7175223355199787 0.0000000000000000
8.3635691064765787 5.1266367424150756 0.0000000000000000
7.2968306924988413 8.8548634478722725 0.0000000000000000
8.6104477388660392 8.1699513093046132 0.0000000000000000
8.5788970501613644 8.0612650601635867 0.0000000000000000
8.5962903783309450 4.7458337017159611 0.0000000000000000
1.2934389000885691 3.9496171450476689 0.0000000000000000
1.5338705020499410 1.0141648370749881 0.0000000000000000
8.9929030025363126 1.5447549813076620 0.0000000000000000
1.0136880472109591 1.5345527165091779 0.0000000000000000
1.5431509472946461 8.9578881215602646 0.0000000000000000
1.0149775575994691 8.4454773849211620 0.0000000000000000
8.4454006857479520 8.9929272248147250 0.0000000000000000
8.9891818979524540 8.4611451982365171 0.0000000000000000
8.4565555605371223 1.0085904099780010 0.0000000000000000
8.5960656652573100 3.2755066097032599 0.0000000000000000
1.4353783512783651 5.2605438356258336 0.0000000000000000
6.2419949704162274 8.6107639134663199 0.0000000000000000
0.9392120022446300 3.9627836792665949 0.0000000000000000
0.9371917515958103 6.0387227267671646 0.0000000000000000
6.0365592375620762 9.0642993473557372 0.0000000000000000
3.9621172761578540 0.9435925662001350 0.0000000000000000
2.3078290410653550 1.4006528743489550 0.0000000000000000
1.4386772860270840 6.5775905731367663 0.0000000000000000
8.6050102968260571 2.2739889410024130 0.0000000000000000
6.7019924849125108 1.4115066298419749 0.0000000000000000
7.7028076552622036 8.6096709604801962 0.0000000000000000
4.7005360339082767 1.0458831707527210 0.0000000000000000
1.0455595505493349 5.2994530548629291 0.0000000000000000
8.6313721313560219 1.8311076992463631 0.0000000000000000
1.0481463408060270 4.7002158647129102 0.0000000000000000
5.2999999999999989 1.0520089685955460 0.0000000000000000
6.0346151751956336 0.9391420038032574 0.0000000000000000
9.0509403802062245 6.0651269560187107 0.0000000000000000
3.9636822444148239 9.0648769599210155 0.0000000000000000
9.0600403195726287 3.9635044807223361 0.0000000000000000
1.4268624524574640 8.0657374547129379 0.0000000000000000
1.1261760846888900 7.0382067440432881 0.0000000000000000
8.9574769662269027 2.6670691597215059 0.0000000000000000
1.8152261715242020 8.6197003100942666 0.0000000000000000
9.4123001409454794 4.8819987052454934 0.0000000000000000
4.8819987052500107 9.4123001409451419 0.0000000000000000
6.3623415133784498 1.4176806341932540 0.0000000000000000
6.2525824838871173 1.3856922150355520 0.0000000000000000
1.3962500794743751 6.2537207264722063 0.0000000000000000
7.7236239630443722 1.3924779539134580 0.0000000000000000
7.5235824893519698 0.9238521402023645 0.0000000000000000
7.5236402898886672 9.0714915439060988 0.0000000000000000
2.4784737193970279 9.0668152998870433 0.0000000000000000
2.0192808924508969 1.6951913317985490 0.0000000000000000
6.9048123710318707 8.7192079389628177 0.0000000000000000
5.0979761049301509 8.5912326192342903 0.0000000000000000
8.8831991022359915 4.4343159152584271 0.0000000000000000
1.4315747396334659 6.9919085703368680 0.0000000000000000
5.0981735824369574 9.1500000000000128 0.0000000000000000
9.1500000000000128 5.0981735824369494 0.0000000000000000
9.1829540836977177 4.8949872303379518 0.0000000000000000
4.8949872303398996 9.1829540836977142 0.0000000000000000
4.5682821924573780 1.2855933434867961 0.0000000000000000
8.8194406828965004 8.7905195979061492 0.0000000000000000
1.6766630928213910 8.0132220328230801 0.0000000000000000
4.7743026499399894 8.6206884770242116 0.0000000000000000
4.9125039491201701 9.6912559859114538 0.0000000000000000
9.6912559859120329 4.9125039491132352 0.0000000000000000
1.5595069266248081 6.6160265581021438 0.0000000000000000
2.2717253998762010 8.6151030447067996 0.0000000000000000
8.3245049138569982 6.5373710268661389 0.0000000000000000
1.5611652076361771 5.1502451513821681 0.0000000000000000
1.5559491861929400 3.7024042130300110 0.0000000000000000
1.5683414147869330 4.8610159371315298 0.0000000000000000
2.7823143941569848 1.1434238314889520 0.0000000000000000
1.2407281644290069 2.3094254549075970 0.0000000000000000
5.9139276657227722 8.8442654546091610 0.0000000000000000
1.3080559126786979 5.8687932695592044 0.0000000000000000
1.2677222174446960 6.7404258112839841 0.0000000000000000
8.6213634171385820 6.2131500585880142 0.0000000000000000
1.3264640776975971 5.4023954622373891 0.0000000000000000
8.7149884196109042 3.9563880978613950 0.0000000000000000
9.0765781260093270 6.2222124412932303 0.0000000000000000

SCALARS v:x_e double 3
LOOKUP_TABLE default
-0.0038977423360997 0.0002363011540469 0.0000000000000000
10.0031958127046892 -0.0001270967624534 0.0000000000000000
10.0036876512954773 10.0006574505738737 0.0000000000000000
-0.0033598088197509 10.0010302651859355 0.0000000000000000
2.2471595536528604 1.1463842095502379 0.0000000000000000
2.1887080579032867 1.2884363153675693 0.0000000000000000
2.0471766249553740 1.3476376399355448 0.0000000000000000
1.9056619430893909 1.2885071784048381 0.0000000000000000
1.8473049913840427 1.1463981594941643 0.0000000000000000
1.9056502962725690 1.0033286437626900 0.0000000000000000
2.0472788168805982 0.9447500000000000 0.0000000000000000
2.1888808695279898 1.0033286437626900 0.0000000000000000
2.4474024781736001 1.1473493610948986 0.0000000000000000
2.0471128544621453 1.5476498404151731 0.0000000000000000
1.6471730862268548 1.1476349061286313 0.0000000000000000
2.0472146091265859 0.7449068477983980 0.0000000000000000
2.2477346149737762 8.8540379975132808 0.0000000000000000
2.1892678571153494 8.9966713562373091 0.0000000000000000
2.0476511855257606 9.0552499999999991 0.0000000000000000
1.9060603795063595 8.9966713562373091 0.0000000000000000
1.8475041529970515 8.8552499999999998 0.0000000000000000
1.9061678646369882 8.7130468305523188 0.0000000000000000
2.0477294789629048 8.6533872168880546 0.0000000000000000
2.1893093208326571 8.7122314423677416 0.0000000000000000
2.4479116092804563 8.8533425541110429 0.0000000000000000
2.0476336572507461 9.2551600016229720 0.0000000000000000
1.6474505683498357 8.8536530673360048 0.0000000000000000
2.0475577591718159 8.4533804870577232 0.0000000000000000
1.3465245166462290 2.0490846291366220 0.0000000000000000
1.2877404112454705 2.1907584442514083 0.0000000000000000
1.1457725945728050 2.2496404809881962 0.0000000000000000
1.0033286437626900 2.1912479623270231 0.0000000000000000
0.9447500000000000 2.0498133783004593 0.0000000000000000
1.0033286437626900 1.9082168217394444 0.0000000000000000
1.1447499999999999 1.8493346095743193 0.0000000000000000
1.2874090680561345 1.9076740033948463 0.0000000000000000
1.5466163499622572 2.0486433791243353 0.0000000000000000
1.1461449294894341 2.4496442373145091 0.0000000000000000
0.7451082071284294 2.0500155594326719 0.0000000000000000
1.1460660753068292 1.6493450410081474 0.0000000000000000
9.0552499999999991 2.0496269622545578 0.0000000000000000
8.9966713562373091 2.1910514008974529 0.0000000000000000
8.8552499999999998 2.2494278680872948 0.0000000000000000
8.7125900193645869 2.1904556984452688 0.0000000000000000
8.6531713027953732 2.0488099898937637 0.0000000000000000
8.7117144823247461 1.9074054038171953 0.0000000000000000
8.8537510541550741 1.8491622262586285 0.0000000000000000
8.9966713562373091 1.9080506361618237 0.0000000000000000
9.2548159848491043 2.0497844634162616 0.0000000000000000
8.8540108166088274 2.4494268120216751 0.0000000000000000
8.4530775820606934 2.0483782745071797 0.0000000000000000
8.8532702319934433 1.6491600081669213 0.0000000000000000
3.7234548943062404 1.1464638541019487 0.0000000000000000
3.6650552066838369 1.2883377608725162 0.0000000000000000
3.5234709139070115 1.3474121662045535 0.0000000000000000
3.3818513563729011 1.2881735249672921 0.0000000000000000
3.3232935715239393 1.1460844380922615 0.0000000000000000
3.3816494698095210 1.0033286437626900 0.0000000000000000
3.5233726665369143 0.9447500000000000 0.0000000000000000
3.6650853750259276 1.0033286437626900 0.0000000000000000
3.9236955738699670 1.1472425794784560 0.0000000000000000
3.5234317236113974 1.5474146052824356 0.0000000000000000
3.1231542398068282 1.1470695204810779 0.0000000000000000
3.5234284805730582 0.7448595911715167 0.0000000000000000
3.7239854546741080 8.8540374231802126 0.0000000000000000
3.6654670319104348 8.9966713562373091 0.0000000000000000
3.5237566213614113 9.0552499999999991 0.0000000000000000
3.3821030645256798 8.9966713562373091 0.0000000000000000
3.3235422380843023 8.8552499999999998 0.0000000000000000
3.3822879543193594 8.7129881259391411 0.0000000000000000
3.5239351568169233 8.6534223998433184 0.0000000000000000
3.6655350757911660 8.7122652220391252 0.0000000000000000
3.9241559830549839 8.8533347935519728 0.0000000000000000
3.5237910615099737 9.2551752609083255 0.0000000000000000
3.1234557109538770 8.8538811235267669 0.0000000000000000
3.5238232363543145 8.4534426595958294 0.0000000000000000
1.3464169208331767 3.5248310809722740 0.0000000000000000
1.2876940918805035 3.6664794505200802 0.0000000000000000
1.1457534204979618 3.7252261872893402 0.0000000000000000
1.0033286437626900 3.6666427178694532 0.0000000000000000
0.9447500000000000 3.5251266863093536 0.0000000000000000
1.0033286437626900 3.3835324635070765 0.0000000000000000
1.1447499999999999 3.3247271924738486 0.0000000000000000
1.2872923355519679 3.3832919163187136 0.0000000000000000
1.5465055822885614 3.5246500268593679 0.0000000000000000
1.1460953254629853 3.9252257590461990 0.0000000000000000
0.7450684476717783 3.5252563628144711 0.0000000000000000
1.1458560018871173 3.1247375495268130 0.0000000000000000
9.0552499999999991 3.5249108826338369 0.0000000000000000
8.9966713562373091 3.6664175175045903 0.0000000000000000
8.8552499999999998 3.7249512265307891 0.0000000000000000
8.7126950649616735 3.6660975764564023 0.0000000000000000
8.6535445056160007 3.5244723171292978 0.0000000000000000
8.7121758557653255 3.3829330365917878 0.0000000000000000
8.8541490672217460 3.3245079114161316 0.0000000000000000
8.9966713562373091 3.3833217354533223 0.0000000000000000
9.2549293263683019 3.5250124717418418 0.0000000000000000
8.8541181810402971 3.9249579546766298 0.0000000000000000
8.4534007188547786 3.5243294321342371 0.0000000000000000
8.8538071473269344 3.1245058910506467 0.0000000000000000
5.1999229129478479 1.1461474436162249 0.0000000000000000
5.1414001414332242 1.2881120516997324 0.0000000000000000
4.9997881106781366 1.3472744927495863 0.0000000000000000
4.8581831392853161 1.2882348877642900 0.0000000000000000
4.7996504944067633 1.1461350492427638 0.0000000000000000
4.8580356485469460 1.0033286437626900 0.0000000000000000
4.9997560325227628 0.9447500000000000 0.0000000000000000
5.1414907967459138 1.0033286437626900 0.0000000000000000
5.4000717508879248 1.1470539069931152 0.0000000000000000
4.9997990341075358 1.5473156456908315 0.0000000000000000
4.5994908239553203 1.1471068928778017 0.0000000000000000
4.9997538850725052 0.7448265759531409 0.0000000000000000
5.2003683292014289 8.8541872733320464 0.0000000000000000
5.1418328568551459 8.9966713562373091 0.0000000000000000
5.0000707890082934 9.0552499999999991 0.0000000000000000
4.8584444654993364 8.9966713562373091 0.0000000000000000
4.7998519174445722 8.8552499999999998 0.0000000000000000
4.8585885284590198 8.7129701346497583 0.0000000000000000
5.0002405206221008 8.6534617598267545 0.0000000000000000
5.1418774954413040 8.7123280025966388 0.0000000000000000
5.4004898273627049 8.8535111762302758 0.0000000000000000
5.0000515804705703 9.2551109608954647 0.0000000000000000
4.5997537568345868 8.8538263083683724 0.0000000000000000
5.0001791446908461 8.4534873329231157 0.0000000000000000
1.3464272466662781 5.0006457519696195 0.0000000000000000
1.2877433809769074 5.1422455654632628 0.0000000000000000
1.1457894037597967 5.2008651606228948 0.0000000000000000
1.0033286437626900 5.1421449818192899 0.0000000000000000
0.9447500000000000 5.0005676308629479 0.0000000000000000
1.0033286437626900 4.8589983341513614 0.0000000000000000
1.1447499999999999 4.8003240150753985 0.0000000000000000
1.2872524401288621 4.8590471608569699 0.0000000000000000
1.5465165862645247 5.0006285645420050 0.0000000000000000
1.1461263738380691 5.4008629438126761 0.0000000000000000
0.7450587630907815 5.0005730357347851 0.0000000000000000
1.1458489277707056 4.6003297327299792 0.0000000000000000
9.0552499999999991 5.0003010504017880 0.0000000000000000
8.9966713562373091 5.1418452574594466 0.0000000000000000
8.8552499999999998 5.2005134356371698 0.0000000000000000
8.7127459187212040 5.1417915370789675 0.0000000000000000
8.6535687620281418 5.0002179311797699 0.0000000000000000
8.7122673966389943 4.8586355486605051 0.0000000000000000
8.8541794565401801 4.8000467378214324 0.0000000000000000
8.9966713562373091 4.8587662759050589 0.0000000000000000
9.2549151265019383 5.0002976623103956 0.0000000000000000
8.8541541995428972 5.4005058471197227 0.0000000000000000
8.4534608417636470 5.0002406443477474 0.0000000000000000
8.8538888833674214 4.6000433812009964 0.0000000000000000
6.6761861507542806 1.1460722366408018 0.0000000000000000
6.6176934121704454 1.2881679727162922 0.0000000000000000
6.4761117396497303 1.3474087950006335 0.0000000000000000
6.3344957585734925 1.2883304665260513 0.0000000000000000
6.2760667810843902 1.1462979656238730 0.0000000000000000
6.3344267784130421 1.0033286437626900 0.0000000000000000
6.4761117971878459 0.9447500000000000 0.0000000000000000
6.6178316902128156 1.0033286437626900 0.0000000000000000
6.8763408056470654 1.1470509956813979 0.0000000000000000
6.4761356697269088 1.5473921701245448 0.0000000000000000
6.0758260008208147 1.1472637063748776 0.0000000000000000
6.4760450596235142 0.7448450375505935 0.0000000000000000
6.6767186081410754 8.8542577068496175 0.0000000000000000
6.6182070664481767 8.9966713562373091 0.0000000000000000
6.4764414238322514 9.0552499999999991 0.0000000000000000
6.3347702650253321 8.9966713562373091 0.0000000000000000
6.2761711947664587 8.8552499999999998 0.0000000000000000
6.3349201895620029 8.7129671184773496 0.0000000000000000
6.4765844117960798 8.6535825783789146 0.0000000000000000
6.6182103193214408 8.7123396822469701 0.0000000000000000
6.8768246432308278 8.8534683008748551 0.0000000000000000
6.4764236076164190 9.2551906610470578 0.0000000000000000
6.0760556541249970 8.8538749190356665 0.0000000000000000
6.4765234561092289 8.4535627819452994 0.0000000000000000
1.3465063853851906 6.4764665347085089 0.0000000000000000
1.2878547261298179 6.6179986936739459 0.0000000000000000
1.1458301876784784 6.6764705997265734 0.0000000000000000
1.0033286437626900 6.6176197763510594 0.0000000000000000
0.9447500000000000 6.4760138689517417 0.0000000000000000
1.0033286437626900 6.3344969008117804 0.0000000000000000
1.1447499999999999 6.2759508989837194 0.0000000000000000
1.2872541305269498 6.3348200566013348 0.0000000000000000
1.5465755303497939 6.4766271914922404 0.0000000000000000
1.1461928460299702 6.8764680230541462 0.0000000000000000
0.7450753701546446 6.4759022700246502 0.0000000000000000
1.1458761517461031 6.0759452528608664 0.0000000000000000
9.0552499999999991 6.4756851918250131 0.0000000000000000
8.9966713562373091 6.6172589882869515 0.0000000000000000
8.8552499999999998 6.6760273052347276 0.0000000000000000
8.7126824392751772 6.6174640885975275 0.0000000000000000
8.6535648650295283 6.4759450247635462 0.0000000000000000
8.7122955832775872 6.3343288659102868 0.0000000000000000
8.8542505872233512 6.2756059164860041 0.0000000000000000
8.9966713562373091 6.3341783961473590 0.0000000000000000
9.2549360927750595 6.4755824357768761 0.0000000000000000
8.8541321497012504 6.8760129176793674 0.0000000000000000
8.4534673220064018 6.4761306966720538 0.0000000000000000
8.8538919236885931 6.0756053324131294 0.0000000000000000
8.1520956136496636 1.1463062234310473 0.0000000000000000
8.0937653692366798 1.2884260780027670 0.0000000000000000
7.9522892043688751 1.3475000360230271 0.0000000000000000
7.8107325721440519 1.2883985398155815 0.0000000000000000
7.7522952594469654 1.1463414319157699 0.0000000000000000
7.8105933157073704 1.0033286437626900 0.0000000000000000
7.9521453127347863 0.9447500000000000 0.0000000000000000
8.0937600571631201 1.0033286437626900 0.0000000000000000
8.3522420054669997 1.1474639715391026 0.0000000000000000
7.9523551820712424 1.5475349235502862 0.0000000000000000
7.5520602774016234 1.1472678399553520 0.0000000000000000
7.9522149376160369 0.7449264197895690 0.0000000000000000
8.1527769362762594 8.8539356469877308 0.0000000000000000
8.0942791996601660 8.9966713562373091 0.0000000000000000
7.9525882449894896 9.0552499999999991 0.0000000000000000
7.8110200530561089 8.9966713562373091 0.0000000000000000
7.7525113976494398 8.8552499999999998 0.0000000000000000
7.8112818374551374 8.7129363235959438 0.0000000000000000
7.9529021148918790 8.6533284067690506 0.0000000000000000
8.0944254501349597 8.7120171366480950 0.0000000000000000
8.3528896730908908 8.8528595064884570 0.0000000000000000
7.9526677554777931 9.2551347714308179 0.0000000000000000
7.5524092165220118 8.8537111738809777 0.0000000000000000
7.9528492559016764 8.4533111914601964 0.0000000000000000
1.3468072807167477 7.9521875767585630 0.0000000000000000
1.2882509661357371 8.0936008131245849 0.0000000000000000
1.1462146417203460 8.1518628049483688 0.0000000000000000
1.0033286437626900 8.0929451707594087 0.0000000000000000
0.9447500000000000 7.9513502332859618 0.0000000000000000
1.0033286437626900 7.8099223275262331 0.0000000000000000
1.1447499999999999 7.7515280067885923 0.0000000000000000
1.2874310795499160 7.8105176484166909 0.0000000000000000
1.5469026007626607 7.9526580944774095 0.0000000000000000
1.1466792934872725 8.3518635355888016 0.0000000000000000
0.7451775891214886 7.9511693085404245 0.0000000000000000
1.1459867938272261 7.5515306692052544 0.0000000000000000
9.0552499999999991 7.9509585688029754 0.0000000000000000
8.9966713562373091 8.0925305886478878 0.0000000000000000
8.8552499999999998 8.1513608880295116 0.0000000000000000
8.7125987519876205 8.0929881381347304 0.0000000000000000
8.6534757004512919 7.9515806634872721 0.0000000000000000
8.7122659177703703 7.8099289654619168 0.0000000000000000
8.8542402932893740 7.7511128548487482 0.0000000000000000
8.9966713562373091 7.8095209476816878 0.0000000000000000
9.2549038353890278 7.9507889418804742 0.0000000000000000
8.8539577186495553 8.3513550182231864 0.0000000000000000
8.4533738412169015 7.9519933277598067 0.0000000000000000
8.8538741737191984 7.5511020252539547 0.0000000000000000
0.4960347069400211 0.0001201064434099 0.0000000000000000
0.9958495695586025 -0.0003274484254525 0.0000000000000000
1.4957236926489326 -0.0019307791025207 0.0000000000000000
1.9965774109180294 -0.0048034831949682 0.0000000000000000
2.4975879829422065 -0.0027611388385582 0.0000000000000000
2.9975906754006973 -0.0028287894184247 0.0000000000000000
3.4982998126430718 -0.0048517183782915 0.0000000000000000
3.9990336758653511 -0.0026881069702765 0.0000000000000000
4.4989841216188706 -0.0029756854291419 0.0000000000000000
4.9997300950844048 -0.0047054728242920 0.0000000000000000
5.5004692641767257 -0.0029883770953540 0.0000000000000000
6.0004219697187633 -0.0027263063902770 0.0000000000000000
6.5011552651769273 -0.0048763349977885 0.0000000000000000
7.0018337983257055 -0.0028480833176892 0.0000000000000000
7.5018258342901722 -0.0028643680484731 0.0000000000000000
8.0027546883325940 -0.0048089950113149 0.0000000000000000
8.5035993637638256 -0.0021177286800520 0.0000000000000000
9.0034780692078318 -0.0005325165518971 0.0000000000000000
9.5032688597270969 -0.0001496817090162 0.0000000000000000
10.0029735144721030 0.4998592942599413 0.0000000000000000
10.0029371338003621 0.9998266161674665 0.0000000000000000
10.0034663907248742 1.4998040467023726 0.0000000000000000
10.0043097620529107 1.9998552108828269 0.0000000000000000
10.0042642557516590 2.4999446553713569 0.0000000000000000
10.0041999486594104 2.9999907593980715 0.0000000000000000
10.0045456301371019 3.5000636155340334 0.0000000000000000
10.0043281418269423 4.0001447530064516 0.0000000000000000
10.0042464538297917 4.5001937218507200 0.0000000000000000
10.0045570647797160 5.0002699849366268 0.0000000000000000
10.0043329321591692 5.5003494684859291 0.0000000000000000
10.0042907986967364 6.0003927443740634 0.0000000000000000
10.0045796105773093 6.5004622301002222 0.0000000000000000
10.0043140069871814 7.0005338016809775 0.0000000000000000
10.0043009759114927 7.5005709517047201 0.0000000000000000
10.0045092936763638 8.0006427099661579 0.0000000000000000
10.0039495700337664 8.5007005254370185 0.0000000000000000
10.0034754776338453 9.0006935914318529 0.0000000000000000
10.0034789155725026 9.5006690680752204 0.0000000000000000
9.5037462598210976 10.0007132587976439 0.0000000000000000
9.0039102700196203 10.0010718632569215 0.0000000000000000
8.5040166197343030 10.0024562017955194 0.0000000000000000
8.0032966425476424 10.0048922075103253 0.0000000000000000
7.5023135586228191 10.0038326302667659 0.0000000000000000
7.0021606486258561 10.0034218020551879 0.0000000000000000
6.5015928300772368 10.0049862254807103 0.0000000000000000
6.0008296952767326 10.0037629633966993 0.0000000000000000
5.5007562195620050 10.0036011652137802 0.0000000000000000
5.0001890817273047 10.0049207463007654 0.0000000000000000
4.4993771640419178 10.0037098239411382 0.0000000000000000
3.9993396987306440 10.0033278262632912 0.0000000000000000
3.4987618083782599 10.0050405374881990 0.0000000000000000
2.9980754651728652 10.0036592638054707 0.0000000000000000
2.4980005696331440 10.0034302594352216 0.0000000000000000
1.9972593368063289 10.0050536638978489 0.0000000000000000
1.4964133028249695 10.0031329527059274 0.0000000000000000
0.9964042760890952 10.0015766542222106 0.0000000000000000
0.4965739873051184 10.0010931070337765 0.0000000000000000
-0.0031200662597213 9.5010429774901901 0.0000000000000000
-0.0030753426923138 9.0010709801507751 0.0000000000000000
-0.0035437530002306 8.5010892609707529 0.0000000000000000
-0.0043266881341025 8.0010373585769088 0.0000000000000000
-0.0042588260881430 7.5009488533821251 0.0000000000000000
-0.0041896687985397 7.0009017683452965 0.0000000000000000
-0.0045335105360179 6.5008267730904574 0.0000000000000000
-0.0043113362083002 6.0007433260101415 0.0000000000000000
-0.0042499252284661 5.5006921886469788 0.0000000000000000
-0.0045365164823832 5.0006148382258360 0.0000000000000000
-0.0043108545341360 4.5005307607155638 0.0000000000000000
-0.0042756926842193 4.0004830346960762 0.0000000000000000
-0.0045690488570503 3.5004114614231114 0.0000000000000000
-0.0042997156749146 3.0003384000232884 0.0000000000000000
-0.0042878999437083 2.5003023979997812 0.0000000000000000
-0.0044924839665458 2.0002371019898906 0.0000000000000000
-0.0039479000980140 1.5001824363251544 0.0000000000000000
-0.0035278460681815 1.0001950110755538 0.0000000000000000
-0.0036069466168650 0.5002229371572279 0.0000000000000000
1.2858779256154358 0.4028650151218384 0.0000000000000000
9.5991808007639641 1.2892254837343047 0.0000000000000000
0.4002679186807562 1.2895128033344583 0.0000000000000000
1.2863723326592158 9.5984102428614886 0.0000000000000000
8.7139750295389486 9.5977800178563992 0.0000000000000000
0.4007094662888144 8.7117000705838521 0.0000000000000000
9.5997228499183649 8.7113293134171919 0.0000000000000000
8.7134969837704261 0.4026598301430901 0.0000000000000000
5.7079084858302434 0.4016157350405662 0.0000000000000000
9.5999837541637643 5.7079102638657870 0.0000000000000000
5.7082484427289026 9.5991805270303079 0.0000000000000000
0.4000606843766756 5.7082305892593528 0.0000000000000000
0.4000312545760135 4.2929557505294316 0.0000000000000000
4.2919198748235639 9.5991337932201688 0.0000000000000000
4.2915671763086873 0.4016466462765810 0.0000000000000000
9.5999525779596340 4.2926575689862521 0.0000000000000000
7.2086000150729816 0.4023702954191223 0.0000000000000000
9.5992480096877024 7.2074811401668848 0.0000000000000000
9.5991599663263383 2.7930795235765058 0.0000000000000000
2.7908227557449528 0.4024147253614145 0.0000000000000000
7.2090201555710571 9.5983932156946370 0.0000000000000000
0.4008463331962329 7.2078319360197032 0.0000000000000000
2.7912540137025106 9.5983983148685308 0.0000000000000000
0.4007664146710972 2.7933673308224383 0.0000000000000000
1.6674937919001351 0.3834523463563026 0.0000000000000000
1.4854767321937308 0.7408460810081526 0.0000000000000000
1.1380304033861139 0.7714713865056704 0.0000000000000000
9.6174234358022606 1.6707184627609302 0.0000000000000000
9.2606655813599854 1.4883282081763767 0.0000000000000000
9.2307148375428802 1.1409985608800681 0.0000000000000000
1.6680104863320182 9.6175205500592469 0.0000000000000000
1.4858466701529855 9.2603909736298000 0.0000000000000000
1.1384305075391858 9.2297786859910058 0.0000000000000000
0.3821617081932650 1.6710134928211076 0.0000000000000000
0.7387733739549345 1.4885529449425772 0.0000000000000000
8.3323598303230550 9.6169306983611111 0.0000000000000000
8.5144354913531455 9.2597061201180964 0.0000000000000000
8.8618932089886400 9.2292320545161228 0.0000000000000000
0.3825235343359674 8.3302026171585215 0.0000000000000000
0.7392512784227132 8.5126355395563422 0.0000000000000000
8.3318929300244449 0.3833129420230370 0.0000000000000000
8.5139276728570774 0.7406515083199378 0.0000000000000000
9.6178489517717711 8.3298293577503397 0.0000000000000000
9.2612377231246406 8.5122500510429457 0.0000000000000000
3.1654247762712360 0.3826262891526286 0.0000000000000000
2.9843010501983920 0.7327202865632366 0.0000000000000000
2.6395116663991276 0.7692649990567688 0.0000000000000000
2.4396452829507886 0.4820688669687401 0.0000000000000000
9.6182338864016010 3.1674563665252031 0.0000000000000000
9.2685852663227202 2.9863121048384391 0.0000000000000000
9.2210972355254466 2.6571551916420142 0.0000000000000000
9.5180267261933675 2.4439224424222350 0.0000000000000000
0.3816536639895669 3.1677517094837073 0.0000000000000000
0.7312533586109851 2.9865365025457562 0.0000000000000000
0.7676917092550943 2.6419125582041612 0.0000000000000000
0.5000450849029827 2.4238251585433366 0.0000000000000000
3.1658584833604380 9.6180658961337482 0.0000000000000000
2.9846609296928670 9.2681336285418254 0.0000000000000000
2.6394618945912582 9.2373691143339975 0.0000000000000000
2.4215202369599615 9.4994630593830323 0.0000000000000000
6.8343980837124105 9.6177956843637435 0.0000000000000000
7.0156030716648914 9.2677905730480230 0.0000000000000000
7.3607651449191192 9.2375330356598386 0.0000000000000000
7.5787619639199688 9.4999276172438840 0.0000000000000000
0.3817755116050837 6.8334491246381184 0.0000000000000000
0.7314229140820439 7.0146147968266499 0.0000000000000000
0.7740075069343483 7.3503586774086296 0.0000000000000000
0.4813937045349233 7.5577815350237962 0.0000000000000000
6.8340105621509188 0.3826123207074802 0.0000000000000000
7.0151575477069334 0.7326916146150448 0.0000000000000000
7.3603679401786861 0.7633207276606370 0.0000000000000000
7.5783203909544232 0.5010611548882796 0.0000000000000000
9.6183575165636253 6.8331014494062901 0.0000000000000000
9.2687564071027086 7.0142919276308779 0.0000000000000000
9.2653900067382153 7.3453382716898794 0.0000000000000000
9.5232887676357105 7.5568680116082847 0.0000000000000000
9.5645716631081683 4.6400722673060883 0.0000000000000000
9.2681010539430257 4.4956634160069564 0.0000000000000000
9.2370413735637733 4.1385324956101481 0.0000000000000000
9.4993129236562339 3.9222086592042147 0.0000000000000000
4.7050595760744720 0.3828972348431650 0.0000000000000000
4.4951256093976220 0.7286360669180512 0.0000000000000000
4.1368800255519398 0.7645805992932562 0.0000000000000000
3.9208741137176837 0.5022026058366548 0.0000000000000000
0.3838428267085705 4.6986824779047440 0.0000000000000000
0.7330123752733418 4.4945692877795382 0.0000000000000000
0.7638334165020066 4.1380274719082193 0.0000000000000000
0.4974567117734264 3.9255826897908084 0.0000000000000000
4.6395603350137602 9.5643534513069675 0.0000000000000000
4.4950355957132739 9.2676180798698464 0.0000000000000000
4.1377154083081740 9.2361473518072188 0.0000000000000000
3.9243938662307318 9.5017459533086086 0.0000000000000000
5.2951161846307597 9.6081743297922557 0.0000000000000000
5.5027060227411670 9.2810923466778714 0.0000000000000000
5.8626347052665837 9.2376446875170757 0.0000000000000000
6.0757918592537852 9.5023355567047503 0.0000000000000000
0.3822049739939326 5.2949563396834245 0.0000000000000000
0.7273793921485213 5.5048098571421882 0.0000000000000000
0.7629743040906676 5.8628547038396404 0.0000000000000000
0.4973277958536290 6.0755803367200256 0.0000000000000000
5.3019726898545230 0.3846341349601996 0.0000000000000000
5.5070409613418763 0.7358611989496373 0.0000000000000000
5.8624489253380956 0.7649282778476661 0.0000000000000000
6.0783012740974005 0.5018608514163634 0.0000000000000000
9.6085352865207589 5.2950422373529022 0.0000000000000000
9.2818195161929857 5.5025451216909289 0.0000000000000000
9.2389442082677604 5.8617378987785704 0.0000000000000000
9.5082651021483233 6.0695271376608426 0.0000000000000000
9.2312770473398640 8.8595788254683576 0.0000000000000000
8.8613778570987911 0.7712642965729549 0.0000000000000000
0.7691405236450771 8.8599797655564014 0.0000000000000000
0.7687112877015454 1.1412169576683866 0.0000000000000000
9.1288850067657368 0.4353642643228287 0.0000000000000000
9.5671296978715930 0.8739181569653746 0.0000000000000000
9.5676655986925478 9.1266419264741341 0.0000000000000000
9.1293733578919376 9.5651967920785381 0.0000000000000000
0.4322635755666672 0.8741992013731065 0.0000000000000000
0.8704823508672035 0.4355723376913214 0.0000000000000000
0.8709723828141467 9.5656510602682747 0.0000000000000000
0.4327167065510221 9.1270151987396861 0.0000000000000000
9.0513444756549450 2.8406288988857944 0.0000000000000000
2.8324376881021451 0.9745837718794302 0.0000000000000000
0.9843515631032762 2.8183297150557509 0.0000000000000000
2.8269044271863173 9.0218913423472049 0.0000000000000000
0.9933792551562701 7.1554745346906836 0.0000000000000000
7.1828819090482465 9.0354833720208632 0.0000000000000000
7.1925929675810876 0.9833734882993788 0.0000000000000000
9.0284641536967385 7.2118473994960777 0.0000000000000000
1.3014923793903976 1.0151536958653495 0.0000000000000000
8.9985341866701756 1.3223948246408344 0.0000000000000000
1.0021830594723073 1.3120724245704547 0.0000000000000000
1.0338861213571358 8.6823418329903923 0.0000000000000000
1.3078822465927060 9.0350470488029675 0.0000000000000000
8.6827609040554616 8.9559847683262195 0.0000000000000000
8.6868424748929041 1.0054093872626364 0.0000000000000000
9.0061795908225317 8.6880189312680187 0.0000000000000000
9.0340988316199518 4.3248467188280362 0.0000000000000000
4.3185475391554862 0.9644952125128861 0.0000000000000000
4.3186028467135138 9.0247867055979807 0.0000000000000000
0.9794142627158041 4.3219107099376988 0.0000000000000000
5.6806139717314608 9.0296084160857113 0.0000000000000000
0.9600828260200451 5.6795526434408830 0.0000000000000000
5.6783923392903644 0.9697036349238602 0.0000000000000000
9.0279783245705136 5.6799836126484031 0.0000000000000000
6.1347576807131770 0.7884702727066095 0.0000000000000000
9.2110117415770230 6.1443061483858106 0.0000000000000000
0.7863260013757054 6.1374581500205734 0.0000000000000000
6.1375991010609692 9.2136338400782609 0.0000000000000000
3.8643661305354611 9.2139969836857656 0.0000000000000000
0.7866563024078342 3.8636392407075739 0.0000000000000000
9.2111862302963203 3.8562983023375033 0.0000000000000000
3.8549918682968132 0.7902566191410997 0.0000000000000000
7.6393710554247534 0.7840201998344911 0.0000000000000000
9.2205597673405784 7.6044685209332235 0.0000000000000000
7.6397915449036953 9.2170405589847597 0.0000000000000000
0.7774566116793683 7.6103466207214980 0.0000000000000000
2.3604332746090804 9.2164653898116029 0.0000000000000000
0.7836889413725635 2.3674060536837955 0.0000000000000000
2.3854569065629763 0.7757326597691369 0.0000000000000000
9.2138951649456100 2.3848444623295308 0.0000000000000000
0.4429363270870992 9.5550125474040541 0.0000000000000000
9.5642144891811132 9.5614293232167835 0.0000000000000000
0.4356499952744737 0.4394137684130545 0.0000000000000000
9.5637149130823751 0.4391319175795462 0.0000000000000000
1.7930060051888992 0.6853017189130953 0.0000000000000000
9.3150616441536478 1.7958495711984113 0.0000000000000000
0.6845559509727318 1.7960979476720729 0.0000000000000000
0.6837713893258826 8.2055716721082774 0.0000000000000000
1.7934891146261074 9.3154858533101912 0.0000000000000000
8.2068616802490251 9.3149659770186712 0.0000000000000000
9.3154524943335915 8.2047149216127693 0.0000000000000000
8.2063915118408115 0.6851964365166204 0.0000000000000000
1.9872454108581610 0.4461819041019084 0.0000000000000000
9.5534148653331741 1.9901153469159558 0.0000000000000000
1.9694205403452496 9.5215409587361872 0.0000000000000000
0.4789069347314279 1.9720571981473201 0.0000000000000000
8.0309492400501465 9.5213450555451740 0.0000000000000000
0.4463807399273712 8.0108871250838352 0.0000000000000000
9.5536141558458869 8.0104357333523346 0.0000000000000000
8.0304807550524266 0.4787256810487677 0.0000000000000000
1.0564449141126349 8.9515994600008106 0.0000000000000000
8.9636706265682733 8.9499228462081941 0.0000000000000000
1.0488423389047927 1.0516044029414686 0.0000000000000000
8.9539106292290516 1.0530121529293177 0.0000000000000000
9.3172307006238579 3.2847729615824091 0.0000000000000000
9.1123935725168952 3.1965599269561791 0.0000000000000000
3.2824284870450020 0.6820567649338459 0.0000000000000000
3.1944265302116914 0.8877057887379680 0.0000000000000000
0.6826178183897126 3.2850224135931616 0.0000000000000000
0.8872900245934080 3.1967701882084789 0.0000000000000000
3.2833365642593080 9.3173818341540482 0.0000000000000000
3.1950925207527812 9.1125251534747083 0.0000000000000000
0.6827746027281932 6.7161443563637464 0.0000000000000000
0.8876065637839931 6.8043735754405752 0.0000000000000000
6.7169333089055527 9.3170641001264816 0.0000000000000000
6.8051749697470045 9.1119606202423231 0.0000000000000000
9.3173885325766630 6.7158159933065287 0.0000000000000000
9.1127127375476125 6.8040385327689377 0.0000000000000000
6.7170364481528395 0.6820535750931480 0.0000000000000000
6.8050466954166220 0.8876941938093652 0.0000000000000000
3.4691074397178641 0.4668472834070737 0.0000000000000000
9.5327760787702598 3.4708761801317696 0.0000000000000000
0.4661212948560212 3.4707303941605177 0.0000000000000000
3.4691487017338498 9.5342652574201647 0.0000000000000000
0.4661688755238437 6.5304608844875380 0.0000000000000000
6.5311182948820781 9.5341858373907442 0.0000000000000000
6.5224617611911908 0.4550802536565707 0.0000000000000000
9.5473228210733296 6.5214144335400794 0.0000000000000000
1.6891060558911923 0.8753178593245275 0.0000000000000000
9.1255287524940272 1.6917211996975967 0.0000000000000000
1.6894338107232472 9.1258869739217996 0.0000000000000000
8.3108159436788274 9.1250993664076656 0.0000000000000000
0.8738544730559582 1.6919135005644039 0.0000000000000000
0.8732872418827761 8.3097278905080874 0.0000000000000000
9.1261567202407949 8.3088617361149844 0.0000000000000000
8.3103026855973514 0.8751699322040593 0.0000000000000000
8.9623225585274646 5.8926369153850136 0.0000000000000000
8.8023852941197642 5.7654777278904232 0.0000000000000000
5.8927326368977697 1.0399274194232573 0.0000000000000000
5.7671751242601426 1.2034138419376224 0.0000000000000000
1.0281616283249011 5.8920468513389128 0.0000000000000000
1.2021002770528291 5.7676611945060063 0.0000000000000000
5.8925025081586142 8.9999498711358115 0.0000000000000000
5.7701824287601005 8.8091443138850103 0.0000000000000000
1.0151592530661508 4.1090011398211033 0.0000000000000000
1.1739211957811402 4.2275161471271261 0.0000000000000000
4.1067838218183619 8.9599819770434603 0.0000000000000000
4.2324286142780903 8.8098594734787827 0.0000000000000000
4.1071695066104272 1.0506338361080521 0.0000000000000000
4.2422320197512793 1.1752156884786407 0.0000000000000000
8.9663489479332537 4.1092057400261375 0.0000000000000000
8.8054640626146448 4.2412432876750401 0.0000000000000000
8.6985981787230315 7.6715902216252498 0.0000000000000000
8.6767099413113957 7.4811758024067130 0.0000000000000000
8.5263823361533291 7.6212829377785107 0.0000000000000000
8.4867457824413588 7.4238822635459387 0.0000000000000000
8.3433000676280820 7.5668344121776494 0.0000000000000000
8.2918803214300922 7.3732675761810791 0.0000000000000000
8.1512856658568236 7.5157174298969700 0.0000000000000000
8.0981986807285438 7.3229993025767257 0.0000000000000000
7.9577737246019646 7.4653553271168169 0.0000000000000000
7.9045726483282222 7.2725960749141692 0.0000000000000000
7.7640413719374273 7.4152827111645561 0.0000000000000000
7.7108585407056278 7.2222747085743606 0.0000000000000000
7.5703249088488267 7.3648994867384845 0.0000000000000000
7.5171351273038693 7.1718419115759859 0.0000000000000000
7.3766016026603909 7.3143346817933583 0.0000000000000000
7.3233944508095563 7.1213348305011746 0.0000000000000000
7.1828501621613672 7.2638336380069193 0.0000000000000000
7.1296387146767186 7.0708771829740726 0.0000000000000000
6.9890941422721378 7.2134407948530903 0.0000000000000000
6.9358840240162722 7.0204996805200537 0.0000000000000000
7.0764267507386798 6.8779241147742463 0.0000000000000000
6.8826723749111860 6.8275551764625151 0.0000000000000000
6.7421368986842456 6.9701678047371542 0.0000000000000000
6.6889262893450177 6.7772161433519438 0.0000000000000000
6.8294584988202178 6.6346058479091150 0.0000000000000000
6.6357141290252395 6.5842580259887713 0.0000000000000000
6.4951881677120724 6.7268684281965436 0.0000000000000000
6.4419758948189028 6.5338953500760750 0.0000000000000000
6.5825000277021246 6.3912951667630304 0.0000000000000000
6.3887616949083981 6.3409192388429920 0.0000000000000000
6.2482401081735404 6.4834960180470143 0.0000000000000000
6.1950240803342815 6.2905088281243380 0.0000000000000000
6.3355472488264057 6.1479408958979960 0.0000000000000000
6.1418078039942694 6.0975231667152663 0.0000000000000000
6.2823320790793167 5.9549609834170134 0.0000000000000000
6.0885907225772637 5.9045387475618654 0.0000000000000000
5.9480639434422065 6.0470805322987422 0.0000000000000000
5.8948453759877477 5.8540982899733560 0.0000000000000000
5.7543147182983780 5.9966328468452073 0.0000000000000000
5.7010952805079809 5.8036575043467593 0.0000000000000000
5.8416263772766204 5.6611193731820295 0.0000000000000000
5.6478757476504615 5.6106842212995973 0.0000000000000000
5.5073438792878653 5.7532330520385484 0.0000000000000000
5.4541249773401912 5.5602632668300380 0.0000000000000000
5.7884073178477751 5.4681426639141746 0.0000000000000000
5.3135946392057170 5.7028276733251833 0.0000000000000000
5.2603773029256899 5.5098577597726184 0.0000000000000000
5.1198490832881900 5.6524330896103470 0.0000000000000000
5.0666324950393857 5.4594599348226751 0.0000000000000000
4.9261066985428199 5.6020364874932165 0.0000000000000000
4.8728895545652122 5.4090596899180872 0.0000000000000000
5.0134155141299033 5.2664857585774127 0.0000000000000000
4.8196723388961091 5.2160834195917491 0.0000000000000000
4.9601990452261395 5.0735102331409534 0.0000000000000000
4.7664555245954654 5.0231078701994605 0.0000000000000000
4.9069821316475890 4.8805349589898812 0.0000000000000000
4.7132381862100967 4.8301331478459524 0.0000000000000000
4.6791457831552181 5.3586499607782621 0.0000000000000000
4.8537657453874976 4.6875601084583858 0.0000000000000000
4.6600213042145224 4.6371606949494248 0.0000000000000000
4.8005489320028927 4.4945858460466495 0.0000000000000000
4.6068039062797910 4.4441899430277152 0.0000000000000000
4.4662735519675465 4.5867577129254942 0.0000000000000000
4.4130551734102594 4.3937897167013205 0.0000000000000000
4.7473321285073009 4.3016137505646288 0.0000000000000000
4.9410750051041115 4.3520092972955311 0.0000000000000000
4.2725223123686087 4.5363472055782337 0.0000000000000000
4.2193037269724050 4.3433797441890096 0.0000000000000000
4.9793233441373888 5.7950121110701405 0.0000000000000000
4.8878586870146714 4.1590335408195758 0.0000000000000000
5.0816005719764057 4.2094371545761726 0.0000000000000000
4.0787694121977758 4.4859297899606680 0.0000000000000000
4.0255509974065333 4.2929610155712465 0.0000000000000000
5.0283830972148245 4.0164579971821279 0.0000000000000000
5.2221254501077397 4.0668761991747049 0.0000000000000000
5.1689066650722442 3.8738934064340040 0.0000000000000000
5.3626508934580404 3.9243282327340916 0.0000000000000000
3.8850178055351297 4.4355100311824724 0.0000000000000000
3.8318002483760898 4.2425383042282228 0.0000000000000000
5.3094303198075155 3.7313437627114183 0.0000000000000000
5.5031775731130690 3.7817918966600970 0.0000000000000000
5.1156884103586036 3.6809094804321729 0.0000000000000000
5.4499554267512487 3.5888086519438818 0.0000000000000000
5.6437059756313852 3.6392613083011107 0.0000000000000000
3.6912693379481727 4.3850941700458872 0.0000000000000000
3.6380532038062583 4.1921204072938290 0.0000000000000000
3.7785829052224433 4.0495638893271453 0.0000000000000000
3.5848374778247369 3.9991448020048366 0.0000000000000000
3.7253655863235751 3.8565875686699940 0.0000000000000000
3.5316216973834003 3.8061679786723768 0.0000000000000000
3.7444858418078932 4.5780661077155429 0.0000000000000000
3.6721484200651640 3.6636085871801098 0.0000000000000000
3.4784061397526651 3.6131904968380528 0.0000000000000000
5.5904818873149695 3.4462832450352963 0.0000000000000000
5.7842365277821077 3.4967262484972772 0.0000000000000000
5.8374602885252758 3.6896937068468270 0.0000000000000000
5.9779912691896282 3.5471343162740419 0.0000000000000000
6.0312134482788062 3.7400966917285716 0.0000000000000000
6.1717414137243569 3.5975155260761635 0.0000000000000000
6.2249626004151573 3.7904806102534612 0.0000000000000000
6.3654877076846290 3.6478932921707918 0.0000000000000000
6.4187083315567923 3.8408649992475099 0.0000000000000000
3.4443098481919403 4.1417152268549176 0.0000000000000000
3.6189319409819056 3.4706272753877609 0.0000000000000000
3.4251916502869424 3.4202130972715108 0.0000000000000000
6.3122659754377075 3.4549238210281663 0.0000000000000000
6.5060096048984537 3.5053095193994133 0.0000000000000000
5.7310107229382270 3.3037572984369552 0.0000000000000000
5.5372563577778005 3.2533009610520978 0.0000000000000000
6.4527859361250997 3.3123333212861428 0.0000000000000000
6.6465292714269291 3.3627384495372041 0.0000000000000000
3.2846658554667583 3.5628011415552048 0.0000000000000000
3.2314522100507457 3.3698347341230694 0.0000000000000000
5.6777838985970899 3.1107856323233651 0.0000000000000000
3.5657167001862571 3.2776438497832463 0.0000000000000000
5.4840306106771388 3.0603135294814510 0.0000000000000000
6.5933026296517188 3.1697553673764478 0.0000000000000000
6.7870466583076778 3.2201854007012596 0.0000000000000000
6.8402757561745151 3.4131716099062333 0.0000000000000000
5.6245551674540231 2.9178089195573023 0.0000000000000000
6.7338173237184487 3.0271966338611791 0.0000000000000000
6.9275638196615441 3.0776527153485285 0.0000000000000000
3.0909221509094436 3.5124358373711932 0.0000000000000000
3.0377080497910223 3.3194807044344858 0.0000000000000000
6.8743317715463954 2.8846606523148979 0.0000000000000000
7.0680842160262829 2.9351404160957943 0.0000000000000000
7.0148484238668098 2.7421531807719717 0.0000000000000000
6.0844344362508096 3.9330612370979647 0.0000000000000000
3.7594590619417696 3.3280834023804458 0.0000000000000000
3.7062430011692680 3.1350983850946861 0.0000000000000000
3.8999886292420265 3.1855534240556405 0.0000000000000000
3.8467709715819525 2.9925710794808573 0.0000000000000000
3.6530287032586681 2.9421099543804168 0.0000000000000000
5.4308040448255559 2.8673194355238554 0.0000000000000000
5.5713251103445032 2.7248251411895201 0.0000000000000000
7.2085660938479599 2.7928114077606443 0.0000000000000000
4.0405205526077879 3.0430292085570874 0.0000000000000000
3.9873010321814273 2.8500529679326334 0.0000000000000000
7.1553735668241929 2.5996676196081556 0.0000000000000000
5.2753437658911615 4.2598572454985453 0.0000000000000000
2.8971714185915283 3.4620704089331995 0.0000000000000000
2.8439554421646518 3.2691179171682352 0.0000000000000000
7.2618388857435914 2.9856270887280405 0.0000000000000000
7.4023230454498634 2.8432582162907045 0.0000000000000000
7.4298051434484718 7.5074393526394445 0.0000000000000000
6.6805886238134411 2.8342063361292329 0.0000000000000000
5.3775780965390796 2.6743182272177322 0.0000000000000000
5.5180944581820688 2.5318316774343597 0.0000000000000000
4.1810557782041338 2.9005024249008931 0.0000000000000000
4.1278352460388250 2.7075405384864895 0.0000000000000000
2.7034147185812052 3.4116807103973583 0.0000000000000000
2.6501980101666542 3.2187204375372778 0.0000000000000000
2.7566361592241404 3.6046398690277512 0.0000000000000000
2.7907440492773512 3.0761664793987511 0.0000000000000000
2.5969799841707166 3.0257905710492889 0.0000000000000000
2.7375349864529399 2.8832202920459880 0.0000000000000000
2.5437738740943758 2.8328278071587589 0.0000000000000000
2.6843271715595152 2.6902674007740406 0.0000000000000000
4.0937399828448511 3.2360001406547001 0.0000000000000000
7.6550199782507296 7.0338010222666911 0.0000000000000000
7.4555971784222477 3.0360375734944678 0.0000000000000000
7.5961227572067092 2.8934513301809930 0.0000000000000000
2.4907829493068392 2.6397620703001801 0.0000000000000000
2.6311522940089920 2.4972923359906134 0.0000000000000000
2.3499567109085651 2.7830244214778270 0.0000000000000000
2.8248812761345472 2.5477089508729729 0.0000000000000000
2.7716722537709595 2.3547729626013556 0.0000000000000000
2.9654220476583442 2.4050986482625873 0.0000000000000000
5.7118533196153995 2.5823342931929751 0.0000000000000000
5.6586197011204868 2.3893653949312474 0.0000000000000000
5.8523847739325534 2.4398048616710710 0.0000000000000000
4.3215934727802425 2.7579513594894802 0.0000000000000000
4.2683741144473624 2.5650081647549596 0.0000000000000000
4.0746146630067726 2.5145720937977289 0.0000000000000000
4.2151860405837027 2.3719230270108196 0.0000000000000000
4.4089187875130262 2.4224002308182966 0.0000000000000000
5.7992969809981609 2.2463074102479887 0.0000000000000000
5.9930821714860567 2.2965597086878309 0.0000000000000000
5.3243525018219096 2.4813098860340044 0.0000000000000000
2.5628797050671581 3.5542341740448129 0.0000000000000000
2.6161045144934776 3.7471982622396989 0.0000000000000000
5.1007255421297648 4.9309377791272055 0.0000000000000000
5.2902866331356924 3.0098360955534305 0.0000000000000000
4.3557350410900462 2.2293323087421211 0.0000000000000000
2.4370116141795877 2.4481138449593933 0.0000000000000000
2.9121956167273084 2.2121853143532366 0.0000000000000000
3.1059192712684185 2.2624883710064707 0.0000000000000000
2.4223526469766758 3.6967906919508393 0.0000000000000000
2.4755760235496500 3.8897563251386269 0.0000000000000000
7.6493944096703181 3.0864159331959131 0.0000000000000000
7.7899206243969124 2.9438313599394341 0.0000000000000000
7.7367958228066396 2.7509561404448895 0.0000000000000000
7.5088418818003104 3.2289546609170841 0.0000000000000000
7.9304333081732361 2.8012480425501525 0.0000000000000000
4.0213086737767076 2.3213096500157184 0.0000000000000000
2.2818297061112602 3.8393591321969534 0.0000000000000000
2.3350475539846625 4.0323229116315469 0.0000000000000000
2.5287922314327456 4.0827204987352186 0.0000000000000000
2.3882563503808529 4.2252855857681357 0.0000000000000000
2.5820023245951842 4.2756840690513558 0.0000000000000000
2.4414620483900782 4.4182467401482466 0.0000000000000000
2.6352107290796849 4.4686463837141748 0.0000000000000000
2.4946684451672430 4.6112073772472755 0.0000000000000000
2.6884225056144420 4.6616085247212204 0.0000000000000000
2.5478813598619618 4.8041686116906455 0.0000000000000000
2.7416405164051016 4.8545718256620844 0.0000000000000000
2.6011061917495715 4.9971293942984385 0.0000000000000000
2.7948642571131579 5.0475361647015315 0.0000000000000000
2.6543337345371287 5.1900917614743154 0.0000000000000000
2.8480886727533847 5.2405030775746946 0.0000000000000000
2.7075580539323321 5.3830551021472859 0.0000000000000000
2.9013104966757015 5.4334719720500217 0.0000000000000000
2.7607776960118793 5.5760207416994154 0.0000000000000000
2.9545293020731931 5.6264440809095939 0.0000000000000000
2.8139943426103708 5.7689882356137545 0.0000000000000000
3.0077466069962879 5.8194186946595829 0.0000000000000000
2.8672115789165686 5.9619587562543428 0.0000000000000000
3.0609648426500486 6.0123964984341463 0.0000000000000000
2.9204324955760885 6.1549336840362114 0.0000000000000000
3.1141860580013065 6.2053780803264003 0.0000000000000000
2.9736588987791723 6.3479130712729193 0.0000000000000000
3.1674106875947632 6.3983623468232462 0.0000000000000000
3.0268894852890407 6.5408987507103173 0.0000000000000000
3.2206374768990398 6.5913496593419678 0.0000000000000000
3.0801215320246582 6.7338902880536882 0.0000000000000000
3.2738648729560467 6.7843378442325157 0.0000000000000000
3.4143795154059737 6.6417536487638875 0.0000000000000000
3.4676038714763551 6.8347256123504616 0.0000000000000000
3.1333530254907558 6.9268881403819318 0.0000000000000000
3.6081229893980162 6.6921123774753228 0.0000000000000000
3.6613473429936438 6.8850673572892678 0.0000000000000000
2.9396025657389102 6.8763959091343789 0.0000000000000000
2.9928386887844751 7.0693918479555506 0.0000000000000000
2.7990757108286028 7.0188817924403972 0.0000000000000000
3.8018726451322582 6.7424523681903850 0.0000000000000000
3.8550988429367536 6.9353969288761288 0.0000000000000000
3.9956303081539004 6.7928084254743935 0.0000000000000000
4.0488591480842873 6.9857550405434576 0.0000000000000000
4.1893932410426844 6.8432176124882274 0.0000000000000000
4.2426245406786212 7.0361830899086417 0.0000000000000000
4.3831545498175961 6.8936962771965353 0.0000000000000000
4.4363852583518586 7.0866912584759536 0.0000000000000000
4.5769034057018754 6.9442029920188109 0.0000000000000000
3.7486480404287548 6.5495032253285830 0.0000000000000000
3.2014945359528251 5.8698429532785905 0.0000000000000000
2.8523134009531752 7.2118572992021353 0.0000000000000000
4.6301283137521505 7.1372121265221011 0.0000000000000000
4.7706384413151834 6.9946701954333497 0.0000000000000000
4.4896163891361320 7.2796982530544705 0.0000000000000000
4.8238573812383345 7.1876669680220928 0.0000000000000000
2.6585408134921829 7.1613893906255184 0.0000000000000000
4.9643687508329064 7.0450712746798789 0.0000000000000000
5.0175858136176377 7.2380450584275797 0.0000000000000000
3.7145728221603465 7.0780151055795297 0.0000000000000000
2.5670252041206902 5.5256111616881638 0.0000000000000000
2.7117776434072769 7.3543383805593612 0.0000000000000000
5.1581038527375327 7.0954233369821624 0.0000000000000000
5.2113212801991260 7.2883783274073988 0.0000000000000000
2.7798971146342359 6.2974609343062724 0.0000000000000000
2.9055552725770650 7.4048447409283664 0.0000000000000000
2.7650232010955014 7.5472912898769096 0.0000000000000000
2.5180010848653707 7.3039462920237330 0.0000000000000000
5.3518467891003016 7.1457575974040832 0.0000000000000000
5.4050658374357488 7.3387015926407759 0.0000000000000000
4.3299250483173690 6.7007116546995755 0.0000000000000000
5.1048869089492728 6.9024617275821978 0.0000000000000000
2.4647721152024427 7.1110133807914817 0.0000000000000000
2.3242351232910519 7.2536205096125430 0.0000000000000000
3.0418398398458191 5.2909178951319342 0.0000000000000000
5.5455986769895800 7.1961117978196345 0.0000000000000000
5.5988198397364162 7.3890579322980532 0.0000000000000000
5.4582848546341172 7.5316403359965847 0.0000000000000000
5.6520424618346841 7.5820032687248959 0.0000000000000000
5.7925820773369363 7.4395112821892289 0.0000000000000000
5.8466012139668351 7.6338293284073115 0.0000000000000000
5.7055961980508485 7.7766652571133319 0.0000000000000000
2.9588048684339032 7.5978475737651392 0.0000000000000000
2.8182812307192235 7.7402523421797920 0.0000000000000000
2.2477127109846951 4.3678610011123622 0.0000000000000000
5.9887475580438538 7.4925462283192052 0.0000000000000000
2.2711615066479549 7.0608281984196894 0.0000000000000000
2.1306558237608040 7.2034740124808323 0.0000000000000000
2.1837229990118314 7.3962790621639689 0.0000000000000000
6.0445766287116687 7.6888566357900103 0.0000000000000000
7.8773513033008529 2.6083920552627151 0.0000000000000000
7.8178106615266181 7.6081205453693954 0.0000000000000000
7.0423151882587423 7.4063955227279230 0.0000000000000000
6.8485557665757266 7.3560541399915502 0.0000000000000000
6.9017764305356435 7.5489994410794807 0.0000000000000000
5.0708023546838943 7.4310118642708618 0.0000000000000000
4.1020903467860821 7.1787005267842030 0.0000000000000000
2.1413072384412910 3.9819449700247858 0.0000000000000000
4.3748120175445928 2.9508964682634971 0.0000000000000000
6.3995611514687480 3.1193589872522480 0.0000000000000000
4.8346419243057088 3.9660597774432849 0.0000000000000000
6.9616084724084573 2.5491559052749913 0.0000000000000000
7.1019962226769877 2.4065633328617659 0.0000000000000000
6.9083416911232609 2.3561241067458791 0.0000000000000000
7.0483378957345408 2.2131734595307839 0.0000000000000000
7.2424102481680155 2.2639744579329237 0.0000000000000000
7.1887500327535188 2.0706321869561193 0.0000000000000000
7.3833142077000042 2.1217631738844296 0.0000000000000000
2.4605771316692246 5.1396926921065624 0.0000000000000000
5.8075350911258043 6.1896102951024154 0.0000000000000000
5.6137828553335929 6.1391703454334490 0.0000000000000000
5.6054086770072420 2.1962934236365070 0.0000000000000000
2.3691384521348104 3.5038197961156499 0.0000000000000000
4.7855814058864725 5.7446074720693048 0.0000000000000000
4.8387993212289597 5.9375876688095266 0.0000000000000000
4.6450567331520247 5.8871668747146169 0.0000000000000000
6.4760715289121880 6.0053569786167129 0.0000000000000000
6.4228574480512428 5.8123840743419075 0.0000000000000000
6.6165985672121526 5.8627674799513878 0.0000000000000000
6.5633855579664662 5.6697990819132977 0.0000000000000000
6.7571290183068582 5.7201809424513659 0.0000000000000000
6.7039160340067054 5.5272155178553222 0.0000000000000000
6.8976634153800012 5.5776053288689518 0.0000000000000000
6.8444491831160459 5.3846394236948623 0.0000000000000000
7.0382001032755079 5.4350418407762211 0.0000000000000000
6.9849839011439760 5.2420748854741577 0.0000000000000000
7.0914129600929376 5.6280087352408312 0.0000000000000000
6.7912333319979750 5.1916722048228152 0.0000000000000000
6.9317650440630967 5.0491067618603198 0.0000000000000000
7.1255186715301049 5.0995196905838753 0.0000000000000000
7.0722958903445061 4.9065501105786282 0.0000000000000000
6.7380150991138335 4.9987031111688989 0.0000000000000000
7.2660502522738781 4.9569678279570599 0.0000000000000000
7.2128252472188317 4.7639988467415604 0.0000000000000000
7.4065779688300495 4.8144135417136891 0.0000000000000000
7.3533544895321956 4.6214457618217084 0.0000000000000000
7.4598063305845557 5.0073805571136658 0.0000000000000000
7.5471033939808674 4.6718509426405204 0.0000000000000000
7.4938847622927840 4.4788863509207575 0.0000000000000000
7.6876304971350891 4.5292802437232602 0.0000000000000000
7.6344191271590676 4.3363177419152734 0.0000000000000000
7.3001359711397731 4.4284782222352961 0.0000000000000000
7.8281619608006388 4.3867050103065077 0.0000000000000000
7.7749614666615878 4.1937445253546475 0.0000000000000000
6.5974859831035131 5.1412778678951794 0.0000000000000000
6.5442686530443446 4.9483068400204946 0.0000000000000000
5.6670036342096477 6.3321404495675457 0.0000000000000000
2.7187007265834802 2.1617697467891914 0.0000000000000000
2.8590260683767892 2.0192662440573090 0.0000000000000000
4.3257414538203101 4.7293150624986744 0.0000000000000000
7.5812136855560848 4.1433561130729863 0.0000000000000000
7.7217634657764131 4.0007836756481385 0.0000000000000000
3.5507388898201335 4.5276607780152247 0.0000000000000000
3.9191135732295397 3.9070178180912372 0.0000000000000000
3.6039547763447173 4.7206321119324910 0.0000000000000000
4.5153449477202390 2.8082944455601249 0.0000000000000000
4.5685603547908551 3.0012415732698141 0.0000000000000000
4.5484295187676311 2.2800267450776004 0.0000000000000000
6.8103427688179350 5.9131443899725005 0.0000000000000000
4.7174176942762900 6.8016730830388221 0.0000000000000000
2.6734536538322695 5.9115322304971851 0.0000000000000000
5.4732505481008609 6.2817237642339654 0.0000000000000000
6.6847961971432923 4.8057317783017011 0.0000000000000000
6.4910513786962527 4.7553343532013317 0.0000000000000000
6.3505239610171387 4.8979116714821807 0.0000000000000000
6.6315782968513721 4.6127594639492102 0.0000000000000000
6.2973068528691574 4.7049386972933531 0.0000000000000000
6.1567790642579325 4.8475103358530571 0.0000000000000000
6.1035607735045900 4.6545374188104356 0.0000000000000000
5.9630312530277010 4.7970977165969284 0.0000000000000000
7.5280059481368298 3.9503952820859336 0.0000000000000000
5.9335159484729303 7.2974722217064727 0.0000000000000000
1.9897461660030769 7.3457286168497511 0.0000000000000000
5.7459175493440711 2.0539236079153955 0.0000000000000000
7.9687042237856138 4.2441350967902673 0.0000000000000000
7.7026380785847426 3.2793716356314779 0.0000000000000000
2.3541226532943171 4.7537835471096646 0.0000000000000000
3.0123194103438005 7.7908021379513670 0.0000000000000000
2.8718498554057179 7.9331424759316338 0.0000000000000000
2.6778084826277828 7.8827173119897083 0.0000000000000000
3.1526011323096395 7.6484506268642223 0.0000000000000000
2.7318904970599278 8.0764553589430736 0.0000000000000000
7.3312372043727621 1.9300531679027779 0.0000000000000000
8.0697561963457254 2.6575188101067813 0.0000000000000000
7.7408514454230835 4.7222416139775421 0.0000000000000000
1.9366838958575112 7.1538858505909992 0.0000000000000000
4.4951907106658515 2.0871101353190902 0.0000000000000000
4.3024794355336553 2.0365841290623763 0.0000000000000000
4.4408040353495899 1.8961267746925701 0.0000000000000000
4.6860589654220233 2.1391029601946632 0.0000000000000000
8.0474564778614663 7.1342546610414272 0.0000000000000000
4.2491525607475698 1.8463118138352512 0.0000000000000000
8.1224530728819513 2.8503126090212372 0.0000000000000000
7.1348504474626191 1.8817780329528961 0.0000000000000000
2.6655335130933469 1.9688147788781971 0.0000000000000000
2.8068329654790989 1.8260908279171535 0.0000000000000000
5.9098119147158199 4.6041250414819386 0.0000000000000000
4.6982762632399266 6.0801504659653478 0.0000000000000000
4.5045309932084443 6.0297097248002398 0.0000000000000000
4.4513095098152382 5.8367286838689356 0.0000000000000000
4.3107793531037402 5.9792617385537117 0.0000000000000000
4.2575568583625349 5.7862890112978267 0.0000000000000000
4.1170232406071587 5.9288292428326086 0.0000000000000000
4.0638017559155104 5.7358652501488816 0.0000000000000000
2.8098572981531329 3.7975989837149235 0.0000000000000000
3.9232673529629301 5.8784241200538956 0.0000000000000000
3.8700472479228116 5.6854639237525042 0.0000000000000000
4.0105807569535550 5.5429010795311546 0.0000000000000000
3.8168279374366167 5.4925017866384200 0.0000000000000000
3.0186264045177471 2.5980283209249202 0.0000000000000000
2.4115669350453302 6.9181003220908526 0.0000000000000000
2.2174490620077809 6.8684338406778824 0.0000000000000000
2.8289632259675432 4.5190487362221150 0.0000000000000000
6.1295968259846667 7.3503190170735415 0.0000000000000000
6.0461692791184554 2.4900358630173498 0.0000000000000000
6.1863318454032266 2.3487517542537004 0.0000000000000000
3.9573606113694422 5.3499369482886312 0.0000000000000000
6.8545148547680101 2.1625236867628637 0.0000000000000000
2.0428884439140331 7.5386321319366942 0.0000000000000000
5.5521527843339991 2.0033763761710728 0.0000000000000000
8.0219023040152670 4.4370926847010734 0.0000000000000000
6.1334296613676242 2.1545572015614507 0.0000000000000000
3.2061096821807267 7.8414352634056765 0.0000000000000000
3.3463319362974304 7.6988900996342231 0.0000000000000000
1.7967647587183380 7.2946391750095758 0.0000000000000000
1.7441368831965454 7.1054643659839263 0.0000000000000000
2.9248412371386814 8.1278849047510278 0.0000000000000000
5.7692810233387135 4.7466735830658768 0.0000000000000000
5.4923778083359265 7.0031629635021364 0.0000000000000000
2.9353965953123264 4.9049789081660649 0.0000000000000000
5.1838433775972250 2.6238368195852932 0.0000000000000000
2.5391813837811865 8.0309614675122205 0.0000000000000000
2.7843142458784289 8.2686000417581784 0.0000000000000000
5.6917822047002140 1.8612215741989977 0.0000000000000000
8.0177417384152498 2.4656994615303858 0.0000000000000000
8.2085593604097742 2.5148589475492016 0.0000000000000000
7.5232907533929652 1.9795602213269892 0.0000000000000000
7.4715667364444922 1.7884733862200941 0.0000000000000000
6.7098746004355654 7.4968393770725843 0.0000000000000000
6.7629996760950490 7.6909674238081047 0.0000000000000000
6.9552783143661809 7.7418260702399966 0.0000000000000000
6.8152856839390177 7.8849354907907721 0.0000000000000000
7.0083176450749214 7.9348577623150920 0.0000000000000000
6.6253009033565409 7.8366675949132061 0.0000000000000000
6.0741587440102940 7.1551003585422457 0.0000000000000000
6.2099964147562137 5.0404840024282551 0.0000000000000000
7.2319525219794514 5.4854566489825203 0.0000000000000000
7.2851627910837369 5.6784266073523506 0.0000000000000000
7.4257032789210378 5.5358748892153224 0.0000000000000000
7.4789087185207839 5.7288460876568710 0.0000000000000000
7.6194493286313065 5.5862799415469864 0.0000000000000000
7.6726305634671892 5.7792513488856345 0.0000000000000000
7.5321134838423305 5.9218192722597758 0.0000000000000000
7.8132023254511314 5.6367407522646573 0.0000000000000000
7.7258324662881570 5.9722181051665473 0.0000000000000000
7.5853269812298461 6.1147931273840213 0.0000000000000000
7.7808200108466847 6.1654718381179459 0.0000000000000000
7.9230422823339435 6.0227336828984361 0.0000000000000000
7.6386221826768281 6.3075969113332153 0.0000000000000000
7.4448198706647615 6.2573199771671453 0.0000000000000000
7.8309359931553395 6.3616536911168584 0.0000000000000000
4.1702465323097577 6.1217949566918737 0.0000000000000000
7.7600015583380015 5.4437132787253875 0.0000000000000000
7.9537512498428082 5.4940551557074011 0.0000000000000000
7.4978260528308978 6.4500762828396292 0.0000000000000000
3.3079330304912564 6.2557997215210195 0.0000000000000000
7.9005577443363002 5.3011110777901473 0.0000000000000000
3.1782415370812722 3.1768728003440074 0.0000000000000000
5.8183138630109941 2.9682565266020262 0.0000000000000000
5.4009068862168386 5.3672927937841974 0.0000000000000000
6.3696437460012172 5.6194092198244032 0.0000000000000000
5.5563995734632483 3.9747719612732797 0.0000000000000000
4.8920167097543281 6.1305671298762183 0.0000000000000000
4.3598371025580258 4.2008240299154016 0.0000000000000000
3.1865835020206408 7.1198919955333233 0.0000000000000000
6.2440891884704861 4.5119670512191599 0.0000000000000000
3.8808504338981340 2.4640315427321506 0.0000000000000000
3.8275095603890361 2.2709038233998919 0.0000000000000000
3.6871028128231380 2.4135616297975799 0.0000000000000000
2.3582546665125204 6.7252548696983805 0.0000000000000000
2.1639705897148076 6.6754465048771685 0.0000000000000000
3.7977032873815206 4.7710366250991090 0.0000000000000000
3.6571719391840913 4.9136020580400306 0.0000000000000000
3.6339131818958710 2.2206496321578091 0.0000000000000000
3.7742081648274737 2.0780508118236649 0.0000000000000000
2.3049580440821256 6.5323193945113713 0.0000000000000000
2.1075184451634228 6.4829769385480915 0.0000000000000000
2.2511710636776634 6.3394546230339328 0.0000000000000000
2.0536406372185843 6.2901149290084097 0.0000000000000000
2.1977489584364842 6.1465341289066915 0.0000000000000000
2.0021888120731925 6.0966497087577913 0.0000000000000000
2.1448098871157919 5.9535022675673535 0.0000000000000000
1.9493461080014176 5.9035951827189130 0.0000000000000000
2.0917207626830203 5.7605187006111267 0.0000000000000000
1.8979935376529828 5.7101278292521096 0.0000000000000000
2.0390003091821423 5.5674310321652074 0.0000000000000000
8.1626250473915487 4.2946898634964317 0.0000000000000000
8.1092994789394535 4.1016065410555766 0.0000000000000000
2.6114238551206306 1.7734003246198902 0.0000000000000000
2.4714724492209119 1.9183370248945073 0.0000000000000000
3.0023076238250961 1.8733609727935234 0.0000000000000000
3.3985755569443046 7.8946581205575450 0.0000000000000000
3.5398547475052258 7.7496687307068912 0.0000000000000000
3.5920660555346240 7.9454739653309847 0.0000000000000000
3.7335230735233220 7.8001031026453864 0.0000000000000000
3.7867534409980403 7.9934044752103333 0.0000000000000000
3.9274563290516515 7.8498709584588839 0.0000000000000000
3.9806931311059910 8.0431807716278918 0.0000000000000000
4.1212491521630739 7.9001653833567174 0.0000000000000000
4.1745325758967065 8.0931441949314298 0.0000000000000000
4.3150409406404213 7.9505611166953383 0.0000000000000000
4.3683259869540132 8.1435847003704556 0.0000000000000000
4.5088168456583206 8.0012137051365588 0.0000000000000000
4.0343450010847066 8.2364774934828358 0.0000000000000000
2.9761016185990088 8.3203623658751873 0.0000000000000000
2.0880859786809567 3.7889889202649876 0.0000000000000000
1.9457541988858882 3.9321212084327937 0.0000000000000000
8.4360700386062142 7.2275507005424542 0.0000000000000000
1.8451757845480348 5.5170644225763521 0.0000000000000000
1.9857684731116811 5.3744780941467516 0.0000000000000000
1.7556717039635823 5.8531658933661115 0.0000000000000000
6.8692060353522342 8.0776864251245986 0.0000000000000000
7.0593114097080303 8.1281883709560443 0.0000000000000000
7.2014897301863305 7.9853489871715855 0.0000000000000000
7.2521908466717324 8.1787752971597403 0.0000000000000000
7.3949273346076145 8.0360643987645961 0.0000000000000000
6.9179094901640683 8.2675324922491722 0.0000000000000000
2.7543880408132480 1.6320120258474351 0.0000000000000000
8.2158587060544903 4.4876667482567774 0.0000000000000000
4.3848001154525988 1.7051382948222003 0.0000000000000000
1.6067885092663086 7.2463203820268616 0.0000000000000000
5.4993836968520986 1.8080987955946168 0.0000000000000000
5.3580427274870592 1.9480519537018055 0.0000000000000000
7.4477474553177538 8.2313182124478690 0.0000000000000000
7.5885848634870001 8.0894108411490766 0.0000000000000000
7.3049403027827786 8.3716397461673111 0.0000000000000000
4.1894178395734816 1.6541816979934088 0.0000000000000000
3.5807070800656797 2.0278838030342303 0.0000000000000000
1.6577459938447694 7.4377704421901640 0.0000000000000000
5.8225007450040387 4.9396476127928404 0.0000000000000000
3.6762965572316526 5.6350779235757482 0.0000000000000000
3.6230786066896776 5.4421128042354843 0.0000000000000000
4.5577523804467805 6.2226951934893089 0.0000000000000000
6.2679066423669658 7.2055834189049097 0.0000000000000000
2.2368800357560779 7.5891503580026924 0.0000000000000000
2.0963464159595846 7.7317330043761565 0.0000000000000000
7.4361308840736324 2.3151339150943295 0.0000000000000000
5.5264702268596260 6.4746854867025885 0.0000000000000000
5.7202246296881034 6.5251122803131612 0.0000000000000000
5.3327199150800970 6.4242986424628317 0.0000000000000000
3.4634250614196622 4.8632053580369767 0.0000000000000000
4.7090848777035221 2.8586182989596400 0.0000000000000000
4.7622997725804046 3.0515822569396738 0.0000000000000000
4.6217764758583124 3.1941954370333310 0.0000000000000000
5.6287499178667337 4.8892179220482594 0.0000000000000000
5.7160610158199336 4.5536997281523135 0.0000000000000000
6.7145241115150576 2.3055567152911864 0.0000000000000000
6.6583400120112746 2.1132156824779176 0.0000000000000000
7.3042501627770768 6.3998388888627442 0.0000000000000000
7.2510559029652590 6.2069005000453350 0.0000000000000000
3.4867556114993521 7.5563293797558471 0.0000000000000000
6.2398345505955390 2.5406478547134514 0.0000000000000000
4.8155158248065577 3.2445515363424549 0.0000000000000000
4.6749923716039117 3.3871551283966785 0.0000000000000000
5.1314231129289682 2.4316233004841834 0.0000000000000000
7.6685515365735100 3.8078240635072267 0.0000000000000000
7.4747863315176915 3.7574354546637334 0.0000000000000000
7.3342460323553222 3.8999934223522055 0.0000000000000000
7.2810222719445798 3.7070287193320439 0.0000000000000000
7.1404861145373513 3.8495704152211956 0.0000000000000000
4.1511145338243995 5.4003504456966791 0.0000000000000000
4.0978943346065009 5.2073833104621290 0.0000000000000000
3.8742178579552480 7.6569422953701514 0.0000000000000000
5.8565926430308952 4.4111527361915961 0.0000000000000000
4.2617959464286361 7.7575774387387035 0.0000000000000000
8.0955098216523655 5.3526298694168428 0.0000000000000000
8.1471748636435244 5.5437213522444306 0.0000000000000000
8.2871998380289522 5.4042845761027776 0.0000000000000000
8.0420512551071859 5.1593639214092537 0.0000000000000000
8.3032300260117040 4.1521878627512212 0.0000000000000000
8.3379056535342428 5.5924153942024519 0.0000000000000000
2.5595822847117611 1.5785033379873923 0.0000000000000000
4.5614350740454679 8.1966316070530247 0.0000000000000000
4.7021263066085792 8.0537128197808663 0.0000000000000000
4.6492421116337654 7.8591277140762124 0.0000000000000000
4.8425311005712990 7.9118409306993502 0.0000000000000000
2.8377085804465478 8.4583658093990213 0.0000000000000000
2.6475077826404756 8.4141344162416303 0.0000000000000000
4.4219764333043585 8.3359083835865118 0.0000000000000000
1.9625134665898536 6.6307718762006562 0.0000000000000000
4.5753631918572601 1.7539849442530970 0.0000000000000000
8.2499161615882883 3.9590883173622342 0.0000000000000000
5.6391319735535275 1.6685958766672231 0.0000000000000000
5.8313415855172472 1.7181640707420236 0.0000000000000000
5.4501604057108102 1.6160798929289879 0.0000000000000000
7.4983581656399467 8.4243570778219379 0.0000000000000000
1.5641080141360015 7.0550612956446246 0.0000000000000000
4.6111221944767138 8.3888879779954060 0.0000000000000000
1.6908661791750454 6.9185659087125524 0.0000000000000000
7.6609161089967017 1.8372442688325663 0.0000000000000000
7.7168575283909293 2.0281595026922878 0.0000000000000000
7.6079804073667807 1.6510142872422360 0.0000000000000000
7.4211568549255222 1.6054637988568037 0.0000000000000000
3.7210460166971342 1.8855674214385261 0.0000000000000000
8.1571001242905954 2.3277985870198927 0.0000000000000000
4.5218809581708612 1.5670885970199810 0.0000000000000000
3.2559879866390169 8.0411561321009497 0.0000000000000000
1.9023651799472274 7.6810433701172212 0.0000000000000000
1.9558371889763755 7.8741361389668629 0.0000000000000000
8.2044785167544561 7.7102410617861201 0.0000000000000000
8.2010464370097793 5.7352273205337099 0.0000000000000000
8.3936480281683785 5.7824542069416882 0.0000000000000000
8.2577119611059704 5.9265704142286877 0.0000000000000000
8.4508013911263848 5.9733724793663230 0.0000000000000000
7.5358802937036593 7.8942298589458346 0.0000000000000000
7.7301034639027622 7.9448525722041063 0.0000000000000000
2.1495811995625411 7.9246880921696112 0.0000000000000000
6.3267681954839503 7.3983933081293021 0.0000000000000000
3.4825501017408538 5.5846937297397519 0.0000000000000000
6.2141496451149036 7.0120428845748606 0.0000000000000000
6.0205032077709104 6.9616567745810016 0.0000000000000000
3.4293324752465217 5.3917238763278048 0.0000000000000000
6.8008280448603626 1.9699464649679015 0.0000000000000000
5.6819690892077057 5.0821926247317677 0.0000000000000000
5.8757196099245608 5.1326228727525622 0.0000000000000000
7.8239665515359569 2.4152547335416088 0.0000000000000000
4.4812474093106189 3.3367966832493576 0.0000000000000000
4.5344645452957186 3.5297527729858462 0.0000000000000000
4.3407139356270470 3.4793751832040702 0.0000000000000000
4.3939329135060134 3.6723336229912817 0.0000000000000000
4.9910464998550061 2.5743198793589177 0.0000000000000000
7.3574665801156014 6.5928122507141333 0.0000000000000000
7.5455571355090116 6.6523884760622245 0.0000000000000000
2.0004788536956917 4.1246343839037607 0.0000000000000000
1.8048818583481401 4.0748465839749208 0.0000000000000000
1.8598297835285160 4.2672790585657188 0.0000000000000000
1.6669111300050106 4.2164230200499917 0.0000000000000000
1.7197861956659279 4.4092413898943512 0.0000000000000000
1.6126140085856910 4.0269928605177094 0.0000000000000000
1.9133634224365199 4.4600358188310141 0.0000000000000000
1.7712340533422177 4.6015988611015857 0.0000000000000000
1.5771343383339556 4.5497453554850074 0.0000000000000000
1.9663151959068939 4.6528638492229488 0.0000000000000000
3.1441378212668156 3.7053954951189221 0.0000000000000000
8.0751559969889239 4.6300761057978344 0.0000000000000000
2.4564432784113310 3.1683504077595863 0.0000000000000000
3.4933776322689343 2.3631690845815916 0.0000000000000000
7.1937059471783318 4.0425410213243005 0.0000000000000000
6.9999512816475660 3.9921111420123108 0.0000000000000000
4.2001796426016620 3.6219321803710036 0.0000000000000000
5.3859384816729081 6.6172571732755756 0.0000000000000000
5.1921922255190749 6.5668923228063445 0.0000000000000000
4.5727097363385569 4.9726996978990252 0.0000000000000000
7.8474861198772601 5.1082989382602237 0.0000000000000000
4.3980888913767098 5.6437507955276320 0.0000000000000000
5.9821561819729112 5.5185771358528557 0.0000000000000000
6.0993645344589664 2.6831010053524000 0.0000000000000000
6.2931018925864413 2.7334541021729430 0.0000000000000000
6.1525919746431521 2.8760461139726119 0.0000000000000000
2.9312895094519424 2.9335866643222306 0.0000000000000000
5.2795014139553693 6.2313370685309311 0.0000000000000000
2.7225404731389520 4.1331233650053196 0.0000000000000000
2.7458386295428689 6.8259144551284567 0.0000000000000000
2.1795253037756450 5.4248472214445842 0.0000000000000000
2.1262987949555359 5.2318920666485633 0.0000000000000000
1.9325472686502243 5.1815237413947717 0.0000000000000000
3.5466050262236055 2.5561213101993907 0.0000000000000000
2.4988045965366781 6.5825922963705299 0.0000000000000000
4.6014665919491140 2.4730331209392982 0.0000000000000000
2.0730579773061519 5.0389462772680824 0.0000000000000000
4.9028174717123383 2.9089758906379837 0.0000000000000000
3.5357672330073107 5.7776618535529822 0.0000000000000000
7.1105219955777086 6.3494466873967008 0.0000000000000000
7.0531692272872650 4.1850852624124020 0.0000000000000000
6.8594189399548693 4.1346588974288307 0.0000000000000000
6.8062001540156380 3.9416812050109553 0.0000000000000000
6.9126358733322428 4.3276341767600988 0.0000000000000000
6.7188891733253753 4.2772169117423706 0.0000000000000000
4.2533993915086983 3.8148957379259700 0.0000000000000000
2.3921110725423613 6.1967319694170895 0.0000000000000000
7.1446257756974179 5.8209753587929507 0.0000000000000000
2.2857674227260909 5.8108041462250153 0.0000000000000000
4.2916480434073776 5.2578048442107770 0.0000000000000000
6.8253246495897848 4.6631651493662192 0.0000000000000000
4.4471514654760114 3.8652938159158410 0.0000000000000000
4.7282089514306245 3.5801194823856037 0.0000000000000000
6.4336111924969028 2.5908487224513808 0.0000000000000000
5.4882190705436287 5.0317653085333349 0.0000000000000000
5.4349999886849716 4.8387909298187521 0.0000000000000000
5.6628411774658582 4.3607249376370527 0.0000000000000000
8.0561052770827093 3.9086324022693084 0.0000000000000000
6.4625997726952997 7.2540748774139399 0.0000000000000000
4.7897013317420649 7.7167430277158182 0.0000000000000000
5.8033723201012428 4.2181812778426080 0.0000000000000000
5.9971235376621737 4.2685968071113676 0.0000000000000000
5.5223108075029135 4.5032674215444235 0.0000000000000000
4.5960535380243561 7.6658921800858923 0.0000000000000000
4.9834108569658699 7.7671250037793058 0.0000000000000000
5.0363345801674839 7.9622775087713125 0.0000000000000000
5.1771551450234439 7.8174549017907458 0.0000000000000000
5.2304772742276029 8.0103738877871624 0.0000000000000000
8.4436919750128148 4.0095392990814505 0.0000000000000000
2.7017617896148391 1.4381762255302151 0.0000000000000000
2.9000133853732804 1.4889302625850067 0.0000000000000000
7.8604913181360079 1.8827742756516019 0.0000000000000000
8.3438490737212820 2.3766011726561116 0.0000000000000000
8.3936975702219279 2.5624530400140784 0.0000000000000000
1.8922251079087127 3.7392674322820869 0.0000000000000000
2.0345143589146142 3.5961328626438678 0.0000000000000000
8.3152881072996649 6.1166401011633420 0.0000000000000000
6.6055346694084918 1.9209871033045229 0.0000000000000000
6.7444824758383630 1.7802355892632666 0.0000000000000000
1.8576337727429133 6.2365831766852251 0.0000000000000000
7.3596554696114858 8.5606064941170281 0.0000000000000000
7.1624179329219091 8.5127129189701876 0.0000000000000000
2.0085062525450037 8.0666875038046140 0.0000000000000000
2.2066362715678562 8.1258759329331358 0.0000000000000000
1.4123243587076983 7.1716613703773904 0.0000000000000000
8.4746508345395224 5.4540432466492348 0.0000000000000000
4.4762959096849189 8.5235751234730923 0.0000000000000000
4.2832866857294292 8.4746296534096679 0.0000000000000000
1.5162861600307940 6.8695977774643158 0.0000000000000000
2.7026457413986464 8.5983566696137324 0.0000000000000000
8.2694517734146800 4.6784072806174457 0.0000000000000000
8.4083113845994291 4.5386138446464681 0.0000000000000000
3.0241046404471494 8.5057331632453170 0.0000000000000000
3.1626083178388802 8.3721008510397947 0.0000000000000000
1.8282921835614752 4.7932691359239898 0.0000000000000000
8.1955120783780249 3.7706052125626148 0.0000000000000000
8.0026785060101755 3.7164132272515507 0.0000000000000000
8.1417169271632179 3.5777170611321569 0.0000000000000000
6.7325894573192544 8.2186716503633530 0.0000000000000000
6.7825473058650383 8.4061035430369593 0.0000000000000000
8.5477484410873785 2.4185167763629942 0.0000000000000000
8.5844572772153143 2.6140244991104322 0.0000000000000000
8.4469628366650511 2.7552666485782495 0.0000000000000000
7.7825996221214844 8.1375475120793812 0.0000000000000000
7.9243098952893689 7.9952383127441644 0.0000000000000000
2.5145518595601306 8.5518681513191215 0.0000000000000000
2.4606448950067943 8.3721334358033577 0.0000000000000000
3.9146677962637493 1.9356521171706049 0.0000000000000000
3.8601498609203948 1.7436997034871140 0.0000000000000000
7.9119049607607765 2.0748381483928759 0.0000000000000000
8.0604715377954506 1.9324857948489897 0.0000000000000000
7.4095265899854779 6.7864972634749812 0.0000000000000000
3.2888053426148853 5.5342995898587315 0.0000000000000000
6.0545012908699158 6.4330550438851954 0.0000000000000000
5.3708184109780017 7.8672307766475384 0.0000000000000000
5.4237275308062864 8.0601524211552409 0.0000000000000000
5.2855427595865967 8.2021165386307455 0.0000000000000000
5.4764712822949448 8.2522815290129454 0.0000000000000000
5.3363886354076850 8.3895762325367738 0.0000000000000000
5.5242430256720505 8.4408246946239203 0.0000000000000000
5.6670803876332263 8.3032804348428506 0.0000000000000000
7.3724929367352159 5.3429055145160156 0.0000000000000000
7.0573077277160712 6.1564943076311991 0.0000000000000000
2.4842778536963790 7.8333558035386295 0.0000000000000000
3.8509217131024185 4.9640048230590992 0.0000000000000000
7.0872604225111591 3.6565972192656684 0.0000000000000000
7.2277900805529391 3.5140625456094572 0.0000000000000000
8.1292980065674953 4.8222579535173811 0.0000000000000000
3.9914546319881872 4.8214486333862885 0.0000000000000000
5.6861347359850702 7.0535709729775542 0.0000000000000000
6.9167740623875691 6.2990610218951089 0.0000000000000000
5.6329122877500390 6.8606080804633605 0.0000000000000000
5.2696453525544769 2.2867246600093512 0.0000000000000000
5.0738368417589994 2.2396132447896324 0.0000000000000000
7.9492970470671205 3.5235824171953487 0.0000000000000000
8.0901020114408499 3.3801584978358865 0.0000000000000000
6.5170761262971135 2.2573641726068128 0.0000000000000000
3.3528763055030173 2.5057072274940455 0.0000000000000000
3.4060847931028944 2.6986868760576139 0.0000000000000000
5.3668128456574502 5.8957949420623370 0.0000000000000000
4.2384277343044205 5.0648346172134309 0.0000000000000000
6.1077192442047066 6.6260477287862098 0.0000000000000000
7.6153207265151810 3.6148649443873100 0.0000000000000000
3.7103900871307336 5.1065707777113314 0.0000000000000000
4.7365543506038499 7.5233475872937925 0.0000000000000000
5.5859355272008928 1.4849256128960919 0.0000000000000000
5.3995168012040660 1.4313346833142488 0.0000000000000000
3.6488691183344990 8.1388246974786576 0.0000000000000000
8.6362048134293303 2.8043397074771375 0.0000000000000000
8.4998811050726797 2.9498390316368570 0.0000000000000000
7.5742735082677823 1.4497174383033080 0.0000000000000000
7.3710382592138588 1.4194446837398245 0.0000000000000000
7.2268630240396039 1.5578906810242377 0.0000000000000000
7.1694766212105439 1.3719461845718695 0.0000000000000000
7.0220508110186772 1.5100750880188814 0.0000000000000000
8.4597981196120919 4.7195535937320994 0.0000000000000000
5.7194863129797158 8.4862129238793091 0.0000000000000000
5.8599922081901568 8.3551332439892754 0.0000000000000000
5.8090487043356189 8.1637492213172731 0.0000000000000000
6.0012913127627447 8.2182102239868371 0.0000000000000000
6.0508417515183694 8.4075456699981341 0.0000000000000000
6.1891798676020375 8.2735547572793333 0.0000000000000000
6.1450700118505992 8.0806837026317844 0.0000000000000000
6.3330704621388971 8.1352026760424003 0.0000000000000000
6.2908373712244394 7.9372461539272336 0.0000000000000000
8.4887907463749279 4.2057730027278817 0.0000000000000000
1.8490762005634664 3.5435286369057479 0.0000000000000000
1.9829930273402769 3.4031138309233628 0.0000000000000000
1.7988768401404807 3.3497770333003669 0.0000000000000000
1.9307507834880890 3.2111704128198939 0.0000000000000000
1.7386445908004371 3.1603115939502264 0.0000000000000000
1.8764693374703210 3.0200011096993657 0.0000000000000000
1.6836752305314462 2.9705197147988525 0.0000000000000000
1.8230820955852878 2.8289012461141314 0.0000000000000000
1.6305222497224405 2.7789519239192488 0.0000000000000000
1.7703491871788841 2.6368507007333810 0.0000000000000000
1.5785083322712408 2.5865411830038401 0.0000000000000000
1.7176019590610005 2.4444650834413615 0.0000000000000000
1.9106056454705131 2.4946382514466361 0.0000000000000000
1.8576778843086375 2.3020590499721769 0.0000000000000000
1.5498775086206629 3.1130952802990195 0.0000000000000000
2.0696843817215624 3.0690492533510216 0.0000000000000000
2.0505851803431119 2.3519792374886963 0.0000000000000000
1.9979416346812771 2.1595393039568322 0.0000000000000000
2.1915037176821497 2.2101208431088137 0.0000000000000000
2.1388573767305887 2.0146708127782533 0.0000000000000000
1.9449344408873865 1.9663055766362871 0.0000000000000000
1.4374345367857033 2.7292152955805906 0.0000000000000000
1.5273446338137311 2.4007469592711250 0.0000000000000000
2.1030977716218300 2.5431327262403540 0.0000000000000000
3.5254388614117866 1.8435144722496160 0.0000000000000000
3.3866719934836040 1.9788886733424578 0.0000000000000000
3.3324752436932297 1.7884183916863809 0.0000000000000000
8.4918993083565386 6.1647485573412011 0.0000000000000000
2.3408957678554985 8.5179944884802001 0.0000000000000000
4.7078150750825571 1.6191136311262262 0.0000000000000000
4.7641286245124901 1.8019466916024325 0.0000000000000000
4.6347038965566227 1.4333194231007089 0.0000000000000000
4.4624363179250990 1.3833587150442339 0.0000000000000000
1.6360940732400859 6.7439826440632356 0.0000000000000000
1.4841180511810312 4.1682625806814615 0.0000000000000000
1.4413129749269593 3.9816279350704735 0.0000000000000000
1.5746093327830875 3.8492923735509499 0.0000000000000000
5.5831094057277397 8.6355519012353152 0.0000000000000000
7.9830829727619008 8.1833118239752682 0.0000000000000000
8.1169097271776938 8.0452845733051923 0.0000000000000000
8.1773724147170732 8.2308383469576860 0.0000000000000000
5.2770611851445102 1.5577201398526999 0.0000000000000000
4.6501886001097494 8.5678446004826654 0.0000000000000000
2.0835140034475343 1.8277527738562678 0.0000000000000000
1.8887563606925493 1.7845570660683019 0.0000000000000000
1.8245524195279874 8.0247950510628563 0.0000000000000000
1.8663425899321127 8.2074661924784085 0.0000000000000000
1.6933234750413910 8.1674981316542539 0.0000000000000000
1.7310495675880682 8.3389806192469482 0.0000000000000000
1.5583886263222773 8.2926709280517272 0.0000000000000000
1.6038723500144292 8.4620103235572959 0.0000000000000000
1.4346700641188661 8.4174748389997074 0.0000000000000000
1.4798085231121350 8.5864174333945993 0.0000000000000000
1.7724631693427075 8.5026712442338628 0.0000000000000000
1.2489445454725980 8.5173679002812470 0.0000000000000000
8.4243134470205909 5.2735595116337661 0.0000000000000000
3.2293519195358895 8.5704356882595718 0.0000000000000000
8.5875135193148751 4.5924264230513661 0.0000000000000000
7.2196277470472987 8.6947974842160374 0.0000000000000000
7.3238967701460176 1.2030346238559142 0.0000000000000000
2.8385633657805136 1.2982112700941459 0.0000000000000000
8.6403901154768903 4.0886160458607552 0.0000000000000000
8.5758866788229611 3.8969542546722855 0.0000000000000000
7.5509034169221350 8.6129260638384295 0.0000000000000000
7.6775592464343339 8.4711453404876664 0.0000000000000000
2.4814530212628498 1.3729065421769497 0.0000000000000000
2.3593276155670586 1.5276541790752292 0.0000000000000000
6.2391818204122496 8.4606815025869633 0.0000000000000000
6.1048187417319477 8.5926977248114085 0.0000000000000000
1.7404401120044262 1.9148717589215007 0.0000000000000000
1.6972442550147582 1.7239273781270332 0.0000000000000000
8.5951942905275551 5.2943357399282149 0.0000000000000000
8.6704988687591733 5.4719420624057777 0.0000000000000000
2.2413767145464791 8.3538032220240748 0.0000000000000000
7.0222360668767649 8.6368195937630112 0.0000000000000000
8.6462812038672947 6.0573763281827286 0.0000000000000000
7.7476284369602109 1.5234565792534773 0.0000000000000000
8.8344402034761842 7.3507560288470408 0.0000000000000000
6.9695177814725984 8.4581674790133867 0.0000000000000000
6.8502998863052991 8.5825886075101696 0.0000000000000000
2.3991849610440026 8.1847295320517777 0.0000000000000000
8.2939913569297801 2.1887085854847022 0.0000000000000000
6.6551285072390849 8.5561850251947540 0.0000000000000000
6.4818594377223988 7.9848058488371745 0.0000000000000000
4.7993327907834393 8.4500756478791779 0.0000000000000000
4.7492327669300440 8.2494113621921805 0.0000000000000000
2.4157140260728620 1.7127683699660838 0.0000000000000000
5.3100042506432406 1.7484939869046179 0.0000000000000000
5.1653345167375653 1.8917538048701543 0.0000000000000000
4.8913561684136022 8.1033945755546988 0.0000000000000000
5.9151555941224485 8.5316672769827679 0.0000000000000000
1.3919612308984910 8.2237548799788360 0.0000000000000000
2.1960024181475974 1.6582794845327935 0.0000000000000000
3.1146731114660082 8.1806093066534959 0.0000000000000000
3.3071317625392314 8.2314178272925833 0.0000000000000000
1.8577231576180655 1.5902610474531138 0.0000000000000000
1.6508208631931462 1.5399440903361525 0.0000000000000000
1.5054366928108549 1.6733974763717865 0.0000000000000000
1.4600342860773645 1.4834315079818445 0.0000000000000000
8.6303209402669037 7.2789834811169083 0.0000000000000000
8.5685298711085558 7.0767287878915157 0.0000000000000000
8.3776249359637820 7.0375409910639570 0.0000000000000000
8.5019344985423508 6.8910130523048467 0.0000000000000000
8.3174356469721165 6.8543568234697059 0.0000000000000000
8.4326394521503047 6.6837213665547237 0.0000000000000000
8.2428751215827454 6.6687217470730902 0.0000000000000000
8.1267807050069756 6.8196800738250420 0.0000000000000000
8.0605361831166125 6.6319260974658718 0.0000000000000000
7.9310470368459427 6.7792899749233149 0.0000000000000000
8.1973865105504657 6.4757086940078166 0.0000000000000000
7.8656393172055132 6.5928927481904758 0.0000000000000000
1.6953070704299171 3.6753029073225827 0.0000000000000000
1.7542346276708201 3.8829654511606693 0.0000000000000000
8.3053985477627545 8.0948322401250241 0.0000000000000000
8.3545445737866668 8.2779665462374314 0.0000000000000000
8.2361595851947857 8.4103811668889819 0.0000000000000000
8.4084656320981601 8.4536011828008153 0.0000000000000000
8.5553103534053907 8.3135604231984708 0.0000000000000000
8.5902960547636855 8.5024458371958218 0.0000000000000000
8.2593252822627132 8.5799898053792667 0.0000000000000000
7.1110454820417921 8.3194481151862103 0.0000000000000000
8.3869319103456768 3.8299469738639158 0.0000000000000000
7.6376964871940496 8.2828682959176536 0.0000000000000000
5.5331113007624237 1.3007225888042788 0.0000000000000000
1.4272677688886850 6.7111861095276941 0.0000000000000000
1.8230430389258490 6.7780262787274896 0.0000000000000000
1.7355462515458642 6.5777676139251975 0.0000000000000000
8.2341894471013184 5.2230761842462776 0.0000000000000000
1.6531901067833243 2.2551287872078976 0.0000000000000000
8.2198827163733164 5.0226399497981227 0.0000000000000000
1.4941726473723294 2.9239085557700757 0.0000000000000000
1.3373427472286887 2.8722839810502334 0.0000000000000000
1.2176566779241071 2.7011871228458197 0.0000000000000000
6.0990292594886428 7.8850082663595300 0.0000000000000000
6.2439566925219001 7.7403940919408845 0.0000000000000000
7.7348695745388207 6.7355918035062707 0.0000000000000000
5.9006647468221978 7.8299473635962569 0.0000000000000000
8.7639898686922972 2.6506525730782702 0.0000000000000000
6.9364093545856376 1.8313142494546542 0.0000000000000000
1.5984171627450343 3.3261544745267426 0.0000000000000000
1.4183362394086092 3.2504942022298189 0.0000000000000000
1.3375199709702306 3.0677785825852273 0.0000000000000000
6.5341377999156007 8.1723256229806065 0.0000000000000000
8.2574891090159337 7.9026317974428411 0.0000000000000000
8.1197619194378294 6.0710937369301181 0.0000000000000000
8.1779612575444531 6.2634187853224930 0.0000000000000000
3.4539312156652122 8.0868514945099363 0.0000000000000000
8.4710096561321215 2.2480669503647794 0.0000000000000000
8.2565210482918143 1.9907361218332522 0.0000000000000000
8.3959374620748211 1.8609912578826979 0.0000000000000000
8.2156492602184130 1.8010377540428717 0.0000000000000000
8.3509279609706866 1.6741361201872611 0.0000000000000000
8.5344476595966601 1.7288968858004072 0.0000000000000000
8.4824184730950609 1.5473862452630980 0.0000000000000000
8.3079875293697949 1.4972782760208108 0.0000000000000000
8.4291715354798917 1.3566196610616506 0.0000000000000000
8.6129869200019460 1.4049723824986373 0.0000000000000000
8.0167746491929872 1.7415330369888882 0.0000000000000000
7.9726800606990720 6.2219353421945369 0.0000000000000000
2.0212367116622367 6.8214595383570291 0.0000000000000000
6.5498642068034432 1.7311824397497775 0.0000000000000000
6.4025357718604807 1.8684891162147614 0.0000000000000000
6.6818052379084332 1.5693610259393607 0.0000000000000000
6.8759643152074421 1.6408919141246403 0.0000000000000000
6.8370436796126119 1.4492364279290024 0.0000000000000000
6.9621178326748501 1.3229854296734562 0.0000000000000000
5.7795246109085294 1.5353446390733407 0.0000000000000000
5.9723476291933206 1.5814741962258476 0.0000000000000000
6.0226947614400252 1.7645037975144626 0.0000000000000000
6.1570892253879874 1.6300824725564462 0.0000000000000000
6.1185060896830512 1.4385894409948339 0.0000000000000000
5.9188750313223606 1.3895037076848626 0.0000000000000000
6.2094963637139813 1.8154714944960433 0.0000000000000000
6.0746810155684559 1.9581070520443187 0.0000000000000000
6.2658671159457739 2.0126411199072543 0.0000000000000000
2.3319335209911674 2.0618793757610021 0.0000000000000000
6.9935474772644808 2.0204530581027274 0.0000000000000000
1.3757516749645371 2.5379874952222341 0.0000000000000000
1.3472595498225699 2.3605524418235455 0.0000000000000000
1.4514333558176686 2.2174699913473246 0.0000000000000000
3.0543705145179243 1.3251749216283291 0.0000000000000000
3.0947653786887268 1.5314721413094294 0.0000000000000000
3.2434367229545371 1.4029615099582509 0.0000000000000000
3.3152845994551661 1.5881398968188392 0.0000000000000000
8.0651818329289107 7.8527489456340680 0.0000000000000000
4.1081996043111868 1.9863721906852705 0.0000000000000000
5.9379150640651064 2.1037464210690922 0.0000000000000000
1.7901451764975189 2.1076881074719069 0.0000000000000000
1.9056523025676095 6.4303003972194528 0.0000000000000000
1.0178762518410307 2.6250554362972056 0.0000000000000000
6.4623947331531308 2.0642943001624778 0.0000000000000000
7.8076580231572255 1.6971972023365745 0.0000000000000000
8.2470680551415327 1.3133549823485160 0.0000000000000000
1.5315197105367648 4.3604727276833453 0.0000000000000000
1.3608247435865006 4.5219250344998851 0.0000000000000000
1.4470387151417952 4.7319859828774522 0.0000000000000000
1.6374082091179736 4.7426347956812807 0.0000000000000000
8.6818207474063840 3.0180533962226312 0.0000000000000000
8.5574086596247980 3.1401462027335563 0.0000000000000000
8.3700562512694425 3.0921945156143771 0.0000000000000000
8.4334934217376620 3.2917915995612632 0.0000000000000000
8.2340125992861779 3.2361420827977119 0.0000000000000000
8.1782192086554790 3.0441790314193589 0.0000000000000000
3.0643111968798644 7.9858569341606334 0.0000000000000000
5.7580220328071245 7.9706302430822715 0.0000000000000000
8.0621349943887513 5.8791069502478628 0.0000000000000000
1.8497017852605397 7.4881842489367996 0.0000000000000000
1.7094516282349956 7.6282025770118702 0.0000000000000000
1.5213363758244882 7.5701656578598628 0.0000000000000000
1.4692684361271873 7.3879896680545478 0.0000000000000000
1.2796094062154688 7.3536237654436851 0.0000000000000000
3.1487670944106174 1.7272015544065289 0.0000000000000000
5.0875980054925822 8.1518652632663322 0.0000000000000000
8.5356054453511128 4.4013180402664727 0.0000000000000000
6.1875535801610893 7.5426892438610711 0.0000000000000000
6.3815001761294727 7.5888268183123389 0.0000000000000000
5.2149400374456922 2.0934166951595237 0.0000000000000000
5.0206569158436851 2.0438456097339088 0.0000000000000000
4.9649131896071275 1.8525744036316998 0.0000000000000000
3.9679969605394083 2.1284272214881588 0.0000000000000000
4.8804305393992626 2.1881748461793809 0.0000000000000000
7.7719210173493281 2.2206821550211746 0.0000000000000000
6.2845204932213754 1.5131480860809421 0.0000000000000000
8.0072577469696231 5.6864210661350896 0.0000000000000000
1.7401254483874968 7.8485366056445738 0.0000000000000000
7.8708830950292477 7.8016292598891894 0.0000000000000000
8.3537834178668771 4.3464660199911958 0.0000000000000000
8.3984733088218935 7.7585818609272321 0.0000000000000000
7.6768623634715389 7.7513538150736263 0.0000000000000000
8.1024746351053540 8.5335169962184274 0.0000000000000000
4.1618156253512764 2.1790230601756750 0.0000000000000000
8.6045127130113883 5.8293612651750388 0.0000000000000000
7.4829622338906185 7.7006982705082576 0.0000000000000000
3.1948843035925432 1.9262118798991579 0.0000000000000000
2.9514873061096245 1.6805236876775360 0.0000000000000000
3.6492682338332552 1.6719428661246920 0.0000000000000000
3.8082922663383889 1.5512059804870288 0.0000000000000000
3.9972978504411012 1.6046715518703840 0.0000000000000000
3.9406962811030937 1.4266356678686627 0.0000000000000000
4.1400796796982808 1.4724976686660338 0.0000000000000000
4.0531399815254856 1.7951769639518518 0.0000000000000000
2.5937834805355142 8.2244593293897221 0.0000000000000000
7.5768699239979824 2.1720496237480136 0.0000000000000000
8.2406213648116555 7.1821459548951685 0.0000000000000000
7.1487287233183947 7.7923463621910107 0.0000000000000000
7.0955740798419979 7.5993535605153664 0.0000000000000000
7.8673454108806213 5.8294218292775497 0.0000000000000000
2.3437480948834182 7.9765147402176773 0.0000000000000000
7.6301193484407364 2.3649624962682196 0.0000000000000000
7.4889935351346875 2.5078810988455320 0.0000000000000000
7.2892589186140757 7.6498988052067229 0.0000000000000000
7.6236388858743487 7.5580095278883004 0.0000000000000000
8.8002843452295139 7.0977267531818296 0.0000000000000000
7.2360681631679720 7.4568468120459439 0.0000000000000000
7.8535833707942135 7.0871547404009698 0.0000000000000000
4.2284784923583656 8.2855025969256140 0.0000000000000000
4.0880996203323781 8.4282485606247928 0.0000000000000000
3.8951192549188667 8.3804054093821243 0.0000000000000000
3.9605903327765697 8.5759356366778778 0.0000000000000000
3.7540263870516015 8.5225699519076734 0.0000000000000000
3.6972054427306440 8.3254116510247371 0.0000000000000000
3.8402595673429865 8.1874077932567229 0.0000000000000000
7.4596445974335905 6.9807017145874308 0.0000000000000000
6.6557669555168815 7.3037153864735753 0.0000000000000000
6.7955044719841338 7.1627744010356755 0.0000000000000000
2.2901661276302434 7.7821178320348716 0.0000000000000000
7.2692696807936175 6.9287759654677661 0.0000000000000000
7.8963398817311568 3.3299141194895006 0.0000000000000000
8.0376004697789281 3.1869126120432751 0.0000000000000000
7.8432504759213408 3.1367623777622522 0.0000000000000000
7.9836424232241159 2.9938588936493162 0.0000000000000000
5.7351885547806729 5.2751669953537244 0.0000000000000000
5.9289384322282137 5.3255989203881997 0.0000000000000000
6.1226849102163454 5.3760239209382359 0.0000000000000000
6.0694679558920868 5.1830472717364371 0.0000000000000000
6.2632134391669476 5.2334590669113510 0.0000000000000000
7.0232113796016229 6.6849714303931478 0.0000000000000000
2.2668208662784788 5.0893128086482511 0.0000000000000000
7.0340293041266753 3.4636206278211850 0.0000000000000000
7.1745544030689112 3.3210932496903611 0.0000000000000000
6.3014547678892878 6.6764827536419808 0.0000000000000000
5.2454102678259442 6.7598524555104769 0.0000000000000000
5.0516694096331403 6.7094938201759513 0.0000000000000000
4.9984522647745884 6.5165216123545466 0.0000000000000000
4.8579330807299526 6.6591077499869025 0.0000000000000000
4.8047145993237148 6.4661222169279897 0.0000000000000000
4.6641960675150198 6.6086769458203021 0.0000000000000000
7.4215548665586883 3.5644761847194966 0.0000000000000000
7.9347636807891719 4.7725028233926787 0.0000000000000000
3.9764887789568020 6.0713831978522332 0.0000000000000000
3.7827342393184948 6.0210003133795151 0.0000000000000000
4.0297121857769627 6.2643407730507796 0.0000000000000000
4.2234709233015462 6.3147626127824958 0.0000000000000000
4.0829370670890581 6.4572986257027667 0.0000000000000000
4.2766974387953933 6.5077341175381402 0.0000000000000000
4.1361644107373454 6.6502569217343375 0.0000000000000000
3.8891784549675292 6.4069102916584777 0.0000000000000000
3.2355873552836676 5.3413264435641308 0.0000000000000000
3.3761144264612075 5.1987526170517508 0.0000000000000000
3.1823680715108709 5.1483538030360023 0.0000000000000000
6.5101717502796959 5.4768290114236349 0.0000000000000000
7.1596038921941672 4.5710286695260285 0.0000000000000000
1.7920177432369824 5.3241020480250221 0.0000000000000000
1.6516150400945180 5.4665755304048655 0.0000000000000000
1.6078321113120957 5.2857024716878742 0.0000000000000000
1.4631766832798676 5.4209406600281289 0.0000000000000000
1.5146814702022302 5.6090386864570831 0.0000000000000000
1.3111731769184709 5.5630319028390964 0.0000000000000000
1.7209903369699944 5.1211364959473338 0.0000000000000000
1.8792886150249293 4.9885746625446554 0.0000000000000000
2.0201406294429956 4.8455736214427843 0.0000000000000000
2.1603750576960294 4.7033085971006985 0.0000000000000000
2.1071103954438444 4.5103917561666975 0.0000000000000000
1.7048959275240152 5.6596937230743203 0.0000000000000000
1.5675628991995521 5.8013283759585077 0.0000000000000000
1.6147219269871043 5.9932710497897439 0.0000000000000000
1.4405268162088336 5.9276236089375756 0.0000000000000000
1.4620233232919175 6.1210699080656221 0.0000000000000000
1.6719445734868845 6.1778280892178392 0.0000000000000000
1.8085796776950196 6.0435274011869318 0.0000000000000000
6.8635576035286823 6.1061047451864132 0.0000000000000000
6.6698126396254729 6.0557326024626477 0.0000000000000000
7.1978399679012224 6.0139410646204903 0.0000000000000000
4.2874950598171298 3.2864179987732491 0.0000000000000000
3.5548996796105183 6.4991520140335215 0.0000000000000000
3.7295148748995128 5.8280403739762034 0.0000000000000000
3.5889849556553899 5.9706279394202095 0.0000000000000000
3.6422041011642587 6.1635902979254142 0.0000000000000000
3.4484574804186638 6.1132176135898968 0.0000000000000000
5.4690908750120579 4.3102895745573857 0.0000000000000000
3.5016775330515948 6.3061868716098237 0.0000000000000000
5.0325405286429739 5.9879867112426206 0.0000000000000000
7.5429047547968349 2.7005717220677874 0.0000000000000000
7.3383733178172399 5.8713978324581477 0.0000000000000000
4.2958574395645837 7.2291548741293434 0.0000000000000000
4.1553234244108479 7.3716472912770605 0.0000000000000000
3.9615570781813747 7.3212707717472290 0.0000000000000000
4.3490929425057727 7.4221366365390073 0.0000000000000000
2.3388379540739272 6.0037946953371355 0.0000000000000000
2.4796155852359472 5.8611543569470692 0.0000000000000000
7.7068186084035784 5.2507663167970051 0.0000000000000000
7.5662517239554514 5.3933204608737393 0.0000000000000000
4.8687319490080654 3.4375248375588394 0.0000000000000000
5.0092521108236943 3.2949407998016054 0.0000000000000000
3.3611555939405626 6.4487774591680420 0.0000000000000000
6.0162496790267896 4.9900715700247043 0.0000000000000000
4.8497574491113573 2.7161506469332406 0.0000000000000000
5.2645383202207885 7.4813266732252908 0.0000000000000000
3.4102088906831489 4.6702347243405100 0.0000000000000000
3.3569940958536999 4.4772641806029974 0.0000000000000000
3.2164628550239689 4.6198415266918209 0.0000000000000000
3.1632492037727262 4.4268738405239523 0.0000000000000000
3.0227144773426557 4.5694475013510516 0.0000000000000000
6.2590426096527851 3.2619574545757128 0.0000000000000000
6.1185191639801584 3.4045536996827122 0.0000000000000000
6.0652950911681893 3.2115956223959965 0.0000000000000000
3.1482771939188328 5.6768662172057693 0.0000000000000000
6.3546669598917314 6.8694681086146874 0.0000000000000000
2.8331300011124867 6.4904322815684017 0.0000000000000000
7.3192743399715701 5.1499364029179056 0.0000000000000000
3.3037806825597484 4.2842938756189657 0.0000000000000000
3.1100365281699762 4.2339076720717417 0.0000000000000000
3.2505673724975135 4.0913254551634743 0.0000000000000000
3.0568231321754533 4.0409443504405704 0.0000000000000000
3.3910954334190198 3.9487424586023132 0.0000000000000000
5.2370642501306239 2.8168376895656819 0.0000000000000000
3.2547126867900076 6.0628208833743846 0.0000000000000000
6.5734724876727517 2.4485701000739408 0.0000000000000000
4.5876819734721259 3.7227126425061461 0.0000000000000000
4.2342753667191815 3.0934609446456034 0.0000000000000000
4.1469600791279708 3.4289673178096489 0.0000000000000000
4.0064262425282990 3.5715055723302123 0.0000000000000000
3.9532071930027852 3.3785313996395523 0.0000000000000000
2.0538774319850686 4.3175072562150971 0.0000000000000000
6.7721060922568626 4.4701915477076000 0.0000000000000000
6.5783608256906776 4.4197856588254565 0.0000000000000000
6.5251442654399785 4.2268118535670247 0.0000000000000000
6.6656717236272014 4.0842410412742751 0.0000000000000000
6.6124529095986704 3.8912638246152444 0.0000000000000000
6.7529791188915036 3.7487020554050439 0.0000000000000000
3.2123588555337337 2.6483299559384381 0.0000000000000000
3.2655634699268949 2.8412925383011762 0.0000000000000000
4.9942918804143410 4.5449853693712257 0.0000000000000000
3.2696785419435188 4.8128108039936039 0.0000000000000000
4.7323638888557014 5.5516283330507061 0.0000000000000000
3.0460754282881921 7.2624001146721007 0.0000000000000000
3.2398135416082594 7.3128989439016481 0.0000000000000000
3.3803170812854879 7.1703102309227242 0.0000000000000000
2.4454192416850438 6.3896805215050847 0.0000000000000000
3.1973531818039405 3.8983589737343385 0.0000000000000000
5.9139761933679544 6.5755779596761030 0.0000000000000000
4.1660845853242749 4.1504129606754097 0.0000000000000000
2.1944495459637854 4.1749191287653247 0.0000000000000000
5.2071597406030712 5.3168862751747072 0.0000000000000000
5.3476885295152066 5.1743203669101341 0.0000000000000000
5.1539423385441339 5.1239125117584337 0.0000000000000000
6.9467302008277283 3.7991342929517895 0.0000000000000000
3.0950594647557970 5.4838907496027769 0.0000000000000000
4.9560344310492832 3.1019573680008969 0.0000000000000000
6.2781816788016656 3.9834481699110840 0.0000000000000000
6.6507015704144283 5.3342478807962150 0.0000000000000000
6.4569573336452315 5.2838574250076835 0.0000000000000000
3.9083267959335903 7.1283359847213994 0.0000000000000000
5.1389749217796679 6.3739271339317263 0.0000000000000000
5.2562101140564712 3.5383567856835692 0.0000000000000000
2.9162893658979234 4.1835198676069991 0.0000000000000000
7.8814074238876692 4.5796497990919782 0.0000000000000000
2.8780838532455646 2.7406470144276631 0.0000000000000000
7.2469208827827991 4.2355098009518777 0.0000000000000000
7.1063855081817184 4.3780579259845069 0.0000000000000000
3.4975241121628180 4.3346879879382474 0.0000000000000000
5.5605632803854679 5.9462016863383651 0.0000000000000000
2.4073478454487458 4.9467382515022029 0.0000000000000000
4.4172268082663360 6.3652200580051765 0.0000000000000000
6.5483989068947244 6.9198361817011840 0.0000000000000000
5.0475084021242944 4.7379620479777520 0.0000000000000000
5.1880353730871054 4.5953943917326860 0.0000000000000000
3.5125038594740055 3.0846586540811836 0.0000000000000000
3.3719793289057574 3.2272367239256781 0.0000000000000000
4.9751657130166453 3.8234788801307289 0.0000000000000000
6.8210986222063470 2.6916633264425442 0.0000000000000000
2.3774576660919200 7.4465487642103447 0.0000000000000000
2.4307019899661104 7.6394718621311917 0.0000000000000000
4.6259280388642203 5.1656737999597917 0.0000000000000000
4.0680163982196440 7.7071623197660815 0.0000000000000000
7.6535948072954589 5.0578070485473132 0.0000000000000000
3.9424034172555737 6.5998605789245612 0.0000000000000000
3.8126765579829169 3.5210648622164893 0.0000000000000000
2.8863662087053998 6.6834097080831141 0.0000000000000000
5.1348176670094494 4.4024164399188255 0.0000000000000000
2.9503897555177119 3.6550255207658418 0.0000000000000000
3.9723324387759815 4.0999903217450777 0.0000000000000000
2.5096588388921504 3.3612761930155366 0.0000000000000000
2.3160898336033857 3.3110311707489588 0.0000000000000000
2.2630240709633465 3.1184171330118211 0.0000000000000000
2.4033026118752647 2.9755922195124054 0.0000000000000000
2.2092693177435550 2.9267588149379296 0.0000000000000000
2.1757373578022765 3.4536411766027935 0.0000000000000000
2.5138047642812498 5.3326514753189400 0.0000000000000000
2.3732741460921853 5.4752214877447214 0.0000000000000000
4.6941157358525105 4.1086434648568666 0.0000000000000000
5.7650843755177599 2.7752969888159313 0.0000000000000000
2.3200516613911200 5.2822659555514138 0.0000000000000000
7.4406719318591756 4.2859214818238431 0.0000000000000000
7.3874614450264398 4.0929574972348854 0.0000000000000000
2.6245500340727728 7.6899625385348838 0.0000000000000000
6.5292854367860942 6.1983279852064141 0.0000000000000000
3.3378806031833523 3.7557707634064834 0.0000000000000000
5.8906829330286179 3.8826607875756283 0.0000000000000000
5.4646198928707452 2.3385484758824662 0.0000000000000000
3.7677999033742555 7.2709559848920087 0.0000000000000000
3.5740535573728138 7.2206512130024940 0.0000000000000000
3.6272779576392962 7.4136135055324370 0.0000000000000000
5.1730663341214882 5.8454036802106524 0.0000000000000000
3.9382358700891760 4.6284798455451854 0.0000000000000000
2.5778360813487242 2.3051481965535743 0.0000000000000000
3.3952393035472737 5.9202462984493653 0.0000000000000000
5.3435096298952214 3.2028310072603525 0.0000000000000000
6.5400758593850350 2.9767725525988995 0.0000000000000000
7.5130348085375527 5.2003499815319829 0.0000000000000000
3.2996503971664630 2.3127994666767906 0.0000000000000000
7.3915882762310634 6.0643646975122412 0.0000000000000000
2.9844972377744226 3.1265307896183439 0.0000000000000000
4.5535868674215063 4.2512221219545543 0.0000000000000000
4.5194918836714182 4.7797273449859183 0.0000000000000000
5.5946569265864730 5.4177116470735607 0.0000000000000000
6.4037411308985757 5.0908844594162908 0.0000000000000000
4.4555551444927843 7.8082370002608288 0.0000000000000000
5.8266834873932885 6.9110841302054080 0.0000000000000000
5.9672133875056454 6.7685872859121927 0.0000000000000000
6.3164288912127873 5.4264341574355699 0.0000000000000000
2.2286105755260239 3.6464458843859489 0.0000000000000000
4.4280296091853213 3.1438446684576649 0.0000000000000000
3.7403360690513976 2.6065831914103565 0.0000000000000000
6.3463344817788032 2.9263946688395279 0.0000000000000000
7.1787379583458293 5.2924881281327618 0.0000000000000000
3.7935542627128189 2.7995827210011361 0.0000000000000000
3.9340789879001843 2.6570601211021083 0.0000000000000000
4.1319886037186029 4.6788977783120416 0.0000000000000000
4.1128656828740571 3.9574453908090166 0.0000000000000000
2.5712474718457559 7.4969020011756236 0.0000000000000000
2.5860591233576820 6.2470646393189035 0.0000000000000000
2.6393172112326102 6.4400186625990745 0.0000000000000000
2.9886182910492267 5.0979469404754978 0.0000000000000000
3.8359552485970694 6.2139566271154614 0.0000000000000000
4.4619315750145123 2.6154043883225269 0.0000000000000000
3.8658949157728468 3.7140429707788813 0.0000000000000000
5.0435131638066055 2.7665708300970207 0.0000000000000000
2.6693249748021217 3.9401612079736790 0.0000000000000000
5.9056191669570604 2.6327311059586007 0.0000000000000000
6.0353738755969424 5.7115568716109815 0.0000000000000000
4.1852077315942537 4.8718661416000604 0.0000000000000000
4.2043356430651322 5.5933185733563402 0.0000000000000000
4.3448681089511147 5.4507765336155423 0.0000000000000000
2.6925882776805081 6.6329633695350827 0.0000000000000000
2.6053108157973375 6.9684468084440336 0.0000000000000000
6.3846171587875755 4.3693898188395464 0.0000000000000000
6.7230273433349517 6.2486942977755726 0.0000000000000000
6.2291172056297652 5.7619813970299054 0.0000000000000000
2.2326314847892834 5.6178315379857224 0.0000000000000000
4.5918377008003421 5.6941850564379788 0.0000000000000000
4.5236774877302528 6.7512016894346987 0.0000000000000000
3.5208283835000351 7.0276919215146156 0.0000000000000000
3.3270913150010344 6.9773254373037563 0.0000000000000000
4.0446740866799509 5.0144159424003441 0.0000000000000000
4.9111514901697069 6.8520916973297048 0.0000000000000000
5.3967323632908961 3.3958217093833265 0.0000000000000000
2.7266597037567784 6.1044992411609469 0.0000000000000000
4.3640028198485350 6.1722387211272816 0.0000000000000000
7.0040908825222203 5.9635318759171030 0.0000000000000000
3.2930583187055360 7.5059138317574803 0.0000000000000000
3.0993245341688218 7.4554224136605169 0.0000000000000000
6.0503421565340556 4.4615663888621899 0.0000000000000000
3.6954251255390855 6.3565492274697446 0.0000000000000000
5.2029895270711659 3.3453677644368396 0.0000000000000000
3.1250341427859070 2.9839169517392650 0.0000000000000000
5.5796911230862074 6.6676468983722019 0.0000000000000000
6.3792235966616042 2.3998666824839834 0.0000000000000000
3.0036076821504074 3.8479834866063118 0.0000000000000000
6.9508763310045483 5.7705692034417169 0.0000000000000000
6.9658538658443767 4.5206076148577941 0.0000000000000000
2.5520603935086803 6.7755306427077144 0.0000000000000000
6.8785442933077432 4.8561365837254638 0.0000000000000000
6.6272480250276216 2.6412794227711553 0.0000000000000000
4.4704521211908865 6.5582072563210874 0.0000000000000000
6.1759014294650418 5.5690023733817107 0.0000000000000000
3.5998151835364069 2.7491156725671511 0.0000000000000000
5.2986281227054013 6.9528079790402773 0.0000000000000000
5.6969293997715535 3.8322363093396756 0.0000000000000000
6.9699923349051236 6.4920162589383930 0.0000000000000000
6.7762428587922416 6.4416520162836992 0.0000000000000000
4.5386182075470884 5.5012062787241760 0.0000000000000000
6.4378338689748418 4.5623619580644839 0.0000000000000000
3.0718292351647141 2.7909682002633658 0.0000000000000000
5.7394249308748426 7.2466063481528042 0.0000000000000000
5.8800738642673052 7.1042438294167027 0.0000000000000000
5.5755301600234937 4.6962432069244340 0.0000000000000000
5.3817809982104743 4.6458145983028638 0.0000000000000000
5.2412527668824582 4.7883715798526145 0.0000000000000000
6.0012829957261271 6.2400656813205595 0.0000000000000000
4.5003691092207880 4.0582569050062833 0.0000000000000000
5.4107940393251752 2.1443824053393139 0.0000000000000000
4.7962996646184752 2.5234979815798249 0.0000000000000000
5.2944708083086729 4.9813467896008499 0.0000000000000000
5.0965806794733792 2.9594143305709952 0.0000000000000000
7.6003361440908126 4.8648200059198325 0.0000000000000000
3.9041409049664888 5.1569718231054305 0.0000000000000000
4.3066182279486123 4.0078597348678819 0.0000000000000000
7.1637362972345766 6.5424014566640896 0.0000000000000000
5.4200311229757707 6.0887600754811828 0.0000000000000000
3.4592931979770696 2.8916721906644658 0.0000000000000000
5.9247669524700939 3.3541738745759799 0.0000000000000000
2.9695016525450759 4.3764829819553128 0.0000000000000000
3.3187699355220253 3.0342628270934364 0.0000000000000000
5.8715410119491231 3.1612148403970002 0.0000000000000000
6.0120697366989271 3.0186431120011776 0.0000000000000000
2.5327876203195001 6.0541214324798460 0.0000000000000000
5.2262834204349602 6.0383716588003571 0.0000000000000000
2.8821778978274439 4.7120126709329506 0.0000000000000000
5.9588429412714978 2.8256934941906802 0.0000000000000000
5.1497745398116548 3.1523817002426320 0.0000000000000000
6.1908718440148789 4.3189967541989498 0.0000000000000000
7.9155249888344192 4.0511811297065048 0.0000000000000000
4.6556503360743653 2.6658273446925365 0.0000000000000000
6.9807967239905864 3.2706392667195803 0.0000000000000000
6.4868271643994841 2.7838145540670998 0.0000000000000000
3.0759301284478759 4.7624140657998604 0.0000000000000000
2.7757520228179917 4.3260860039615148 0.0000000000000000
7.0190734933425762 4.7135798404831579 0.0000000000000000
4.4853987107021016 5.3082296756986489 0.0000000000000000
4.7514952789080098 6.2731357218282113 0.0000000000000000
2.8630751007337834 3.9905588850708482 0.0000000000000000
3.1591492723700072 2.4553911661724825 0.0000000000000000
6.7677153344650645 2.4987089260311541 0.0000000000000000
4.0596460217958050 3.7644767024049894 0.0000000000000000
3.3420223121261747 5.7272729947717114 0.0000000000000000
2.6202267782732713 5.7185747649602199 0.0000000000000000
6.2058184119124844 3.0689963515097158 0.0000000000000000
5.0624698498600642 3.4879249633066522 0.0000000000000000
4.7814256533351616 3.7730880690213033 0.0000000000000000
7.2166083373891707 6.7355528375106495 0.0000000000000000
4.6408987168993416 3.9156765013878099 0.0000000000000000
5.5414377348287696 5.2247385617156308 0.0000000000000000
5.7501516363954162 4.0252090804419707 0.0000000000000000
4.9219489456663963 3.6305007908662681 0.0000000000000000
4.4321796981518409 5.1152561078278991 0.0000000000000000
5.4391580855803729 6.8102117192518481 0.0000000000000000
4.3789602711957940 4.9222848532829486 0.0000000000000000
6.4719267358978998 4.0338381657911810 0.0000000000000000
7.9945906359440819 4.9667125612933685 0.0000000000000000
4.9452345267725430 6.3235453298292565 0.0000000000000000
6.3313998335945394 4.1764181071456461 0.0000000000000000
6.8935044188469154 3.6061546943089717 0.0000000000000000
7.7952689284933996 4.9154009468697550 0.0000000000000000
6.6997548323588996 3.5557209122868394 0.0000000000000000
7.8622905873316018 3.8583424310648344 0.0000000000000000
5.4158712420505495 4.1173101904977445 0.0000000000000000
5.6096204287052513 4.1677494884339099 0.0000000000000000
5.0857573823421296 6.1809585007979004 0.0000000000000000
6.5592324772067894 3.6982866868323327 0.0000000000000000
5.5113884601245378 7.7247202814623934 0.0000000000000000
3.7636090002128775 5.2995370821316001 0.0000000000000000
4.6109744843913667 6.4156842068143245 0.0000000000000000
5.8607553587474399 6.3825919186676758 0.0000000000000000
2.4264245928751107 5.6681945930633821 0.0000000000000000
5.7734519294997595 6.7180936321646110 0.0000000000000000
7.8090013051863254 3.6655473926164337 0.0000000000000000
6.6020453038918196 7.1121766839921481 0.0000000000000000
3.4335425320895592 7.3633036878443736 0.0000000000000000
6.1376534493421460 4.1260277352222037 0.0000000000000000
5.3285625852047742 4.4528370496619152 0.0000000000000000
6.1609528983153838 6.8190615073387892 0.0000000000000000
3.1291483946665450 4.9553832012952199 0.0000000000000000
7.7557799528949269 3.4725261662477602 0.0000000000000000
3.5698605800021119 5.2491449864120092 0.0000000000000000
3.5166425375401307 5.0561759615536372 0.0000000000000000
5.9439036073101512 4.0756280645969776 0.0000000000000000
7.3150786216414847 3.1785665864641759 0.0000000000000000
7.3683172758265387 3.3715192205024889 0.0000000000000000
7.1213173658313504 3.1281261962128704 0.0000000000000000
7.5620766453566732 3.4219550240822763 0.0000000000000000
3.6804392179363465 7.6067590644148178 0.0000000000000000
4.9302569607761315 7.5738257326270215 0.0000000000000000
3.3228960916562653 5.0057816792931593 0.0000000000000000
4.0147808982908577 7.5142280586550401 0.0000000000000000
6.4078773344754545 7.0624508185535859 0.0000000000000000
4.2085561320583196 7.5646111210366689 0.0000000000000000
4.8770660138342610 7.3807065705406254 0.0000000000000000
3.8210085924233219 7.4639527378614874 0.0000000000000000
5.1239838552169381 7.6241740422348032 0.0000000000000000
4.6833490089886114 7.3302448076895281 0.0000000000000000
5.3176915184469919 7.6744203427830779 0.0000000000000000
4.5428483627709166 7.4727205488763575 0.0000000000000000
4.4023247243021357 7.6151639877484874 0.0000000000000000
7.3422124386067296 7.8430597754863065 0.0000000000000000
2.2136168415145736 4.8963190642306955 0.0000000000000000
2.3009067332121105 4.5607952690686497 0.0000000000000000
1.9628021387304155 2.6863161562287741 0.0000000000000000
3.0534622570226735 2.0689324239054199 0.0000000000000000
2.2753022797569615 1.8638288205346294 0.0000000000000000
1.8823563962583565 6.9647932497378973 0.0000000000000000
3.4401130331842977 2.1705386244013476 0.0000000000000000
3.2465383067404798 2.1200076531220833 0.0000000000000000
2.0765915048182220 7.0121588618651982 0.0000000000000000
2.0159320990570362 2.8777925090883709 0.0000000000000000
7.9672409454208708 2.2665574359130467 0.0000000000000000
2.1230605033787917 3.2611617224895886 0.0000000000000000
2.0435972319274001 8.2663692633551733 0.0000000000000000
8.1070538105232934 2.1276434192589746 0.0000000000000000
7.3488704282704349 2.6511588833916573 0.0000000000000000
7.2954872925778131 2.4571277987431746 0.0000000000000000
7.6836062170821435 2.5581709506884245 0.0000000000000000
5.5643601393878832 7.9184338936273635 0.0000000000000000
2.2973801794853235 2.5900062851327466 0.0000000000000000
1.3383939881754148 6.8519874291596112 0.0000000000000000
1.2859059420146650 7.0212086084422127 0.0000000000000000
4.6308140733717513 1.9446510014733294 0.0000000000000000
4.3354507062841687 1.5212515324592992 0.0000000000000000
8.0112306144004783 7.6589943088115060 0.0000000000000000
8.4790328348569446 8.1469876207303269 0.0000000000000000
1.5651999542232842 7.7592282092252018 0.0000000000000000
5.6164489123434205 8.1113859294883639 0.0000000000000000
2.5261889726658167 2.1109300328622633 0.0000000000000000
4.1629547798105397 8.6184788130951002 0.0000000000000000
8.3575452412855231 6.3385277733932153 0.0000000000000000
7.6879648277159047 6.5082477689663438 0.0000000000000000
1.3434597140566595 7.5377978353220634 0.0000000000000000
5.9523503911478839 8.0257736939071354 0.0000000000000000
8.2809559453031945 3.4384264567512259 0.0000000000000000
1.5448904336833591 8.1186800941301929 0.0000000000000000
8.1218689732097893 1.4346211288101938 0.0000000000000000
4.8239139267502642 1.9924315152856140 0.0000000000000000
1.9260961197282600 8.5608891644042053 0.0000000000000000
2.1564081512140554 2.7344885878720842 0.0000000000000000
1.5598047082638162 1.8572011244924920 0.0000000000000000
4.7069049258042499 8.7329839370246507 0.0000000000000000
6.6763946040662239 8.0291946119654547 0.0000000000000000
1.7161932438983243 6.3672075604722638 0.0000000000000000
2.2425091906403325 2.4003303298545489 0.0000000000000000
5.8832006938338832 1.9108059649070419 0.0000000000000000
2.3844924133268757 2.2560625480111618 0.0000000000000000
5.1053925106544122 1.6760767143626607 0.0000000000000000
1.7793311681632389 1.4134243351118225 0.0000000000000000
8.1609168419773201 1.6158847824511482 0.0000000000000000
5.1395332912833300 8.3359260787295568 0.0000000000000000
5.1999425544944513 8.5277617148168279 0.0000000000000000
5.3980484105942210 8.5708764329287970 0.0000000000000000
8.3124762732195645 2.8989452617818285 0.0000000000000000
1.0682521538656660 7.3575656354159165 0.0000000000000000
8.3475619265165495 4.8531611106678714 0.0000000000000000
3.3415824097703366 8.4224788834535254 0.0000000000000000
1.6088087421098254 1.3545435698461123 0.0000000000000000
1.4266153080077748 1.2399816371554266 0.0000000000000000
1.2376110719677478 1.4366204219742322 0.0000000000000000
4.7370393462813132 2.3317492780298652 0.0000000000000000
1.4393901470427684 3.4032370542723029 0.0000000000000000
6.3439078061895922 1.6818149095429753 0.0000000000000000
8.5270908642187493 5.6314966713582493 0.0000000000000000
4.9350125883696627 2.3814776261290183 0.0000000000000000
1.4076895022703859 3.7962428956893799 0.0000000000000000
2.3694413154941136 8.6910608616236740 0.0000000000000000
8.2581871159234908 2.7043104465702794 0.0000000000000000
8.5493489534025535 3.7017015882593554 0.0000000000000000
8.0175176491804816 6.4246004173944309 0.0000000000000000
8.6056949216442735 6.7412086980656758 0.0000000000000000
6.3240539010238823 2.2062251573918528 0.0000000000000000
6.4332805875812804 7.7878710398241191 0.0000000000000000
7.0802117838860932 1.6944271478887860 0.0000000000000000
1.2666642813862672 3.2302426695433155 0.0000000000000000
7.2776480490886621 1.7430711165625328 0.0000000000000000
6.5729267826444140 7.6398447750129561 0.0000000000000000
6.5182369531134814 7.4469614528086643 0.0000000000000000
2.6447892614327722 1.2415564093442439 0.0000000000000000
2.6354991767053604 1.0350862006068018 0.0000000000000000
8.7116742780304577 3.8114867650236115 0.0000000000000000
8.5421562163410130 6.3308338228824015 0.0000000000000000
8.7199918518749353 4.4656819594780917 0.0000000000000000
2.8875896748276051 8.6436830960833042 0.0000000000000000
2.7577342631687598 8.8030261257457774 0.0000000000000000
8.6789170951245609 6.9045252210311681 0.0000000000000000
7.6643749467840196 8.7326402085507393 0.0000000000000000
8.1870807581448144 6.9968393162572164 0.0000000000000000
4.8289596246075792 1.4557465817433390 0.0000000000000000
8.1264242337965094 0.8795993705940557 0.0000000000000000
9.1486305006395110 7.7905355872928608 0.0000000000000000
2.1785791934804166 8.5530554989572032 0.0000000000000000
8.5598514920354773 1.9271247044598989 0.0000000000000000
3.3816095397877044 9.1475334964731871 0.0000000000000000
8.5657154408381366 3.3992264231962812 0.0000000000000000
5.3222283282520424 1.2865293526826294 0.0000000000000000
6.1828193365097439 1.2683120778800769 0.0000000000000000
0.9751577648842900 6.2033902281706412 0.0000000000000000
7.6590570156401316 1.2683464623283645 0.0000000000000000
0.9736606443080241 7.6736827865620043 0.0000000000000000
5.2904275493634909 8.9722711569071638 0.0000000000000000
5.2993484337688566 9.1318800717944715 0.0000000000000000
6.2035231210019681 9.0247649146173998 0.0000000000000000
8.7324100587985729 6.1825248719412631 0.0000000000000000
7.6853768358018826 9.0282212813858091 0.0000000000000000
1.8734853037987995 9.1207451843877454 0.0000000000000000
2.2015223994147020 9.1400224116164388 0.0000000000000000
2.3404944954800064 8.9901439686193179 0.0000000000000000
9.0158367858170738 2.3283400257986027 0.0000000000000000
9.0240567240989105 3.7964987209311851 0.0000000000000000
8.7163715401507975 3.2161598977765471 0.0000000000000000
3.6824204548501620 9.1397136005685855 0.0000000000000000
3.6924082387703678 9.3969633617015038 0.0000000000000000
9.1473915779211445 3.3829299514385829 0.0000000000000000
8.7328082852045181 8.2446887139325913 0.0000000000000000
1.7464846438802364 8.7322156982085648 0.0000000000000000
5.1305785299522428 1.4703176838509715 0.0000000000000000
1.4396567066386989 4.8824618496904746 0.0000000000000000
6.6005189755443254 1.4470468520575699 0.0000000000000000
1.4272986562346910 6.3674250263779593 0.0000000000000000
4.8636021777489464 0.8638692059424682 0.0000000000000000
4.7137197292761446 0.9022584180750580 0.0000000000000000
4.7597867823938085 0.7056896251105538 0.0000000000000000
5.1383675629037135 0.8633730729416218 0.0000000000000000
5.2885015880573425 0.9046256127936719 0.0000000000000000
5.2523514735212471 0.7092557402139475 0.0000000000000000
0.8638467240072160 5.1365663524124825 0.0000000000000000
0.9015199147260889 5.2863002847604310 0.0000000000000000
0.7052007617884876 5.2402552599189303 0.0000000000000000
0.8632830119342357 4.8621209918029606 0.0000000000000000
0.9030791928897529 4.7124362509015194 0.0000000000000000
0.7084563712286511 4.7483395834315232 0.0000000000000000
6.3155887936751807 0.8609644112178325 0.0000000000000000
6.6132918767060573 0.8501957056156247 0.0000000000000000
0.8526114441995144 6.6179941155068942 0.0000000000000000
0.8528406371819772 6.3223847909273010 0.0000000000000000
0.6019698861098191 6.3085689244999497 0.0000000000000000
7.7982782793141583 0.8600736278691065 0.0000000000000000
0.8431307968609350 7.7955605310066032 0.0000000000000000
8.7318412706245940 1.7557015464591175 0.0000000000000000
8.6679378370967370 1.5935274840548879 0.0000000000000000
3.8494607922262567 8.7148955975968008 0.0000000000000000
1.4408170537998524 5.1157998938604887 0.0000000000000000
1.2770854702279382 4.7027639993033956 0.0000000000000000
1.1774541220346078 4.4214439176874034 0.0000000000000000
6.1833386163000936 1.0065201645716129 0.0000000000000000
1.2699487618609424 6.1762046059287119 0.0000000000000000
7.6594098642761201 1.0103509377236513 0.0000000000000000
2.3385863335452206 1.2691963918782978 0.0000000000000000
2.2063715853371515 0.8506177428746182 0.0000000000000000
0.9731661728340565 2.3196696485216357 0.0000000000000000
3.7944562238112960 0.9781414895185182 0.0000000000000000
3.8164353124296486 8.9940975632642193 0.0000000000000000
3.2241479805874036 8.7353488817496885 0.0000000000000000
3.8524683239689699 1.2855579195647382 0.0000000000000000
3.6763020582601103 0.8551444565627077 0.0000000000000000
0.8525526220594025 3.3831538898416116 0.0000000000000000
1.2672244216953090 1.7559637014087790 0.0000000000000000
3.6551362869296580 1.4608822609597392 0.0000000000000000
3.3861808032367269 0.8501988782104669 0.0000000000000000
0.8610279442618156 3.6822067265120109 0.0000000000000000
0.6034041181280114 3.6931669812879266 0.0000000000000000
1.8729892165994639 0.8796405639275781 0.0000000000000000
0.8793490335453575 1.8758621620786271 0.0000000000000000
4.7148639704390476 1.2920748376009603 0.0000000000000000
1.2702997695735365 5.2867307886812789 0.0000000000000000
6.7792450874034422 1.2884817057535920 0.0000000000000000
5.2974763561828064 8.7035301506752827 0.0000000000000000
4.7087251514654849 8.9720372646179776 0.0000000000000000
4.6992925353023605 9.1288987371533121 0.0000000000000000
8.9730738938160446 5.2905314972682174 0.0000000000000000
9.1324875306580804 5.2992441339395837 0.0000000000000000
8.7213089370305266 4.6771216570749266 0.0000000000000000
8.9716949279857925 4.7092245732770150 0.0000000000000000
9.1287884751578616 4.6998138632966260 0.0000000000000000
8.9784961349619881 6.1755986450644764 0.0000000000000000
9.0160697511737844 7.6624114029279600 0.0000000000000000
1.0075172836182271 3.8128581231581311 0.0000000000000000
2.3377155408259802 0.9972392397430716 0.0000000000000000
8.7328125606750877 2.3422611177722605 0.0000000000000000
2.1902359381922558 1.4619093301925294 0.0000000000000000
0.8521662090885448 2.1994294266298748 0.0000000000000000
3.4007346826220122 1.4387782052206304 0.0000000000000000
1.4372292685998231 3.6454942086957045 0.0000000000000000
0.8791803147743079 8.1254838890509884 0.0000000000000000
9.1204277179093776 1.8756471673793538 0.0000000000000000
9.1451266928748609 3.6777739518719708 0.0000000000000000
8.5472710832224195 5.1307969175412040 0.0000000000000000
8.5477860654060187 4.8711835157411398 0.0000000000000000
6.6186178123111299 9.1474316272864957 0.0000000000000000
6.3227137956123478 9.1473252468220796 0.0000000000000000
6.3089406090335727 9.3982394990326039 0.0000000000000000
9.1474501903022887 6.6176660887403722 0.0000000000000000
9.1549337524201757 6.3513253038246527 0.0000000000000000
9.3706744650159930 6.3006771686163434 0.0000000000000000
8.1268757771392579 9.1204810391154751 0.0000000000000000
7.8042888977659857 9.1483413463410699 0.0000000000000000
7.8235277332992235 8.5389470412288055 0.0000000000000000
9.1206583091192108 8.1249154773376180 0.0000000000000000
8.5737666370613983 7.7941643342555249 0.0000000000000000
9.1536828591024157 2.2046171011867348 0.0000000000000000
6.1832282479232719 8.7329808784361802 0.0000000000000000
0.8130596496729289 9.1857108326801722 0.0000000000000000
9.1774760110663216 9.1750759911723012 0.0000000000000000
0.7823683035621967 0.7856897709984875 0.0000000000000000
9.1769459214269204 0.8254954860824762 0.0000000000000000
7.8414578596368187 8.3393354334860685 0.0000000000000000
1.4016307648952215 7.6989627490100920 0.0000000000000000
8.5634616686578440 6.5978841087149718 0.0000000000000000
6.3060871911715841 0.6023749255847757 0.0000000000000000
3.6891445500746034 0.6037312167928409 0.0000000000000000
9.3965423070045677 3.6905719819067371 0.0000000000000000
4.5362433663044577 8.6934037142936607 0.0000000000000000
1.3417280903071729 8.7483379018670924 0.0000000000000000
8.8435984949441586 5.5749097679447228 0.0000000000000000
6.3547186566926595 8.5752558255862077 0.0000000000000000
1.9273817027054465 1.4373983148908696 0.0000000000000000
1.3867441817021531 5.7469456151554024 0.0000000000000000
4.4257771802869001 8.8417501838945967 0.0000000000000000
1.8912873439574787 8.3916403733628382 0.0000000000000000
7.3880192118726802 0.9981171367849375 0.0000000000000000
7.3847811131197716 9.0085995952535622 0.0000000000000000
2.6192920920504030 8.9551308923967170 0.0000000000000000
8.5515233697763069 1.2014533900337916 0.0000000000000000
8.7693114436763970 1.2520235297656876 0.0000000000000000
8.2417020691453580 8.7336959290020335 0.0000000000000000
3.0665787807898184 8.6860436344463672 0.0000000000000000
9.0512812978256463 2.4994559361945301 0.0000000000000000
3.5079827177223732 8.2730532107402084 0.0000000000000000
1.7577576949850662 1.2699360247574865 0.0000000000000000
9.0364028659031561 7.4543059947902863 0.0000000000000000
7.3965316779124004 8.7161382290401601 0.0000000000000000
8.4371892096138410 8.6476004016376038 0.0000000000000000
8.6465854668491584 8.6909176309954148 0.0000000000000000
8.7878246931946045 8.5451124382339199 0.0000000000000000
4.3487806909048929 8.6559513369641756 0.0000000000000000
7.9916900683284720 6.9541787341962626 0.0000000000000000
4.0743331018088247 1.2719627054643325 0.0000000000000000
6.7626694293289722 8.7132044858179825 0.0000000000000000
2.5727163294597064 8.7249494353904886 0.0000000000000000
2.9474208248832978 8.8352388269156812 0.0000000000000000
3.4027297228635081 8.5618992920559176 0.0000000000000000
6.6171964001227881 8.3499132929009416 0.0000000000000000
4.8799706820699988 8.5640723015857638 0.0000000000000000
7.5922214090906648 6.8459729024228606 0.0000000000000000
8.8148790189361481 1.4580664266791401 0.0000000000000000
4.9274558544191613 8.2907298747326266 0.0000000000000000
5.9661142398410911 8.7137849800876896 0.0000000000000000
1.4360746858081082 7.8323682648666715 0.0000000000000000
7.0836426005163213 1.1710583293762584 0.0000000000000000
8.3301978900726361 3.6506048596894352 0.0000000000000000
6.3759523121529851 8.3123418480896110 0.0000000000000000
1.6634025967413342 8.6063977875669462 0.0000000000000000
7.7930729148328979 6.9060224366760847 0.0000000000000000
0.9653313695501848 4.5339295862441915 0.0000000000000000
1.7015856896216919 4.9224596052777798 0.0000000000000000
1.4109923852558244 1.8139751940817010 0.0000000000000000
7.7953457999399349 0.6210263210186294 0.0000000000000000
7.8014086259826252 9.3977310063698454 0.0000000000000000
2.2044682629794310 9.3791730627165659 0.0000000000000000
0.6027191087258299 2.2022675337556836 0.0000000000000000
5.4598755777612409 9.0174679735384906 0.0000000000000000
9.0187766991767955 5.4579611372526093 0.0000000000000000
1.3409969741624328 4.3016546647992424 0.0000000000000000
4.8962739133148228 1.6878270930146582 0.0000000000000000
4.9112997173977933 0.5370616280581808 0.0000000000000000
5.1017424968950174 0.5396370909135391 0.0000000000000000
0.5370894492391052 5.0889075973149387 0.0000000000000000
0.5395648021924208 4.8987406888215395 0.0000000000000000
9.7356840260825841 6.3094097085348597 0.0000000000000000
6.3098098015838078 0.2646321854218968 0.0000000000000000
0.2643133614767311 6.3097554720635047 0.0000000000000000
0.2643256420918778 3.6914524444241312 0.0000000000000000
6.3102316255660043 9.7358142921248483 0.0000000000000000
3.6900346052827402 9.7356505237687152 0.0000000000000000
9.7356990670072800 3.6911399715463697 0.0000000000000000
3.6896434326901399 0.2646644912679948 0.0000000000000000
4.4236873391039433 1.1693022799520820 0.0000000000000000
5.5564312631944146 8.8411785245888215 0.0000000000000000
5.7169168922702847 1.3828252099003950 0.0000000000000000
9.7433292778645448 7.8002332093963052 0.0000000000000000
7.8018501456172977 0.2569459265814008 0.0000000000000000
0.2567664261601128 7.8006087658544692 0.0000000000000000
7.8023511769786404 9.7434630423397923 0.0000000000000000
0.2566882855506078 2.2006188288818334 0.0000000000000000
2.1980526308432196 9.7433602387947431 0.0000000000000000
9.7432274345022059 2.2003011461259470 0.0000000000000000
2.1975465357068424 0.2569849233181725 0.0000000000000000
1.3179145140351025 4.1101484054358064 0.0000000000000000
7.4991896549824277 1.3128456211336972 0.0000000000000000
1.3441842711767149 1.6234886395297428 0.0000000000000000
7.0579700621777146 8.8404715824244313 0.0000000000000000
9.0217149054954717 4.5399994769680037 0.0000000000000000
4.5411671527178363 9.0146404099463719 0.0000000000000000
9.4074343521505295 7.7855197982041702 0.0000000000000000
0.5916689931028892 7.7876874810182573 0.0000000000000000
2.2106652294853051 0.5924625909203340 0.0000000000000000
9.4002293896954043 2.2156203723505499 0.0000000000000000
1.2033814147063420 1.2111162032029987 0.0000000000000000
5.9409555602761852 1.2195190019930420 0.0000000000000000
3.2253342361531430 1.2617641542292986 0.0000000000000000
0.9186510249313601 7.4892517890037631 0.0000000000000000
2.4938146597433120 0.9200148767357009 0.0000000000000000
4.2965369059115535 1.3384920709196650 0.0000000000000000
8.8489062457805190 2.8770474727796302 0.0000000000000000
8.0489170416485205 8.3583902193655124 0.0000000000000000
8.7376408062709334 5.3017700371523633 0.0000000000000000
6.7904563114821350 1.0365929443185959 0.0000000000000000
8.9644866314941360 6.7900449018327489 0.0000000000000000
1.0360100503829428 6.7903746755909893 0.0000000000000000
1.0355078631402865 3.2107353322478125 0.0000000000000000
3.2092107429063463 8.9643272115619173 0.0000000000000000
6.7909608520980163 8.9635095510902971 0.0000000000000000
3.2090298832460471 1.0366053233825008 0.0000000000000000
8.9639823736707296 3.2105779200868008 0.0000000000000000
4.0610575238686968 8.7670203214163518 0.0000000000000000
6.9722021586375478 9.0047780171361893 0.0000000000000000
8.6965470564259491 2.4949501106293259 0.0000000000000000
8.7414528080716831 6.7630097878369799 0.0000000000000000
8.9740843662849734 1.7589163461191020 0.0000000000000000
1.7566537936954754 1.0265524540138973 0.0000000000000000
1.0250878999815511 1.7590334232748721 0.0000000000000000
1.0258728266842696 8.2420871094030108 0.0000000000000000
1.7568046281452701 8.9748062042516299 0.0000000000000000
8.2433400421229308 8.9738450158260932 0.0000000000000000
8.2427589134435042 1.0264227868680047 0.0000000000000000
8.9749240306439635 8.2417044316956325 0.0000000000000000
1.2645207882319729 7.6701071015213502 0.0000000000000000
8.7760614198324642 5.9287047853238271 0.0000000000000000
5.2122365747900226 9.3198750401587827 0.0000000000000000
5.0774656117680586 9.4879599192845969 0.0000000000000000
9.3201482658818442 5.2122023916551719 0.0000000000000000
9.4879005945115580 5.0775712076670709 0.0000000000000000
3.0317866713455568 0.9944479452485956 0.0000000000000000
9.0102030485308742 3.0316978934896381 0.0000000000000000
0.9935473279585610 3.0331003105871517 0.0000000000000000
0.9907602452783463 6.9581394348395991 0.0000000000000000
3.0315946262631233 9.0055062097221068 0.0000000000000000
6.9730355512995050 0.9963425633982781 0.0000000000000000
9.0041255871485344 6.9739332974765729 0.0000000000000000
7.8373583562982549 1.4181714687222180 0.0000000000000000
1.1188760809208542 5.5765560016383242 0.0000000000000000
9.3069711940563895 4.7267600281052369 0.0000000000000000
4.7263004968152966 9.3070375110313677 0.0000000000000000
3.6223643392783589 8.5847490087178286 0.0000000000000000
2.9492122443110627 1.1556350801881050 0.0000000000000000
1.1960026981909635 7.1869430903890219 0.0000000000000000
0.9263384150248519 2.4832014219875567 0.0000000000000000
1.2553297616825769 3.8091914596206533 0.0000000000000000
1.2531644724004605 8.2363108904257984 0.0000000000000000
1.2950851504518319 8.3493459044188434 0.0000000000000000
8.5798217615221102 2.1647575189267365 0.0000000000000000
1.2991948170133771 6.0150281036596214 0.0000000000000000
8.6872765771779221 5.6558228674884541 0.0000000000000000
5.7908203700587224 8.6352184401585426 0.0000000000000000
8.6380219941899323 4.2805108650950023 0.0000000000000000
5.2541531863921618 1.4067664006791341 0.0000000000000000
0.3675640911978740 4.9963809738124363 0.0000000000000000
5.0039571065687758 0.3673780286842001 0.0000000000000000
3.7854676767357298 1.4089981322088294 0.0000000000000000
8.7972995084964936 4.0665775481801427 0.0000000000000000
1.5466588458943944 6.2958382362781622 0.0000000000000000
5.5703311949331846 1.1196604185928438 0.0000000000000000
5.4729263661253196 0.9771267975884350 0.0000000000000000
8.7047204510917613 8.3985011260598146 0.0000000000000000
1.5542712824604406 8.7300911995856847 0.0000000000000000
1.1699488404591398 4.0760245071833197 0.0000000000000000
1.6976568523374445 3.4838763317017287 0.0000000000000000
1.1550576162065076 2.9518270058046214 0.0000000000000000
3.4614450332550408 1.6921685775511230 0.0000000000000000
1.1891220568580148 5.9230165994800199 0.0000000000000000
4.5337193503143114 0.9602370308563513 0.0000000000000000
0.9546240121405969 5.4662113286987113 0.0000000000000000
1.4463889972453463 1.9500361899921252 0.0000000000000000
6.0481884875523688 1.2996801504592663 0.0000000000000000
8.5191064604666682 8.8267614177517117 0.0000000000000000
5.4471172309812061 8.7208888754703153 0.0000000000000000
8.3670636403388770 5.1269734829962497 0.0000000000000000
7.2990226050620990 8.8580892700883282 0.0000000000000000
8.6143140266130818 8.1716988084238125 0.0000000000000000
8.5825768191940170 8.0630403980289405 0.0000000000000000
8.5998757255817768 4.7458999068318279 0.0000000000000000
1.2897307755809344 3.9497532913625872 0.0000000000000000
1.5309196981847306 1.0123029553687442 0.0000000000000000
8.9960884302145399 1.5442045201422347 0.0000000000000000
1.0099383722068302 1.5341396752809977 0.0000000000000000
1.5404949318452381 8.9609802782449091 0.0000000000000000
1.0117058002605797 8.4470445120350917 0.0000000000000000
8.4483269827863072 8.9954200891802891 0.0000000000000000
8.9929611887750838 8.4622942738206426 0.0000000000000000
8.4589154875567445 1.0064852444794559 0.0000000000000000
8.5995740176488962 3.2747869664496858 0.0000000000000000
1.4318058308901480 5.2613515925820602 0.0000000000000000
6.2433664729271339 8.6150271678444117 0.0000000000000000
0.9351290395360788 3.9630682359737182 0.0000000000000000
0.9329444484950987 6.0395533112139610 0.0000000000000000
6.0374612284535631 9.0681304608358761 0.0000000000000000
3.9609447216096880 0.9408399862539476 0.0000000000000000
2.3051456355979645 1.3977922166060510 0.0000000000000000
1.4352181034572875 6.5791956907538287 0.0000000000000000
8.6088305397627050 2.2728129000880255 0.0000000000000000
6.7032762835214212 1.4084083022973390 0.0000000000000000
7.7055170199369067 8.6138846449855251 0.0000000000000000
4.7000959145928487 1.0424983315995053 0.0000000000000000
1.0413849751984214 5.3002103183930087 0.0000000000000000
8.6344498433410681 1.8297770265300008 0.0000000000000000
1.0434689112053352 4.7005685877739838 0.0000000000000000
5.2999663093214426 1.0486115108588931 0.0000000000000000
6.0353029275675549 0.9363858961455823 0.0000000000000000
9.0550383750923409 6.0656814473699754 0.0000000000000000
3.9628790177571553 9.0682364719588087 0.0000000000000000
9.0642818904181190 3.9635823200981974 0.0000000000000000
1.4237880478287845 8.0681499055513282 0.0000000000000000
1.1224644349278892 7.0396594900404530 0.0000000000000000
8.9612895098300687 2.6666975578920846 0.0000000000000000
1.8128186804883124 8.6238850745335398 0.0000000000000000
9.4169894488843937 4.8822566960180334 0.0000000000000000
4.8819350746840353 9.4173366654165722 0.0000000000000000
6.3633206526147070 1.4148121513106093 0.0000000000000000
6.2535043637532874 1.3827178358214895 0.0000000000000000
1.3922856049641432 6.2550780294537338 0.0000000000000000
7.7257822553993183 1.3895513799011376 0.0000000000000000
7.5254882739388806 0.9210174903939766 0.0000000000000000
7.5258395920848598 9.0752854847443469 0.0000000000000000
2.4764281501108449 9.0702330167397029 0.0000000000000000
2.0163042675786946 1.6929211972146161 0.0000000000000000
6.9066997078444805 8.7225568503969200 0.0000000000000000
5.0983372034435881 8.5948292928000090 0.0000000000000000
8.8870101719056915 4.4343545945384575 0.0000000000000000
1.4281763445055464 6.9937616037682018 0.0000000000000000
5.0983855394935569 9.1550998230208691 0.0000000000000000
9.1550387744205928 5.0985173605855181 0.0000000000000000
9.1879245475670572 4.8952559740275197 0.0000000000000000
4.8949183128092049 9.1881537070114945 0.0000000000000000
4.5677480445286642 1.2828432865931356 0.0000000000000000
8.8226822802960587 8.7919673967429581 0.0000000000000000
1.6737270836391298 8.0162609875646371 0.0000000000000000
4.7743287930832130 8.6249485843955433 0.0000000000000000
4.9125381255061376 9.6962078080341048 0.0000000000000000
9.6958431079506937 4.9127688401216050 0.0000000000000000
1.5561554739746839 6.6177646872583713 0.0000000000000000
2.2695432211178321 8.6185838322968635 0.0000000000000000
8.3278807337499927 6.5386687293986032 0.0000000000000000
1.5577322628289103 5.1509778068333247 0.0000000000000000
1.5524823610055509 3.7021718025681567 0.0000000000000000
1.5647174665389629 4.8615505505622902 0.0000000000000000
2.7801059470025629 1.1410460013254409 0.0000000000000000
1.2368188858654026 2.3088726110678262 0.0000000000000000
5.9148900219192306 8.8476327033900066 0.0000000000000000
1.3043797652074529 5.8698870460683139 0.0000000000000000
1.2639292945301015 6.7420000167372729 0.0000000000000000
8.6250300270059714 6.2139599466218680 0.0000000000000000
1.3228015069180361 5.4032891361537585 0.0000000000000000
8.7188973649152963 3.9561524328460473 0.0000000000000000
9.0811187769368242 6.2227689918539966 0.0000000000000000

CELL_DATA 4666
SCALARS f:C2d double 3
LOOKUP_TABLE default
0.9964622803682112 1.0002540894351377 0.0063851709002192
0.9965800021404790 1.0007068164854689 -0.0032369256865160
1.0029670950311527 0.9983605312759132 0.0048370810805919
0.9997250128901259 0.9975063692318225 -0.0130729926731290
0.9966041595875905 1.0006774587245255 -0.0032560289805055
1.0025763913530652 1.0010579184817348 0.0020607275458681
0.9995257603117471 1.0021494324237001 0.0005451905198396
0.9995016226637985 0.9971837770069878 -0.0132774669889998
0.9999612392643397 0.9979667556069000 -0.0104442605767208
1.0028563497444960 0.9980915467641991 0.0049134068298405
0.9998501983277972 0.9963316061769353 0.0144865159831662
0.9958311079071025 1.0001247873725068 0.0055570945954117
0.9965282697559017 1.0000474667850630 0.0055222382288050
0.9993959356987454 0.9971271855304564 0.0136427702163124
1.0040870825272017 1.0002581796989551 0.0023465811860126
0.9962561042133833 1.0005767277003779 -0.0028610462285362
0.9962476199409496 1.0005358449219603 -0.0030303251184759
1.0013454733922402 1.0017235852416877 0.0022395990714872
1.0007595137763234 1.0001763911823223 -0.0009564156841544
1.0015225559047274 1.0015439081530539 -0.0012329477111631
1.0011380603630335 1.0002007430253563 0.0007657534760518
1.0014118503826956 1.0011195771056762 0.0021410692370744
1.0007383214500734 1.0001947203845476 -0.0010318636227301
1.0011400818461547 1.0001742819633994 0.0007207102995096
1.0014216794854056 1.0017234358090106 -0.0022354556987607
1.0019994421139817 1.0020375696067501 0.0006203861513756
1.0001962039404879 0.9999083825551209 -0.0001292388865286
1.0000324409021315 0.9999885394055228 0.0001261586194829
1.0000383047649610 0.9999776120521573 0.0001638957560516
1.0002213709884999 0.9999039853705527 0.0000398517581194
1.0010963662931787 1.0003497300332644 -0.0016614726335152
1.0006260021667890 1.0000280579406144 -0.0018414402115259
1.0007083647753432 1.0014573335965720 0.0037726016676900
1.0011337389753994 1.0000118025020812 0.0020257521558309
1.0007529675376543 1.0013387722456493 -0.0033625834874434
1.0008495832462094 1.0009029410779502 0.0034881385206820
1.0006851863690533 1.0000187567163952 -0.0019019943478845
1.0007755465893313 1.0015940596679960 -0.0038755269444054
1.0011491203837140 0.9999970376086716 0.0020577604182001
1.0025112860904730 1.0004011549828784 -0.0001608577677919
1.0017050067238207 1.0003121620889273 -0.0017760549338052
1.0013404325233062 1.0016450902563290 -0.0026365648426746
1.0010374529675232 1.0002557492908770 0.0005504206364921
1.0005965564521599 1.0002818913533540 -0.0008570692987011
1.0015753829202911 1.0011349899971609 0.0023563366734308
1.0015480858818304 1.0015131800349639 -0.0017755773611636
1.0009859071404903 1.0002696103716144 0.0005761592381603
1.0006192499652078 1.0002590931964372 -0.0008541843539570
1.0013311720028593 1.0015594819752620 0.0026442314735486
1.0000315502466128 1.0000043393409843 -0.0001852727113582
1.0002470788333178 0.9999203232264396 0.0000808335873839
1.0002098164477264 0.9999165989924113 0.0000992992672381
1.0000290117308450 0.9999843159735681 -0.0002833620849934
0.9991639234015555 1.0003087882643349 -0.0003391113584855
1.0003532281796974 0.9999019090263278 -0.0000234966105649
1.0003580578616609 0.9998883238203549 0.0000159841816169
0.9993222056150283 1.0003224773165234 -0.0001023497458022
1.0019004226646371 1.0014513979772430 -0.0019663985410860
0.9962333708535029 1.0002535448700280 0.0113117992396720
1.0015577674558518 1.0022384568773932 -0.0018342769144398
1.0016982602450275 1.0015094650964464 -0.0020324650904240
0.9990984899912445 0.9972298616008366 -0.0133880022963688
0.9961338544879610 1.0002108931966458 0.0114245461669274
0.9967964861503379 1.0006544211402442 -0.0063016257756707
1.0020805470465364 0.9986106239823794 0.0052988044845917
0.9997147112820620 0.9977677186629874 -0.0112975707940101
0.9991079285977129 0.9974296924076070 0.0124854167752971
0.9968678363966180 1.0005934658373747 -0.0059639371889409
1.0003211685803648 0.9998880004950459 -0.0000665234769615
0.9993445811919227 1.0002348764172126 0.0002850028192984
0.9992603887991680 1.0002479916085507 0.0003138055205471
1.0003801078912640 0.9998692971957447 -0.0001282391311126
1.0024156450912791 1.0021581020196557 0.0013903185280045
1.0022306115237727 1.0008216997885733 -0.0011481943406714
1.0021149819771189 1.0001999747526582 0.0005803146027298
1.0015822280678821 1.0009960793773323 -0.0020878095630303
1.0024938531403724 1.0016544789300432 0.0025837003093285
1.0012006249472538 1.0024579959238387 0.0004473740243956
1.0013107776652099 1.0011168242048845 -0.0006188317722785
1.0018267147655031 1.0000318487511506 0.0007456363785576
1.0016614254466327 1.0001243695366373 -0.0013514598062287
1.0017788074869871 1.0000838671717152 0.0008509978112192
1.0011848176987490 1.0011241575407956 0.0009852878955397
1.0012864805807458 1.0011025402530120 0.0001736209011726
1.0012498799969600 1.0011745855200174 0.0005916914752124
1.0017179567015870 1.0001530222669572 -0.0011982372463410
1.0016058945754507 1.0001861925663695 0.0028225068949138
1.0018200785576374 1.0011790209267124 0.0002253004272792
1.0023293721852584 1.0005149386290237 -0.0012165170829824
1.0001346548698720 1.0003284803816113 0.0014589542289973
1.0017855062371523 0.9995581970571696 0.0039228996202366
1.0010762260351074 1.0034466295574298 -0.0024409822653225
1.0031908146503985 0.9953286017834947 -0.0025271787797179
0.9965933441407240 1.0006105527831821 -0.0006336444638569
1.0004382533601575 1.0046404549372052 -0.0005633788140901
1.0024714993633186 1.0004623292185943 0.0023702893104736
0.9997374534496067 1.0020579910870264 -0.0000019239759904
1.0014411594480623 1.0004816213802801 0.0031795318850587
1.0016469831021644 1.0007591933998297 -0.0052575205830238
1.0021831451394563 1.0001434370696829 -0.0008795967909563
1.0012991822835180 0.9997965975006786 -0.0032055855360598
0.9995171112547065 1.0004154330054997 -0.0016718974544999
1.0010010273360137 1.0030104716504835 0.0002591433114092
1.0014134939768236 1.0019235343313648 0.0005453211634618
1.0054016739563332 1.0006635030713447 -0.0019474396048160
1.0020017097609584 1.0018390085668643 -0.0023612331404769
0.9992503943881293 1.0060185720396393 -0.0016079739103436
1.0000269839257190 1.0001981199588847 0.0001773599345772
1.0011367935972222 0.9996497359447325 -0.0010552094108833
0.9999114290558923 1.0002553882778233 -0.0004823358820273
1.0013086983952413 0.9997543842061624 0.0017860809705007
1.0012271475746537 0.9996130985920693 -0.0004233338928435
0.9999972355019875 1.0002331210130322 0.0001292308475271
0.9999196921980199 1.0002254097215428 -0.0005280241956157
1.0012059965353808 0.9997001805721211 0.0008167063078875
0.9982502208451605 1.0095818695249661 0.0010034350206165
1.0025427546437746 0.9993629185895003 0.0037991224388194
0.9995483346278552 1.0003763549723728 -0.0005367363127693
1.0014903226751548 1.0025165663407127 0.0062747786904449
0.9994754081515811 1.0002667337768527 -0.0007845420028161
1.0021565175196732 0.9994281602516570 0.0043753485701581
0.9994543493753282 1.0002861112450849 0.0010074858148302
1.0022296257623100 0.9995157083201098 0.0028661110190673
1.0020687159357344 0.9995339684195512 -0.0033214465286243
0.9994344059184264 1.0002785091820776 -0.0008595827317093
0.9994685277064485 1.0002607935823724 0.0009779699060734
1.0022884273009043 0.9992934055587339 -0.0044157992522705
1.0012826953994598 0.9994664056766115 0.0003715634030065
0.9999091357363505 1.0002532311949803 -0.0005254083131088
0.9999881807296828 1.0002525925105796 0.0001616338708200
1.0012330268119380 0.9994911239954604 -0.0003478501330364
0.9999783580064111 1.0002835626975677 0.0001337488383669
0.9998899643905838 1.0002911055545580 -0.0005136598777406
1.0013320137879735 0.9996270377426584 0.0012071632765929
1.0013069521628206 0.9995539929064382 0.0000644243694447
1.0005005398004887 1.0022076068739243 -0.0012333499713063
1.0025361582355867 1.0018934575988907 0.0029505456972103
1.0019814632031667 1.0001000018842552 -0.0019617254522336
1.0008365878016185 1.0044129451391808 -0.0015334275607653
0.9984838875332965 1.0030827676307283 -0.0021463588261326
1.0020934300422961 0.9997646612527860 -0.0027504719474513
0.9994081058444951 1.0034898810022672 0.0005254738375762
1.0024774067178133 1.0015393878796273 -0.0033985691922373
1.0013517631797269 1.0015886248862089 -0.0001926515980745
0.9998875382682658 1.0018589266323210 -0.0009545908021823
1.0062676094527434 1.0008758219864524 0.0005270571001547
1.0019208266479118 1.0013835841846257 0.0000960545644819
1.0018573721331590 1.0018127393718750 0.0011600728105438
0.9995464438860526 1.0017456990620832 0.0001800985695662
1.0015426090110009 1.0005365834418418 0.0027205739927261
1.0016894512011052 1.0002358342579483 0.0001762952741638
1.0015049220761203 1.0011452700737036 -0.0007829400046232
1.0013389798222385 1.0011484088464710 0.0011139979417106
1.0013776550873432 1.0011339177860943 -0.0002202378622682
1.0015767305475787 1.0003090074368608 -0.0007859702187179
1.0016512645850173 1.0002920349275681 0.0002330478848552
1.0014356919994907 1.0011953761583636 0.0008661600908912
1.0016299605910108 1.0002554079973536 -0.0007517748629083
1.0023426554904284 1.0029138059846452 0.0029784423051733
1.0019386799613215 0.9994691913241898 0.0048443557803456
0.9995149172809696 1.0001282500991990 -0.0012628205445757
0.9994955703901385 1.0001164103209912 0.0018000672406613
0.9994244589433698 1.0001004962176776 -0.0014043763559177
1.0018259780900864 0.9995852158298739 -0.0041417754415889
1.0020566922419230 0.9995940846477129 0.0032135647685132
1.0019873584259895 0.9997108747275448 -0.0049500633752787
0.9994832929170938 1.0001074290100957 0.0018493355509915
1.0020524954179697 1.0012687736538950 0.0007782015497812
1.0019255716858251 1.0017060648121050 -0.0005506383247183
1.0014084581565383 0.9988021946423566 0.0016887566568961
0.9998440940910149 1.0002060468020926 -0.0006854546455996
0.9998373993040611 1.0002257015930771 -0.0007473966586616
1.0014755980431622 0.9992691767867748 0.0015556522448238
1.0015599820177588 0.9988342003379738 -0.0009301811924049
0.9998021393726326 1.0002274341712687 0.0005347911068266
1.0014773823377205 0.9988442616600272 -0.0017557499644958
0.9998119254971704 1.0001995486861981 0.0005036728069673
1.0025303374811683 1.0011374435441533 -0.0002675409637054
1.0014476673611516 1.0010065076264940 -0.0022836127214428
1.0008238147440618 0.9993143588984582 0.0025703298559925
0.9999371556448375 1.0000740703287996 -0.0013584685003512
0.9999020233663164 1.0000653007397096 0.0014741365122795
1.0009655765407848 0.9996994941743879 0.0022583143596031
0.9999355921130383 1.0000657795450167 -0.0014094660074288
1.0008649948096398 0.9993510935534431 -0.0021938432148952
1.0008985379018340 0.9992232712201570 -0.0025967447256498
0.9999094120328893 1.0000467589108988 0.0015472791011454
1.0016427464125008 1.0011442335013543 -0.0015849487253416
1.0017953374799553 1.0015691840006729 0.0011408936876663
1.0019303537352775 1.0016994179711074 -0.0002801919539150
1.0018671816898599 1.0005105865575090 -0.0000421702352820
1.0024065460501099 1.0007749364744831 0.0000054038882918
1.0033939854995757 1.0009676461639263 -0.0022446566299288
0.9998306088680099 1.0002370148615791 0.0003971208972644
1.0013909521514806 0.9991039499225268 -0.0020988687797804
0.9998252088190590 1.0002940106380456 -0.0007177944729773
1.0014389546757076 0.9994707250569143 0.0016043358479521
1.0015687425857358 0.9990845148141418 -0.0012842995307484
0.9997969149341999 1.0002776657200756 0.0005071479994373
0.9998382845542577 1.0002651861929355 -0.0007099217550628
1.0013798011098785 0.9990998624583319 0.0020729171443076
1.0044603270674390 1.0011215927487940 0.0012883250352092
1.0027662333465150 1.0006834127468258 0.0016307875987042
1.0049012344502817 1.0017876902733434 0.0043690380602068
1.0011592840634003 1.0031871522412485 -0.0006717817938252
1.0019786313734254 1.0015218385839202 -0.0006701725669445
1.0021459179411403 1.0023618216861212 -0.0012762308756857
1.0009241274501606 1.0012299693260289 -0.0026664960669990
1.0019709131823746 1.0001405522058044 -0.0043375316469642
1.0020178498247900 1.0025225399132314 -0.0016694697015862
1.0045161932548832 1.0003076258448993 0.0009991690249811
1.0017643485643299 1.0002409937288987 0.0040347000344449
0.9958009728244638 1.0005013757492329 0.0052552366831749
0.9965199837833404 1.0006058647260989 -0.0038799222954068
1.0023265883986092 0.9976752495529964 0.0044718790673502
0.9957533502876582 1.0005574579592142 0.0053578274952350
1.0021948137730301 0.9966359127029545 -0.0073027885825290
0.9965646013272512 1.0005519897953288 -0.0036889712825545
1.0021754283641060 1.0013800783813458 -0.0006158361390465
1.0016168512374843 1.0032039736504630 0.0019133777027651
1.0028857247166214 1.0001697945799319 0.0072033322017892
0.9990600618775606 1.0029925124520869 -0.0088958673107097
1.0020849394927378 0.9996818626628603 0.0049054198811939
0.9998031031880099 1.0022754807232790 -0.0071471678809399
0.9997648484159811 1.0006218194373642 -0.0049064561017997
1.0027721702595302 1.0002465955633810 0.0073019055440825
0.9998831455153246 1.0005605263721229 -0.0047325847890726
0.9990841584631229 1.0029682700936813 0.0089160662497897
1.0021835905433980 0.9953228239262123 -0.0089781961322838
1.0021689473555226 0.9953669806424540 0.0089889949647025
1.0018800807503188 1.0007736868967589 0.0012162080512216
1.0018718560047790 1.0013069448668686 0.0010816852969695
1.0011953274296856 1.0022987485435639 -0.0054398170110453
1.0053565076104054 1.0007550708169017 -0.0014810261332289
1.0012255757840061 0.9994686204336153 -0.0044604410736802
0.9997409494514092 1.0003998760451647 0.0015598268248832
1.0020371287684700 1.0015075742085982 -0.0005947059949078
1.0025978707416061 1.0006232461786853 0.0007186837759491
1.0016108327767570 1.0002555772200801 -0.0017118498552470
1.0024332186247613 1.0004727383559009 -0.0010197545000502
1.0018495467519413 1.0017386596545288 0.0000681713088559
1.0000752906787351 0.9999457624964133 -0.0004480667340962
0.9997655920955876 1.0000371780467703 0.0004701573210737
0.9997078352941582 1.0000432063056084 -0.0005830723167725
1.0000943181770945 0.9999537048168867 0.0003475308952634
0.9997298693617275 1.0000465564638854 0.0005361190638537
1.0001038856300803 0.9999468829757110 0.0003989476737645
0.9997352178276809 1.0000485789001448 -0.0005286588690454
1.0000850861708803 0.9999493813353727 -0.0004033233598167
1.0010904443933806 1.0001287045911860 -0.0006356066484206
1.0029642136175883 1.0004747989985576 0.0035950458323463
1.0010867710634057 1.0039400251391577 0.0099733664719861
1.0013960770719310 1.0004150661085056 0.0007834157166699
0.9993971985341868 1.0004735838398857 -0.0018266919684190
1.0012246806158058 0.9995087933423477 0.0044288183489539
1.0024088939246059 1.0011781418042967 0.0013087365204474
1.0038298689003580 1.0006615321009715 0.0054524944333125
1.0025909699897917 1.0002827895860744 0.0020732859155008
1.0005239500351479 1.0001618763271027 -0.0007507897401232
1.0012737180498363 0.9997365695629798 0.0005199310055874
1.0005591601707999 1.0002471957028658 0.0002844405474565
1.0013258530392244 0.9997733669675014 0.0003392363717332
1.0011935175510469 0.9998502951248103 0.0009921247564588
1.0005014430731913 1.0002441623460512 -0.0008438169348123
1.0013351407441540 0.9998073689105347 -0.0005721200093065
1.0005986115120871 1.0001962390433223 0.0002642338496342
1.0021322004747730 1.0013373808406609 0.0008922002277712
1.0001928837702174 1.0000758634163502 0.0000741995131575
1.0005936353975060 0.9999704910195210 -0.0002716372332475
1.0005594174175909 0.9999813187961241 -0.0003157167690310
1.0002072579609989 1.0001423559080524 0.0003293644018775
1.0014609178348006 0.9996612014966282 -0.0010781130767956
1.0004843973990860 1.0002583317632388 0.0000992612570653
1.0004073073979933 1.0003297927090142 -0.0007153087941689
1.0013214255943077 0.9998997716095622 0.0012692405342685
1.0013741505883420 0.9997074689273518 -0.0003207054301794
1.0004130876842248 1.0003242669127794 0.0001323532320114
1.0014052355982752 0.9996974015444531 0.0011151152001714
1.0004346987316757 1.0002802941871023 -0.0007180700734829
1.0023657724622028 1.0014119462324027 0.0039698583701967
1.0017693218064758 1.0002793425499781 0.0021712068310578
1.0015199877674201 1.0002011131236090 -0.0023543744440423
1.0024935160377630 0.9952771198835065 -0.0050257525635581
0.9963438190705916 1.0005908068434846 0.0032017477407519
0.9970474217479700 1.0005270986495320 -0.0022411950709781
1.0018805324847861 0.9972675514804231 0.0022449520029468
1.0023492667329355 0.9961335042747268 -0.0042011480315053
1.0022510335743724 0.9955580329784195 0.0046047718378288
0.9970794579192981 1.0005023339753265 -0.0020748764842689
1.0024331294648243 1.0006205616007506 0.0009600390575165
0.9987083654924712 1.0007349825055107 -0.0021307687430202
1.0017807900292874 1.0005160731176255 0.0032988615927897
1.0028027723609187 0.9985354764076299 0.0048273098444968
1.0017279599965840 1.0001741380293996 -0.0003189594018812
1.0009453971067941 1.0029064672271550 -0.0095741547066153
0.9987421960743654 1.0006664348556022 -0.0021728517983778
0.9964625156486340 1.0006342817197265 0.0032318841694681
1.0008453100877435 1.0025350807326856 0.0000613738369289
1.0019653754201581 1.0018744223754752 -0.0008132041781544
1.0005502437696536 0.9999763701415473 0.0002031328930879
1.0002055688396359 1.0001371648501072 -0.0001609408696057
1.0002428335334046 1.0000260557413068 -0.0001797932995282
1.0004633071291680 0.9999770447101229 0.0003749603540564
1.0044474114486019 1.0007558968303600 0.0008856549958853
0.9997230453924516 1.0001809450866310 -0.0026848231138636
1.0006370214352946 0.9996787775250155 0.0055290941558463
0.9999677075481416 1.0001584597874698 0.0031278394752737
0.9997196588508884 1.0002097018896623 -0.0027967930144565
1.0008544413614795 0.9996857875935131 -0.0049521461496251
1.0012453008926192 0.9997027531728004 0.0045598994343671
0.9999643681130995 1.0001191773218363 0.0031844162120418
1.0006115087781053 0.9996926623781143 -0.0057757861789913
1.0012442063209233 1.0022530938726848 -0.0076575501111659
0.9997581702826879 1.0003338313316161 -0.0018817271613415
1.0012419240377364 0.9994347423561187 0.0044747355256813
0.9999826388303054 1.0003187737185748 0.0018499351686148
1.0018004728393504 0.9994918171195161 0.0036108528188514
1.0014259841709428 0.9994545351812556 -0.0032738624643718
0.9997330940036778 1.0003834143413850 -0.0019528273783698
1.0000044689100362 1.0002717338314966 0.0017911119211191
1.0013166445105075 0.9994298642684066 -0.0044755422486371
1.0010727134450765 1.0040511660293032 -0.0022632433704198
1.0015481452547417 1.0021569848394081 -0.0016669101692042
1.0019788086780959 1.0007758051727353 -0.0007700823600023
1.0016534070135068 1.0002248950052928 0.0018631886794273
1.0010454345511417 1.0013211263878108 0.0044813271546823
1.0014457415801152 1.0013938352754377 -0.0047109732622656
1.0009084992265125 1.0004726601944829 0.0024374488525812
1.0009534077847146 1.0027555287396055 0.0002534900217115
1.0028343762064693 0.9985311912909592 0.0028211791758233
0.9990427530165020 1.0003170134715988 -0.0000147985193503
1.0019583129504082 1.0017636279939730 0.0000282450795107
1.0013958541924750 1.0023483142114664 0.0003443491663290
1.0017755753649815 1.0012321872499552 -0.0004738065898391
1.0016981776861167 1.0009215515870273 0.0050796066345418
1.0021308819257002 1.0014741269355101 -0.0021097127762461
0.9988644804054335 1.0004301826297011 -0.0015361329022773
0.9988086372487809 1.0003730657766865 -0.0016801084432093
1.0017823395924574 1.0018157752238335 -0.0034666449498164
1.0023837866088647 1.0013060914159815 0.0001226991261215
1.0022260741000890 1.0001738316490396 -0.0012911423837193
1.0012880982896974 1.0030880064675647 -0.0013600465469962
1.0021575693355802 1.0008391833147174 -0.0004971795215072
1.0018460022037747 1.0002475098191455 0.0017819445353540
1.0009937603053163 0.9993178485232848 0.0052364454102226
1.0025926174850224 1.0003622630017650 0.0025628344157566
1.0022906357255341 1.0012756337837854 0.0008835533189212
1.0014877942506681 1.0002681901773256 0.0026540516515184
1.0020018947444540 1.0001586666552285 0.0026512299244584
1.0004815132176172 1.0031247665126275 0.0098420385308639
0.9991199174385547 1.0001127309912297 -0.0001385475227479
1.0020345508962574 0.9988834227973571 -0.0021612605148871
1.0022406514302602 0.9986946644854562 0.0010228183380986
1.0024864847698767 0.9982990153800783 -0.0022887562078372
1.0020036297801473 1.0004122902851011 0.0019153332703530
1.0015071379191747 1.0019723878402325 0.0015138440031950
1.0024741902165528 1.0006953034174164 0.0011192989687164
1.0023312549240171 1.0007129750201200 -0.0015011411143434
1.0010965231219928 1.0035587496650993 -0.0017744273518101
1.0014408049769163 1.0010496833396916 0.0027230789634834
1.0015832011304246 1.0019361293242091 -0.0004956386049423
1.0020306874907949 1.0018858304608536 -0.0002754994142908
1.0002719589466911 1.0013869568694951 -0.0027697319001410
1.0012775000396692 1.0003796584702187 -0.0025935740881266
1.0005141027792377 1.0021159654281597 -0.0101671885175540
1.0009640839946994 1.0015821773548854 -0.0080424515829925
1.0024302350221053 0.9984719809247711 0.0049330293285956
1.0010341629377246 1.0035523762828036 -0.0016477454011995
1.0024684936235841 1.0003295664308629 -0.0021951429094270
1.0008719385218727 1.0006886274553604 -0.0026699380438765
1.0015862872234333 0.9999218180788887 0.0022759863990469
1.0015092935306282 0.9999171450530047 -0.0024828287206781
1.0015016654255078 0.9999746040478857 0.0023026096819639
1.0006701792127952 1.0006435172705543 0.0027985556177171
1.0008926018298692 1.0006787430514774 -0.0025055281746527
1.0008903457377294 1.0005978266582352 0.0026790013997918
1.0013902245793329 0.9999223286334260 -0.0023009504754220
1.0017718238305930 1.0019139044772163 -0.0005025191399643
1.0020995306397382 1.0013960138103002 -0.0018807081399718
1.0001471027380742 1.0002544533814226 0.0007322898163414
1.0023442262611997 1.0008630380266865 -0.0048923011848568
0.9999278128422912 1.0003346870130685 -0.0006438092474305
1.0001525176505504 1.0002787662528387 0.0007172594475968
1.0026764968571200 1.0000666768469564 0.0027815525700157
1.0019764185438345 1.0007212358367454 -0.0039006019165235
0.9999468776769611 1.0003118525601657 -0.0006522443583838
1.0024169564357783 1.0008491014676635 0.0049389036040959
1.0000734138909402 1.0039219751906650 -0.0006627755404951
0.9995761784610117 1.0003691702513278 0.0006924518534384
1.0025226583623206 0.9995325107825149 -0.0036836315419902
1.0001273631326890 1.0001813548147531 0.0006056000341694
1.0028413315064162 1.0007727848043935 -0.0048892973665337
0.9998845362689367 1.0002469884091465 -0.0003668684311780
1.0031134272699991 1.0000231401042938 0.0028094622452287
1.0023037076378263 1.0006610813228167 -0.0039621909669291
1.0001126185516320 1.0001923234809869 0.0005070728255601
0.9998869401736744 1.0002372847898306 -0.0003865549474737
1.0029057538440012 1.0006821616655190 0.0050333842638768
1.0015299345513895 1.0023527913918544 0.0034514159382712
1.0027126469295569 0.9985312093155272 -0.0028421658131894
1.0027009804664584 1.0000355050596776 0.0026930079713792
1.0001120585801213 1.0003239333355494 0.0008534664089420
1.0006099060514246 0.9994644978637705 0.0009124640843337
0.9999750463230906 1.0000393941554071 -0.0006578478143023
0.9999770529251510 1.0000295316226586 -0.0006227142593778
1.0006627756220277 0.9995207171341465 0.0010908931020275
1.0021774151237619 0.9999861518245726 0.0012170044820305
0.9996065668191931 1.0050379508709217 -0.0083141571208526
1.0040269921376457 1.0001710496442686 0.0065172585295288
0.9992672509857528 1.0004357099693781 -0.0048481768914873
1.0014757965666647 0.9989504486665639 0.0053292318589107
1.0002334142227507 1.0038483554790643 -0.0072969511956071
0.9995401605547523 1.0047581959470504 0.0077411203401657
0.9992378566640413 1.0003872330732664 -0.0045683279463049
1.0021187209885101 1.0018098094647339 -0.0006478861395242
1.0024229732277590 1.0003646029447668 -0.0019066659690861
1.0021024042907531 1.0014961600379673 -0.0003653314047152
1.0022015093722882 1.0013953351815170 -0.0016561352061088
1.0021952036597512 1.0004425211260020 -0.0012824844797793
1.0013970775481988 0.9985443730055689 0.0066160115195535
0.9990462645825102 1.0003750248488938 -0.0010818165381035
1.0016169085941655 1.0003570213896105 -0.0011988342767322
1.0039306476558967 1.0002417275520938 0.0064964396394426
0.9999634957756702 1.0000531206556635 0.0005283545695331
1.0006392649974751 0.9995338430545622 -0.0007406179042486
1.0006639050893633 0.9994747596298519 -0.0008209876642947
0.9999723377025600 1.0000301603422006 0.0005539210920889
0.9990227665529053 1.0003459612780743 0.0000058439995645
0.9992249550777784 1.0003030140026374 0.0002507441055465
1.0022772144911631 0.9989866660385698 -0.0022671275647755
1.0024721125040392 0.9988739263372630 0.0012331246733500
1.0017231325109524 1.0006097828535077 -0.0005423836901718
1.0017856586307072 1.0015758876487630 -0.0004732579854655
1.0013425660305764 1.0024096915949783 0.0008088376551085
0.9970763218245794 1.0006176683129928 -0.0010920171213993
1.0029436106434251 0.9945271390204922 0.0045194592324353
1.0027324294435600 1.0002529924752990 0.0036485171970967
0.9997627843165126 1.0002865889940542 -0.0006091744172369
0.9997553123533184 1.0002925571126164 -0.0006672527242393
0.9999456621587290 1.0003004764250711 0.0007161016404223
1.0022823535487111 1.0003046043412069 -0.0027820981658503
1.0027548887575077 0.9998171977227767 0.0024648832881731
1.0028549294383184 1.0002161695739349 -0.0036361729860593
0.9999512595159056 1.0002919237586501 0.0006843462181172
0.9996909283348826 1.0002325284161815 -0.0011151012906280
1.0034105272891265 0.9999932199343188 0.0039098413574213
0.9997085357466344 1.0002198608986439 -0.0011868074959660
0.9999110354944686 1.0002100723005058 0.0015163362400518
1.0034017555453594 0.9995724368982493 0.0026533105059537
1.0029057187106101 1.0000347224486061 -0.0034180236964409
1.0034507981311305 1.0000685266488667 -0.0041167761535232
0.9998941542123370 1.0002075122936989 0.0015655711979827
1.0030770524709067 1.0002304944343741 -0.0008080087344866
1.0020871721635771 1.0003304780800495 -0.0012432801256129
1.0024138681538695 1.0006314944324213 -0.0006306869713392
1.0029980884255116 0.9998917298508770 -0.0032667311451790
1.0022768030970759 0.9999914208208784 -0.0023424819136544
0.9996067859440873 1.0003365420104593 -0.0005146135395229
0.9998309887959350 1.0003097541551094 0.0005477055354963
0.9995925649760643 1.0003181604094740 -0.0004866776005782
1.0029706555240410 0.9999150988739117 0.0032776377173285
1.0023052030538029 1.0022552867408629 0.0036768676366058
1.0021563289295554 1.0000180830604670 0.0005086826218106
1.0009935156597065 1.0018049682448760 -0.0001924452156340
1.0003388978591905 1.0002669637601884 0.0007384942204249
1.0012069641082468 0.9997479877221752 -0.0019518364604814
1.0013060120382229 0.9997125195149764 -0.0013338767218767
0.9998460141284237 1.0004098354218218 -0.0012716671300049
1.0003595665332676 1.0003267045493773 0.0006224104147274
1.0013873071045525 0.9994569546676993 0.0029637700291055
0.9998621830643712 1.0003517329056200 -0.0013116464397168
1.0013947483714778 0.9996279280137979 0.0020384434012075
1.0020663227584914 1.0012574820820326 0.0000182277466836
1.0037155270615483 1.0011304712417874 0.0003512789559613
0.9991086622321198 1.0003388156322082 0.0009867157867747
1.0014009303827820 0.9987723085052871 -0.0054047823974862
1.0019259853042746 0.9986822330780382 0.0040846819929991
1.0014439564181126 0.9981388592076016 -0.0069646128219839
1.0024408042547235 1.0005233388845396 0.0021202933679765
1.0004360548842097 1.0001959116605801 -0.0001820099244239
0.9998021236420516 1.0013047307962104 -0.0003632201484600
0.9999681451723402 1.0012702101266258 -0.0003586304486206
1.0004561095792068 1.0001486062947031 -0.0001011793082839
1.0004061761844980 0.9999731632260740 -0.0009350502375114
0.9995249322154669 1.0008171555002807 0.0014680007107224
0.9998111058394313 1.0012669238190297 0.0003649421336564
1.0004554083012602 1.0001731181446618 -0.0001324991071295
0.9995823119550742 1.0007355117990093 -0.0012008008192233
1.0005474942485815 0.9999277556897086 0.0008910780831286
1.0001504505485967 1.0008800554680231 0.0005624395816163
1.0004362249726950 1.0001909181344646 -0.0001491506428108
1.0002998143682587 1.0009777956573138 0.0001838716563621
1.0004604416473437 1.0001440138370579 -0.0001585243220903
1.0004631643843309 0.9999504074124526 -0.0009336757761789
1.0006124086329986 1.0011378957093122 0.0010822680470684
1.0002940291682410 1.0012280749528921 0.0004762483467313
1.0000457955293069 1.0006068947908429 0.0016280504072119
1.0004771133193311 1.0001883681462400 -0.0001157919450294
1.0004786923037674 1.0002045749980040 -0.0001381154762291
0.9995068384183460 1.0008701080812188 -0.0013805011067844
1.0005826462080736 0.9999108446287158 0.0009371752120674
1.0000107881693643 1.0012227904027737 0.0001973473854388
1.0004856831740971 1.0001844411507919 -0.0001518406304415
1.0017574968609231 1.0019919375813824 -0.0006302583336710
1.0033211985721036 1.0013102812259465 0.0000083031273983
1.0013912105110674 1.0019535565731523 -0.0011542386006083
0.9965798688872308 1.0006193173047360 0.0018595799692784
1.0023107103446016 0.9972422532325455 0.0021467838113784
0.9970617843563773 1.0006558192608983 -0.0014630971177994
1.0026001336385941 0.9960110417605734 -0.0031125442231734
0.9965551556733576 1.0006698203201188 0.0019144890739207
0.9970969739986161 1.0005862649760044 -0.0013332433624620
1.0018484850754019 1.0020009331678581 -0.0016859152255366
1.0033295504834843 1.0011608216365682 0.0000141731197804
1.0022523342639906 1.0010008140644437 0.0007803329954852
1.0021983990443342 1.0004455445246645 0.0015325165843424
0.9995934200832547 1.0003402579550522 0.0005077830168032
1.0026989302823843 1.0001647317527436 -0.0035696091755704
1.0022199071971389 1.0002291001156436 -0.0028044186158109
0.9996169539453312 1.0003865099077416 -0.0002882338424418
1.0025769117908447 1.0001877855672976 0.0018916597865775
0.9995989050919294 1.0003553225062596 0.0004504555829620
0.9996273061318968 1.0003625404575067 -0.0003089472937339
1.0026685411685810 1.0002775315746175 0.0035354154706601
1.0041001347854894 1.0008206238933821 -0.0016791883896853
1.0018543644961742 1.0015048255672627 0.0010192392987275
1.0017199218235746 1.0014140844504351 0.0001947148142527
1.0020234509544899 1.0020102015908601 0.0025925705243108
1.0028844738598777 0.9945615417813750 -0.0039011261437693
1.0028290286402637 0.9946307740291130 0.0039834574575084
1.0004016368394029 1.0001904159062436 0.0004581080713326
1.0008176727515861 0.9998022945814509 -0.0026167812397553
1.0009790928594522 0.9997566547234275 -0.0017743332591056
1.0010650742709841 0.9995862908598372 0.0033833235794028
0.9998250424771844 1.0003149388980050 -0.0011544145141040
1.0003147886573223 1.0002255392832411 0.0004791263248683
1.0009699854186389 0.9998833045133779 0.0024567778485217
0.9998556676337540 1.0002484313278435 -0.0012223767118732
1.0014291830308581 1.0003541763534056 -0.0002948082093456
1.0017773258639735 1.0003699548654887 -0.0010667836007764
1.0012982862906046 1.0001383543491078 0.0011040599274215
1.0009605729536548 1.0002214849753144 -0.0018467566262660
1.0012514117879450 1.0003389923619965 0.0012733261013582
1.0011488814388265 1.0003312230763557 0.0016153367989657
1.0017145119931516 1.0003951283762924 0.0009776599894578
1.0010383819704511 1.0001579297546710 -0.0016094589747434
1.0013427316750096 1.0002319330521878 -0.0011999671328716
1.0019516420420107 1.0017307883804500 -0.0001556446107952
1.0026905645687749 1.0004788757733161 -0.0034747330599430
1.0020335938590261 1.0008036427708396 0.0032003778601639
1.0015082526168206 1.0003648374309271 0.0007788194581617
1.0021025476220204 1.0001354080263229 0.0034761078766300
1.0019340619431527 1.0014971110402215 0.0010304926822079
1.0021557389286471 1.0016209934294487 0.0000973080956158
1.0020463136058670 1.0009334710685900 -0.0017953897025314
0.9999286747658167 1.0003359201356612 -0.0002542712677855
0.9992157372675904 1.0003759280154216 0.0011344068311884
0.9990151931375711 1.0004173636743612 -0.0010560805634081
1.0014388776154479 0.9989483028700564 -0.0050524158950327
1.0020094841825933 0.9988560145285021 0.0037188166673868
1.0014197165726122 0.9984505762026670 -0.0065758551095603
1.0017396817442095 1.0013611304450434 -0.0007119900003527
1.0014936354306749 1.0025367785586548 0.0010541818006717
1.0017565572013105 1.0009751683424597 -0.0018409479844916
1.0009499650510680 0.9997186675819204 0.0023659790010433
1.0003892084025701 1.0000413277952922 -0.0016440926749060
1.0004307615400270 1.0000585692941346 -0.0016974703948479
1.0007143648277150 0.9998714335715978 0.0025716875046008
1.0004781698843725 1.0001185670911907 0.0014999899090997
1.0009747424935393 0.9997328728031839 -0.0020629660321945
1.0009397160593878 0.9996995053862989 -0.0023136415345480
1.0005263889074640 1.0000538201842333 0.0015452049742607
1.0001127845832560 1.0007417448464955 0.0032942107191914
1.0024998261558720 0.9994034303436885 0.0042228207930896
1.0019354668409666 1.0018090028925857 -0.0004153048114512
1.0011118660087941 1.0023808716544349 -0.0015898963855754
1.0013539394492803 1.0016303743774755 -0.0019207119717804
0.9992022966671948 1.0002974026671241 -0.0033919906976205
1.0019080757958392 1.0008202267379631 0.0006756192269793
1.0021423258219206 1.0007696670473352 0.0006078423098111
1.0029291085355108 1.0003812019820255 -0.0011556688240596
1.0023933877010245 1.0014983917767999 0.0010190222200290
1.0022991997793356 1.0008063207548961 -0.0028000472018155
1.0016619349635210 1.0019218705248756 0.0000698934539104
1.0028952294787876 1.0004972251504003 -0.0004670961979874
1.0017919823785397 1.0020050456432474 -0.0013673328863473
1.0018820240794748 1.0036141718563030 -0.0039988961817669
1.0006906552673593 1.0029035586567892 0.0011968426346970
1.0009583512215450 1.0017976340705919 -0.0012502651645223
1.0022363005266970 1.0016445751249181 0.0007079947310123
1.0018802851209463 1.0026816368269309 -0.0024175365991274
1.0022178323331070 1.0007258568093442 0.0010836813039329
0.9996851775335885 0.9993383179627952 -0.0094067268403842
0.9988953789488341 1.0001574451732644 0.0062268728452939
0.9987658192031685 1.0004007783086328 -0.0043124423275532
1.0014712565499435 0.9998191528111666 0.0052750617165857
1.0002792990587699 0.9995268171614270 -0.0079182508883325
0.9996229162283338 0.9995219826650945 0.0089039511774321
0.9987655973100320 1.0003569223865256 -0.0041028251778131
1.0006034338772389 1.0023384106844866 -0.0009243002456902
1.0021820068630498 1.0012943174290214 -0.0012061212075826
1.0051124275431036 1.0002801461865392 0.0008323291902755
1.0019402944893969 1.0016357294105493 -0.0003931668987140
1.0016892365125247 1.0008709357070165 -0.0034266255105727
1.0025252706145478 1.0007912043312928 -0.0000362515985661
1.0013063693363260 1.0018778570970832 0.0015105414985962
1.0020418513569642 1.0007280089460708 0.0027737902418591
1.0023605718163073 1.0009760035553359 0.0025042260647891
1.0031618612254620 0.9992923869301461 -0.0054016745876901
0.9987930120668078 1.0007413575068087 -0.0022792785223446
0.9982565759489807 1.0003132844500469 0.0028529189261058
1.0020941995076482 1.0002016653861419 -0.0047844643969685
1.0017089786552051 1.0005574339492400 0.0022821590305259
0.9985457858337922 1.0002748633969518 -0.0018953479487892
0.9982763482379692 1.0003425125758030 0.0028551714302184
1.0020059720419876 1.0004080305821486 -0.0039986063535924
1.0018930536438395 1.0005825977432543 0.0044616188878394
0.9985382229931431 1.0002696302483838 -0.0017649743561309
1.0015158719811905 1.0030879316377861 -0.0017913674465285
0.9992899881226571 1.0002659638103863 0.0003310732260589
1.0017552531057314 1.0018749389303927 0.0006670805800693
1.0043113249882849 1.0009150807901912 0.0006073764603544
1.0024320454621438 1.0008288640535419 -0.0004989309523594
1.0017653098437027 1.0011903872339887 -0.0015703430896391
1.0017671237458794 1.0019586431670220 -0.0007082591058618
1.0017716418286517 1.0002765861720235 -0.0007170403660960
1.0015322679066248 1.0032628156524799 -0.0042717130828466
1.0009709250500476 1.0008242651455224 0.0051366855012584
1.0037516728417744 1.0008578876957992 -0.0003024964264167
1.0020876681822841 1.0018623109835139 0.0002496845409243
0.9974664028932040 1.0005423377510858 -0.0000931360914090
1.0025212176128688 0.9979539485652115 -0.0020403123649913
1.0027091030472082 0.9974642544939645 0.0009203604485213
1.0031334739074709 0.9965163987448404 -0.0022934377054191
1.0017665811684697 1.0019028852330840 0.0000655048533297
1.0028811764007570 1.0004400051680644 -0.0035332157934479
0.9995830030946705 1.0003011501238619 0.0003098297812926
0.9995713273281425 1.0003602937167002 0.0000644160209683
1.0028868494306655 1.0003121793253809 0.0021418285991804
0.9996095171366801 1.0002943704502982 0.0001929905135366
1.0024105605111657 1.0003215901028362 -0.0030541777669599
1.0031490209759333 1.0001011390178458 0.0040658056898868
0.9995614226427250 1.0003515751067464 0.0000442605243723
1.0020514425911682 1.0016922691573154 -0.0019318371822104
1.0012337252392634 1.0005371426451370 0.0006688662483581
1.0012838667294222 1.0003059596719130 0.0006271130611250
1.0017184322170340 1.0003723048385877 0.0002438967046352
1.0036180867699742 1.0011482812640244 -0.0002150011161888
1.0032703870990751 1.0010462318158335 0.0005003978014713
1.0017793955287839 1.0018085180510092 0.0029735993529104
1.0068856073908161 1.0006105421249540 0.0020012879802076
1.0011597289246945 1.0017643704254444 0.0005300630664679
1.0019781926230789 1.0010981712657425 -0.0019576607581668
1.0018405155854324 1.0017818058641210 -0.0007848122749221
1.0023313398044940 1.0014368509283629 -0.0012976967121497
1.0021770186960079 1.0004309866094667 -0.0015103462453241
1.0015381845111047 1.0022562937999033 0.0016146142449666
1.0020500888766426 1.0014136823112687 -0.0004344250432985
1.0019205623233520 1.0019978087953920 -0.0002195542947632
1.0021420507774146 1.0013731864087763 -0.0000264810930843
1.0013595984158372 1.0030556882341970 0.0002187093559292
1.0009784391626844 1.0011444790171953 -0.0011632057173459
1.0000180701501822 1.0039679444412175 -0.0017698213027125
1.0009155096670272 1.0034829022905307 0.0006103434952774
1.0010548965415949 1.0028892067726050 0.0021228658089051
1.0031056926999860 0.9986907016171722 -0.0029087157245974
0.9983606397103862 1.0005619027233716 -0.0008278790167079
1.0016340226994689 1.0003981482239968 -0.0008098553582973
1.0020369659930264 1.0011913947818787 0.0004672632034002
1.0020677114938168 1.0002929801099161 -0.0003301247402315
1.0016199098058836 1.0012088891120745 0.0002368931811571
1.0020270052922358 1.0003280574557587 -0.0004221424555808
1.0021223141687281 1.0001855253984011 0.0002582779941933
1.0013620875543385 1.0012467789253576 -0.0001418793653263
1.0021489576861871 1.0011102716743159 -0.0002920667095546
1.0021243635350896 1.0001517970664180 0.0002514931446626
1.0030370324450679 0.9944926271970338 -0.0043406053900782
0.9966681137376796 1.0006484791002022 0.0015466491770320
0.9989288534912361 1.0002234426679373 0.0061575127730595
1.0015788950734361 1.0023462826522642 0.0006008441056448
1.0017251390234565 1.0022861013462259 -0.0001982064611316
1.0016671104849286 1.0021045321956641 0.0001683463078246
1.0012716998625899 1.0015789329967100 -0.0025624013243415
1.0023408636140008 1.0014071596013836 0.0002865831762907
1.0030057530224745 0.9973386001530797 -0.0030317502342587
1.0016442161787462 1.0026854950398205 -0.0007186144073058
1.0020748330611893 1.0018743144792173 -0.0000064890639402
1.0013654592961447 1.0014257801810218 -0.0045039220911559
1.0016624783363517 1.0021554468662073 -0.0005896847467439
1.0011937556560953 1.0003205533466646 -0.0028354080751506
1.0011992791091466 1.0001845250731736 0.0024986499926567
1.0010452767666762 1.0000491302905070 -0.0027851392254670
1.0011570776726844 1.0003249281726088 0.0025012825030260
1.0006719404320277 1.0004679592239192 0.0029087055199027
1.0012431353009557 1.0001466910838319 -0.0028874685035400
1.0012411197569142 1.0002007549481418 0.0028674315669873
1.0009710694646674 1.0000066701752084 -0.0025760631212559
1.0028603059324919 1.0002591858294756 0.0036820937609264
1.0020253456256096 1.0011540100548733 0.0014849619225578
1.0015878054500140 1.0013178356086267 0.0045610835158243
1.0017800968227040 1.0009968161407781 0.0002902217922926
1.0017459100013208 1.0020896574249609 -0.0004759962048356
1.0031597748868308 1.0015689125828480 0.0013796299812703
1.0013132231668620 1.0021879382692052 0.0014669511136574
1.0030700072385410 1.0014683657517118 -0.0005239018068038
1.0023274448512183 1.0010062920874905 -0.0009531480734815
1.0031774714984860 0.9969790095078774 0.0030268622978105
0.9977693782528488 1.0005461813942762 -0.0002251462971472
1.0017052865697589 1.0018702131335830 0.0006670199360702
1.0021077152220039 1.0012702798037081 -0.0020290946678374
1.0006071290593617 1.0038389682146591 0.0001153321225551
1.0041938626441544 1.0012410849695648 -0.0015802432502848
1.0010954935726157 1.0001071349311073 -0.0004110681847654
1.0013341248090022 1.0013391392027475 0.0012845668598964
1.0014161631086334 1.0013185282527193 0.0021961803072133
1.0010596772019331 1.0001328911314757 -0.0003493645140563
1.0012727716432843 1.0012864418589678 -0.0007328321019972
1.0012183478104886 1.0000694418843941 -0.0000107776094748
1.0011817652639423 1.0000787962615991 0.0000290036634527
1.0012333607697184 1.0014186907787237 -0.0014724739451109
1.0017928011765744 1.0019151120646335 -0.0007415309014175
1.0017204312311323 1.0014779697390228 0.0003280111833482
1.0021531727366921 1.0009768534868033 -0.0022839815463539
1.0035170643529172 1.0012238658037698 0.0002906146001110
1.0020884297213604 1.0004431944578858 0.0005452497526937
1.0056464917295862 1.0009874185097216 0.0010235571625162
1.0024226866807298 1.0011516729366048 -0.0000769155739587
1.0020399416109684 1.0012209317572782 0.0001662456739043
1.0021005549188229 1.0017806059623948 0.0001821262705478
1.0011576504868414 1.0032903879224389 -0.0003809074474011
1.0023084589888269 1.0016797824520272 0.0002057654957444
1.0019224164582110 1.0018148373666385 0.0003365915723477
1.0014196660928636 1.0018002974604634 0.0027767180260616
1.0012709274047442 1.0030622048898752 -0.0013269356326209
1.0014533179326888 1.0013875610498502 0.0009464408107515
1.0011011975526543 1.0002151653638489 -0.0006177627532243
1.0011727551599285 1.0002126266823319 0.0001587038249471
1.0010417575156427 1.0002503863454544 -0.0005897592326366
1.0014012019557850 1.0012507685662848 -0.0003382963126608
1.0014725445722641 1.0014230088493026 0.0017102652961024
1.0012278013038824 1.0001887359346573 0.0001932655898996
1.0013801519804910 1.0013959943260107 -0.0008773800495680
1.0043946933598300 1.0007009588593758 -0.0009797072719717
1.0020805760124947 1.0019128221764408 -0.0000025569527213
1.0011721881139917 1.0031677736960956 -0.0005004980634446
1.0017551261647475 1.0020319746785373 0.0039987018661079
1.0019265398971613 1.0016946076461035 -0.0004586757651271
1.0024880175304134 1.0012002818534940 -0.0014326176015128
1.0016820095610162 1.0016889357622409 0.0031581298677127
1.0019998759513313 1.0009252493055696 0.0020925674798419
1.0023584023967296 1.0015871377287575 -0.0002556677866685
1.0020914322805963 1.0006011691242302 0.0003929664171115
1.0018416289926526 1.0016069940070240 -0.0015407911909128
1.0016960379046733 1.0018606527763747 -0.0001260345863382
1.0021328934554377 1.0014266260150446 -0.0013091584568545
1.0024508436192299 1.0012729486984833 -0.0007335765643170
1.0021434937445060 1.0017138016012717 0.0011232958071370
1.0014515614718043 0.9999254795877602 -0.0003952336179185
1.0016883932164313 1.0013183408371675 0.0011236896745164
1.0002016655733024 1.0014715198004620 0.0036765057496281
1.0015932019393070 1.0023281995680282 -0.0002854318565559
1.0011251446060785 1.0031844773574594 -0.0000824847038788
1.0010978659465950 1.0023299960906600 0.0020934066312930
1.0018627448907478 1.0016458231859382 0.0002191135771952
1.0021182783984359 1.0017205861464376 -0.0017643134551165
1.0015738882774186 1.0023613199746542 0.0004877339324924
1.0022214938132510 1.0017845537964176 0.0021808293616962
1.0018878322826417 1.0017844664630293 -0.0007382760492633
1.0019104338098483 1.0020783229963168 0.0020722411596700
1.0020280478103254 1.0006253117256565 0.0007730913745333
1.0022030761070626 1.0011212160640575 -0.0022895699912445
1.0022360949511784 1.0001786411091027 -0.0017716615360369
1.0011741623220891 1.0019874503767550 -0.0006729404035070
1.0024881006080804 1.0012092633034428 -0.0008508234375165
1.0021257462827162 1.0005600745366845 -0.0005306376102109
1.0020331280766184 1.0017781261083427 0.0019176592517146
1.0023107017822450 1.0015289645565608 0.0009459887991333
1.0016222231483076 1.0022910396357982 -0.0000182451577669
1.0017333896147658 1.0016499309449669 -0.0018943140796150
1.0017588567180118 1.0018464436137835 -0.0000731630888906
1.0021626123192722 1.0008749008075508 -0.0015322846931342
1.0016728367000829 1.0021655026310547 -0.0004264934563870
1.0020905005453113 1.0018644508014232 0.0023013808401755
1.0023749182099866 1.0013252010708527 -0.0006603540507826
1.0019989726584930 1.0014412194677456 0.0001637406488702
1.0013910724835622 1.0025968345872225 0.0013739832820071
1.0014946164990635 1.0017244960069334 0.0011730704028462
1.0016127845851617 1.0019465886320462 0.0005866842473040
1.0022980560240573 1.0006443857242611 0.0010842302908312
1.0014352110416158 1.0005087871957106 0.0018015293652678
1.0007468963297392 1.0006191973582541 0.0030495533479242
1.0014391194290404 1.0015521648980164 -0.0013785137354699
1.0016925381379838 1.0012721727574727 -0.0007771184022464
1.0017577409828098 1.0018599491988911 0.0000885652052392
1.0016314759529619 1.0020890822993684 -0.0000400072983109
1.0015774931590899 1.0015870229070623 0.0007155171512132
1.0029420359966168 1.0012271633277419 0.0036675905421466
1.0017831595393842 1.0018151796144932 -0.0007090324120610
1.0029016550861702 1.0015060908540561 -0.0000156150132551
1.0018129866755219 1.0018838401258889 -0.0007949487686092
1.0023501138440465 1.0007887843628178 0.0003525656057852
1.0017295680228075 1.0020491277613821 0.0006962135418778
1.0016873242096793 1.0021750243083691 0.0001793340147260
1.0022611031007336 1.0021786453899273 0.0036113573887112
1.0017706673881726 1.0006897127217347 -0.0009873694922522
1.0011186130576093 1.0003885715912579 0.0005513266588164
1.0021317484740102 1.0013066145414080 0.0001210863644356
1.0020237063369506 1.0009618391773201 -0.0022561595099419
1.0021812108917740 1.0012124069518400 -0.0005605176956545
1.0017715161951601 1.0019136106584967 0.0013938004330661
1.0010977695265872 1.0035999040562162 -0.0015450816063524
1.0024032682189179 1.0013844968772667 0.0000448211191073
1.0014734609807716 1.0022262122027681 0.0017908489282541
1.0021852551677173 0.9985334960379860 -0.0002929014450312
0.9975755289390826 1.0005869624508295 0.0002147087431007
1.0019497222184210 1.0016705087200886 -0.0006325904948224
1.0023320846793065 1.0016741753138083 -0.0014372876729168
1.0009284983619733 1.0001180555247964 0.0007456723057212
1.0018292921543117 1.0019721616157098 -0.0012376774082233
1.0024792642226124 1.0002853423941813 0.0000467427899300
1.0018125058172520 1.0018258915470235 0.0005938644292441
1.0020758526615376 1.0013158596093785 -0.0021100660409933
1.0017184788660918 1.0019148409919327 0.0000010587947184
1.0022899885287617 1.0009573215914165 0.0000367439563211
1.0017019911280693 1.0020803023456750 -0.0000480529751510
1.0036585417784329 1.0012689580714820 -0.0009674349891337
1.0021395230579939 1.0015190740754552 0.0000458056957964
1.0018486859574129 1.0022285201623375 0.0036227103858188
1.0018662961661766 1.0018252341951421 -0.0003373723705432
1.0052531102683666 1.0011713549334684 0.0018612810887875
1.0015587003449029 1.0023162885984596 -0.0006272685799684
1.0030781094531604 1.0009766417932617 -0.0031649197840441
1.0020213520005912 1.0017087756157854 -0.0020018953122329
1.0019531954749314 1.0015873965213880 0.0005745087631580
1.0010613301419191 1.0019459444521239 -0.0015217179599509
1.0022933738360458 1.0026632859904532 -0.0031137394604613
1.0017617332380695 1.0007076602694680 0.0010791596940588
1.0019776806835177 1.0015141070080797 -0.0005280431103458
1.0015932921759363 1.0023183058935838 -0.0008346736491867
1.0011935639178300 1.0020298745163878 -0.0002836004295073
1.0021481151629008 1.0012753234211003 -0.0003500061785284
1.0020077087068717 1.0013967599420528 -0.0014880502666824
1.0017575144590669 1.0021710849482703 -0.0018150217646758
1.0018017588242325 1.0018633823617586 0.0000633093335974
1.0016525270011707 1.0013785407972351 0.0013637607498897
1.0007117901763505 1.0003158048525962 -0.0014004860063328
1.0011598789883298 1.0003332365735449 0.0005032960618058
1.0012423856032013 1.0003103144268983 0.0017254021488051
1.0011415569537370 1.0034008233454339 -0.0007662402157751
1.0023862559841750 1.0002007476641130 -0.0009030976777734
1.0020141480627944 1.0014034477202958 0.0001412794050316
1.0024088009666974 1.0001978603899966 -0.0039928292187831
0.9979763358773356 1.0005601903697730 0.0006727459571998
1.0017420341295769 1.0018628828770955 -0.0006910414897393
1.0021880740188012 1.0016126297916628 0.0007775035360125
1.0021246286651251 1.0004623708764873 0.0003505783793635
1.0023957871723619 1.0020233429647374 -0.0032914397334027
1.0018885128284458 1.0016532096301134 -0.0003497083687862
1.0026860976286829 1.0014041409657133 0.0002068930439656
1.0018543879022657 1.0018599346143513 -0.0009219763427902
0.9995086443842349 1.0006844575550591 0.0044166956818425
0.9990664637795198 1.0007587728045673 -0.0032302177278096
1.0023393789024067 0.9996641524805536 0.0042540770476400
1.0025115729333407 0.9995719773985964 -0.0061732327220735
0.9994688828186159 1.0007599772279825 0.0044657692313838
0.9991036002770495 1.0006827257679987 -0.0031001766506198
1.0020588096664622 1.0013438853655205 -0.0004649610386629
1.0019414759631273 1.0018754498507214 0.0013984272454982
1.0026603281697932 1.0015945506320305 -0.0016873316222889
1.0021244475014015 1.0005027998294900 0.0004351458498354
1.0033841189619606 1.0013264030961886 -0.0001547384965862
1.0035290434574529 1.0013323778994765 0.0020362076207859
1.0024305359089303 1.0014189338178769 0.0001470686404568
1.0020729007826321 1.0015295609042238 -0.0005687947444320
1.0025721115137787 1.0015367242533466 0.0005001991256106
1.0016751982103769 1.0021208298154372 -0.0009751386111643
1.0012876915608864 1.0014272118001384 -0.0012450382380714
0.9992527492042564 1.0003515962644114 0.0011045843228185
1.0021270439437469 1.0010473473884101 0.0012528017016933
1.0020138939044505 1.0012651816403213 -0.0018469327102417
1.0012370264064334 1.0019028191683181 -0.0010824998150626
1.0022685517406171 1.0009427306796255 -0.0003677592951373
1.0022407993704350 1.0011415891135920 -0.0017604048498956
1.0014592799018656 1.0006334493242353 -0.0005450456513237
1.0008442822003232 1.0002694587011873 -0.0013085150492745
1.0022643234822302 1.0012179306434714 -0.0016645665001166
1.0023798959757173 1.0008248514726845 0.0006705296096718
1.0014558305655401 1.0021114457527751 0.0026705901695574
1.0016009703013651 1.0026148045651726 -0.0018721139981379
1.0018211118610243 1.0020501325273168 0.0005472580050974
1.0021423262673133 1.0019263881449534 0.0026752569353759
1.0022458703594745 1.0020519925528113 -0.0020035683724031
0.9992318354289198 1.0001856781824621 -0.0023982888198879
1.0017019506031712 1.0020784742190878 0.0002995028232675
1.0024093278887578 1.0013939492415787 -0.0004453164772585
1.0015489780452012 1.0022246080994202 0.0005881121487016
1.0016964774651358 1.0017287913081667 -0.0006922547998388
1.0011665160810588 1.0005007495801026 -0.0027554550226536
1.0027306680881423 0.9998575039869328 -0.0043138416745692
0.9985432155822095 1.0004280077485757 0.0017495702859985
0.9985685209449404 1.0004627794810446 -0.0012901610780991
1.0021734110656870 1.0000671279564670 0.0022526753619879
1.0024718325876232 0.9999014619067728 -0.0033744946498638
0.9985187799536284 1.0004713634191729 0.0017908292689157
0.9985747462091981 1.0004285208819519 -0.0012241131227173
1.0026852924095064 0.9997186757716087 0.0043875487145904
1.0020270034434238 1.0003697660404756 -0.0005925812215025
1.0011690004006464 1.0004187264650601 -0.0000228524991720
1.0013954314711753 1.0004373996349067 0.0007222593347014
1.0012105131283844 1.0003019573248337 -0.0005684292911543
1.0014656872798038 1.0003885579263931 0.0001673752550452
1.0011212414536854 1.0004422996988149 0.0000182793059270
1.0019906600327084 1.0003933203017941 0.0006686211919134
1.0012919550221762 1.0002334448251262 -0.0005462648327816
1.0038452031682479 1.0003132027521640 0.0021017901043456
1.0019501279866756 1.0012518128342225 -0.0022698460680871
1.0023520209386039 1.0017998207981682 0.0023916594559414
1.0022995154620011 1.0008900329849679 -0.0011657387167021
1.0019905169807499 1.0003439686440510 -0.0001255286332569
1.0010600728078134 1.0017555313175348 0.0004881561303502
1.0021151220354561 1.0009326931697624 -0.0005433514059176
1.0014184931429202 1.0027149480151156 0.0000958035690325
1.0018537532652816 1.0013026785613153 0.0022819186209599
1.0021669166136260 1.0016887125310143 0.0015882308246459
1.0022998150828464 1.0016146311747109 -0.0001527352493668
1.0020827737591225 1.0016140354519270 -0.0003808545279346
1.0022836463208977 1.0013243301207844 -0.0018286501815642
1.0011824725890768 1.0011176546634315 -0.0034533149650841
1.0018630990362460 1.0016278028738232 0.0004854724805447
1.0021825536351621 1.0008568000110136 0.0008231271594564
1.0019305681320954 1.0015508706895011 -0.0004480168715220
1.0040700171652670 1.0010556384405254 -0.0010972593932354
1.0029593532200964 1.0015341285219166 0.0007979949008350
1.0023256953827788 1.0017384514736078 0.0009971241860646
1.0016820537563966 1.0021088188250225 0.0006807860195207
1.0012373664621523 1.0017089388744387 -0.0010932653903439
1.0025400623195557 1.0014997319428445 -0.0007001046056911
1.0019068088555565 1.0014678432197188 -0.0005784661274056
1.0021942691021797 1.0010684138611010 -0.0007140182789831
1.0016002952627319 1.0018071153029440 -0.0005193352180142
1.0017928201357158 1.0003637589517094 0.0012682896272749
1.0017928860434169 1.0008794619607144 0.0039224657950470
1.0021131394056335 1.0013867680511002 -0.0008254627018184
1.0022333344829284 1.0016565058270537 0.0015574078141115
1.0022070359951960 1.0000235187599291 0.0003972743450383
1.0017783745949527 1.0015205412355275 -0.0014934517809422
1.0017286531386851 1.0018424952082432 -0.0002589422102948
1.0022615606372367 1.0020956093687936 -0.0000921049702940
1.0018564057819090 1.0017823705484035 0.0013673978658362
1.0019861797545029 1.0011993977903555 -0.0004268754274478
1.0023620374061319 1.0012964816973187 0.0008372889023535
0.9977410543354025 1.0005924939665496 -0.0001852849205653
0.9978812174682127 1.0005598714042867 0.0004571742013402
1.0027067237463225 0.9980683878402385 0.0012879733594917
1.0025886533718471 0.9982997687115714 -0.0022242929594386
1.0018976310935774 1.0017318252690974 -0.0005086641846287
1.0019966375301903 1.0013984893896968 0.0011924034672371
1.0025771372092673 1.0022347396784890 -0.0042383463703047
1.0019013168447835 1.0016279001531689 0.0004752542228120
1.0027377339567307 1.0015126376608272 -0.0003309982706977
1.0021726640922477 1.0017949213554203 0.0003849182059672
1.0021461709421802 1.0014672495754020 -0.0006635218949201
1.0028311021794165 0.9997462864249040 0.0016073973511441
1.0025691161175183 1.0012732127187811 -0.0014655291933112
1.0028747962878670 1.0012872411043077 0.0018870534554408
1.0033642047272113 1.0002402205765173 0.0039058551543609
1.0019882571629579 1.0016039074248095 0.0011692406189649
1.0021496972051929 1.0015632303794832 0.0000198521328977
1.0045838536318967 1.0000405525915781 -0.0002759550688672
1.0033047468541445 1.0010053655091025 0.0002522577003543
1.0022129026182787 1.0014938433615261 0.0014228656884525
1.0020618360382307 1.0014267783271060 -0.0003648579127091
1.0018793600753544 1.0000699441088794 -0.0048196251536190
1.0023438228862409 1.0016303980020451 0.0004203832839206
1.0024339952706789 1.0012288299759711 -0.0020153911264620
1.0024274984324335 1.0005477157357514 -0.0003816711188413
1.0023195425213294 1.0009838135802043 -0.0021270323384066
1.0012936136102173 1.0016140795666841 -0.0028743580611922
1.0020725012932044 1.0009520908668752 0.0024598168805280
1.0021978591830814 1.0012718512951462 0.0012637535773265
1.0019022988234592 1.0017439361997988 -0.0012577809363914
1.0013587836758227 1.0020916582113624 0.0012820635587443
1.0019288133473414 1.0017380101859161 0.0004078096276409
1.0021691184886135 1.0008480382746678 0.0017004899354835
1.0022633521762851 1.0015085431521096 0.0015191290162190
1.0020326474098205 1.0013866603513453 -0.0024568381553623
1.0016247016639590 1.0019471797436494 0.0013580561285724
1.0017529805791836 1.0031882258512628 -0.0022841818867518
1.0024762616645766 1.0019643041568624 0.0033818876047175
1.0025459602634483 1.0012762469475167 -0.0002476399801391
1.0030911619158811 1.0013765507123147 0.0000885194672168
1.0020805840671014 1.0037836032686858 0.0051609122409951
1.0018982227467028 1.0011015265667171 -0.0017127116955755
1.0020655173991171 1.0013393789640956 -0.0004644326595392
1.0015811752114616 1.0021431260120428 0.0014142252077957
1.0017770769163947 1.0020153694838694 0.0001152537091671
1.0024470503982723 1.0006604517222559 0.0013918942593396
1.0022675218345793 1.0010476158824817 0.0001847480328751
1.0019702522727048 1.0016692531383293 0.0005301942565133
1.0022029514766584 1.0011877221980585 -0.0003398846254262
0.9996023665669197 1.0021143604681784 -0.0003243388694969
1.0020768464327117 1.0014082391276355 -0.0007030873257245
1.0020296165204852 1.0014609499399825 -0.0007224166965243
1.0022806249858605 1.0015053343325677 0.0004611285029583
1.0022466259455629 1.0015737749379616 -0.0022153990668009
1.0010765141881619 1.0029917975576157 0.0018783383046547
1.0013466343099751 1.0039859334528121 0.0034446082830022
1.0019141744536175 1.0015701236040393 -0.0005223072684958
1.0018797067306384 1.0014395925349882 -0.0015483335867534
1.0014921021054088 1.0011911241875591 0.0001615168993172
1.0023739791171498 1.0005845128337947 0.0003694408166746
1.0021932526056749 1.0010318847710060 0.0008471320006149
1.0025034444108745 1.0013791646167849 -0.0015106006424812
1.0018154433902509 1.0015075568377103 -0.0006157028370292
1.0018308085019576 1.0015653848916672 -0.0017152871262123
1.0019372072749728 1.0009733027808285 0.0019396096285849
1.0019142106571701 1.0017329746943866 -0.0001693280790881
1.0022015772028263 1.0016877715128047 0.0020046804590456
1.0006929301879706 1.0013136540248935 0.0008402926029031
1.0026462715268536 1.0010889522965636 -0.0016902188296118
1.0011138416264078 1.0023341026626031 0.0043505730015294
1.0012820104780076 1.0018431741179417 0.0024520808894729
1.0017301272500894 1.0016732682078333 0.0007363445775894
1.0022010799494969 1.0014949188045925 -0.0017090995442669
1.0012375484427762 1.0034218208155006 -0.0003135896801187
1.0017332244730146 1.0013014874100536 0.0031147736189565
1.0014173641017994 1.0023401789828918 0.0022822060931200
1.0021884192875135 1.0014897290683540 0.0007333496137909
1.0021225642962834 1.0016914151560103 0.0014787831301703
1.0039133054741878 1.0007912493647195 0.0014493370457803
1.0020470076708465 1.0008682794686161 0.0030667635126231
1.0019612395613555 1.0017963053251557 -0.0000405427191083
1.0017931957548105 1.0005095139610640 -0.0002438218566672
1.0024784624616421 1.0017284360002816 0.0022446428434732
1.0023864532876534 1.0002393249054997 0.0025409877775872
1.0019151843671159 1.0016498142841515 -0.0001379651650242
1.0022365214446884 1.0012681303777944 0.0001738784602809
1.0014136960179034 1.0023886483790563 0.0018751688417081
1.0023375088103712 1.0014661942439047 0.0004374465474375
1.0019700086281116 1.0014542860957349 0.0009750287684504
1.0024895531533395 1.0001999747526582 -0.0034702422030322
1.0021181156525500 0.9998344876022162 -0.0027262620584485
1.0021953869404800 1.0016359474936396 0.0010804707708248
1.0018127670623247 1.0012561156525712 0.0013607052187679
1.0010831813581869 1.0027431720624367 0.0053289677638572
1.0020553446218923 1.0014375621625393 0.0009004472112246
1.0000739579522664 1.0016529546522115 -0.0037441881042215
1.0016160458267280 1.0003264771027363 0.0020081406908716
1.0042209994936473 1.0009714508183616 0.0004102142827651
1.0017421016041834 1.0019255051026856 -0.0000054814014492
1.0010781204324373 1.0023552288444868 -0.0038981882465733
1.0017345466166738 1.0022947931085848 -0.0015936069510618
1.0017123270495247 1.0014702098242498 -0.0005547327591054
1.0024694293357597 1.0013524297448715 -0.0005494118508768
1.0015903228023544 1.0019327212383613 -0.0002300664062657
1.0022291859936099 1.0017227381358851 0.0003746832327280
1.0016905412043515 1.0017394390795342 0.0015502785279854
1.0018348815110634 1.0015108964576507 -0.0011028168061309
1.0009596782220271 1.0007538578171618 0.0030593070427785
1.0041849848850333 1.0000050745014777 0.0044967269028034
1.0008214492582612 1.0036757470528037 -0.0002955165923386
1.0017679529783194 1.0013396418441229 -0.0010547142431404
1.0018323773671340 1.0018180550890727 -0.0000637937515559
1.0021416564506362 1.0014527395092194 -0.0019686367414506
1.0012181759299854 1.0025300003451638 0.0013930175980684
1.0024505752306927 0.9995901323895278 -0.0078672006746759
1.0024427933795774 0.9995419420677174 0.0078684495163773
1.0020413773202994 1.0019480578484321 -0.0000218896645034
1.0011099908978365 1.0030580249362062 0.0004195979075396
1.0019531026545436 1.0015938057049860 0.0005162673686141
1.0021691182430676 1.0009044551428408 0.0013394324947038
1.0023406031540247 1.0015557349445181 0.0037205522641466
0.9977552395089158 1.0004865682714363 0.0001716873205890
0.9972796946616281 1.0006091971091682 0.0003908040615895
0.9972237996374054 1.0005700528070660 0.0002954786544108
1.0030517836273229 0.9970149161813147 0.0030902865482147
1.0015818358992474 1.0020669587598507 0.0017532372540705
1.0024890967952567 1.0016128212119868 0.0012285844427850
1.0020880486192443 1.0016531845790437 0.0008394560038613
1.0023440517990554 1.0012401127103723 -0.0036685890407581
1.0009439955388379 1.0007071143289525 0.0029138391128183
0.9985072798439761 1.0022963065270132 0.0008011834344900
1.0024705088302863 1.0013308687330877 -0.0008806250913725
1.0035825123918758 1.0013195709161204 0.0010840428512566
1.0015489164868709 1.0018874763576262 0.0003332752511786
1.0017447932758152 1.0019435683985258 -0.0000592046999751
1.0014505976484203 1.0026584373940624 -0.0005246709495570
1.0020944722095331 1.0013790882018156 -0.0002105424736623
1.0018175710104014 1.0019666941670979 -0.0015168092531902
1.0020193642479582 1.0015775632811901 0.0006026349853806
1.0018519684232248 1.0015741810636116 -0.0004818364423914
1.0016754470860676 1.0015850213869313 -0.0015824616853654
1.0066180603165922 0.9998892764902396 -0.0056644453857058
1.0020289406725154 1.0015037781936682 -0.0003919747889609
1.0022819129722755 1.0007938391504960 0.0005513499490723
1.0021991161877049 1.0007987676318222 0.0011518984990837
1.0024479611840300 1.0014978301533211 0.0011521828059975
1.0017339115389163 1.0017385923330644 0.0045443061512231
1.0049774574903634 1.0001588329298616 0.0003712164607504
1.0020714230894887 1.0005043244294307 -0.0002374934716115
1.0021756999273392 1.0014088164435284 -0.0007828486364481
1.0067483670392412 1.0003267522788148 -0.0023564734741387
1.0020884631597020 1.0022071453427304 0.0003512251867919
1.0020748491778158 1.0012604944375800 0.0009160224186560
1.0010296554631744 1.0026568270148093 0.0047878737434588
1.0066618650319550 1.0000988310596992 -0.0038492020548995
1.0024612335859597 0.9997462864249040 -0.0041501584268708
1.0019760810803398 1.0012817787269248 -0.0005382687306854
1.0013342284695421 1.0026408512540235 0.0023887055799427
1.0012172776897836 1.0018935730815668 -0.0010720963222716
1.0020286094779960 1.0018188806078736 -0.0003097779937435
1.0017168811595349 1.0019588957609784 -0.0000016420208648
1.0021511808326362 1.0014691602372277 -0.0006355523575947
1.0020221716049378 1.0016789098096914 -0.0001681875810163
1.0019141685319415 1.0014814857894150 0.0015022687456913
1.0009784391626844 1.0010378855554183 0.0011411543345604
1.0021508772380401 1.0012965534910494 -0.0009924198690259
1.0020727658805024 0.9999589995053851 -0.0001269789818072
1.0023718621786257 1.0013012377687525 -0.0009889505377711
1.0021000284346764 1.0022126441126697 0.0017271603475415
1.0018103323359175 1.0017399105261178 0.0008096161744207
1.0021562548615259 1.0012147373863660 -0.0005632772307057
1.0026323721397485 0.9997996328566259 0.0015057289002566
1.0043921736987067 0.9999794287771903 0.0027075039646696
1.0021721794343035 1.0011632647487392 -0.0006359597844683
1.0012109186335889 1.0019031497874524 -0.0004174908307725
1.0021579896653872 1.0010228592462016 0.0019051657360118
1.0021930523634193 1.0013594246475792 -0.0009441570043775
1.0020734256085415 1.0013620880275125 -0.0010788986868744
1.0059712537026557 0.9999512748456203 -0.0045141796589242
1.0018474266032946 1.0018679972217155 -0.0011562237678896
1.0009596782220271 1.0011354455307004 0.0056161455593158
1.0018197456688662 1.0020364982714305 0.0017198852471576
1.0022618070883051 1.0008575921762852 0.0003662224220281
1.0017332000803845 1.0015918222604252 -0.0015094862431477
1.0011489996701228 1.0020299773617098 -0.0057100099781212
1.0021306828707282 1.0015192688819132 0.0012485909933765
1.0021178291780577 1.0020512689548882 -0.0001598179648553
1.0014732369398807 1.0019325851214878 -0.0004740784464348
1.0075096295773545 1.0000135248583959 -0.0032540596211290
1.0032841708183284 1.0014815652325695 -0.0028015991152019
1.0042883460932586 1.0004077114863867 -0.0055181301684309
1.0018513192883631 1.0018883311518201 -0.0008559242451728
1.0012413511616336 1.0022358942597858 -0.0022110117987536
1.0025049099930610 0.9998344876022162 0.0025307746552992
1.0023411491173229 0.9997996328566259 -0.0045646034862147
1.0017038943180827 1.0017845588022292 -0.0011738141912950
1.0025554601034306 1.0017395691189466 0.0003513469420413
1.0020762672043237 1.0016265026144329 -0.0002825806271038
1.0020521618480043 1.0001973949472367 0.0003951551903576
1.0016960303489000 1.0002051853180305 0.0013118038511586
1.0019443444537972 1.0015950051667553 0.0011881951983113
1.0018251393929838 1.0015869394686008 -0.0011788232155340
1.0022347029082512 1.0008655634952235 0.0012557047364872
1.0021593077771578 1.0006927315565184 0.0028158953411030
1.0021747688525653 1.0010589697357883 0.0011946355188292
1.0033152169628305 1.0011643158235615 0.0017544650723270
1.0036751278344751 1.0018354876010742 0.0025760865719265
1.0026184334281609 1.0010622202027069 -0.0024271246666839
1.0015206241241434 1.0026998761829629 -0.0042354144140045
1.0019378745088015 1.0014741915112357 -0.0006712642373666
1.0013457408066189 1.0029251302712354 -0.0001083117434988
1.0030923194959092 1.0011762831970283 -0.0002605896938089
1.0018298451994410 1.0018954329316823 0.0004764750646562
1.0022252739246138 1.0016388415347814 0.0011630526951263
1.0019945155940184 1.0015958242667478 -0.0007357603029198
1.0019366877901921 1.0016723483469023 -0.0004908450640380
1.0022571528181725 1.0013332139243922 -0.0007159537747200
1.0015195773304895 1.0023410744840748 -0.0006920987043968
1.0021886564900195 1.0014229692995407 0.0011478569124256
1.0018825181268070 1.0016035429795187 -0.0005732511693053
1.0016019748880858 1.0019562010263550 0.0021910609882645
1.0021072485361766 1.0012437475024203 0.0006413002064554
1.0016711133814282 1.0009977636229141 -0.0012867986466248
1.0023325159398695 1.0011074465485625 0.0006485719242574
1.0038757154604501 0.9999981632119562 0.0007451941449950
1.0021724151039202 1.0015176537813135 0.0011256249656773
1.0021832121588987 1.0017418819962256 0.0017609228718054
1.0022031403792093 1.0013231615300395 0.0005864142638522
1.0018889220302787 1.0017144175896930 -0.0004315372635849
1.0022499774275682 1.0010222999113552 -0.0008355559095889
1.0024254247809683 1.0017705670723125 -0.0006641193994606
1.0019558131869022 1.0013103450688940 -0.0019113669206387
1.0022243001712705 1.0015960980791605 -0.0002925491895002
1.0021135030256696 1.0016198794816349 0.0005802933467031
1.0021380847199892 1.0015233152076002 -0.0001151756585885
1.0019358766978006 1.0016139826399022 -0.0005986632484326
1.0015584008685168 1.0016331448549816 -0.0006786188658671
1.0025042497571679 1.0003362299341272 -0.0010597531795527
1.0014438391168383 1.0019375942071009 -0.0008942147670957
1.0019039064400113 1.0017607316414441 0.0006047302979865
1.0014665070043522 1.0021063112315045 -0.0017665311314114
1.0017279293962191 1.0016263713710065 0.0016174919479854
1.0019392146991510 1.0017941827490009 -0.0002053884180831
1.0018191659771489 1.0016748624834451 0.0000176642529028
1.0019873955331748 1.0012676743574151 -0.0000032440564227
1.0020933182003247 1.0016285342634375 -0.0002973859634650
1.0022350130164492 1.0014380103210521 0.0006717531875168
1.0022897973526053 1.0017426606782114 0.0005109684775784
1.0028302555300908 1.0013007188577132 -0.0019178009979789
1.0012283939096505 1.0036797169392739 -0.0020224713487738
1.0011178677505663 1.0027224372665804 0.0025873845697828
1.0021294105595455 1.0016415780970924 -0.0003867776714130
1.0018805509866213 1.0018793272269524 0.0001529020994080
1.0019942746861954 1.0013860286059053 -0.0001485518576567
1.0015905187306990 1.0015632245727633 -0.0012158141099954
1.0063416563315606 0.9999265363542423 -0.0056823265480052
1.0016012588754910 1.0020920214891025 0.0015283769519134
1.0018612543014045 1.0014037354822976 0.0011827843053867
1.0014175846739422 1.0024555740429326 -0.0040252470966599
1.0018277788721013 1.0016399824124040 -0.0007929080904613
1.0012001468884280 1.0030812831918812 0.0044457062505920
1.0009439955388379 1.0011545587655273 0.0057590073629743
1.0016361875357505 1.0020941372292016 -0.0006962625824887
1.0010954616270313 1.0018269607656507 -0.0032453780864130
1.0022528464604075 1.0014026937396194 -0.0008883508515586
1.0018557504355610 1.0017472760281041 -0.0004591800188028
1.0008883464809897 1.0011295649588305 0.0011809518519216
1.0024988603340523 1.0009097706487318 -0.0014451058882212
1.0022781329226169 1.0009548196842692 -0.0000894391285902
1.0025277684494640 1.0003560259414799 0.0041068983011766
1.0016967173057030 1.0017050096762852 0.0003141658635114
1.0019966276442955 1.0014493312106245 -0.0001604283405478
1.0012664290895155 1.0025522965751776 0.0002939048725955
1.0016971118748812 1.0017506501575533 -0.0008037966893670
1.0016182698599629 1.0016964484499231 0.0043014419106194
1.0015809476160544 1.0019274595705847 0.0005388989582821
1.0021095494055083 1.0015564845577898 -0.0003373453322945
1.0018364503353272 1.0017295092805030 -0.0008817176586550
1.0019557777995058 1.0015538322781781 -0.0012706472948782
1.0018735091826885 1.0017443683649057 -0.0006175757358021
1.0023673707075060 1.0016769054707451 0.0005819030970251
1.0018142900135492 1.0017681656248065 -0.0000981838482950
1.0020464205858397 1.0013819459420512 -0.0008995957849867
1.0016375205396733 1.0022605199189527 -0.0007485980015928
1.0018027489399814 1.0018514971777552 -0.0008121721179073
1.0018854141169575 1.0015990321654460 -0.0017600881461320
1.0021744093324281 1.0017212615184696 -0.0002249350853679
1.0025469407995771 1.0013403176244122 -0.0009565027306808
1.0021352533324877 1.0015273556351036 0.0017819129169798
1.0016674049966166 1.0019053715827846 0.0001931625700932
1.0019043167848192 1.0016341626766505 -0.0006046424465480
1.0020727638180762 1.0017656982175858 -0.0002754388906954
1.0019978586945189 1.0016036974389244 0.0008267071377411
1.0018999565977806 1.0018144785156033 -0.0016879798285311
1.0018237103182843 1.0019283725546761 -0.0005980358449028
1.0021879775604940 1.0013395804138283 0.0002962169778725
1.0019508801182979 1.0013994904961872 0.0012196266073857
1.0019053534735858 1.0015954534024192 -0.0005368361483702
1.0020459288170567 1.0014823604109022 0.0000623471995152
1.0031487293776842 1.0011642168601191 0.0009553189276590
1.0022099846180812 1.0018388413320236 -0.0005671523469773
1.0019411694623426 1.0014209901061808 -0.0004910340668833
1.0010250183243279 1.0008648433458058 0.0000897713627299
1.0022901555053141 1.0009050037381002 -0.0000822039140887
1.0020082729543180 1.0012993635795131 0.0010757883184923
1.0017216368802067 1.0020772198548586 -0.0002745080424028
1.0017192143571338 1.0015983647622451 -0.0009811437954239
1.0010814161221047 1.0011536259228269 -0.0002300698926092
1.0020342996000366 1.0014743868840563 0.0000910500185691
1.0019436644820705 1.0016135034939462 0.0006152958357253
1.0019292006748348 1.0017003090218435 0.0005414789641001
1.0020183508684546 1.0017490232468957 -0.0005610984594066
1.0021171587672855 1.0012722585515308 0.0004059557357461
1.0018800564022050 1.0018046095030606 -0.0007234493385956
1.0022833474750266 1.0014982310023051 -0.0008748046487309
1.0018796006617885 1.0014685269494230 0.0000530191107810
1.0020178339531109 1.0016897602240373 -0.0002721968299555
1.0016275437353648 1.0019142727437020 0.0000153818903179
1.0018351158004568 1.0018094464835501 -0.0006047734231973
1.0022301196997636 1.0001730970488580 0.0019653951175792
1.0019824208563992 1.0016007061929304 -0.0005211100131791
1.0022133840810750 1.0023294379653722 0.0008956333389336
1.0019128429704121 1.0017683010180176 0.0005860428120791
1.0017771547197978 1.0017955885731129 0.0006749328274285
1.0010920611177505 1.0017276481107293 -0.0012238059433393
1.0021279667568819 1.0016393092571263 -0.0006107279341245
1.0025156075082209 1.0003634392755221 0.0032849840748225
1.0018598939341963 1.0013784920949589 -0.0000065967363595
1.0015066097799756 1.0022896251404434 0.0039927403445454
1.0020005784936301 1.0014595804041242 -0.0008027167451174
1.0022980884316928 1.0013282878897587 -0.0001760315745921
1.0025713172325648 1.0009764328995185 -0.0017140450369075
1.0017910316157663 1.0016676075779514 -0.0003168967261998
1.0020126677296179 1.0020216129516397 0.0029708255948515
1.0022445275583545 1.0009129798338869 0.0004273898869582
1.0020663682065920 1.0014983223415417 -0.0005123930760012
1.0027643304765430 1.0008931886890955 -0.0020728441421134
1.0018139772719501 1.0030668616548779 0.0009237771547934
1.0019360678874900 1.0017390276692089 -0.0004484489967121
1.0018165070451548 1.0016360379659759 -0.0010662021269327
1.0021601463579624 1.0015343243470314 -0.0000738152940627
1.0015340438285105 1.0024262405854727 -0.0001934953532557
1.0022595078830301 1.0013604968710781 -0.0000791815744083
1.0028392443509224 1.0013254046544882 -0.0022470430946760
1.0016746508900949 1.0000699441088794 0.0015825621097935
1.0025816795919094 1.0016527037865908 0.0006138011184733
1.0019771068481145 1.0017195230275238 0.0003279024760906
1.0020886971444303 1.0013094195056638 -0.0005140647640343
1.0019323316383359 1.0017713653200848 0.0002141435150266
1.0017988537052700 1.0019195857276868 0.0003556155799069
1.0017635184178610 1.0019684623365486 0.0006790528386202
1.0020441920253944 1.0015368615376419 -0.0007899641803079
1.0023161176520312 1.0017101574074381 -0.0002347737504231
1.0018383350741127 1.0015868599283486 -0.0008555342464945
1.0020263349757563 1.0014052876405575 0.0002348834643588
1.0016242270431861 1.0022148039714487 0.0000082078193329
1.0020669590132598 1.0017334520515924 0.0009171240326462
1.0021055492936304 1.0012232801534333 -0.0009985819262332
1.0019468917240562 1.0017844456080958 -0.0000472222912380
1.0018924719906350 1.0016805387669596 0.0001483372548397
1.0018270983438142 1.0015168727943218 -0.0016603081215457
1.0019419537934715 1.0017668607578345 -0.0000689781155811
1.0020442402146008 1.0016796562540005 -0.0000094266970883
1.0022775299621047 1.0008951539406379 0.0007486860755450
1.0017663241354839 1.0019033995971567 0.0015132169401945
1.0019469320436718 1.0003497300332644 0.0028977789432879
1.0018823831705597 1.0017484945270136 0.0006535973295646
1.0017281533002165 1.0019835014994165 0.0000410863326860
1.0018107795432278 1.0018288452999622 -0.0014401704918795
1.0016548494331434 1.0019206917786063 -0.0007323109658984
1.0017702965277684 1.0018762883942736 0.0006982636882009
1.0019911032485629 1.0017094036197760 0.0011027621281184
1.0018613307149031 1.0017510788645523 0.0006938480095636
1.0019595580869756 1.0016912117207799 0.0000651015700593
1.0020913567848382 1.0014786671482643 -0.0007968456261275
1.0019176452399359 1.0015830807404920 0.0000852118600395
1.0017320759946662 1.0020269609955950 0.0002623215147832
1.0029530158172930 1.0015855179800348 -0.0011185479306265
1.0019308907488316 1.0018360329393630 0.0005041758302964
1.0021874400814843 1.0015623238192919 -0.0003137787670265
1.0018039838207242 1.0018541606283309 0.0006364246920383
1.0015618427842230 1.0019047939168455 -0.0001800030350434
1.0020648057749653 1.0013052242105933 0.0006988156855399
1.0019282540191745 1.0016707249709333 0.0000034124916207
1.0019595624183419 1.0017044258804157 -0.0000961006937287
1.0019904838526228 1.0015599971766189 -0.0000389628547938
1.0020970306241539 1.0017231886465150 -0.0002588132533309
1.0016922061573665 1.0019295151550491 0.0006867952552325
1.0021220505967880 1.0014639260302240 -0.0003959789822904
1.0018884588028358 1.0016643519001491 0.0003502062077662
1.0019199316127412 1.0018122172987214 0.0000781676752512
1.0017576097096679 1.0016821457864429 -0.0012604821087632
1.0021026792481418 1.0016747374268442 0.0000168091318642
1.0020717946177105 1.0016672640499977 0.0000772607174113
1.0021572471723865 1.0000251445981232 0.0030107965852312
1.0019362727829624 1.0016450942362043 0.0000324729555048
1.0020818452664204 1.0015558397581992 -0.0003796033456620
1.0021625557527201 1.0014884278154599 0.0000062531746668
1.0017009542281263 1.0020916168978737 -0.0012088272551088
1.0018940004156947 1.0014549927001095 -0.0000592825894095
1.0020271704563823 1.0016317861727888 0.0000681457130579
1.0019130094243787 1.0016597506861933 0.0002659895227560
1.0017430594155883 1.0018048949632019 0.0002698760197920
1.0024297004176592 1.0020252675743131 -0.0044210962487929
1.0021536008906704 1.0015645491118157 0.0002158432242087
1.0020792702535426 1.0016609327960053 -0.0001254304751998
1.0021596682594931 1.0020893270045064 0.0000144085606768
1.0024784318254405 1.0012728245882110 -0.0018979918138049
1.0023565001108765 1.0015066513853430 -0.0002259345448868
1.0021211107218500 1.0013056116490138 0.0000684498152853
1.0019235564526729 1.0016009388114882 -0.0002529260912538
1.0010250183243279 1.0010427109358886 -0.0026500087704312
1.0020683703274547 1.0015964525941985 -0.0003594252161412
1.0018812692188517 1.0016637348732877 -0.0003178524649731
1.0019130099092246 1.0016652765397123 -0.0003139909393367
1.0021940254552630 1.0015614979167595 0.0004566274202810
1.0019938897671106 1.0004122902851011 -0.0023090773552529
1.0020900892773523 1.0014106962847320 -0.0003765507523745
1.0018448614222379 1.0015039088711033 -0.0000578558688847
1.0020999769700440 1.0016048151810868 0.0000206599380975
1.0019567988897424 1.0017729711852081 -0.0001296363485528
1.0020565745533034 1.0012757403029078 0.0009968124144559
1.0020872567472388 1.0016781064465397 -0.0004761065842620
1.0018217748021625 1.0015774152476751 -0.0000550543190541
1.0020757233592881 1.0017319040972696 -0.0000407873383663
1.0023365056884470 1.0015506918366173 0.0000462427585268
1.0022131790285647 1.0014437285311681 0.0001638574337586
1.0022014554706273 1.0011047230910572 0.0005022199367270
1.0021987737813978 1.0016627047367153 -0.0002046362650878
1.0022031169320513 1.0015636847410756 -0.0001134868549996
1.0022209852147674 1.0015836460142864 -0.0002348586558949
1.0025200591097769 1.0015943961244049 -0.0002958591660428
1.0020990132243923 1.0016175401585390 -0.0002767203037646
1.0019927973380012 1.0016289973750954 -0.0003741210726901
1.0021085866015593 1.0015739527525358 -0.0005035290089288
1.0021393945038912 1.0015150766237531 -0.0002992752700592
1.0020771424283985 1.0013463463303052 0.0004555845844512
1.0022527800402432 1.0015042489869097 -0.0004294862725100
1.0022308544311123 1.0015712264238512 0.0007528287880626
1.0021214476723110 1.0016230605776451 -0.0000229615969416
1.0021412523824935 1.0015947018600313 -0.0003281620858289
1.0021559191433060 1.0012069712394003 0.0002580360082040
1.0022211996962136 1.0015973749639271 -0.0003978155088770
1.0021206388293773 1.0015753289356080 0.0000342346602390
1.0020761678082253 1.0016859124963546 0.0006274150744823
1.0018756891076745 1.0017887356260022 -0.0002575632140569
1.0020526675184955 1.0012627557002620 0.0013419989678314
1.0019048135858120 1.0015407128196558 0.0007960306864818
1.0018395382433780 1.0017168909734084 0.0004159751906873
1.0017810778576495 1.0020802351344327 -0.0003901240955133
1.0016957160420810 1.0017981112638770 -0.0005687154742186
1.0022635629846226 1.0016486184681548 -0.0001809164980023
1.0022880507627416 1.0016563811738439 -0.0003731554992895
1.0018808361382192 1.0018966918395362 0.0001612207018683
1.0020378939003991 1.0017091020018964 0.0003402609897583
1.0020346697792457 1.0015691434292049 0.0003652437557446
1.0018135061336260 1.0017861978010214 -0.0004471597722736
1.0019083158560598 1.0018147855526149 -0.0005114257047736
1.0019181795772627 1.0016838052244106 -0.0005725578430024
1.0020978762652200 1.0016410064699897 0.0002285138135914
1.0020187754231717 1.0015966025983747 -0.0004274635125335
1.0021821766145793 1.0011377376333139 0.0008445318507063
1.0020135486522317 1.0016262711258976 -0.0004213854143269
1.0020042094500026 1.0017032360179716 0.0000868696192076
1.0020823814620519 1.0015498566815086 0.0002813650968196
1.0017762650049258 1.0020351375570278 -0.0000189872322994
1.0019786329057714 1.0016216593389689 -0.0005908226853767
1.0019538261680441 1.0017533135038803 -0.0000030785138746
1.0020022630673717 1.0016919763025893 0.0001564491149045
1.0019743121696969 1.0017451497848000 0.0003205039598154
1.0018876369996847 1.0017996761344168 0.0003747383332683
1.0019937562630798 1.0017162383658011 0.0000380915097064
1.0020562209860149 1.0016641764613055 -0.0000334812853035
1.0019514593933456 1.0017576073685606 0.0000884364247933
1.0018519716772132 1.0019243631785750 0.0001535289257947
1.0020034797126374 1.0017015528180488 0.0001528654167970
1.0021813015182810 1.0016848848749105 0.0015013560522751
1.0019741176315362 1.0017376453138069 0.0000367420236154
1.0020133059835290 1.0016947656222075 0.0001498682378274
1.0019751106734696 1.0017299144586156 0.0000358398748201
1.0019700480860656 1.0017522214812240 0.0000472525824539
1.0018803110348475 1.0018332553402194 0.0003733019662972
1.0020129035534255 1.0016738086800858 0.0001390390105854
1.0019767142123921 1.0017028672008246 -0.0002384826583886
1.0020029694564039 1.0017058211428855 0.0003146769613222
1.0020832201795093 1.0015001898159936 -0.0003847725870891
1.0019716186952037 1.0016409748531956 -0.0000684155571857
1.0019879952458943 1.0017154635956680 0.0001114407264631
1.0020411364651713 1.0016361040309629 -0.0000587568522486
1.0019401398635428 1.0016323017491331 -0.0000483808504814
1.0019864073183817 1.0017246705707310 0.0001132938282118
1.0018377590856575 1.0017881626973077 -0.0002716076375904
1.0019606374147718 1.0017400121894682 0.0000312991683861
1.0018417218382341 1.0019702652809066 -0.0004294847827413
1.0020013967434296 1.0016868594711730 0.0001055113736468
1.0020462508240513 1.0016425004986602 -0.0001978150423107
1.0020293885705871 1.0016726017155257 -0.0001908558585839
1.0019597381570053 1.0017470512974340 0.0000395488337885
1.0019613890469439 1.0017606370812899 0.0000271714090170
1.0018254840675473 1.0018254601889343 0.0000903041649893
1.0020217034079235 1.0015943618766645 0.0002791163871485
1.0019466839715769 1.0017768590726572 -0.0000341015349563
1.0021162845240033 1.0016541095600113 -0.0001693905976114
1.0019641744683618 1.0017449663622393 0.0000871002919603
1.0019761511808316 1.0017308080177800 0.0000837461557712
1.0019069026630554 1.0018302968375938 -0.0002364261674744
1.0019715936699016 1.0017718906347888 0.0002088035248644
1.0018279651159885 1.0016905814742090 0.0015397772675676
1.0019973351137355 1.0016978936605716 0.0000807716980299
1.0019848449401303 1.0017411035234556 -0.0000280343430941
1.0019600312849923 1.0016530823789322 -0.0001114967387034
1.0020565228416618 1.0014231536865743 0.0008446739781073
1.0019443498140779 1.0017672152543704 -0.0000401439316347
1.0019617950092394 1.0016452298210199 0.0005391471925399
1.0019847155769062 1.0017240663797080 0.0000845471280917
1.0019954847093056 1.0016757658106872 -0.0001053346159022
1.0021608687509109 1.0016149242365475 -0.0001707911206075
1.0019346719302724 1.0018579969018693 -0.0000688812388724
1.0019528886733300 1.0017978119469455 -0.0000836496969648
1.0018462638651242 1.0017952946524229 -0.0001645888905690
1.0018932554677427 1.0017943757990950 0.0001900380820548
1.0021433830767901 1.0016438322668273 -0.0000139880390299
1.0019733886239972 1.0017380171144732 0.0000881161454868
1.0018578230220205 1.0017461278879682 -0.0004452103308974
1.0020848991620190 1.0015473442029217 -0.0000305719146342
1.0020046593285756 1.0016949496255636 0.0001978175872058
1.0020795791353947 1.0015498810099321 0.0002218794518936
1.0020667837424408 1.0016479951206321 0.0000095686832040
1.0018428807037438 1.0018050695909682 -0.0001091550217713
1.0020396878684616 1.0016007210365097 0.0001003846156962
1.0019053269502491 1.0018569549381351 -0.0001726469413346
1.0018537304164463 1.0019254322785520 -0.0000948937994831
1.0020248549649289 1.0016599725817756 -0.0000636967585106
1.0019649651780267 1.0017494582781714 0.0000148800186218
1.0019871961483726 1.0016924287523183 -0.0001881333819314
1.0018895814479931 1.0017975352781001 0.0003601375639914
1.0021114893350869 1.0015488779773909 -0.0000441148314115
1.0019859309215056 1.0016869416450636 -0.0001678005717313
1.0020019528667516 1.0016509310313959 0.0002087451939928
1.0021583130807861 1.0015850076323911 0.0003381922484316
1.0017808335574825 1.0018444246705300 -0.0000029510085737
1.0019739222712678 1.0017578266925793 0.0000766789151855
1.0019481910409163 1.0017201510694660 -0.0004105569458709
1.0020821988525337 1.0016066850857117 0.0000413294850462
1.0019239036267149 1.0018428322135993 -0.0003826289527550
1.0017456525827158 1.0017914718351366 -0.0004544637961063
1.0019683988472232 1.0017932818768573 -0.0001967159440238
1.0019589162503408 1.0017392543792956 -0.0001103837554440
1.0019658009988592 1.0017452414983510 -0.0000647158591773
1.0019843326365876 1.0017501737952494 0.0001871524682713
1.0019338217027001 1.0017323365952224 -0.0001512390648476
1.0021630196825826 1.0015882645879026 0.0000916203513378
1.0019888852536587 1.0016853133684440 0.0003132263709000
1.0019547467956182 1.0017850325003845 0.0000134654000046
1.0019935352232849 1.0017064058799583 0.0000711464195316
1.0020779851887252 1.0015404167714506 0.0000020343785315
1.0019419769981499 1.0017578128046631 -0.0000698819221478
1.0020609655428983 1.0016632975218482 0.0000735681293595
1.0020388997369263 1.0016619179034436 0.0000548587381288
1.0020295894772902 1.0016656974397273 -0.0000735631899099
1.0020593030150025 1.0016108842420957 0.0004270938234169
1.0021843641482107 1.0010487618131978 0.0011802330398036
1.0019407713058106 1.0017411328351202 -0.0001238511508000
1.0019532898578738 1.0017589993659783 0.0000041140953817
1.0019837526342303 1.0017488395817109 -0.0001311907700178
1.0020205563667268 1.0016854340783570 0.0000470165556686
1.0021522921987238 1.0014780580206675 0.0002928293650795
1.0019292931428305 1.0017558101339163 -0.0001233685264728
1.0019900160946122 1.0016015557661935 -0.0004787887825219
1.0020382035465403 1.0016744709067671 -0.0000497635533228
1.0019137900369040 1.0017298255169118 -0.0002839982748141
1.0020253358058682 1.0016432109524132 0.0001026186781694
1.0019294449702214 1.0017989972456698 -0.0001195810072792
1.0019342451069431 1.0017073490295725 0.0000789389206722
1.0019524490698579 1.0016632017284661 0.0001182609508113
1.0021025332557947 1.0016123143642555 0.0000110762601526
1.0021017745276957 1.0016428225941560 0.0003129981717826
1.0021588377508328 1.0014584204990598 0.0001165439409854
1.0019162931384968 1.0017397912114756 0.0001092037594235
1.0020420446262572 1.0016575652684887 0.0000908837475150
1.0020391165129208 1.0016504998134959 -0.0001922462291206
1.0020606683673401 1.0016639110272409 0.0000077220118466
1.0019385852240821 1.0017256919227822 -0.0002417570874381
1.0020821869634766 1.0014197080816287 0.0006484668590175
1.0019613366028373 1.0017646038893691 0.0000756943785433
1.0019973982267214 1.0016590114929671 -0.0002289782237730
1.0020207829216472 1.0016170506359507 -0.0000545265080881
1.0020530991013166 1.0016507249225293 -0.0000250396777601
1.0020507905644858 1.0016255833343926 -0.0000173327154200
1.0019872869640560 1.0017151028675753 0.0000807727251695
1.0020382194349844 1.0016996749752338 0.0003951453008649
1.0020513801556012 1.0016011618075875 -0.0002093901184326
1.0020226076513581 1.0016212675214691 0.0001631036620938
1.0020524043148218 1.0015462261569872 -0.0000328791790536
1.0019612075361295 1.0017543370702771 0.0000915816982218
1.0020902269804959 1.0016837885546528 0.0000323729326630
1.0019521202442572 1.0017603451755306 -0.0001655214626519
1.0019820134140320 1.0016898552360949 -0.0002209142076105
1.0020135067557334 1.0016843776922950 -0.0000871569073934
1.0019511943297184 1.0017818793630311 -0.0000224357513624
1.0020688751975044 1.0016806456761551 0.0004602695899080
1.0020129534891962 1.0015931341290025 0.0003569542831282
1.0018397431472077 1.0019907583852898 0.0002273385728091
1.0019172827825851 1.0017628030536914 -0.0001095108217175
1.0019452281231938 1.0017939552920296 -0.0000397235728750
1.0020956261031515 1.0014906056531223 0.0002327524474306
1.0020773108659262 1.0016986290201961 0.0000071223181692
1.0019500222512916 1.0017252529557799 -0.0001569244100151
1.0019505062375806 1.0017779996960776 -0.0000484272439679
1.0021252534789264 1.0016573254187116 -0.0000313334447124
1.0017722298138967 1.0019905683032568 -0.0004262344305309
1.0019610804396004 1.0017589427119178 0.0005252039349426
1.0020397813461608 1.0016421706696508 0.0000557341858332
1.0019601201118089 1.0017272908742960 0.0003558287935055
1.0023309125115840 1.0016023417204580 -0.0001052541273083
1.0020608105512325 1.0015771556568489 -0.0000889129578545
1.0019964545801869 1.0017261854111330 0.0002933646668034
1.0020823204055009 1.0016514034063384 -0.0000166681858150
1.0019650410549916 1.0016014023893596 -0.0000921607002709
1.0020349605079601 1.0016656494513045 0.0001775023164889
1.0020001417819151 1.0017271135827881 0.0004186099871424
1.0019646212874784 1.0017489797792114 0.0003386257284540
1.0019877273278248 1.0017155831329374 0.0000959547844078
1.0020077297171042 1.0016418641343661 -0.0000455401675830
1.0019741533841859 1.0017539669193014 0.0000748348548588
1.0020039779319216 1.0017091231190076 0.0001440415400487
1.0018431217356751 1.0019477285275016 -0.0001281799935949
1.0020756594289690 1.0016978411641813 0.0003843523001446
1.0020742464931749 1.0016995939417170 -0.0000230075592206
1.0019864924097024 1.0017197954483590 0.0000977794798688
1.0021578121156376 1.0012998787801546 0.0003762539148770
1.0017170181891295 1.0018581621529814 -0.0002088840183857
1.0017990109376793 1.0017625337719884 -0.0004821761702900
1.0019667629065891 1.0017316642192640 -0.0001545606492822
1.0020705757441419 1.0016617013400475 0.0000774946338712
1.0021286285812809 1.0015886206174456 0.0000881756142497
1.0018585857277635 1.0019197507867670 -0.0000432403905267
1.0017421969978479 1.0021771738677148 -0.0000346417664331
1.0020133196179570 1.0016905411963468 -0.0000859111890988
1.0019820189881430 1.0017135167821611 -0.0001232637719853
1.0019515071015341 1.0018067362968890 0.0000890988418407
1.0019270090783363 1.0017984259319734 -0.0000167201221208
1.0018868200410735 1.0018681121122917 0.0003374571572575
1.0019807968573113 1.0017175685782691 0.0000705310969186
1.0019495686296660 1.0017675999865991 -0.0000179144692000
1.0019504519629649 1.0018103976443660 -0.0000040227182296
1.0020898963192530 1.0016549459415816 -0.0000088237272220
1.0022138636887736 1.0017040883356521 -0.0002611916353436
1.0020413310966358 1.0016398411220142 0.0000945608713030
1.0020277376988693 1.0017519671602886 0.0009972854584212
1.0018272632199559 1.0018049207799886 -0.0002084379027068
1.0019859641074462 1.0016385385208524 -0.0001594328233626
1.0019227422650103 1.0017760608549540 -0.0005236310440004
1.0019562421807153 1.0017657389851389 0.0000089879071656
1.0019521313071094 1.0017102733011598 -0.0003064987983325
1.0019363561416894 1.0017457271145602 -0.0000889827121799
1.0020588746001087 1.0015296698965863 0.0000993713215721
1.0020576994018715 1.0016428829371598 0.0000868988439557
1.0021289942576082 1.0016283087170437 -0.0002842475327024
1.0018999757590721 1.0015400719663154 0.0000581945880945
1.0023318090324553 1.0014653014051293 -0.0002049202881597
1.0020094441418093 1.0017139558288590 0.0001543537613661
1.0020754745356708 1.0016627258256348 0.0004127677725964
1.0023028797586024 1.0012080733377564 0.0002654455300684
1.0018175902089426 1.0018320381299055 0.0002415143988826
1.0020238163171080 1.0016985472545639 0.0002615007206931
1.0020368892872336 1.0016588016727213 0.0000645717126522
1.0019083490369820 1.0017542566529496 -0.0001650916448907
1.0020027287604869 1.0016761213479235 0.0000952045721358
1.0018961269469169 1.0018674570837558 -0.0003313431815539
1.0020715698208538 1.0014830702122781 0.0008662164379867
1.0020473011053501 1.0016738248643400 0.0000587163189814
1.0019778119403908 1.0017427861533448 0.0000711622611039
1.0022110074752357 1.0015687762781020 0.0000010390492943
1.0019888611158425 1.0017265115985408 -0.0000572142893880
1.0020711981689439 1.0014269511524665 0.0004516617932373
1.0019246197705693 1.0017863670832907 0.0005925431739535
1.0020139804949892 1.0016990658233786 -0.0000082840004569
1.0018783570673788 1.0017580464347515 0.0006938065089150
1.0018281370136599 1.0019562170105050 -0.0002031198103329
1.0017839538689575 1.0019878731763685 -0.0000515477900265
1.0019539734986171 1.0017560992513028 -0.0000761624711717
1.0019444317997006 1.0017648508555181 -0.0000344066429007
1.0020708548056667 1.0016839184250304 0.0002855184290531
1.0019149443559290 1.0017727097514142 -0.0000195351387588
1.0020012720503895 1.0016293808803687 -0.0004769752633919
1.0019575347819105 1.0016065982944455 -0.0000705413270091
1.0020335214690008 1.0016679320656552 -0.0000399166107094
1.0020370817587032 1.0016161735039881 0.0000697484262045
1.0017939155896114 1.0018357847076620 -0.0000008520284974
1.0018752999727629 1.0018717349091115 -0.0006178691305325
1.0019730392800617 1.0016571879955016 -0.0000639333405754
1.0019506698362428 1.0017567302469428 -0.0000311392899065
1.0020578574695727 1.0016247939918488 -0.0001754204112384
1.0020129612516717 1.0016580657497571 -0.0000009983728769
1.0020495779902028 1.0016476897790789 0.0000354344377386
1.0020493382317999 1.0016151018475841 -0.0000138035955310
1.0020064059200777 1.0016756198842691 0.0000973491391739
1.0020280356779214 1.0016722551567947 -0.0000879345950499
1.0019642939178879 1.0017096720089944 -0.0001701408993396
1.0020159666913071 1.0017054550688314 0.0002317117942734
1.0020864661665960 1.0017213014138735 0.0008065975187473
1.0019136648641389 1.0016386508686317 -0.0003617839302874
1.0019967649883801 1.0017118804247782 0.0001139450803428
1.0020515797185008 1.0015618188406274 0.0000427612862806
1.0019551362157237 1.0017477743252179 0.0000175648931668
1.0019399319232927 1.0017779101452882 -0.0000096529065928
1.0020159784430731 1.0016712100838729 0.0000283102396111
1.0020312929710686 1.0016087467551222 -0.0000694262554218
1.0018557406810764 1.0019100911117258 0.0001180794376655
1.0021266309009507 1.0017109463194587 -0.0000866705379535
1.0020606501771780 1.0016422516003249 0.0001573559793838
1.0021704342482600 1.0016707161294369 -0.0000256576911056
1.0019507705094592 1.0017617548591644 -0.0000190029582268
1.0018186794735193 1.0019780578925055 0.0000835235682096
1.0021841031899532 1.0016467144236938 -0.0000310692999581
1.0019353089684953 1.0017967632849167 -0.0000983233179382
1.0020472908514912 1.0016297012224762 -0.0001981480008408
1.0018073954848041 1.0017751620736792 -0.0003047778855682
1.0019442046574376 1.0017809426731110 -0.0000672508784192
1.0018009627506494 1.0018360972219824 0.0001297710136818
1.0020156167846390 1.0016702422703936 0.0001040900406813
1.0021446325073033 1.0014648080802599 -0.0003163473232150
1.0019934677637767 1.0016362681033111 0.0000947826563835
1.0019731145183770 1.0018452578326942 0.0012139160071034
1.0019282071937210 1.0017639049261906 -0.0000884136732783
1.0018827779759867 1.0018598415495756 0.0001911994781125
1.0019115354528794 1.0018309738330196 -0.0000205662178692
1.0021210833395950 1.0015996466645802 0.0000867780858150
1.0020399427292652 1.0016581041401880 0.0000924286601531
1.0021395128196326 1.0015914343590027 -0.0001059702382921
1.0019730824863873 1.0017557919519771 -0.0000557743300592
1.0019482188567577 1.0017729879387822 0.0000926615904122
1.0018706155917598 1.0016996934979474 -0.0005864831278440
1.0019466129571566 1.0017201979855557 -0.0001849474965416
1.0019560240208594 1.0017511085730142 0.0000113106898539
1.0019583620605834 1.0016939949049815 0.0000452798639709
1.0020126147444715 1.0016735303194366 -0.0000666044183112
1.0020230049544638 1.0016906777642456 0.0001533090746611
1.0020223820550958 1.0016245076641923 0.0000514359997741
1.0020090702416526 1.0017345556035682 0.0001646191535903
1.0020817747637363 1.0015961717640256 -0.0002193178868228
1.0019315031856806 1.0018039879786937 -0.0000677273256977
1.0020778844147447 1.0015569006496616 0.0000809535710921
1.0019820750792414 1.0017457681906674 0.0001088268437561
1.0019931581379395 1.0016422801593179 -0.0001006501075675
1.0021151501289227 1.0014071157040636 -0.0003601506326655
1.0020576700972545 1.0016572458334301 0.0000409504451697
1.0019938040616327 1.0016927865768868 0.0002064980006187
1.0020601939653593 1.0015034366967073 0.0001762942371303
1.0019662984837048 1.0017809261300432 0.0000864195447434
1.0021288466907248 1.0016310099120986 -0.0002843136432678
1.0018817603751526 1.0016966245570471 -0.0004620575525912
1.0019465714584788 1.0017664267853654 -0.0000325279737996
1.0018556609063887 1.0018115720826006 0.0001533495713973
1.0020343219437047 1.0016370093507843 0.0000928976435442
1.0020314887026844 1.0016648601876350 0.0001056293205509
1.0020142156811522 1.0016579335260816 -0.0000850783051815
1.0019145971211882 1.0018138873205542 0.0001723556859727
1.0019818431961351 1.0014451404743245 0.0010561096534927
1.0020110138723233 1.0016817868610108 0.0001525418426605
1.0020681023088496 1.0016949559786967 0.0001807251207456
1.0019034479451332 1.0017407759503956 -0.0002325055384952
1.0019309836357273 1.0017530703399677 -0.0000184554763723
1.0019364920280738 1.0017721019768882 0.0000866427280495
1.0019461865264245 1.0017574679643559 0.0000263162551512
1.0019331419639819 1.0017916873401382 -0.0000887870087477
1.0018393606156561 1.0019341392359462 -0.0001582471935912
1.0018427641631367 1.0017737357893617 -0.0004059179552004
1.0020217009676946 1.0016589085281771 -0.0000574982150199
1.0020900012815426 1.0015028663139565 0.0002807825272056
1.0020110775924325 1.0016311155879727 0.0000055561412597
1.0018273316623614 1.0018245226180387 0.0004301717056771
1.0021018856461865 1.0016090396648816 0.0001172027332569
1.0020301545678945 1.0015862914405758 0.0004253938619490
1.0019384156881772 1.0017087165523550 0.0000816880698716
1.0021248546089847 1.0016038092781285 0.0002888832624504
1.0020208841108895 1.0016530031736701 -0.0000188731099198
1.0018918913817365 1.0017499047713943 -0.0002307429004444
1.0019713551893439 1.0017347970224273 0.0000470082604498
1.0020132687817074 1.0016823302801598 -0.0001725722860585
1.0019618839965105 1.0016521316047822 -0.0002025422122641
1.0018585057373188 1.0017992109904097 -0.0000719937404360
1.0020391824801196 1.0015901220044163 0.0001412701826421
1.0021739516997592 1.0015876406745057 0.0005301819282050
1.0019869116197349 1.0016674116637823 -0.0002436263548144
1.0020922317660066 1.0016146762388873 0.0000349447132243
1.0020247050066424 1.0016289243760088 -0.0003661312612153
1.0019980427636117 1.0017014867084235 0.0001128423264975
1.0020782191798934 1.0016425843922812 0.0000691617679549
1.0021047050643865 1.0016282128292400 -0.0000413819244715
1.0020117355473510 1.0016423156292411 -0.0000904264637294
1.0019443643867874 1.0018355372136438 -0.0000292778254936
1.0020659992035039 1.0016310096037395 -0.0000738851244026
1.0020250886859188 1.0017253554416385 0.0004682997472157
1.0015481378951858 1.0024334311530922 0.0005381584019668
1.0019984423923227 1.0016823850381344 -0.0001235168516601
1.0019313042799831 1.0017406825155200 -0.0001155659779487
1.0020317588656138 1.0016668236677138 0.0000876116325497
1.0021128411255089 1.0016429023388962 -0.0000083292693996
1.0020387463180254 1.0016001504491556 0.0000245077099754
1.0018952174307079 1.0018592776703181 -0.0001859890976968
1.0019458646305299 1.0017770996184030 -0.0000209965998291
1.0020236042541095 1.0015505827284921 0.0010893296559366
1.0019380113105929 1.0017899687845122 0.0001047820805604
1.0018169669560981 1.0019749317272852 -0.0003494747147809
1.0020273923128791 1.0016731012231539 0.0000292027245025
1.0020540411446612 1.0016823242330319 0.0003096655776837
1.0019490282177836 1.0016793810891098 -0.0000298530022711
1.0019444695808160 1.0017897324314140 0.0000254171692770
1.0020240779062539 1.0016050953126254 0.0002142239648176
1.0020441574208963 1.0017027915572809 0.0007707742328204
1.0019187375545240 1.0018127729150115 -0.0001640970716192
1.0018554954417018 1.0018292814809331 0.0006560297840959
1.0020399420968085 1.0016602166840218 0.0001306904105346
1.0014017821306600 1.0019992970646092 0.0002459613713688
1.0020036060103683 1.0015187592752213 0.0000219648941042
1.0020031845029407 1.0016974797256482 0.0001068503964776
1.0019483875270299 1.0017713347031068 0.0000329192358788
1.0019830605756204 1.0016923154186423 -0.0001801723428381
1.0019490100465269 1.0017985228495079 -0.0000025034135162
1.0021046742225364 1.0013774960179098 0.0001419598449508
1.0017696785047905 1.0018401352463981 -0.0001179918830974
1.0019722454607494 1.0017595439312281 -0.0001047322195167
1.0020503660297686 1.0015634565430838 0.0001651615993872
1.0019241913739305 1.0018738627472672 0.0000970368389376
1.0020088050571665 1.0016442838007504 0.0000054240399808
1.0020987989801253 1.0015796467513893 -0.0000949521433281
1.0023200731108408 1.0011070753766518 0.0005337670896094
1.0020051044738787 1.0016480768088720 -0.0000284380141919
1.0019356089175016 1.0018010466058171 -0.0001636131045910
1.0018691126091923 1.0018272712538454 0.0004521570576746
1.0021303518015618 1.0015680471688868 -0.0000852938906089
1.0020030151500263 1.0016895961935610 -0.0000218862870231
1.0020111208717772 1.0016902271902208 0.0000533309421719
1.0021050669886147 1.0015851243745064 0.0000432669996073
1.0020274533807438 1.0016463595756255 0.0000401935562490
1.0021467799817816 1.0015389029834902 -0.0000557110212272
1.0021763429904924 1.0015980369126829 -0.0000844822710437
1.0020333057661825 1.0015874114950212 0.0001908615333016
1.0018555023692794 1.0018117895017702 -0.0002866104138227
1.0019691171664455 1.0017143828479322 0.0001674739129425
1.0019731542007411 1.0017812761839822 0.0001213473989899
1.0019518261296234 1.0017637204196452 -0.0000550202295515
1.0026036569521530 1.0015254364599515 0.0001443284484011
1.0020758815529160 1.0015926918832727 0.0002962278794894
1.0022153623586587 1.0010820455462783 0.0014419740003980
1.0019561271087229 1.0017804506029246 -0.0001468702060356
1.0022430705708762 1.0010262804560124 0.0004657544525577
1.0020864613120757 1.0016390273215547 0.0000289351159929
1.0019408853536103 1.0017814392754885 -0.0000119440145064
1.0023511859918439 1.0014769618677013 0.0004258259489818
1.0019939276314047 1.0016541084271466 -0.0002924742011077
1.0020153993520620 1.0017080663447213 0.0002472461351915
1.0021154985657383 1.0016682985241512 0.0001776994548922
1.0020593833554499 1.0016862808395237 0.0001320162532761
1.0018905911751510 1.0017543377761113 -0.0003059884141192
1.0019848150438149 1.0016085572031515 0.0005235025874334
1.0019610352729045 1.0017939918610694 -0.0001684047607301
1.0019849961251248 1.0017859240247342 0.0010852979837571
1.0019196448595660 1.0017522997364767 -0.0001579720139278
1.0019778779694886 1.0017000553650846 -0.0002770763691198
1.0018419936346443 1.0017977013795236 -0.0001455539242068
1.0020938050707118 1.0016378188144317 0.0000592494753206
1.0019725102581634 1.0017378323307178 -0.0000890622544963
1.0019764628013192 1.0017165234153307 0.0001843786497851
1.0019929647465771 1.0017062245470216 0.0000911271072370
1.0019474442109619 1.0017732475446832 -0.0000427091305062
1.0020644669823318 1.0014981606930664 -0.0001022211680498
1.0020385298157697 1.0016429533275275 0.0000997601319279
1.0018753373163773 1.0017974442427089 -0.0000146288661564
1.0019447866546951 1.0017858493666874 -0.0000434078115284
1.0018296505695348 1.0017753459544372 -0.0005895371080785
1.0019184340010336 1.0017495072198770 -0.0001931378964736
1.0021031547897521 1.0014954519751849 0.0000250873789716
1.0020599511977779 1.0015788912428469 0.0001871906075680
1.0020745584469239 1.0016267011259901 0.0000188616681110
1.0020032964600452 1.0016965730824081 0.0001318460088420
1.0019520904027759 1.0017820985840118 0.0000034132207575
1.0019506521494912 1.0017552625822790 -0.0000297144625866
1.0020535305273470 1.0015557549191592 0.0001225222746516
1.0020113986122898 1.0016807227984650 -0.0001636362763212
1.0021306799053402 1.0016465624277953 0.0001185788562230
1.0020884946055151 1.0015237056502706 0.0001460674968337
1.0020093190340511 1.0016877022539061 0.0000571215243067
1.0021167077818802 1.0013308729907109 -0.0001984404712181
1.0020602180564908 1.0016469100589027 0.0000504701964695
1.0018714430976881 1.0018974460092203 -0.0004857619061585
1.0020131883420715 1.0016598721938470 0.0001006336638295
1.0020547449013650 1.0016608477591002 0.0000553809998280
1.0019961347015145 1.0016786026552162 -0.0000786787460343
1.0019939239305107 1.0017126382303740 0.0001628205246531
1.0019917239795166 1.0016688085250611 0.0002482923624545
1.0019961346245130 1.0017077151553764 0.0000162190419120
1.0019191901474216 1.0017568210400396 -0.0000416785555508
1.0020782069668968 1.0014865109719751 -0.0002083633192838
1.0018958673419933 1.0017744894072853 0.0006845659403997
1.0020116545344189 1.0016880366045751 0.0001462332039607
1.0024110650687232 1.0014722939176297 0.0000208128020423
1.0018781780651707 1.0017933106575927 0.0000267046528818
1.0018978545430293 1.0017830467718167 0.0000644518400865
1.0020565682197515 1.0016209075549443 -0.0002405642937911
1.0021613993397342 1.0011698021597482 0.0005398513069877
1.0020059369532013 1.0017106257213682 0.0000020802815242
1.0020313241926011 1.0016802700108927 -0.0000042430113731
1.0018030148034902 1.0019870828893080 0.0002497559555202
1.0020681287507220 1.0015771003846825 -0.0001926004168632
1.0019538432652060 1.0017469955281495 -0.0001036926991767
1.0022708219957559 1.0014754682184619 0.0010571141586589
1.0017791512151830 1.0018606587400456 0.0001822224880481
1.0018256753809429 1.0019238943796898 0.0003583256430376
1.0020229351962371 1.0016749365016300 0.0000498375320281
1.0017892745640122 1.0018400656330104 -0.0000425282893184
1.0018865927054201 1.0017986738732030 0.0001570435099843
1.0019841047239462 1.0016710795839030 0.0002425063326846
1.0020650438395193 1.0017835657586074 0.0001757817773679
1.0019833279874368 1.0017441771652118 -0.0000585875230345
1.0019537155880875 1.0017657714092778 -0.0000293395672768
1.0020538914968025 1.0016443084654125 0.0001480294922813
1.0024346684150911 1.0014861940645210 -0.0008344569470706
1.0019197336709038 1.0018164802964209 0.0000783005058129
1.0020032534791237 1.0016948252353943 0.0001189286221621
1.0019276249633382 1.0017574203108135 0.0000688027954259
1.0018128261043047 1.0018255779853595 0.0006960120347606
1.0019277399035900 1.0017032011635822 -0.0001435344233831
1.0020639596186671 1.0016490545163081 0.0000290681733213
1.0019903968181021 1.0016939837008776 0.0001820329555403
1.0018434341837432 1.0018231080857616 0.0000678768980960
1.0019376320882358 1.0017736221975195 0.0000246681908054
1.0017372219503939 1.0018888299656856 0.0004888496701662
1.0019226418969738 1.0017652947218758 0.0003600682979034
1.0019116335425100 1.0017810318896887 -0.0000233563030875
1.0019918049947714 1.0017058631091889 -0.0001815489723602
1.0021657842860727 1.0015037266835651 -0.0003620854683021
1.0021198551356905 1.0014417419714676 -0.0001182675457679
1.0022147816221811 1.0011482336985758 0.0008422511706972
1.0020419156623961 1.0016675217999806 0.0000990809406567
1.0021676067787912 1.0010646611290761 0.0008184304228247
1.0019896354931570 1.0016575185401679 -0.0002676871829302
1.0019188469121532 1.0017803524760578 0.0001168550048121
1.0020465714037137 1.0016622615117148 0.0000956028364777
1.0019869981425720 1.0017429788736907 -0.0002956719753166
1.0019755704929114 1.0017740637381036 -0.0002455487328309
1.0020982324287542 1.0014597588286211 0.0003436230255156
1.0018971077958232 1.0018439333454641 -0.0003407199041034
1.0020081392558071 1.0016809842898036 0.0001646249316777
1.0018843563655651 1.0017968202423040 -0.0006359572524217
1.0020480815690533 1.0015723626923072 0.0003354237764718
1.0020487313656821 1.0016573678406626 0.0000054549094065
1.0020471633532395 1.0016570551321802 -0.0000861891400600
1.0019729888156865 1.0016793766555154 -0.0002649917560681
1.0020483754205072 1.0016314789173413 -0.0000851902085661
1.0019417760382441 1.0017760874459782 -0.0000014606933066
1.0019236922135479 1.0018425682394694 -0.0000658893688551
1.0019078126908350 1.0018598845599882 0.0000474772726650
1.0020013513139272 1.0016534856889230 -0.0002196502671649
1.0021603140504609 1.0015851476188216 -0.0005089970405523
1.0020113402515844 1.0017900574337231 0.0011116385425548
1.0020058956608784 1.0016877663977894 0.0001167146062632
1.0016992856404483 1.0018845476793450 0.0001901734817933
1.0023452287854180 1.0014820033671119 -0.0004389514209094
1.0018867533110773 1.0018837679571331 0.0000026993686956
1.0020613475851967 1.0016313266264045 -0.0002329235675198
1.0019153980007851 1.0018792554722851 -0.0002041862552754
1.0020097579785285 1.0016798078223066 -0.0000713534035043
1.0018597399289662 1.0018110897197199 0.0001533413441704
1.0019917663020270 1.0015082618328075 0.0003747539455048
1.0018970461197221 1.0018523741991263 0.0005950020282357
1.0021302132656644 1.0012869646289524 0.0003198127811972
1.0020222534188861 1.0015845268458159 0.0001051715039184
1.0018220825505235 1.0018309325666535 0.0000178129314305
1.0019310614278762 1.0018019154629128 -0.0000227443129399
1.0019392781567189 1.0016677411849388 -0.0001101719640069
1.0017601037638080 1.0020391186379989 0.0003001096367320
1.0019053161313716 1.0017486765364341 -0.0002227579221899
1.0019340329346769 1.0017802703456316 -0.0000130298622248
1.0019005805073680 1.0017772225585948 0.0001677580532292
1.0020818674720127 1.0016499068299385 0.0000646990197611
1.0019949176286562 1.0016354537810801 -0.0000048720469002
1.0020448927164887 1.0017033255319372 0.0001752012330117
1.0020924515164125 1.0015145650573620 -0.0001680736765583
1.0020161308872051 1.0016753044749955 -0.0000099028367861
1.0019770162991954 1.0017392350315995 -0.0000458171822437
1.0015428184890862 1.0025676411812694 0.0003040960418946
1.0020578757477763 1.0015918067412319 0.0001337290911754
1.0019871753673493 1.0017087558948903 0.0000123315817632
1.0019321121995000 1.0017757765108810 -0.0000249349368091
1.0019249424975734 1.0018002579122320 0.0000683831598701
1.0019070718700522 1.0018359180748564 0.0000383080406401
1.0020678090108042 1.0017053386635995 0.0007862727018539
1.0019197034126206 1.0018154334579397 -0.0001259172129586
1.0019579093448998 1.0017682954000224 -0.0000519766422555
1.0022726555433719 1.0013922743569501 0.0001331542254083
1.0017409742879668 1.0018267752506316 -0.0006412555735898
1.0019552524015822 1.0015835336107715 -0.0005891394777703
1.0019723926306427 1.0017589520173911 -0.0000714866865526
1.0019466800560688 1.0017481337439103 -0.0000677382456073
1.0020131379198460 1.0016654954794562 0.0001539995959551
1.0020137642150690 1.0016689844681042 -0.0001894342386715
1.0021118010845116 1.0016931718896787 0.0006625822963624
1.0020853226104265 1.0016448918336072 0.0000734339182164
1.0019725512259696 1.0017587316377214 0.0005310537040797
1.0022462278421382 1.0011466388478634 0.0010393537926578
1.0020123755128916 1.0016519571833498 0.0000798133382055
1.0019564805950645 1.0016902479225578 -0.0000343588922679
1.0019555376017104 1.0017623621003671 -0.0000323967861115
1.0020385851485503 1.0016554912438764 0.0000012084817087
1.0020707312471226 1.0014660825296637 0.0003106784021038
1.0019154239451222 1.0017375917504319 -0.0002760355709439
1.0019661664152675 1.0017381555282465 0.0001994649393455
1.0021761897432291 1.0009548429624076 0.0016061243085064
1.0020079620239295 1.0016953301792275 0.0001335148516790
1.0020844422821897 1.0016266159857943 -0.0000400083811589
1.0019808668404200 1.0017312819494748 0.0002746326041810
1.0019920085420875 1.0017035326804582 -0.0000120275959289
1.0019131572583075 1.0018519211981003 -0.0001131794671448
1.0019139776772343 1.0017930785241047 0.0006473500576411
1.0020252880837031 1.0015818138841521 -0.0002352687183565
1.0021666615901412 1.0015996525030284 0.0007506135245128
1.0019013813097131 1.0017073893154913 -0.0004078785630848
1.0020219566582718 1.0016761964922873 0.0000515537550137
1.0017767252312115 1.0018477154998742 0.0001661484502016
1.0014566914142071 1.0018949974751312 0.0001224120936981
1.0020005078656333 1.0015619506692677 -0.0000543082759156
1.0019199528240967 1.0017806247860594 0.0000041703207747
1.0020360765114553 1.0016559831197562 0.0000811894383099
1.0019183358498935 1.0018232999925467 -0.0000046352134199
1.0019925233038858 1.0017506562735139 0.0003000295177439
1.0021400456397054 1.0015899083007949 0.0001933060905762
1.0017699111440539 1.0018576300023700 0.0002863574566161
1.0019557534332255 1.0017742124940401 -0.0001109041899064
1.0013977897953672 1.0019709738825391 -0.0000703494826282
1.0018774512138326 1.0016269364101154 -0.0000997140361170
1.0018906683951125 1.0016801980311978 -0.0007147579347375
1.0016589658420614 1.0019563779847638 0.0017448369796144
1.0019410929857344 1.0016077276551349 -0.0000390961860692
1.0020175136215999 1.0017207174040590 0.0001379692593424
1.0020656991367081 1.0014628865725488 0.0003482637135858
1.0019336389471936 1.0017953789907048 -0.0000142386935859
1.0020118247758902 1.0016488240035462 0.0002470385356252
1.0018598761562445 1.0018116799522487 0.0002955518735706
1.0021526380326506 1.0015451422267074 -0.0003422149101943
1.0020600140716409 1.0013899203456753 0.0006860642261554
1.0018790066371364 1.0017485457966298 -0.0002823111438997
1.0019022837564364 1.0016342984786297 -0.0003133480393844
1.0019096514892036 1.0018407389286117 -0.0000273166501433
1.0019672815862584 1.0017616454919318 -0.0002383757980171
1.0019823658136409 1.0016492412514140 0.0002032890811659
1.0019951713170709 1.0016860025692411 -0.0001177024505730
1.0019355739871314 1.0017932012888233 0.0000260751370621
1.0019430740359507 1.0017806644972802 -0.0000149909995859
1.0019379539231246 1.0017687784365086 0.0000854673449567
1.0019354373339704 1.0017841747889140 0.0001755930165720
1.0019809028548259 1.0017075570928953 0.0002327332805749
1.0020401427259500 1.0016516366096950 -0.0000716982259132
1.0020220886258451 1.0016785354263686 0.0001100482461100
1.0020946759097498 1.0014344518192382 0.0004814881355314
1.0019577348395587 1.0016782581553509 0.0006106696354356
1.0020398162673507 1.0016338604327706 -0.0002907921444027
1.0020447950822937 1.0016595022771264 0.0001029082403265
1.0020287332465112 1.0016281954226036 -0.0000174932521430
1.0019726443635406 1.0017417312072399 0.0001129919364362
1.0019363081637764 1.0017874151398234 -0.0000082842038694
1.0020897491879428 1.0015678035044795 -0.0000735030963508
1.0020959267761993 1.0015059209677029 0.0000584403934555
1.0020391314798760 1.0013754403572397 0.0009193259646295
1.0019686767441121 1.0017470881974999 -0.0000393822868497
1.0020648250260513 1.0015887497424592 0.0000352518333937
1.0020367971071078 1.0016447419783174 -0.0000068314258627
1.0019498312517749 1.0016874947321983 -0.0001014459935678
1.0018589992620794 1.0019067296745190 0.0014521671502780
1.0018170569134202 1.0018312297162564 0.0000314585121444
1.0019169375880550 1.0012075930342770 -0.0001393437483654
1.0019955874617490 1.0017170894657599 0.0002345870650220
1.0019111683954773 1.0018447679712041 -0.0000944334616126
1.0019610084697181 1.0017479146644666 0.0003733662362864
1.0019498151510846 1.0017957014415173 -0.0002233598082710
1.0020912909047972 1.0014509254624877 0.0007335101306740
1.0018930834930551 1.0018974345908895 0.0002904634678579
1.0020941268395691 1.0014555453109120 0.0006755626592576
1.0020277831194258 1.0016930061727802 0.0002024936776032
1.0020091325588589 1.0016925574821456 0.0001472836047573
1.0020322138885003 1.0016114248135766 -0.0006500203006449
1.0019008276226746 1.0018568429029606 -0.0002425722987575
1.0019951321509475 1.0016348236258785 -0.0004658858244104
1.0020296979361221 1.0016574521712642 0.0000927908662169
1.0019375164997100 1.0017903950258411 0.0000319019694306
1.0019594613395058 1.0017550712975152 0.0000048962523872
1.0019520445116350 1.0017963556380427 -0.0000888373194018
1.0022036705142598 1.0015849898038562 0.0004257076939747
1.0019762778074490 1.0016024678822355 -0.0007064926551353
1.0018657597940943 1.0017324375235070 -0.0002816695642161
1.0020437634458486 1.0016712778905903 0.0000556808359466
1.0019943208464968 1.0016987569077884 -0.0000877581898664
1.0018599216953159 1.0018009146256384 -0.0000303453443110
1.0018883850745277 1.0017930406396267 0.0001891176543073
1.0020004189954448 1.0016956097866769 -0.0000879092398870
1.0019259502988380 1.0018038229965915 0.0003463139943068
1.0019549863712276 1.0017499583909812 0.0005805309961165
1.0020829261988820 1.0015667674774220 -0.0004382417247883
1.0021556890786498 1.0016034372559275 0.0004929061655000
1.0020002856502417 1.0016421128877913 -0.0003031297132929
1.0022411414639438 1.0016051799483774 0.0007321100475110
1.0019528386041294 1.0017644389600417 -0.0001349211207980
1.0020121582971344 1.0016746693088527 0.0001257878841634
1.0019432946355935 1.0017745080308731 0.0002130566017287
1.0020117403966651 1.0016914075533818 0.0001498941168731
1.0017885243927505 1.0020892604230798 0.0001207302578518
1.0020095529213000 1.0016974484319081 0.0001597665085010
1.0019223457853468 1.0017858545857727 0.0003848325956198
1.0020319530085697 1.0016620015511803 0.0000478997662249
1.0019622020968546 1.0017326362564296 0.0000745246233937
1.0019495976717296 1.0017961878182218 -0.0000697642739996
1.0021022517420295 1.0014495915208530 0.0005343144655658
1.0020030092400900 1.0015836391636530 -0.0006770516869097
1.0020928192779972 1.0016212047850441 -0.0000251735952237
1.0020395573856975 1.0017198060762462 0.0002236731533598
1.0018751414936773 1.0018627935043063 0.0003905348489511
1.0019719116153742 1.0017415114289332 0.0001879894410611
1.0020477612515655 1.0016464190967131 0.0000369297528818
1.0020367779279822 1.0016701443507667 0.0000396687337770
1.0020843170814426 1.0016306501938343 -0.0002971892757283
1.0021653997397921 1.0014528900616384 -0.0002898372615846
1.0019269835993294 1.0016510377787626 -0.0001074102206394
1.0022781691011979 1.0015438633588583 -0.0005002552793583
1.0020168043888278 1.0016629006419506 0.0001425091365316
1.0018880388479987 1.0015789300017703 -0.0005186314282219
1.0019204122478538 1.0014933046743604 -0.0007650349643870
1.0020738445724175 1.0016396978172095 -0.0000522983485306
1.0021089767622755 1.0016011180762125 0.0001844450999797
1.0020080156275972 1.0016797456952460 0.0003209488987683
1.0020286671695120 1.0016030224223726 -0.0004768451292505
1.0019659454825702 1.0016656885433637 -0.0000207113472447
1.0020283735473019 1.0016322580614618 0.0001039936668750
1.0020059110646271 1.0016430071177918 -0.0000486888941895
1.0020268010807551 1.0016714981389723 -0.0004096515146505
1.0020171629254875 1.0016754479072376 0.0000973789770987
1.0019770659560743 1.0015381765694822 -0.0000866802854435
1.0020899196597721 1.0016386806413871 0.0001283696001228
1.0021530069815077 1.0016156416713475 -0.0001327178523147
1.0021185893842717 1.0016178064008168 -0.0001119126290234
1.0019729001889977 1.0016583927692517 -0.0003386729607262
1.0019626827575956 1.0017405304938336 0.0001897655037586
1.0020006249075417 1.0017017506100847 -0.0000891038832466
1.0018925306403834 1.0017889079625280 0.0000039413194451
1.0020850890366955 1.0015626231179213 -0.0002163114228208
1.0020998890055262 1.0016538950229317 0.0004429192191660
1.0018325681423985 1.0018287936568513 0.0003523061550201
1.0020047794781382 1.0017029170091727 0.0001168879502165
1.0021458870481854 1.0009738951307439 0.0012203843500943
1.0019490853586239 1.0017703545570025 -0.0001962240014782
1.0019013655728062 1.0017627976270100 -0.0001629726039409
1.0019561266357766 1.0017479935277003 -0.0001322466752925
1.0021047871083941 1.0016342093337931 0.0001235238392322
1.0018914686312448 1.0017775542308558 -0.0000964667061107
1.0019802085125771 1.0017363133179849 0.0000521406529278
1.0018074138667088 1.0019344128822865 0.0002336245862727
1.0021069918642151 1.0017208644240481 -0.0003987647654218
1.0022119389476214 1.0011500425070066 0.0002454989691651
1.0019805635278916 1.0016329020741004 -0.0000902014952022
1.0018658212642462 1.0018822140673489 0.0001300358019154
1.0019582582471054 1.0017423088888173 -0.0000445326958428
1.0019271251434438 1.0018091462555156 0.0000221731682127
1.0019471559743718 1.0017612126429960 -0.0000228466200880
1.0019408670323116 1.0017695874786570 0.0000815009778943
1.0019085642583583 1.0017685172536825 0.0000442102945475
1.0019432215097499 1.0017202086777299 -0.0002008681550131
1.0019655405731296 1.0017802961245916 -0.0002960118592657
1.0020415366463808 1.0016497286499024 -0.0002154324159725
1.0021096412930899 1.0016705021485530 0.0004913182013322
1.0019595610194005 1.0016983132476651 0.0002728190593637
1.0020194565461706 1.0015962395920535 0.0002464801564038
1.0021320133838409 1.0016090339340935 0.0001284989685695
1.0020527927011786 1.0014893281217929 0.0002731980384194
1.0020542968249397 1.0016441351352132 0.0000311928533962
1.0020244566195180 1.0017006017232803 0.0002551865350355
1.0018430099954720 1.0017853826135934 -0.0002561635621666
1.0020760717776780 1.0014653266786746 0.0000605533219115
1.0019529100591660 1.0017365200758563 -0.0001314257908307
1.0019208780880098 1.0016480312671092 -0.0000902659082942
1.0019906152252844 1.0017224116838024 0.0000559903116652
1.0020114052531877 1.0016973379612930 0.0001242852955203
1.0020104294951149 1.0016870377904730 -0.0000799022558051
1.0018433601803489 1.0017738045189921 0.0003624077350921
1.0018952747381706 1.0017618736722727 -0.0001734256648273
1.0020979703991673 1.0015924358093946 0.0002212488859178
1.0020112016106604 1.0016688508844593 -0.0001240942063407
1.0019654448165010 1.0017295846452283 -0.0001964227900050
1.0020132569376266 1.0016646380172303 0.0001085455010111
1.0020127371636409 1.0015829212686005 0.0004262204421902
1.0019949653179741 1.0017239245573217 0.0004889889954375
1.0019998369048198 1.0016404304655804 -0.0000925069934038
1.0021431649667765 1.0015967359397966 0.0001942943392363
1.0020480034028332 1.0015157886862560 -0.0002583647931725
1.0020226215872214 1.0016677952710473 0.0000935915994131
1.0020110657794012 1.0016740994022741 0.0000837517132210
1.0021134302468730 1.0016768236263323 0.0002860442291418
1.0019819916667534 1.0017205022049858 0.0000507717272036
1.0020348233553318 1.0016727299229409 -0.0001959084732114
1.0020176506984073 1.0016151493180805 -0.0001550749157834
1.0019612230896062 1.0017416530723537 -0.0002391991694232
1.0020039339756779 1.0016853626763995 0.0000618447970376
1.0020087735981473 1.0016879479831278 0.0001485730699074
1.0019018327575913 1.0018466420118302 -0.0001747795386788
1.0020121510177018 1.0017085722405592 0.0001171449116522
1.0018875404240966 1.0017667586134387 -0.0002222300074945
1.0019334670490532 1.0017949238202526 -0.0000109650238074
1.0020607695162558 1.0014018190041882 0.0006262861166714
1.0020528583368216 1.0015111711962212 -0.0002164925446183
1.0019645040379639 1.0016422507139684 -0.0004420340045069
1.0020448215205513 1.0018658536916132 -0.0004695350351367
1.0020337300676820 1.0016822307809503 0.0000735338951005
1.0019650074946198 1.0017530009217366 -0.0000324784054711
1.0019790070996475 1.0016615343589879 -0.0000739053989105
1.0019585535834128 1.0017485089570282 -0.0000506400078599
1.0021719670066676 1.0016505231133435 -0.0000835760223310
1.0020529452256963 1.0016077089052766 0.0000949328783505
1.0019546782157738 1.0017486093651053 -0.0000276670991408
1.0019775327545597 1.0017307946906244 0.0000694265538128
1.0020049879835990 1.0017057797703481 0.0001756499723777
1.0020096458124004 1.0016079063740242 0.0000487145588969
1.0019883274651367 1.0016947419221272 -0.0000992359192461
1.0018390725454935 1.0019181501654206 0.0000863866893312
1.0022495213335654 1.0014186115985511 -0.0002691629909207
1.0019732114055748 1.0017415862263555 0.0000091553039506
1.0020009564967478 1.0016888212620110 0.0002843267791387
1.0019456281461356 1.0016154316301871 -0.0008302947777383
1.0019524451915045 1.0016727572663997 -0.0000237789518754
1.0022706830129195 1.0016191700353647 0.0009308829737859
1.0018349233882999 1.0018462188256145 0.0006920021699379
1.0020204370292676 1.0016393154421923 0.0000547712256854
1.0019971102681426 1.0016555753846659 0.0000229210040909
1.0021086803828796 1.0016507118970277 -0.0001146699188217
1.0019822139271326 1.0016858403259636 0.0000528983097665
1.0021379917467639 1.0016426082284697 -0.0000172659858033
1.0019585527676655 1.0017701139501949 0.0000388256908046
1.0019520984791594 1.0017686045136440 -0.0000342294075240
1.0019766957746208 1.0017285578430675 0.0000151255823443
1.0019622229093157 1.0017543532736233 0.0000211523166570
1.0020466186304524 1.0015991678907095 -0.0002159531341072
1.0020393403711161 1.0016598948869195 -0.0001772781397516
1.0021194935886617 1.0016616750355130 -0.0001368729977889
1.0020343664941427 1.0016670449010601 -0.0000050630777840
1.0018793571425040 1.0017894726072072 -0.0000624325447975
1.0019237830444776 1.0016203634483964 -0.0003244683194695
1.0020760229721002 1.0016124313167649 0.0000568705560528
1.0019950501632016 1.0017124736336649 0.0000832649648608
1.0018899051175107 1.0018649498784549 -0.0001048339251149
1.0018979186296546 1.0018498096646418 -0.0000566346945969
1.0019202771328317 1.0017797607115153 0.0001658824473652
1.0019472299052909 1.0017598733304212 0.0002658149606428
1.0020362491716976 1.0015854803599193 0.0002569822443984
1.0018795857016627 1.0018823746988916 0.0001596162157487
1.0019412803509660 1.0017610590578547 0.0005629725431429
1.0020785919680322 1.0015646564567411 -0.0001766785691491
1.0019064857355759 1.0017866093814540 0.0000712869116618
1.0021739938336816 1.0018103124509239 -0.0003961812037364
1.0018671073244387 1.0018253885116843 -0.0000795450409958
1.0018601325128720 1.0018159944796048 0.0003953673870981
1.0019573817734864 1.0017790361194601 -0.0000856955246900
1.0021345277155100 1.0016390084517710 0.0003657193160658
1.0019401070716696 1.0017722228253412 0.0000292888764471
1.0018149688069509 1.0019080924680892 0.0004430522087746
1.0019922480465935 1.0016794900166279 0.0000326559563421
1.0021003562484041 1.0015994395468664 -0.0003702168877660
1.0021897886879558 1.0016162630685610 -0.0001671692173994
1.0019998877638037 1.0015929261959160 -0.0002189924065548
1.0018303984252341 1.0017014224226075 -0.0004212392050687
1.0018453919543047 1.0019349312592070 0.0003074256133267
1.0020152817304471 1.0016669216713041 0.0000042308405848
1.0019597723643607 1.0017373349079417 0.0005583912645086
1.0022843826358634 1.0015191078737624 -0.0002800388956553
1.0020287205394758 1.0016491750298084 -0.0003232051546186
1.0021920561277151 1.0014132125012243 -0.0002285354452147
1.0022095649855751 1.0011230961399784 -0.0002249836408918
1.0018026911625975 1.0016079904409423 -0.0005573335776417
1.0018670063307131 1.0019075729940770 -0.0000226385034995
1.0019296001925277 1.0017776191236754 0.0000215196938988
1.0020288822781680 1.0016348662778363 0.0000282997050537
1.0019566862882570 1.0017426245567851 -0.0001138060015909
1.0019293262534508 1.0017673260266491 -0.0000669245823813
1.0019150762260514 1.0017828837236755 0.0000435399093738
1.0020260943318626 1.0016692191564205 -0.0002131559124228
1.0020022130753159 1.0016584529521053 -0.0003310513283656
1.0020898749415867 1.0015937676841096 -0.0001734283403882
1.0019437293996043 1.0016768336385355 -0.0003963481611030
1.0023268242271961 1.0014725669909939 0.0007225444308067
1.0019500903060996 1.0017588450772152 0.0002020373288216
1.0018240296485756 1.0019399013468875 0.0013975356243729
1.0019884554491552 1.0015228936221010 -0.0007146037916525
1.0020203131636334 1.0016952770593630 0.0001606620124261
1.0019346303280052 1.0017541386943740 -0.0000914733841104
1.0019934058637565 1.0017025712292045 0.0000657255731152
1.0019885231270182 1.0017237256347280 -0.0000839207009711
1.0019537111990204 1.0017916912395042 -0.0001144738747635
1.0019022698272337 1.0017555877602757 -0.0001440576234012
1.0019101045280245 1.0016584937457651 -0.0004996786437595
1.0021151235066170 1.0016418417886621 -0.0000037127793401
1.0020098636816390 1.0017401850092458 0.0002680741359830
1.0021675769819909 1.0017728850350067 0.0020171722887758
1.0020555532635640 1.0016362260977487 -0.0000338982749548
1.0019575966577616 1.0018030806033282 -0.0001161529175593
1.0018691795554737 1.0017240610942491 -0.0004588530645446
1.0020251950350025 1.0016575772748575 0.0000930436102765
1.0019867331393684 1.0016770852053221 0.0004963223432323
1.0020172772356952 1.0016728770128769 -0.0001302394563322
1.0020954553331736 1.0013882286279325 -0.0004390828792509
1.0020632781520742 1.0016512507488879 0.0000649404076085
1.0020661139972771 1.0016191863686132 -0.0001942052023032
1.0020237549256714 1.0016926361452969 -0.0000129382612032
1.0020020110863725 1.0017055330771798 0.0002415178636366
1.0018712048939677 1.0017554013721213 0.0003819692056119
1.0019033030961246 1.0017633734032814 -0.0003023906951603
1.0020408290149569 1.0015955855550851 0.0000046916269626
1.0021150617518446 1.0014858945680942 -0.0007911129069328
1.0019502140872019 1.0016439146152689 -0.0000333208303372
1.0020183843378319 1.0016921205480387 0.0001195531406376
1.0019915012993299 1.0017011297977698 0.0001689727770006
1.0020364516243976 1.0016447523436285 0.0000819299667251
1.0019551521172467 1.0017526353624482 -0.0000891197017282
1.0021114748556756 1.0013058182610388 0.0000310818951502
1.0020143504168908 1.0016572175148903 0.0000560821318538
1.0019285197482097 1.0016627083539600 -0.0001636834495278
1.0020289732741119 1.0016260535176724 0.0000868185939661
1.0020860317495457 1.0015770706455513 -0.0003588443631027
1.0020301913529073 1.0016640441312057 -0.0000910081552831
1.0017608890805576 1.0020068727866056 0.0000515896809801
1.0019393727039678 1.0016291232313284 0.0004124022772540
1.0017815168851802 1.0017966235897215 -0.0002905216265253
1.0019839350863891 1.0017258886001350 -0.0000046658838545
1.0018958108989544 1.0017840365980648 0.0006568889816194
1.0020586292854505 1.0016456985079178 0.0000492209805781
1.0020976939601145 1.0014969650185084 -0.0000048351150116
1.0020603406142223 1.0014761367011822 0.0000909049190589
1.0020551063173135 1.0015316796856020 -0.0006779807705846
1.0019747130627634 1.0016559858748404 -0.0000643827790126
1.0020823536131742 1.0016478683274672 0.0000456809170608
1.0020337981182348 1.0016900182404693 0.0001359671258492
1.0018911694699084 1.0019231296535664 0.0000395669347554
1.0020125480505395 1.0016603410921441 0.0005008545997918
1.0018681233172473 1.0017915183661201 -0.0000385536301373
1.0020043092805548 1.0016994406660096 -0.0003404120291236
1.0018949169961249 1.0017310337381509 -0.0003218207658025
1.0022693459796479 1.0016143538201645 -0.0001747285708903
1.0022165305882926 1.0015997611201812 -0.0001623204185138
1.0022737009672749 1.0016183988527638 -0.0002811814375041
1.0019548575573807 1.0017750529819993 -0.0000314523536851
1.0019649459139868 1.0017357684864254 -0.0000869170184527
1.0019656392928122 1.0017597209356397 -0.0000913658108901
1.0019298515058184 1.0016647845030962 -0.0001374145476951
1.0019057095045729 1.0017892969787028 0.0002802739251028
1.0017970909223795 1.0016924608840032 -0.0008458960625064
1.0018355694243770 1.0017279640227652 -0.0000002618612260
1.0020506383313956 1.0016182560196909 0.0000068798208541
1.0019970220018752 1.0016802050738312 0.0000251792339381
1.0019865378950976 1.0016039939121777 -0.0003411211241259
1.0019577251143601 1.0017566873929915 -0.0001118054770877
1.0020027420545863 1.0016611139052862 0.0002097182711003
1.0019406442029835 1.0017654136863252 0.0001680295834701
1.0019460313868522 1.0017469443719049 -0.0000058450251216
1.0019575652618105 1.0017433069205541 0.0000820455122818
1.0019995170403819 1.0016761185164731 0.0001285418217308
1.0019054343780225 1.0018670551972468 -0.0001646413868494
1.0019270864155598 1.0017757759485026 0.0001800872058721
1.0018983861841368 1.0017894977326414 0.0003254626885892
1.0020226695241212 1.0016750126526999 0.0002300573089922
1.0019955386556809 1.0016205550973309 0.0003036189709418
1.0018808822232834 1.0017959215361247 0.0004336218836006
1.0020482978503267 1.0016068675989649 -0.0000815424511013
1.0020957703356257 1.0016309261618475 -0.0000385153466734
1.0020931441381313 1.0016293237549534 -0.0000132960770202
1.0020284145887559 1.0016053496648822 0.0000138623698779
1.0020694609112082 1.0016372420299591 0.0000524217275170
1.0019880182551690 1.0015889148525146 -0.0006493360908903
1.0020993519087984 1.0016840457005547 0.0006357922778055
1.0021529905295190 1.0016575561742602 -0.0005043368436895
1.0019222663128942 1.0017691092173344 -0.0005916728993879
1.0020190708468790 1.0016739431551662 -0.0001401600563930
1.0019923789789393 1.0017175104060247 0.0000031965024456
1.0019940453542071 1.0016610774112591 -0.0000861129475504
1.0023039967868881 1.0014671093360110 0.0000726569183097
1.0016092051996011 1.0023474988132850 0.0004256736488689
1.0018095009478356 1.0017815819978675 0.0003529712686887
1.0020027754312280 1.0017033285301269 0.0000011261713850
1.0018933660114333 1.0017488591078614 -0.0002429136438501
1.0018553710143987 1.0019125249212029 -0.0000807143063693
1.0019576100979388 1.0017013714219967 -0.0002270159828565
1.0017085157929460 1.0018780543485926 0.0003099313785912
1.0019755138035853 1.0017210434550798 0.0000752043474151
1.0019627150882422 1.0017388539640166 0.0000007545748297
1.0019449011253738 1.0017454486241024 0.0000768906377871
1.0019787219642551 1.0017290579202662 0.0000036400149089
1.0020200236220917 1.0017054686134319 0.0003962751862319
1.0020684355494385 1.0015905647114283 0.0000375528175763
1.0020955223719850 1.0015968000217985 0.0000453393649082
1.0021563341479829 1.0015282246049475 -0.0003380582296130
1.0021054932539744 1.0015632669100465 -0.0002072579757338
1.0021542773710868 1.0011670082145665 0.0005251447247693
1.0019138649836996 1.0017839688108447 -0.0005236082776015
1.0020101794630756 1.0016399393764066 0.0000663443262472
1.0021499201122124 1.0016471494670132 -0.0000800993253215
1.0019860693205151 1.0017328009261253 0.0001038717618636
1.0020945628117031 1.0015815741074703 0.0003346894151034
1.0019152826617417 1.0017976830339228 0.0005670783537320
1.0020670883576457 1.0016517642719123 -0.0001460362246321
1.0021528817898091 1.0015646687303175 -0.0001488883769134
1.0019535593596731 1.0017476335048900 -0.0000399139743095
1.0019319323458442 1.0018013554224130 -0.0000279175186990
1.0020110511860720 1.0016901335700157 0.0000491889184184
1.0019124773527421 1.0017795374882206 -0.0000297219477319
1.0020915274053555 1.0016072619791354 0.0000539802306828
1.0020335873131818 1.0014956960573729 0.0003860269096687
1.0021319958521786 1.0012746205384933 0.0003025054986526
1.0017667218039374 1.0018546581346170 0.0003921687856516
1.0018514911496508 1.0018141930783542 0.0002277393850999
1.0020602285412288 1.0015777694584278 -0.0003092518667717
1.0020264599081290 1.0016712750519450 0.0000390404748442
1.0022592679830928 1.0010457250678562 -0.0001624099787779
1.0021169278019011 1.0014786177422186 -0.0009446081387198
1.0020164998710395 1.0016014515286829 -0.0002411504659307
1.0022531477645233 1.0014456904939004 0.0003420094463190
1.0020055264364058 1.0016766458265716 0.0000663594428819
1.0019552900553161 1.0017679984343573 -0.0000458890858130
1.0020270674519223 1.0016531041430392 0.0000409786019807
1.0019396928586879 1.0018087528891635 0.0002099280765101
1.0020679795241869 1.0016765451801017 0.0005766872818308
1.0020366772749731 1.0015252172770941 -0.0004821118910477
1.0021527777061483 1.0015906240820582 0.0004734787928733
1.0019827732081188 1.0017447433905646 0.0001086510539362
1.0018440642482873 1.0019215566000546 -0.0002759072379552
1.0019303484329234 1.0017660345631652 -0.0003576936420869
1.0019271268972565 1.0018120747879991 -0.0000926055209140
1.0019243797277744 1.0016448104867239 -0.0001922690849927
1.0019487453417992 1.0017761136493670 -0.0000278392545561
1.0019812168717639 1.0017187017421685 0.0000014920099394
1.0019887529730056 1.0017090201662719 0.0001399270475225
1.0019155438399858 1.0017833801404896 0.0001851557755098
1.0021217509066316 1.0014368969871037 0.0001066713250284
1.0019615490637770 1.0016310174709375 -0.0001661973733198
1.0022143118192173 1.0010608430741270 0.0008188473875320
1.0024766422660178 1.0015059288453845 -0.0001095231440068
1.0020461758283790 1.0016684991088707 0.0001595580881350
1.0021510574598578 1.0016493772323858 0.0000371755241629
1.0017591137136042 1.0018456336552057 -0.0001352957677126
1.0019627915640288 1.0017749190247494 -0.0003236464809311
1.0019655836146240 1.0017304160160490 -0.0001490772969958
1.0019629470176761 1.0018022475531303 -0.0001533575581513
1.0018914807444519 1.0018757168391978 -0.0002439778563639
1.0018883269661656 1.0018742746060980 -0.0001673025639108
1.0019555558926436 1.0017042323090659 -0.0002669303593779
1.0019153010346187 1.0017609409673174 0.0004328398896977
1.0021115158050256 1.0015960565854478 -0.0000067713143865
1.0021297471998745 1.0015957689140651 0.0002650404330499
1.0019290558502234 1.0016918017026903 0.0000215669695909
1.0021681792281472 1.0015402546356067 -0.0000551648731075
1.0018471231903554 1.0017690812093141 -0.0003517461274166
1.0019625279660502 1.0017063299296869 -0.0001877925964928
1.0020418360059329 1.0016630341935271 0.0001065749321995
1.0019631984148609 1.0017295945160396 0.0002583252205575
1.0019995992929396 1.0016577530146407 0.0002961181588938
1.0019017545585751 1.0017255552868247 -0.0001204342725071
1.0021051650708110 1.0016420195317692 -0.0000516025903183
1.0019612679876659 1.0017639022751281 0.0002913452724905
1.0019459616727295 1.0018165005657091 0.0003139111143212
1.0022478442450815 1.0015950304049521 0.0006388708048083
1.0019016880221887 1.0019155561993454 -0.0003484634979773
1.0020439690626344 1.0014918291000579 0.0009638902160290
1.0019695041966552 1.0017549197970286 -0.0000419911512124
1.0021130150542870 1.0016098229399566 -0.0000016377862935
1.0022880163307306 1.0012082414235146 0.0000419431182672
1.0020164796201894 1.0017096415042883 0.0003350200156321
1.0020151726462847 1.0016425662589805 -0.0001283041945905
1.0017419319466987 1.0021092541201666 -0.0004886518367046
1.0019648435233985 1.0017598158206058 -0.0000169725849081
1.0018963375582219 1.0018160753480643 0.0001708552134687
1.0020738553465083 1.0016156643067344 -0.0002168041109838
1.0020881012587961 1.0016036047761241 -0.0001440878255951
1.0020428831148473 1.0016573556077233 0.0000768952831270
1.0022337273515352 1.0016428385567389 -0.0004887382300683
1.0019468275231587 1.0017122373131704 -0.0006647764983816
1.0020505735972947 1.0015108441208025 -0.0003539431287668
1.0018373777756775 1.0017859892545040 -0.0001988553824349
1.0019774911267882 1.0016617907164336 -0.0004165703796980
1.0020199377007601 1.0016719529491627 0.0000413936856845
1.0019635128507747 1.0017282059369659 0.0002613365613722
1.0020392183638960 1.0016544106938385 0.0001709454749951
1.0019836993379461 1.0016725658960115 0.0000154605941921
1.0019873522272094 1.0016593844528574 -0.0000564297992808
1.0020773617782381 1.0017303198124219 0.0008686465382228
1.0022149532452269 1.0014906325119506 0.0004316853411817
1.0019466875439971 1.0016818819787237 -0.0001063514867057
1.0018995228056735 1.0017120450554393 -0.0001199559420996
1.0019698594243185 1.0017259405433272 -0.0000957754358978
1.0017690180174394 1.0019965624237193 0.0001637741290927
1.0022596561086037 1.0015758327272826 0.0004033834758824
1.0019302517723205 1.0018053121868444 -0.0000420214671420
1.0019313437684210 1.0017690931324716 -0.0000445733324069
1.0019203128712191 1.0017799222984787 -0.0000027898608185
1.0019176467658388 1.0018264376559651 0.0000026403326555
1.0019235478182635 1.0017784877112048 0.0000759153231848
1.0019891013525875 1.0017176992409078 -0.0000842475927315
1.0020417750651327 1.0016218866732982 -0.0001440318256931
1.0021760545299068 1.0012230160144098 -0.0003360171945574
1.0018190589266207 1.0019579332185877 0.0003614600597310
1.0022062008520012 1.0012831189906197 0.0004601233175236
1.0022213565301801 1.0013161937504231 0.0000878898495127
1.0019201862419060 1.0018201186951372 0.0000950372915425
1.0020461859437888 1.0016701530267087 0.0001382896889639
1.0023028270364456 1.0010015658317655 0.0008298963626539
1.0019992316018100 1.0017112312316263 -0.0000731483275670
1.0020294934369642 1.0016514475013298 -0.0001167412351676
1.0020161717915972 1.0016815297620902 0.0001007470498893
1.0019691650192786 1.0017432965545849 0.0002450781462428
1.0020398517794753 1.0016874021442781 0.0002367988116613
1.0020960185116592 1.0014709742950838 0.0003834755826265
1.0019498527451121 1.0016890937194476 0.0000071639836110
1.0019862613789821 1.0016830339806155 -0.0002864567263415
1.0021090977938643 1.0014520276097423 0.0005228991790518
1.0021829792477062 1.0013894136863162 -0.0000639757521132
1.0020622683748017 1.0016626650009814 0.0001718383041572
1.0019743835430932 1.0017337593084361 0.0000188915344407
1.0018438815098132 1.0018339344472851 0.0003535936916938
1.0021952037192738 1.0016924749192966 -0.0000362700895150
1.0022381693171278 1.0014648551701217 0.0004182001294419
1.0019499250322383 1.0017483379363710 -0.0000474350470775
1.0019576748418562 1.0017392912570739 0.0001995489516364
1.0020097980788061 1.0016607215915672 0.0001776801398461
1.0019981589193820 1.0016849074463976 0.0000152971367953
1.0019849781370092 1.0017203515597930 0.0000150445863388
1.0020419016809907 1.0016761021977354 0.0000556338778485
1.0019344247259001 1.0016937272755739 0.0001137032289903
1.0020233829126479 1.0014752217193867 0.0002246712735912
1.0021105386277771 1.0013293682317466 0.0002168024552989
1.0021185183802226 1.0016039014720615 0.0003601013385172
1.0019117261201100 1.0017491937981911 -0.0001135711741981
1.0020084823820001 1.0016430425457801 -0.0000949030165063
1.0019695830656092 1.0017549268393320 -0.0000415205138537
1.0019002256509275 1.0015513136445622 0.0012791351931840
1.0017739472542633 1.0019707968538936 0.0001782210138430
1.0023135122343838 1.0016425345041888 -0.0002036748365567
1.0018796182804681 1.0017643422925508 -0.0007027912312928
1.0019897190118212 1.0015760391008695 -0.0006491983743879
1.0020168248241053 1.0016948312475664 0.0001383152795320
1.0019850112875235 1.0017028553825083 -0.0004363628744214
1.0017721644542004 1.0018437759223779 0.0000511386458573
1.0020111748997280 1.0016990410076916 0.0001700488494773
1.0020255696950504 1.0016676142966072 0.0000419684243553
1.0021112427158529 1.0015294486243378 -0.0000550404246865
1.0020949459680144 1.0013982279588727 0.0000746097108663
1.0019452076857693 1.0016368472249735 -0.0005836034912079
1.0017553752831581 1.0019989748125953 0.0003956642181125
1.0020705909919534 1.0016204809384164 0.0000718451031664
1.0019829997088341 1.0016858981258949 0.0000460876267237
1.0022299709689924 1.0016114360261761 -0.0002442431048099
1.0019869752705690 1.0017149233495273 -0.0000520830345334
1.0019619633164079 1.0017132020713093 -0.0001781072648131
1.0018749637916484 1.0018869273196707 0.0000206998100934
1.0018932438273980 1.0018526875797127 0.0000642497015482
1.0019135918158897 1.0018196104402806 0.0000907554285609
1.0019301685019044 1.0017579726507790 0.0001764817160032
1.0020557289382388 1.0016471909559586 0.0002470163053813
1.0020707441112902 1.0016192063536729 -0.0000351155387955
1.0021453477401863 1.0012122965811781 0.0002392163728553
1.0020331654707793 1.0014027383172075 0.0008310113889566
1.0020370898725641 1.0016658234672229 0.0001950731501301
1.0022371657886600 1.0012142074247512 0.0007089385590970
1.0019755527380294 1.0016641144247260 -0.0000382162222266
1.0020237128049538 1.0016406213610503 0.0002171303510652
1.0020714732775315 1.0016278838219626 0.0000482380728113
1.0018242298928559 1.0019536488627065 -0.0002537669735984
1.0019691008446934 1.0017447875123975 -0.0000633188465857
1.0018871837781138 1.0017743959784695 -0.0001521105120148
1.0020751694264656 1.0014692250804098 -0.0000241038177817
1.0021403460712059 1.0013716811738207 0.0002211230650907
1.0020475820555748 1.0017369320999665 0.0008549233575861
1.0020335272938603 1.0016765527807350 0.0000833298168451
1.0019248869335338 1.0017768123756079 0.0000916400859287
1.0019550182807151 1.0017242767980519 -0.0001542201011384
1.0020353410713896 1.0015881498205577 0.0000913472071951
1.0019561859002426 1.0017688832475260 -0.0000127180479341
1.0019626971085100 1.0017553378950741 -0.0000097446826745
1.0019645201392520 1.0017464602017674 -0.0000120923566060
1.0020020336600477 1.0017104863099868 0.0000622271385926
1.0022684371336243 1.0014510830123919 0.0006939616031646
1.0020129942088793 1.0016387740456276 -0.0000722324464141
1.0019749598843097 1.0017295507539421 0.0001101277375017
1.0020011216444493 1.0017244482556424 -0.0000713740599268
1.0019010863376072 1.0017767609461317 -0.0000532165409325
1.0019703859267328 1.0017351305781350 0.0000154241443485
1.0019964718888277 1.0017049275230541 0.0000595279217955
1.0020340058116179 1.0016936508407810 0.0003107485503027
1.0020729225429146 1.0016581592272611 0.0002814763278596
1.0019552402279783 1.0016965629887511 -0.0006105028209377
1.0019563378376168 1.0018450448322280 -0.0000508459166291
1.0019581071332522 1.0017092804840848 0.0005750463335870
1.0020099569303715 1.0016459218306650 -0.0000351306549620
1.0019214311828206 1.0017596929334496 -0.0001219843810459
1.0019540823651536 1.0017483486968644 -0.0001555539002861
1.0020150048823013 1.0017027562678700 0.0000025573025947
1.0020202150684780 1.0016566740011159 0.0000939573094533
1.0017728301762150 1.0018586799609286 0.0002991466671173
1.0019292064919418 1.0017187231038625 0.0001048823156533
1.0018646087061740 1.0017807955818165 0.0003368364327662
1.0019193458382076 1.0016517944822048 -0.0001743618964781
1.0019920356009726 1.0016717698074373 -0.0000981875521418
1.0019370944238324 1.0017853203620817 -0.0000072291802834
1.0020504089423226 1.0016485815044587 -0.0000714307869771
1.0020423228505919 1.0017194703207555 -0.0004989577595790
1.0019833885040073 1.0017267859219194 0.0000125299041696
1.0019488126724454 1.0017692935822715 -0.0000440404407468
1.0019768439742405 1.0017415101681977 -0.0000381867851794
1.0019654882215427 1.0017403979158681 0.0000150539131786
1.0021074274712323 1.0016551683196309 -0.0003455384613725
1.0020407668249700 1.0016337936843442 0.0001124338365197
1.0019774906486476 1.0017379904448509 0.0000685711913262
1.0019655286250100 1.0017540098743938 -0.0003157238785387
1.0020288545880247 1.0015775723610265 0.0003357494725325
1.0018497170186735 1.0018958986052486 -0.0003732305342577
1.0020354420158146 1.0016661639063094 0.0001116961119896
1.0019503266834020 1.0017715474240270 -0.0000488244937212
1.0019595709055971 1.0017261617321596 -0.0001113801880703
1.0022412133103520 1.0015058720869263 0.0001934504505895
1.0019774883125239 1.0016545192105777 -0.0001464202262444
1.0019047734427216 1.0016993943054098 -0.0000995350322359
1.0019979156904306 1.0017313691064289 -0.0001552627864303
1.0019415159330944 1.0017569502620969 0.0002005432825291
1.0019667168797133 1.0016847242773705 -0.0003439131032912
1.0018582004215615 1.0018642724751134 0.0001494397087356
1.0020210555554705 1.0016814406064225 -0.0000229026172906
1.0016481691093506 1.0018637685720539 0.0004088230175246
1.0020379546722593 1.0016689537500838 0.0000375626452992
1.0019016949274471 1.0017213588888552 -0.0003108628421473
1.0018116391920477 1.0019535474812757 0.0000259415696886
1.0019797277244242 1.0017190865948444 0.0000673623156933
1.0020052488355711 1.0017157021842173 0.0002777231618006
1.0017890318874165 1.0020227863256608 -0.0000157999205016
1.0019912707141574 1.0017120985064718 -0.0000924238519174
1.0017082095314240 1.0021685235399609 -0.0004820415514175
1.0020371423446202 1.0016013697823882 0.0001918218124675
1.0019338817509287 1.0017496242662087 0.0002861921652633
1.0019953504713102 1.0016925473232257 0.0000883227606913
1.0019976645999684 1.0017449479462073 0.0009864995582766
1.0018425685156913 1.0019950736401155 -0.0001642770043745
1.0020350480233164 1.0016592755552309 0.0000886054387456
1.0020397431625210 1.0016591769545748 0.0003529262896586
1.0020221913577487 1.0016257364426191 -0.0003006412033596
1.0021613415648114 1.0016277773664610 0.0011023325191284
1.0021559305102528 1.0014991374967632 -0.0006470523700168
1.0019884576936842 1.0016398933623638 -0.0006549685180728
1.0018951084159149 1.0017368999472631 -0.0003980730748208
1.0019304180356230 1.0017723610868488 -0.0000380535424945
1.0020342209829001 1.0016543946742784 0.0000843259407923
1.0019077042812412 1.0018469662296370 0.0001919453481623
1.0019976266240185 1.0017310747498283 0.0004683668396283
1.0020727057416212 1.0015602209261909 -0.0002454953879483
1.0020451796571099 1.0016852408907304 0.0002272528646048
1.0022476775111850 1.0015159739853934 0.0000321101625817
1.0020111195813595 1.0016196407894109 -0.0004258978712254
1.0019053199311572 1.0016363073595798 -0.0002059885246064
1.0019612402498927 1.0016593081921747 -0.0002557431983509
1.0020980311615018 1.0016383258157271 0.0002089111568483
1.0020143881156762 1.0016383364194168 0.0001738939230214
1.0019773075923863 1.0017440884093185 -0.0000766734347254
1.0019352402642976 1.0017669504002564 0.0003332618266905
1.0020088924947343 1.0016795697056948 0.0004671204555122
1.0020952666825671 1.0016190176916269 0.0000374097907485
1.0021197405348161 1.0016168222104651 -0.0000181595073645
1.0019234384095967 1.0018740353501630 -0.0001275018761942
1.0019344002378912 1.0017938133538662 0.0000890380130560
1.0020569479867079 1.0016298203451477 -0.0000815535146486
1.0020431632883655 1.0016227413912937 0.0000808607222597
1.0020547295223639 1.0016093896238787 0.0000348823222374
1.0020899181695744 1.0016737891196434 0.0006005527963262
1.0018868978686746 1.0017042066253297 -0.0001019735707678
1.0023767047636651 1.0016332004812876 -0.0004695388921097
1.0021537566305088 1.0012882417600113 -0.0003109312796130
1.0018140214037747 1.0019769060932666 0.0000806092790498
1.0019416918714659 1.0017738933333113 -0.0000114542853384
1.0020880579735887 1.0014004233918403 -0.0001175714924946
1.0020321785655815 1.0016484446041376 0.0000457692535241
1.0020346938580886 1.0016442398582379 0.0001402024183358
1.0022334676358198 1.0014918823177950 -0.0001712044614601
1.0019568912118468 1.0017558010492946 -0.0000123710626727
1.0019357223720813 1.0015868220509894 -0.0000824861231093
1.0020466542558042 1.0016248806268682 0.0000697101235901
1.0020995902285781 1.0015993991425305 0.0001349086541189
1.0019584385268598 1.0017153214161962 -0.0001324376695036
1.0020356642956365 1.0016549168680384 0.0000804454056769
1.0022481983351852 1.0016646723926166 0.0013031094992585
1.0017585264298077 1.0020861913148880 0.0005764518701534
1.0020105941343165 1.0016956101234571 0.0001218228684891
1.0017758194418112 1.0020435887898604 -0.0003117078111216
1.0020297936873233 1.0016325908466455 0.0001130847977520
1.0024691360191400 1.0015921196911139 -0.0000762109519128
1.0020867391567605 1.0016509511967298 0.0002677814419303
1.0019769250550752 1.0017358108323908 0.0000062140018483
1.0019543590026607 1.0017625683260067 0.0000291515481297
1.0019535013346468 1.0018250725127955 0.0001218958866947
1.0022173096951725 1.0016632309423774 -0.0001764910056405
1.0024146655300392 1.0015960896765717 -0.0005858618872754
1.0020314056547042 1.0016677251961812 0.0000503539599086
1.0019369671801654 1.0017823035873157 -0.0000088853603784
1.0019313682559521 1.0018047020841232 -0.0000492535766792
1.0019915560350621 1.0017185621909310 0.0000046408591506
1.0019413054032158 1.0016633459004944 0.0006180870542711
1.0019988956213226 1.0015328590730541 0.0005054173872297
1.0021124124553562 1.0016654162982603 0.0001016822723894
1.0021064434341820 1.0013299485148739 -0.0004267166744599
1.0017093844973077 1.0018668112297657 -0.0000448344439092
1.0020177169167177 1.0016757327916190 0.0000451689020618
1.0019106695373756 1.0018367492472635 -0.0000336924074930
1.0019459653684770 1.0017717937335784 0.0002238499056373
1.0018455773868438 1.0019311631784120 -0.0001809481739205
1.0020543136900404 1.0015354914119421 -0.0000856791400744
1.0020272217792496 1.0015471020704811 -0.0007585882341022
1.0020347768738407 1.0016579988637404 0.0000827888970772
1.0019007451466659 1.0017743140302278 0.0003067179939343
1.0019849638355347 1.0017096293473076 0.0001782491275320
1.0020114420080501 1.0016858471553907 0.0001469264292222
1.0020958063813270 1.0016949959250940 -0.0000760526676957
1.0018943080255245 1.0018561017723298 -0.0002586773174619
1.0019585862436653 1.0017436529518442 0.0001070385091426
1.0019536554530062 1.0017403693731304 0.0001730361371186
1.0022237939353500 1.0011584379737102 0.0002722533868726
1.0020458031955797 1.0016584775286035 0.0000669739472213
1.0018263321227405 1.0017919966585129 -0.0002367730631661
1.0018019080658414 1.0018992700858569 -0.0005393531254506
1.0019381947173589 1.0017822419346529 -0.0000089427686712
1.0021328754720031 1.0014633013082153 -0.0001115987856240
1.0022611193220621 1.0016962362916035 0.0002278001865861
1.0019025305652418 1.0018302695765209 -0.0004169127432330
1.0013610194514058 1.0028367912461698 0.0002066581069582
1.0020252562199079 1.0016925694553522 0.0002005784094231
1.0019342512809968 1.0017812538388087 -0.0000106932056078
1.0021171940693838 1.0015667313242842 -0.0001294172973929
1.0022602397859521 1.0009074484582654 0.0011525326118021
1.0018470366672489 1.0016998092241396 -0.0008234959556047
1.0019973610548092 1.0017162228942538 0.0001966142147459
1.0020584858972510 1.0016368519417511 -0.0000357961392242
1.0020586586742064 1.0016585525183452 0.0001235402502615
1.0020125856521227 1.0016731330532789 0.0001300268917940
1.0019315356175649 1.0017779343624174 -0.0000205351657877
1.0018834951941753 1.0018773801000918 -0.0000115278045514
1.0016987308744414 1.0022514553329558 0.0005156065882257
1.0020002362069524 1.0016882776952543 0.0001539431702751
1.0020891493582254 1.0016769480134580 0.0002597722303501
1.0020096286507254 1.0016573405219189 0.0002649340826909
1.0019866761768166 1.0016398456891982 -0.0007310500069060
1.0018576347744936 1.0017909669661298 -0.0001171791971390
1.0019168575812405 1.0017746093376310 0.0002025940825975
1.0020120337672012 1.0016964031443145 0.0000980989107456
1.0020018612302912 1.0016408281776763 -0.0002351876720596
1.0021662824758422 1.0008454423144570 0.0021460852627083
1.0019648261141314 1.0016634161796014 -0.0001308856764853
1.0020140327925977 1.0017005872890394 0.0000745448372374
1.0019852607653910 1.0017141382764236 -0.0003692214507221
1.0020054076596292 1.0017064258734805 0.0001987008823585
1.0019469387027551 1.0017667981119216 0.0000276402324788
1.0020977682908774 1.0016548549370656 0.0001122565960449
1.0019716695010197 1.0017542907938435 0.0005740026707746
1.0020284492611913 1.0016734151412834 -0.0000233298742274
1.0020093229838218 1.0015681028685826 -0.0002211675111618
1.0019161717764107 1.0018186800671054 0.0002136608552734
1.0018190782854177 1.0018291934559371 0.0000901048267566
1.0019357785074725 1.0017704526413724 0.0002098103585306
1.0018882065311416 1.0018649889557971 0.0000259770644790
1.0019104139040589 1.0017577751588711 -0.0000816648552857
1.0017042611197060 1.0018503485401327 -0.0004327011533175
1.0020037017793106 1.0017245223547149 -0.0000561138041870
1.0019652223255326 1.0017643475640075 -0.0000785779585396
1.0019710452335626 1.0017523068658085 0.0005074457060820
1.0020340118121192 1.0015936309758477 -0.0001179001681761
1.0019250002731870 1.0017298526469087 0.0003708824662350
1.0018954777741842 1.0017609378983714 0.0003185791167021
1.0019723617855263 1.0017414619911422 -0.0000107631877295
1.0019149932796996 1.0017291187081920 0.0003902055580830
1.0017052613638451 1.0020269196248881 0.0016495853544316
1.0020355137905315 1.0016607632667927 -0.0000349236779615
1.0020269091207481 1.0016692080852949 0.0000882368392754
1.0019907068170562 1.0016995235601489 -0.0000990806512697
1.0019890274663759 1.0017121365274151 -0.0000881186133316
1.0019986078217584 1.0017174185984095 0.0000152786623725
1.0019367073506562 1.0017655260372034 -0.0000583442065963
1.0018717061664413 1.0018075647874278 0.0001284414331268
1.0021016534840386 1.0013842751014581 0.0001661811734228
1.0019783448539423 1.0016646648140546 -0.0001649377937155
1.0018994405873092 1.0018499701619736 -0.0003232744110564
1.0019677656333750 1.0017282700050190 -0.0000591529778095
1.0018644379549340 1.0017981772157476 0.0001460548224282
1.0019786359475245 1.0017088300369417 0.0000204847872767
1.0020227152621624 1.0016904980188894 -0.0000145352521243
1.0022221000950140 1.0016458086818780 -0.0001214128235065
1.0020035840662365 1.0017038257489608 -0.0000004922379913
1.0020257351153423 1.0016687744506523 0.0000875210013097
1.0020546805759865 1.0016541021316827 0.0002118292674621
1.0020321708071505 1.0016589320984977 0.0000500278939238
1.0020667282169404 1.0015926400839132 -0.0000659734748219
1.0020495890905281 1.0016345123361878 -0.0000894852019674
1.0020109202262937 1.0016981785540999 -0.0000577640035630
1.0020705164103556 1.0016389787465552 0.0000076286196282
1.0019551080116886 1.0017800547500078 -0.0000634513630575
1.0019244046039704 1.0017554176128696 -0.0000614396506050
1.0015820227478407 1.0019480063696824 0.0005371377731585
1.0018871149572008 1.0016379393488624 -0.0007155754511116
1.0019646760266243 1.0017246602166427 -0.0001728252509903
1.0019030818800780 1.0016946313740949 -0.0004002055148607
1.0019204359547256 1.0018088975382309 0.0012069769647073
1.0020069724791423 1.0016721269655313 0.0002362876766285
1.0020053802269326 1.0017274252349482 0.0002636295968707
1.0020012558911453 1.0016618244935025 -0.0004094385359689
1.0019757486882417 1.0016827099438088 -0.0003468556659118
1.0021736884343864 1.0013488814329741 0.0002911604747350
1.0019798399819742 1.0017332593456540 0.0000185057714224
1.0018418917711946 1.0018416705429118 0.0005623905045722
1.0020232022462696 1.0017130249529784 0.0002377630722097
1.0020103276676764 1.0016265629832999 -0.0000646849707495
1.0019962598456578 1.0016869945038780 -0.0000937400442550
1.0019303532544639 1.0016835189493851 -0.0000671767158384
1.0019528069995758 1.0016529571743626 -0.0001572815602937
1.0016180560072689 1.0022872984943367 -0.0003150982107827
1.0019499893797119 1.0017668456229987 0.0001955970479579
1.0021542659331450 1.0015211559003836 0.0000543372535228
1.0020118666168787 1.0016918032254893 0.0000799094791235
1.0020487731460039 1.0016445323544816 -0.0000152154535159
1.0019313089337751 1.0017644798301495 -0.0000622135585290
1.0020157612625908 1.0017250890741203 0.0002875917199745
1.0016373830808105 1.0018940865656039 -0.0005074907855264
1.0020302834658363 1.0015631629120534 -0.0003080477726367
1.0018521317226807 1.0019255363047379 -0.0000832202604005
1.0019606046654010 1.0016640295704737 0.0003550353607314
1.0019972768508960 1.0016989752734766 -0.0001498204492816
1.0018850059346334 1.0017787015070534 -0.0000015911428840
1.0019872107497991 1.0017100479075316 0.0002314681093166
1.0017425159752080 1.0020893053695035 -0.0001517735835949
1.0021474179112542 1.0015849790900051 0.0001751273826438
1.0020661462392111 1.0016417136580866 -0.0000712403698012
1.0019945188415280 1.0017069107174355 -0.0000172904228735
1.0020966230690316 1.0016137127480744 0.0001459539263730
1.0020027226948962 1.0016518132735255 0.0000072732504095
1.0021442534882918 1.0016984016971213 -0.0000951302637827
1.0021111857276563 1.0016576527130290 0.0004921328508569
1.0019300292211724 1.0016807837667356 0.0013181285936369
1.0019440950116132 1.0017831898283025 -0.0002598248730099
1.0021077548338921 1.0015681083511276 0.0002280991173510
1.0019005866391237 1.0017836180781388 0.0000396250409955
1.0019424223794844 1.0017653391096792 0.0000995113084623
1.0019158166493525 1.0016767601409688 -0.0004974046670966
1.0021886920412575 1.0015329102002977 -0.0000374145043970
1.0025151570520179 1.0013774024105029 -0.0002016182609430
1.0019802614106097 1.0017256824793992 0.0001758882712157
1.0019910278857656 1.0016807392500611 -0.0000582390545597
1.0019300185076019 1.0017713877665151 0.0003451020621803
1.0019565936509616 1.0017572314679863 0.0000255522811495
1.0019344169120150 1.0017493856251352 -0.0001047634230468
1.0018774914517850 1.0018211179074279 -0.0006488276069247
1.0019569949744276 1.0017670868675779 -0.0000579741682940
1.0019406096260128 1.0016471633803494 -0.0006445011306730
1.0019934456854183 1.0016969182588615 -0.0000758951607122
1.0018956250200572 1.0018863803832436 -0.0002556740041231
1.0020396691931963 1.0016707394482076 0.0001306343591434
1.0022161682450108 1.0016011718260913 -0.0000991737215609
1.0017448256705472 1.0018537936024074 -0.0001270625013346
1.0019510945458534 1.0017644956079010 0.0000286078300700
1.0018971232535634 1.0017939284179065 0.0001536194066995
1.0019289494259360 1.0017301325607475 0.0002982053070538
1.0019253042069625 1.0017411026232286 -0.0001972171129067
1.0019659777226313 1.0017590158451382 0.0001065185458041
1.0020415452415721 1.0016024139451123 -0.0002571727547693
1.0019267359176041 1.0017059511743287 -0.0003429348994709
1.0020199928790590 1.0016305970325012 -0.0002314418205541
1.0020060240815243 1.0016793567139763 0.0000864899907944
1.0019353174287486 1.0015579136857455 -0.0000092332258424
1.0020405290550942 1.0015859774023772 -0.0000348319940653
1.0021879799708566 1.0016208048391546 0.0001214926511119
1.0020441820703683 1.0016699461681602 0.0000407456245172
1.0019368222286649 1.0018044046336265 -0.0000636235513904
1.0019280873238188 1.0018104068340199 0.0000060648465858
1.0023221289503037 1.0014931391349382 0.0001913692777988
1.0020255638661864 1.0016726157301714 0.0001313036901645
1.0020139478692769 1.0016122035866015 -0.0002657987646699
1.0019042788826018 1.0018404472311242 0.0000580290526363
1.0020526235706557 1.0016573016138663 0.0000890982428080
1.0018504464527171 1.0019267209001048 -0.0001210265165134
1.0018104160586798 1.0019721949058202 -0.0003705128252150
1.0020289174083050 1.0016874907582571 0.0000213850675437
1.0019436661993215 1.0018146879862879 -0.0000127002445921
1.0019903442728753 1.0016354141864798 0.0000331909126131
1.0021648700081054 1.0015830242846502 0.0002776417048454
1.0019684892924852 1.0017072444624400 0.0003342632139003
1.0019905489718375 1.0016441047047879 -0.0002489689628968
1.0020636817279129 1.0016283855502579 -0.0001895176446293
1.0019420948591220 1.0017825232869673 -0.0001317796748410
1.0020303904725893 1.0016481953922876 0.0000044911047558
1.0020193048225912 1.0014838592467756 -0.0000052257906110
1.0020326881716388 1.0016325647237896 0.0001742508182692
1.0020156345028219 1.0016550518688492 -0.0000624443371735
1.0019323001231566 1.0018045532317277 -0.0000778216854217
1.0019909299190679 1.0017300587437350 -0.0000780895638548
1.0020327304087835 1.0016341702891325 0.0000500272801937
1.0019170742234511 1.0018215438836311 -0.0000460343206384
1.0019352068281628 1.0017997867890343 -0.0001128390267838
1.0020343144113351 1.0016552431562304 0.0000829966245921
1.0019665010235781 1.0017024194325814 -0.0001502523299910
1.0019307689050156 1.0017661004623650 0.0000066771847924
1.0020201427219853 1.0014136987921760 0.0001195851063737
1.0019446386423347 1.0017671444161849 -0.0000173456780098
1.0018521003027643 1.0018190274272498 0.0002644190276979
1.0020013286708886 1.0017003359425543 0.0001351373698940
1.0019405567044719 1.0017994884069215 -0.0004661060856146
1.0020693056519323 1.0014595338612833 -0.0002777176419259
1.0020269431870386 1.0016008759660677 -0.0000836183967230
1.0020208643877411 1.0016466384314908 0.0000780941464235
1.0020067777343908 1.0016834795195042 0.0001017679579387
1.0019598965612400 1.0017552194995798 -0.0000493604000309
1.0019396811094303 1.0016934563817073 -0.0004506275499679
1.0018686280647142 1.0018022738864436 0.0003263181514444
1.0019082020951204 1.0017866584934594 0.0000574895993484
1.0019800763191364 1.0016776848654465 0.0003471378366087
1.0019522389922975 1.0017113378603357 0.0003949750983238
1.0018370768150313 1.0018272238189789 0.0003489530678313
1.0020319998709100 1.0015906972686210 -0.0000507908811677
1.0020253078329733 1.0016929037383624 0.0000962067231127
1.0019604426620954 1.0017447864200282 -0.0005372770620471
1.0019287357891891 1.0017779505929507 0.0000149688050197
1.0020529687948188 1.0015333895644898 -0.0000088157936192
1.0020265163425326 1.0016654023480458 -0.0000180747949025
1.0019448107377158 1.0017777561937795 0.0000303031225186
1.0020105939615898 1.0016740520587561 -0.0000713755834806
1.0020394975473801 1.0016481012003227 0.0000848276108945
1.0020733185871384 1.0017290307156108 0.0002112242449183
1.0020112705204720 1.0016779493968724 0.0000924538737130
1.0018560170730200 1.0017994601800078 -0.0000828967609674
1.0019551674289162 1.0017633448013781 0.0001110452649221
1.0020148058252656 1.0017001417309210 0.0000008228792837
1.0018986872252069 1.0018559806842129 -0.0001240060650208
1.0020170155967854 1.0016870822665895 0.0000677575151058
1.0020397541493578 1.0016545549534432 0.0000834948560399
1.0019786531138091 1.0017433828416626 -0.0000164339265890
1.0019267072162299 1.0018085525524760 0.0000148847953674
1.0019041451059978 1.0018068226206731 -0.0007536674404348
1.0022657762049925 1.0015058366914653 -0.0003117347809281
1.0021756498039336 1.0016550250796237 0.0005415730139780
1.0020598948979704 1.0015949523996459 -0.0002773267431339
1.0019270255779422 1.0018024658394638 -0.0002085086810227
1.0020433834656786 1.0016768709362704 0.0000573718630521
1.0020011061651575 1.0016189738864285 0.0005198675948802
1.0019766714688993 1.0017510904431475 -0.0003716750417930
1.0020292343059816 1.0016635371050007 -0.0001893800286573
1.0018344060467395 1.0019253564282602 0.0000718879208927
1.0018447644193804 1.0018201920439116 0.0000881977121819
1.0020053145784609 1.0016843413921825 -0.0000256206994742
1.0019919217112800 1.0016843884870614 0.0001184303929252
1.0018551247427014 1.0017876452212453 -0.0000710296975086
1.0020684098762551 1.0016606039617870 0.0000773073939240
1.0019992052373929 1.0017176277949136 0.0000274410447478
1.0018134117588715 1.0019244347073668 0.0001123827111558
1.0020125354526006 1.0016498378371490 -0.0000955431019178
1.0020415815741361 1.0016892662452752 -0.0000251220927310
1.0019702509171891 1.0017381817357329 0.0000959916625661
1.0020727059276797 1.0016620269410814 0.0000511754245019
1.0020353361552057 1.0016806685905542 0.0001629040247067
1.0019896279497402 1.0017249126074108 0.0001672989255773
1.0019642064758569 1.0017478587456565 0.0000245496426983
1.0020594603277801 1.0016434644431784 -0.0000385287851812
1.0018219872481295 1.0018205612232940 0.0001094191256872
1.0019186299551326 1.0017708942279298 0.0000874137480050
1.0018634719216080 1.0018119932377081 0.0001159723502474
1.0019517123053072 1.0017600689831203 -0.0000691277618571
1.0019848570496648 1.0016925424026244 0.0001495566837226
1.0019256890676791 1.0017700838453765 0.0004116906708721
1.0019506952071486 1.0017420256500384 0.0001785084550925
1.0017188597334545 1.0017746072752314 -0.0006697261413403
1.0020346130134681 1.0016810547336819 0.0001023283664034
1.0019815872683540 1.0017025284194323 -0.0001024975542782
1.0019164484621383 1.0018032316031118 -0.0002986572941607
1.0019633619405726 1.0017362423953162 -0.0000713465543317
1.0018683946150493 1.0019053186587863 -0.0000538675106159
1.0019857099766176 1.0017287298370408 0.0002207420037848
1.0021106203363654 1.0015123656292171 -0.0003650958560027
1.0020416726245200 1.0015976282333268 0.0000662844847096
1.0020121781710991 1.0016898753573620 -0.0000033334388302
1.0020527670615680 1.0017735202881684 0.0010042871586244
1.0020579962425036 1.0016689479388325 -0.0000634445292072
1.0019966419518742 1.0017395805449305 0.0001878452263129
1.0018141599122552 1.0020186878564283 0.0005926422345995
1.0019725852353427 1.0017241454747616 0.0001595401111919
1.0020169574357178 1.0016825790457451 0.0001632006721501
1.0017908940671216 1.0019047405324664 0.0007268646532097
1.0019406197295400 1.0017889829418039 -0.0001530084362972
1.0023191014677695 1.0014275609326075 -0.0000469075980159
1.0019938427274071 1.0016560735309268 -0.0003944465763299
1.0019611598405254 1.0017333204182748 -0.0000605874369368
1.0019319866740257 1.0017603176047243 -0.0000714637849971
1.0022926938707302 1.0013258891087520 -0.0001117863402997
1.0021877449300889 1.0016316231322366 0.0010978094542059
1.0018912233370234 1.0018469776014685 0.0001580531330594
1.0019703577996173 1.0017182987089563 -0.0000823849150415
1.0019594163859618 1.0017527539195255 0.0000267528793567
1.0018878100743289 1.0017981905310540 0.0002793964261953
1.0019403010062808 1.0017594885112546 0.0002791782460385
1.0019872511903987 1.0017297859916192 0.0003265729660790
1.0020098968545152 1.0016722983866544 -0.0001871575836168
1.0019109799064865 1.0018106691735360 0.0002091955721376
1.0020539242602404 1.0016666523878424 0.0001073365326450
1.0021455283108667 1.0015842197553113 -0.0002058155401040
1.0020742042122475 1.0016627995722098 0.0000215297341007
1.0020814034062162 1.0017330975372141 -0.0001841210955226
1.0020573308799021 1.0015713401434305 0.0002549879861973
1.0020458685387743 1.0015883110702033 0.0000272894892863
1.0019927149925341 1.0017040110973998 0.0000543499080537
1.0021217210323452 1.0016627692595748 0.0001889456602591
1.0021548472358941 1.0014079068246853 0.0001838653721190
1.0020835404080344 1.0016211302568321 0.0000672405313280
1.0019777137320101 1.0016887986184746 -0.0005977721900249
1.0018195767540732 1.0017943055416425 -0.0001658343058491
1.0020185321186235 1.0016456774571647 -0.0002241315373657
1.0019793546202036 1.0016386603062306 0.0001485284605939
1.0018852775523672 1.0018695553770423 0.0001955850281080
1.0020179025630247 1.0016482216972085 0.0002036329406429
1.0019739629015045 1.0017385732550739 0.0000888084985990
1.0020395090123235 1.0016857260812073 0.0001762986212499
1.0019688833183811 1.0017376295525247 0.0001617176321776
1.0019824408921949 1.0017210767079461 0.0000669157875620
1.0020354660614132 1.0016590153892269 0.0000749076226245
1.0020380213989286 1.0016309044986311 0.0001389834897363
1.0020166985393439 1.0016580369808636 -0.0000266495703723
1.0020614062510280 1.0016703072873447 0.0002342806216078
1.0018147591698381 1.0018400812485582 0.0002317161320526
1.0020690542186950 1.0015760408271130 0.0000581251178468
1.0021167286622230 1.0015283205326995 -0.0001059404798095
1.0018792145476418 1.0017399520462520 -0.0003380404453354
1.0020223919847107 1.0016631669337297 0.0001090145859026
1.0020359675644694 1.0016743515280746 0.0002718122688381
1.0018128767892780 1.0019284263067216 0.0000239349442581
1.0022483488966856 1.0013029845571153 0.0000585328909258
1.0019746764013286 1.0017332638302947 -0.0000141438113605
1.0020159159162949 1.0016513925078443 -0.0000366722681893
1.0019562346173794 1.0016582378181400 -0.0001136404445352
1.0024167594356537 1.0015565620875824 0.0004724930228572
1.0020566005262743 1.0016632409591597 0.0001041465403009
1.0019665248672984 1.0017446021221026 0.0000205188053980
1.0019588000392201 1.0017525348407028 0.0000976292620667
1.0019054407196490 1.0017766414968119 -0.0000667603411638
1.0019696370364377 1.0017362085026367 -0.0000637816025820
1.0019630414944400 1.0017555481442677 -0.0000670949728811
1.0019851675088969 1.0017274614211846 -0.0000119168210113
1.0019972229213012 1.0016030169051682 -0.0004928240066324
1.0020558471819501 1.0016769415142983 0.0000794036154974
1.0020393977465558 1.0016288180317423 0.0000118972610135
1.0019925690867744 1.0017088076511431 0.0001415071162591
1.0019579835066583 1.0017296700420868 -0.0001438298765895
1.0018146356481352 1.0019810616729827 -0.0001806398012427
1.0020219472147285 1.0016383662301316 -0.0000330542092155
1.0021655328215393 1.0016219242418429 0.0000195676063387
1.0020191143901716 1.0016535716438393 0.0001683917648963
1.0019726411819230 1.0017369890808392 0.0001545805913632
1.0019122816978634 1.0017970909676921 0.0002908990853238
1.0021682361777344 1.0016266102165103 0.0002428579837387
1.0019971138055477 1.0017004106650094 0.0000687077187452
1.0018835785747906 1.0018816230916650 0.0000331449154632
1.0019896656818195 1.0016894103664322 -0.0000957643499221
1.0020585647559135 1.0015059416957697 0.0002347771918656
1.0018819321907924 1.0018987964207537 -0.0003639298824624
1.0021168422474738 1.0015987711144034 -0.0001526067234092
1.0020272446113923 1.0016439798489294 -0.0003729697801466
1.0020955961814590 1.0015675802408062 0.0001277856161440
1.0020244189908232 1.0016678235141803 -0.0000095705459836
1.0019855015388623 1.0017253815709286 -0.0000670507967025
1.0020760216430937 1.0016677180434361 0.0000496795779708
1.0019979492291116 1.0016505618503153 -0.0000266573137169
1.0020132263316517 1.0017062486602841 -0.0001756028227220
1.0019109391246259 1.0017189353730549 0.0006275169933227
1.0019934879572496 1.0017028937489958 0.0000716942121077
1.0020678010601560 1.0016716996863755 0.0002286784225962
1.0019783111651266 1.0016842616658421 -0.0002130728939526
1.0021804177985278 1.0014992694816269 0.0000550364322603
1.0019759425326844 1.0016865164448361 0.0002899187715652
1.0019950124082886 1.0017095772259683 0.0001367123763363
1.0020543329463334 1.0016905684782629 0.0003352581411306
1.0017546847677172 1.0018519949385620 -0.0000163048803580
1.0018355896278199 1.0019994691682985 -0.0002949330275780
1.0020772961176212 1.0014691253553405 0.0000341048536225
1.0020673269792133 1.0014222273649802 0.0004969510709086
1.0020098745269113 1.0016568312102669 0.0000272428050690
1.0019709657653786 1.0017184538209101 -0.0001919119151409
1.0018741560418092 1.0017917853304326 -0.0000501692189175
1.0019555492272103 1.0017566018811537 -0.0000538320686969
1.0019391069274834 1.0017361037758405 -0.0001432214558231
1.0020085133458003 1.0016234971333069 -0.0000188193826361
1.0019229999831025 1.0017190624733008 -0.0003647886140327
1.0020282399044300 1.0016621460618909 -0.0000528628954248
1.0020966258146895 1.0016411065720852 0.0000037031929047
1.0018441022223588 1.0018885231205492 0.0002707548662183
1.0017088834830483 1.0022239296402013 -0.0002409372076961
1.0020516545998823 1.0015945601442735 -0.0003860090782521
1.0020324921373089 1.0016400770981437 -0.0000535378737958
1.0020679359868503 1.0016512973553797 0.0000094580343481
1.0021674126327735 1.0014976678086231 0.0001770528331472
1.0020082480867385 1.0016865717129955 0.0000550382496470
1.0020114026644045 1.0016639622680346 -0.0000926033739773
1.0019524798847772 1.0017452146636641 -0.0000760206493192
1.0019333594621513 1.0017722410630447 0.0003654422263857
1.0019816592123147 1.0017108795009289 -0.0000746217344923
1.0018797776550343 1.0018410882142998 0.0002892499675842
1.0019413173225060 1.0017686924530662 -0.0000371901127498
1.0018933136675658 1.0016641386687579 -0.0007142917171943
1.0021180045398044 1.0016511781852184 -0.0001723137061647
1.0020249595256476 1.0016799962380654 0.0001018915878146
1.0020187689355324 1.0016401282040930 0.0001255789910127
1.0019580421417167 1.0017511147790024 0.0001632153776072
1.0019616025562306 1.0017603888511184 -0.0001835537205611
1.0020145052922997 1.0016768627210770 -0.0000248849332527
1.0019872094007047 1.0017158293124513 -0.0000143266298068
1.0018717889607041 1.0018892767944771 -0.0000197595770540
1.0019578738995505 1.0016967910028785 -0.0000084996817803
1.0015877407606846 1.0019345261078516 0.0003001311442232
1.0019511436948541 1.0017880600447058 -0.0000549449602153
1.0019818029989180 1.0017211113632001 0.0001510414764003
1.0020136843034777 1.0016874327422951 -0.0000059095114429
1.0020026125518680 1.0016843003009732 0.0001830088987867
1.0020184426462140 1.0016278439544333 0.0004262594987359
1.0018620580872153 1.0019663417567188 -0.0000496467410957
1.0022615487135040 1.0016173639668364 0.0000264131459033
1.0020515000847083 1.0017079797071220 0.0002375924300213
1.0019348763267752 1.0017894702038503 0.0001048435504017
1.0020330846050189 1.0016214722146342 0.0001405382524909
1.0020478674251145 1.0015482899826011 0.0001509148716373
1.0017583806318902 1.0018366805382271 -0.0002532448932451
1.0019393831020564 1.0017575668774561 0.0001003352568174
1.0019527484437076 1.0017643904472753 -0.0000052453101160
1.0020079929036463 1.0016959862023260 0.0000257635834372
1.0021163628916165 1.0016309887010173 0.0000395997743333
1.0019892031426405 1.0016810349481449 -0.0002498014973055
1.0020232490765841 1.0016326147691785 0.0001409559877083
1.0021321086218005 1.0016928336270647 0.0000621675840456
1.0020139729495021 1.0016766186676249 0.0001064188590454
1.0020003070033701 1.0017073571187551 0.0000616684700154
1.0019907441536238 1.0017269890473020 -0.0000322869248239
1.0019547609075123 1.0017624082657497 0.0001041054038212
1.0020156503782598 1.0016941417078806 0.0001214047893195
1.0020096526415081 1.0016919390342534 0.0000489272194311
1.0020221800388176 1.0016778663005972 -0.0000065753200397
1.0019149753601375 1.0018696477943072 -0.0002923558893079
1.0019947555050224 1.0017118628577764 -0.0000902986013768
1.0020655677420072 1.0016701850090945 0.0003215382651468
1.0019664995945907 1.0017581806881664 -0.0000677417030352
1.0019982522916473 1.0017339118457729 -0.0000476138231097
1.0021151247000155 1.0015621943938864 -0.0000903455213043
1.0018993593800720 1.0017921657756075 0.0005580920752796
1.0019878582740809 1.0017235114244127 0.0000758646500657
1.0019959946972863 1.0017119031294566 -0.0000598908360956
1.0021115180091171 1.0015228855463720 -0.0001120666271887
1.0019052549781826 1.0017784985046698 -0.0000610560940064
1.0021281022912263 1.0014618005097047 0.0004011192637264
1.0019842083766017 1.0017138064803972 -0.0001090011781458
1.0019471561809172 1.0017649927264825 -0.0000528200523256
1.0019690684845395 1.0017531568612772 -0.0000477189501695
1.0019053774012907 1.0018194475977962 -0.0004301369292171
1.0020642869820249 1.0017019131894824 0.0006370957301437
1.0018690100868430 1.0018924226585570 0.0006034815437497
1.0020122234094795 1.0016934493865850 0.0000761367974931
1.0020499886886307 1.0016461487744053 -0.0000412394950928
1.0019597213710054 1.0017493003103970 0.0003137729239475
1.0019915564281061 1.0016870858424827 -0.0001044439052776
1.0020599251204945 1.0016508445063006 0.0000659367742098
1.0019721614243113 1.0017285826918643 -0.0002198667476509
1.0019199197137696 1.0017782874399521 0.0002786698754604
1.0017968992796273 1.0018298547645499 0.0005362024565438
1.0019844021414361 1.0017175375859284 0.0000832825528010
1.0018920361493611 1.0017930920946474 0.0000279735491559
1.0019943273263074 1.0016073111265242 0.0004453705270751
1.0018879539477068 1.0017941784424973 0.0000361157568833
1.0022027772903930 1.0015927275879088 -0.0000001375937457
1.0018995415359084 1.0017709153955294 -0.0001145794261756
1.0019476645540397 1.0017721094499572 -0.0000429844174817
1.0018591105962948 1.0017499452172545 -0.0005327186863337
1.0020117420966388 1.0017233585623437 0.0004858498500623
1.0019849435309143 1.0016444408199956 -0.0001569437089973
1.0020647439169263 1.0016601660727456 0.0001810134916630
1.0018462058524127 1.0017936546697441 -0.0001450584952087
1.0018113889731133 1.0017808970907136 -0.0003475504388905
1.0019535141433311 1.0017586402622318 0.0001709363279940
1.0020101031844955 1.0016373017189493 -0.0002616837887485
1.0019306503498344 1.0018337109534117 0.0000769985249385
1.0020160386058163 1.0016228687680944 -0.0002139134591148
1.0018705572627333 1.0017987652557563 -0.0000153039585360
1.0021846393250333 1.0016014823856485 0.0007794421007296
1.0021073900088910 1.0014916699214576 0.0000523974440019
1.0019963592480015 1.0017012543909594 -0.0000663312565890
1.0022191858673370 1.0016748324003790 0.0002299651945097
1.0020158252116151 1.0016967835493982 0.0000250582484273
1.0017654745409206 1.0018242164248854 -0.0003916063486752
1.0020745120399281 1.0015422361074993 -0.0001991178735000
1.0020342705439282 1.0016877822702337 0.0001296317725067
1.0019038424000477 1.0018501995565103 -0.0000676712121742
1.0020258083996052 1.0017037824776323 0.0000049658566962
1.0019465619933219 1.0017924329026993 -0.0000552487062955
1.0019711436725420 1.0016926144636524 -0.0002132313076244
1.0021125068271337 1.0014417414095567 0.0001342549775486
1.0020461628513742 1.0015143557564743 -0.0004182325423526
1.0020733681980238 1.0015651448782781 0.0000338313193648
1.0020121632588475 1.0016614694518648 0.0000480683136237
1.0019794437404310 1.0017131265711001 -0.0000706572910586
1.0021149620202698 1.0015649197644754 0.0001594021449613
1.0019567850167723 1.0017060786906586 -0.0002926874207684
1.0020992140725871 1.0016475359220574 0.0001935492911801
1.0023162835814112 1.0016161918188105 0.0000528828518127
1.0019694595244637 1.0017475883041695 0.0003352430441201
1.0019039980477376 1.0018480111743415 -0.0000732745505978
1.0020638033745457 1.0015108380820272 0.0002022501529839
1.0020625416701656 1.0016310104743775 -0.0001868542039648
1.0019774972678048 1.0017322156009258 -0.0000754930733406
1.0020247073420130 1.0017085156923071 0.0004037262418975
1.0020094382035214 1.0016844558917735 0.0001320934126333
1.0020189478047656 1.0016512427092399 -0.0002018089685433
1.0019814637793576 1.0017282422016940 -0.0000417235442593
1.0019009939119754 1.0018528024490416 -0.0001174987266912
1.0020947330128303 1.0016576768346985 0.0003616364483854
1.0019848365147614 1.0017231122391357 0.0001449525261284
1.0019347741854412 1.0018297675917724 -0.0000325647823350
1.0020573728070457 1.0016674580635283 0.0002160502042233
1.0020469193248229 1.0016026025272329 0.0003609482268028
1.0018503854356631 1.0019165064791109 0.0001498325350393
1.0019489383545237 1.0017660323786441 -0.0000454393727580
1.0019635407381604 1.0017641625226450 -0.0000570953260689
1.0019759321524375 1.0017435252827389 -0.0000366970024107
1.0019398655627452 1.0017744804920938 0.0000669990400272
1.0019015684017398 1.0017725824375465 -0.0001081648731316
1.0019537208684632 1.0017174879641157 0.0003294415199192
1.0016105201304799 1.0019064633864816 -0.0002510464613245
1.0020121059575469 1.0016935210646165 0.0001380066736292
1.0019237732686304 1.0017766521923919 0.0002045235067815
1.0020205323875460 1.0016987457603381 0.0001920061457055
1.0019017492427755 1.0018514252163244 0.0000719541912199
1.0020151758753988 1.0016648750043182 0.0000769951520362
1.0019638706551408 1.0016076879904701 0.0000113931284895
1.0021074471868250 1.0016418652587553 0.0001580737762925
1.0016399032057415 1.0022679296335641 -0.0000529189328428
1.0020860147962345 1.0014261401500482 -0.0001729180253604
1.0018150214539439 1.0017992604287180 -0.0003231568927680
1.0019998510772252 1.0017135870200367 -0.0000092338750112
1.0019699394004946 1.0016666251466888 -0.0004556489675716
1.0020804521954980 1.0015556161218104 -0.0003866559554009
1.0020011313554780 1.0016938220945348 -0.0000091221297514
1.0018335646894179 1.0018396238991301 0.0006869020381984
1.0019817709667567 1.0017369933264364 -0.0000434524127157
1.0018587306491444 1.0019042748095228 -0.0005521343047372
1.0019684628908816 1.0017509518899281 -0.0000491359271830
1.0020542745630261 1.0017047944394455 0.0000286123798905
1.0017937204208034 1.0018028045441698 -0.0005110713975104
1.0020961068706726 1.0015359099225010 0.0002140438192162
1.0018784183294622 1.0017178600217402 -0.0006371157989711
1.0017606801388896 1.0020404651089643 -0.0002841564944663
1.0019676055134559 1.0017461083794392 -0.0000204959566441
1.0019659635484381 1.0017600286196153 -0.0000455146823296
1.0020631986858701 1.0016317942399728 0.0000447022596861
1.0020117054332816 1.0014563478858090 0.0010665538832595
1.0022080309762909 1.0014860307714493 0.0002093011457157
1.0019635585629827 1.0017445093076853 -0.0000545724325362
1.0018283347454282 1.0019668752807023 -0.0002315691508833
1.0017678425985657 1.0020477610100407 -0.0001414789239245
1.0019006055636119 1.0018483683810189 -0.0004231388293463
1.0019038750107394 1.0017137728900960 -0.0004897170151559
1.0018612880996103 1.0018581537932005 -0.0004664442113618
1.0021494119230294 1.0013577424643101 -0.0000371966380899
1.0018104351814145 1.0019209748975926 0.0007207381162798
1.0016930136968807 1.0021786482317969 0.0001490557170104
1.0017042692066755 1.0018831617309030 0.0001659130504666
1.0021724089549149 1.0012217207793019 0.0005807567420578
1.0017564623987141 1.0020670908084366 0.0002849443208875
1.0018830230034068 1.0016808636173378 -0.0006184281115942
1.0016959612826721 1.0021340391593676 0.0006876656688423
1.0021803659395097 1.0012608542961685 0.0000814305544115
1.0016452149072561 1.0019011475414270 -0.0000153052799322
1.0019605695088620 1.0016608324976433 -0.0005265848101759
1.0020540839203227 1.0015776345016543 -0.0003884745354983
1.0017247113953593 1.0018924881653033 0.0006640373440433
1.0018749510873237 1.0018191959549740 -0.0005520434218161
1.0021773831448915 1.0015114470131836 0.0000545667691727
1.0018720052244914 1.0017166305985490 -0.0005330447130886
1.0020810214833056 1.0016078381077953 -0.0001626317755067
1.0020408898014996 1.0015930850938566 -0.0004183495393563
1.0019398517171374 1.0015366296580999 0.0013043203777212
1.0019619133332718 1.0018177254972358 0.0012253687631007
1.0020985529675817 1.0013954501139783 -0.0000679120025342
1.0020863890336382 1.0014741529938866 -0.0001555504835005
1.0020973181101924 1.0015908545500840 -0.0000909648923994
1.0020942233951236 1.0013932869199997 0.0002677650480292
1.0019768883337421 1.0017316105060294 0.0004211664165090
1.0020864588104212 1.0016562871377974 0.0003973504900396
1.0019559281791837 1.0016230899119476 0.0004755547094978
1.0018652105721577 1.0017183242537453 0.0005976514853671
1.0017778983824290 1.0018099389418711 0.0000663859583964
1.0018955417594007 1.0017894173678703 0.0005301701699223
1.0017422226032822 1.0020350152748425 0.0001056616020346
1.0016614221748144 1.0018690576603011 -0.0000183579271916
1.0017829865505072 1.0020157361769007 -0.0009763194730236
1.0016271310741447 1.0022099013104786 -0.0007361598650196
1.0016567121355076 1.0021572321143681 -0.0005404891465703
1.0017412544963940 1.0016826529936897 -0.0011589960181011
1.0016459670144238 1.0018119507857259 -0.0007209495285214
1.0016905269945453 1.0020212087356797 -0.0011061711657009
1.0022741972869800 1.0014271530743597 0.0000051986354332
1.0026261121130331 1.0011593600784754 -0.0010812498086877
1.0020119618842489 1.0013332489194302 -0.0019360374453435
1.0017613783039967 1.0016588025224722 -0.0012546687100722
1.0020001769613101 1.0017902943078452 -0.0002580359558149
1.0017651147516169 1.0017996639263869 -0.0015109484247687
1.0019832808884106 1.0017515218186284 -0.0017342314251710
1.0020588171951548 1.0017146346892885 -0.0000421712382964
1.0022918238906580 1.0016139644736686 -0.0004376320804527
1.0021798173766974 1.0016154981444412 -0.0000171071197370
1.0021024727574785 1.0016842098238545 -0.0002920429378940
1.0021518748948799 1.0016173393049110 -0.0001087941423924
1.0020647171985044 1.0016547516933176 -0.0000539177665419
1.0021567794183701 1.0016527468052518 -0.0000884166455336
1.0020308001350535 1.0016362129170144 -0.0001951241651585
1.0020980374778514 1.0016226456356474 -0.0001180980861517
1.0020364683366458 1.0018229112581909 -0.0015041546614107
1.0012132812126817 1.0017837361541100 -0.0000733447520721
1.0019551282020360 1.0017031059856956 -0.0000976083478729
1.0016547069103710 1.0021257028059012 0.0007331932022972
1.0014314531378647 1.0027676368485845 -0.0005528348888431
1.0021090933048740 1.0016604280825943 -0.0001442498599125
1.0021162389588452 1.0016249832243207 -0.0000069798029261
1.0014427883894907 1.0019098922952041 -0.0015506241999254
1.0015524377065217 1.0020165936134970 0.0006274476117220
1.0014679377563123 1.0028620641944888 -0.0010608366167225
1.0013581965870424 1.0021072362754824 0.0003390109997424
1.0021527386264979 1.0012826610653736 -0.0002943906923332
1.0020307623699596 1.0019109424885460 0.0016577780569253
1.0015662166142214 1.0018264164414730 -0.0017740256402395
1.0020558913698157 1.0018051243427029 0.0012645385542713
1.0015215364405050 1.0025069825707489 0.0006231160870169
1.0019741712133383 1.0012538165454632 -0.0017202173129276
1.0019415471259006 1.0014260385757665 -0.0016127511546695
1.0019353392010537 1.0015535843320980 -0.0000113300853298
1.0019370008518207 1.0020584728398094 -0.0000451368000184
1.0019464419744457 1.0026153537869005 -0.0012112892512441
1.0022326710937348 1.0015983913432336 0.0010879124208313
1.0020410974334246 1.0012665655608741 0.0017271505131997
1.0018465869899378 1.0019167611996658 0.0005208935225020
1.0022442002093248 1.0010125257657374 0.0008003795764571
1.0016017440373732 1.0022823331949451 -0.0005759862940834
1.0020403176541244 1.0016767000686588 0.0000345693290007
1.0022877622273845 1.0018103965959639 0.0000382534615930
1.0019884069923226 1.0018260604022120 -0.0000044720392665
1.0021776251522836 1.0017364342171950 -0.0002345946732298
1.0020858294844661 1.0016979661836827 -0.0000352009143886
1.0020933498234308 1.0015641440112433 -0.0001820824945523
1.0018955934218072 1.0019848842598558 0.0007562022409121
1.0020547999154161 1.0015054389332814 -0.0009614801901793
1.0019657168360840 1.0016859403517890 -0.0008780342451712
1.0017144889460508 1.0018031028800436 -0.0001173585670843
1.0014409809244074 1.0020241113486708 0.0003710000387810
1.0022075840636968 1.0014722460966461 -0.0001711502933323
1.0018341090757756 1.0017853236031624 -0.0001004610779535
1.0019219849410481 1.0017584163589015 0.0004823983759548
1.0019473687050471 1.0015321382133522 -0.0005867433547297
1.0015955402822132 1.0023536453537341 -0.0002273618291855
1.0017139641136361 1.0017402703407638 -0.0009441752902704
1.0018199091266613 1.0017749119595740 0.0010551418713610
1.0021280409005151 1.0017666903735158 -0.0001789386712062
1.0024166013486753 1.0004848032039686 0.0002063018784943
1.0033707694605836 1.0010091605892644 -0.0039793007077528
1.0020342610219917 1.0016656362518768 0.0000500784887041
1.0014747534036048 1.0019053727918761 -0.0005129312187807
1.0022271773598683 1.0011358572820435 -0.0001645794723703
1.0020286386058843 1.0015602632769742 -0.0006455344055818
1.0059934611109731 1.0000853062003157 -0.0035850575916928
1.0018960943898010 1.0014184601937841 -0.0015924418685314
1.0018316973541528 1.0018227647158913 -0.0001007429940672
1.0017224963651146 1.0020073322980612 -0.0004656045858953
1.0020276979269918 1.0015531482903051 -0.0009147424031596
1.0020350517547176 1.0014774689712453 0.0011032686160973
1.0022979880245766 1.0014512477263449 0.0010412591077725
1.0020039264306972 1.0016898463976158 -0.0003946641469426
1.0018339085304346 1.0018708962575775 0.0004069976763278
1.0018328288848288 1.0014838071836618 -0.0015994320337596
1.0019704443513304 1.0017626336431447 0.0000708156548870
1.0017304020009492 1.0021635874407944 -0.0010313226121290
1.0020175623015239 1.0014190964620946 -0.0006053419214904
1.0017336734085247 1.0016468047727929 -0.0011423419120350
1.0017691041170005 1.0012582842575628 0.0004759929024901
1.0017271904997771 1.0021078900781353 -0.0006076443232822
1.0017422074077924 1.0017709099496306 -0.0004748221739873
1.0014041271739642 1.0027062005089760 0.0003460189300323
1.0024535304459219 1.0023375949352034 0.0044160630034511
1.0016679512406588 1.0018283298028690 0.0001299875093185
1.0017663210268173 1.0014610644403024 0.0001797033280125
1.0021603582568686 1.0017070263915613 -0.0001788137532889
1.0017330053062787 1.0017798170175858 -0.0005763078175300
1.0016549308683256 1.0022002496466051 -0.0009869625909105
1.0021866222119531 1.0018561001941522 -0.0006637033008844
1.0018615107605491 1.0015679542354843 0.0005352288892430
1.0019874270737075 1.0014973381483159 -0.0007520249293902
1.0017446313680791 1.0021366891237775 -0.0012272893578163
1.0017059447116274 1.0016668133474353 -0.0010720632189488
1.0017140644336477 1.0018030869404611 -0.0014248057804244
1.0019998514983071 1.0015496207969679 -0.0006733641301749
1.0019567901155799 1.0014013709271987 -0.0005668630394528
1.0016220062111321 1.0018426004431311 0.0005454961590036
1.0019282468387201 1.0016413765884427 -0.0002886969502736
1.0018439231574900 1.0016846907738424 -0.0002060652854234
1.0016796563339505 1.0021574795470456 0.0000673884923058
1.0012306779704330 1.0020756774541260 -0.0000522232865061
1.0018424091298039 1.0020063086408455 0.0006189911931592
1.0023865555472726 1.0013103977818092 0.0001713931250709
1.0022946320527388 1.0006390735294510 0.0017982661434931
1.0012239138134720 1.0022298502772213 -0.0034222202534160
1.0016939845547435 1.0021343474046220 -0.0000500072430957
1.0016345876731521 1.0020561752532637 -0.0009839615043691
1.0016191228615277 1.0018880014356129 -0.0002116848991340
1.0027485206226878 1.0011321999171714 -0.0016967068782896
1.0014408049769163 1.0011490401966876 0.0008003221809255
1.0017218046581171 1.0021636180134108 -0.0007260207055029
1.0017845315007678 1.0014820223430512 -0.0015160843592733
1.0023058376751286 1.0014263595909070 0.0006536149093951
1.0019015637644697 1.0014947287537410 -0.0007650436181567
1.0016780191922752 1.0018414370798028 -0.0013861299638503
1.0021740751798316 1.0012012618787358 0.0000236139923698
1.0021586575033425 1.0017956286585432 -0.0002943003326691
1.0020222404233543 1.0014996935086637 -0.0008504798317052
1.0018105993607276 1.0015147304742322 -0.0015979284630926
1.0021719385091552 1.0011759525110673 -0.0000500031481983
1.0037027882753136 1.0000226496392450 0.0028967718368854
1.0020066184360417 1.0013031230459830 -0.0006573919665585
1.0023726858673432 1.0014797359075558 -0.0005557569846067
1.0020456653877943 1.0000251445981232 -0.0021189073133242
1.0020234159903669 1.0022443980775759 0.0014071264571770
1.0022318601573152 1.0008221273691666 0.0016732265664186
1.0009455031327925 1.0012956067268419 -0.0025815952390727
1.0022806147685950 1.0011245604705474 -0.0015454486265999
1.0021659473269893 1.0015685657903652 -0.0008363302524630
1.0020210906404898 1.0013625885257387 0.0002508809493115
1.0065629045014379 0.9999754233537553 -0.0076805398602467
1.0022758670782022 1.0014004909017518 0.0003697783625678
1.0021226701329828 1.0015494685077857 -0.0001600943608958
1.0021170248380735 1.0016835864189408 -0.0001331451975579
1.0021194321879787 1.0015960285490750 -0.0001596813038222
1.0021937240550467 1.0015986305134530 0.0002509557336776
1.0021862474116867 1.0014477497736542 -0.0000661455316724
1.0022397145067903 1.0015952496065466 0.0004517405279397
1.0022488272144106 1.0015320523814710 0.0000074025894798
1.0020268584130947 1.0018821830004956 -0.0000763402654082
1.0020117582512640 1.0017877878856147 -0.0002571209180304
1.0011020082539361 1.0018596726630726 0.0000426141011619
1.0019899114820299 1.0018300732348535 -0.0013495449763392
1.0018181945757887 1.0016522014871552 -0.0010074291571807
1.0021256592813064 1.0013230473197445 -0.0000951428843124
1.0020335715031141 1.0015188129054851 -0.0005183499030342
1.0018661092524908 1.0017377348903076 -0.0001209714483665
1.0018862343876311 1.0017223237152126 0.0001045736810187
1.0016170724500215 1.0017322196645011 -0.0006542988572638
1.0015163426894655 1.0005977951573770 -0.0035207805339620
1.0020366889509609 1.0013930525159969 0.0000910733582549
1.0018531360888834 1.0014653668149638 -0.0006438172284504
1.0018131684364839 1.0016152592039080 -0.0014616931665648
1.0020905719930233 1.0019186477721167 -0.0011476771064825
1.0016525860475451 1.0018043885077075 -0.0009302796544759
1.0022303261712717 1.0010684469712465 0.0001833369828996
1.0020525009918517 1.0014951797604044 -0.0014278377536102
1.0023880382251167 1.0017936796171483 -0.0011110962240086
1.0022335360149659 1.0007039712067178 0.0005929331527264
1.0018533673586356 1.0019198636839381 -0.0000823130696583
1.0019053214050326 1.0020739059878712 -0.0001778067758651
1.0021769800607307 1.0016094823904316 0.0004570243655326
1.0022001333284176 1.0016425059759952 0.0007707301085636
1.0024122753357785 1.0011617931623018 -0.0015370774826270
1.0019815709698310 1.0013553113088325 -0.0008915256609623
1.0027854974173434 1.0013549316119568 0.0035882304370623
0.9978105427611598 1.0004708355987380 0.0022863045751125
1.0020912094485945 0.9989963076316247 0.0037904948994794
1.0014327667587035 1.0018072972969170 -0.0009915603658325
1.0018194168285850 1.0016473490399711 0.0005280072678065
1.0069079863845956 1.0000273519083527 -0.0033235185241893
1.0020119919994395 1.0016305133516767 -0.0007704808172373
1.0017542190280242 1.0012833006838775 -0.0005865075159330
1.0015809525288633 1.0018066557376377 0.0003887750474940
1.0007339220194422 1.0040560966905008 0.0010978948243611
1.0022075111860109 1.0017025129653070 0.0009198028437357
1.0021005065959958 1.0018781183429863 0.0006304368238862
1.0019691464982459 1.0018236206167264 0.0000639578194145
1.0018896746485155 1.0018544659761137 -0.0001224874130481
1.0019626982707659 1.0017698346533799 -0.0003735376402763
1.0020029105510389 1.0019056649181273 -0.0007876404438602
1.0017395252514223 1.0019823940337726 -0.0008946906988440
1.0015730064607238 1.0023682769632656 0.0044280387228054
1.0038181608555732 1.0000061956828321 0.0009360820700047
1.0016996637622138 1.0015913850438085 0.0010285833837116
1.0018515333647213 1.0019591480918022 0.0004606726556492
1.0009146449386614 1.0020726745579580 -0.0019097230009745
1.0029032723913185 1.0022611414411575 -0.0028856048327845
0.9992033569166362 1.0000783946845977 0.0000150649274856
0.9988675979874928 1.0001064793567847 0.0005224932319720
0.9988589998796962 1.0000959281159469 0.0005030046135666
1.0025818071147987 0.9984166792547897 0.0029910826606139
1.0016180882276451 1.0027945079407272 -0.0044803041932948
1.0011666049045784 1.0032205323267820 -0.0001077029874449
1.0020804761443283 1.0016998500723255 0.0011551668439024
1.0020765296685314 1.0016778781070419 -0.0000678381705942
1.0024493698503305 1.0011769575197387 0.0012936132528521
1.0021391760917147 1.0014288347855838 0.0001382098021698
1.0022189841981419 1.0012433564547767 0.0005373788565884
1.0020445617934086 1.0016907006558473 -0.0000856296351869
1.0023024817071227 1.0007672878130109 0.0011214170069593
1.0069310709995301 0.9999385129295241 -0.0081725682149785
1.0008943188020298 1.0012495274854234 -0.0002121890488369
1.0020784972826251 1.0017605998530621 0.0015603146917203
1.0022480427743696 1.0013517562999581 0.0003386502445104
1.0020236824444726 1.0015543724811100 -0.0005044186373535
1.0022991625821753 1.0008534190542115 -0.0003855148512825
1.0010814161221047 1.0010471857808283 0.0020593440972126
1.0024229261413218 1.0020273886756186 0.0038807771975460
1.0018589864732736 1.0017878906361837 0.0001491273458816
1.0006929301879706 1.0013215558988906 0.0035584380810118
1.0013572476176875 1.0025869520445139 -0.0063698154857953
1.0020912354374658 1.0013805200014909 -0.0006873405592001
1.0005991959804175 1.0031049915673675 0.0060543329459335
1.0019847856209221 1.0011524814189516 0.0015460356207320
1.0025541166482550 1.0016500029618183 -0.0010202441727980
1.0017585759232039 1.0019968230299068 -0.0012935070110367
1.0022002038384876 1.0010464649944828 0.0001114799066829
1.0017082728131812 1.0001228255279309 0.0022375131612712
1.0022039722023148 1.0001741380293996 -0.0047767805788620
1.0009118267758244 1.0024653368830283 0.0046254201294877
1.0018572841479485 1.0016545908557608 -0.0009743358068841
1.0014034037180908 1.0019629909855383 0.0002044405203714
1.0022257483786674 1.0009209464929905 0.0011915136912232
1.0019689371056471 1.0017168188843024 0.0004694407989542
1.0018038778991185 1.0019136212495019 0.0001321640111922
1.0023745685407059 1.0021777351932641 -0.0041731301987095
1.0018888857309864 1.0000507919017834 0.0001858758260013
1.0021876746662790 1.0011252712006060 0.0005005950512929
1.0039212160241198 1.0014003456745919 0.0021730594203961
1.0029242741533240 1.0022383256067902 0.0044191968031352
1.0022191538870135 1.0015120262735839 0.0001435291836717
1.0019192465805877 1.0017546783654510 -0.0012709204708365
1.0022799799407152 1.0006975765946096 0.0022336061810300
1.0020860197963757 1.0013924044180860 -0.0005351529718526
1.0023124788971123 1.0013295670314224 -0.0008476901506403
1.0040261261603525 1.0000274839385286 0.0046691577575865
1.0018491757216290 1.0018781374326862 -0.0003739060223571
1.0021424851096026 1.0013305022016741 0.0000936824648962
1.0022923070657466 1.0009096594648677 0.0004050890039076
1.0061709025913861 0.9999701543880034 -0.0046345521289370
1.0017759810335980 1.0016421945498861 0.0018529839229639
1.0018572477925807 1.0014843960693751 0.0009384222456774
1.0019492424244922 1.0017366923943265 0.0001097820630365
1.0020784059997789 1.0010845643305619 -0.0014253706802160
1.0021067472442167 1.0015152020061475 -0.0016699241320322
1.0022767513819160 1.0013705881129211 -0.0003976675624506
1.0016908690236028 1.0002868380867063 -0.0008282453652473
1.0020184487993069 1.0015571285858154 -0.0013926844010573
1.0016225483332493 1.0018317866435689 -0.0006275344413185
1.0018325221868685 1.0023228044819916 0.0027906576190198
1.0033663108050561 1.0000328161863710 0.0015907329300459
1.0018084873855400 1.0017955074923965 -0.0000918613042775
1.0015932966820720 1.0017494541006793 0.0030257696829533
1.0018235062477268 1.0017497928252082 0.0001123122490248
1.0019670959283011 1.0012917128656016 -0.0000559974125508
1.0017178753604767 1.0019416340827962 -0.0036001270995263
1.0018335693665172 1.0018598613065237 0.0012694593403911
1.0020727511288841 1.0017204212902522 0.0004449719328495
1.0022323316553192 1.0008201480486703 0.0014773080690129
1.0022775282780234 1.0016980322835145 0.0016794216197671
1.0018417443675540 1.0013306618346818 0.0002287039110443
1.0011862961520341 1.0020347223502803 -0.0045933890844837
1.0008265811893098 1.0003664528008185 0.0017181429654423
1.0022820151711029 1.0006520404129240 0.0006502623530941
1.0017119709593250 1.0003053944680769 0.0007879558983372
1.0012058159208839 1.0002528608734591 -0.0041861521970140
1.0026076731930778 1.0018875958157842 0.0014265744748384
1.0015303373432076 1.0022428250992943 0.0004498964705661
1.0017768434428160 1.0017471649264027 -0.0004761573871012
1.0022800942107004 1.0014173979511320 -0.0004518777915840
1.0018041782467499 1.0019700952128514 -0.0008968006918177
1.0037911104917181 0.9999778097799973 0.0016247613160692
1.0016792515174449 1.0020411583332660 -0.0014552799451355
1.0022311102820480 1.0010025373529889 0.0001862335657076
1.0010342704763233 1.0018607616442867 -0.0008622673437162
1.0018779938304774 1.0007996009230617 -0.0014539770353567
1.0041963104569882 1.0007172494359335 0.0005534411413758
1.0018824064029817 1.0011123874721863 0.0014469663776069
1.0008943188020298 1.0011749713252163 0.0023083519023777
1.0015374741719381 1.0017354719429472 -0.0016355711892816
1.0012053381106509 1.0015201874544903 -0.0034525752617919
0.9992701276492959 1.0003731257567963 -0.0018500782534837
1.0024034984999506 1.0013259469525186 -0.0006082675923371
1.0018764107398326 1.0013565057472060 -0.0008503984962280
1.0016837853336198 1.0018481900031861 -0.0004080147618541
1.0015990175994751 1.0014347608842495 0.0036155465182968
1.0017943935244771 1.0018563229554911 -0.0000675969754529
1.0019454205354328 1.0001228255279326 -0.0031266777533931
1.0018254966376281 1.0017642807864831 -0.0005258085270686
1.0022866884631725 1.0013054135818718 0.0010854041627971
1.0032561729147031 0.9984239489941077 0.0024607992206139
0.9994505711494971 1.0003054615245091 0.0005935766441884
1.0017874676236573 1.0019199050382634 -0.0000215450259983
1.0019162305150815 1.0010386591772358 -0.0007307947610990
1.0015864954885860 1.0013061197826256 -0.0041878767784614
1.0023087700579894 1.0006287185837373 0.0002243665688861
1.0007415263061155 1.0020516966105735 -0.0009876256687219
1.0021514549591972 1.0013298390154657 0.0005362779724548
1.0015916187988487 1.0016734733130153 -0.0010596432718614
1.0014788849973417 1.0026658773621340 -0.0011914611315190
1.0017250293789179 1.0019412520472402 -0.0003963549312006
1.0021499532701335 1.0012112129340891 -0.0000974736885783
1.0021319111863809 1.0013912654341173 -0.0010120288678376
1.0017968655980929 1.0019911793448841 -0.0006932004327335
1.0017992090211996 1.0019923801126653 -0.0005123858528003
1.0019286502044980 1.0011662856358783 -0.0009643228388597
1.0021329761392501 1.0014314612139823 -0.0004921705409336
1.0012008885110903 1.0026860406602007 0.0019171179555953
1.0017449635629938 1.0019941938119898 0.0001108225031100
1.0017538491318929 1.0020321722816072 -0.0001495731141619
1.0016228319691434 1.0023776625642282 -0.0012130759828207
1.0017291756987243 1.0018926878340946 0.0000512405833764
1.0008883464809897 1.0012398307403785 -0.0012070522741553
1.0033404576710130 1.0013240947349498 -0.0006283708772678
1.0017906581322582 1.0017931646971030 0.0013603553920429
1.0020923657087373 1.0014962676753514 -0.0007648912762453
1.0012386369432791 1.0027912697111609 0.0015296930543927
1.0016727288984237 1.0015589558083480 0.0006409193934131
1.0017478405321050 1.0021938688939165 -0.0002973820812335
1.0022678595505212 1.0013640493446132 0.0002244514937940
1.0017306629570515 1.0018498216980216 -0.0004463093197274
1.0009949370138724 1.0021813874565826 -0.0004013305988022
1.0019515293492889 1.0015201311622348 0.0006676605667091
1.0023847000278128 1.0013910270004747 0.0006684249008681
1.0018511389800604 1.0016023351669738 0.0000016423028304
1.0021043457400187 1.0016328542998583 -0.0004365892968905
1.0017550835827542 1.0019544930758100 -0.0016211138733189
1.0021119728856884 1.0009986433934770 0.0015873919008195
1.0002475623422373 1.0038876053422967 0.0017767622206255
1.0032073193840023 1.0006814088490410 -0.0042254702172483
1.0020045491416918 1.0018868373366669 -0.0000514253905029
1.0019986517146273 1.0014870647986998 0.0008396800639490
1.0018075307421377 1.0018535135101021 -0.0000972728908411
1.0025554022296925 1.0005566477167049 0.0024157384372310
1.0022268148593900 1.0020704659965725 -0.0034162211773995
1.0015694525500392 1.0002196987813838 -0.0007327486394069
1.0017615800296966 1.0017810539309255 0.0000439993194409
1.0017590594058838 1.0017581846839312 -0.0004551822477967
1.0017974580578755 1.0018391061128291 -0.0000296769227096
1.0018417590631628 1.0015595075642025 0.0007306854857104
1.0017461743210505 1.0020753806932867 0.0000413337259380
1.0030401968906315 1.0013355455029387 0.0004804905664415
1.0020410927089693 1.0014086908024140 -0.0004729117706955
1.0022122135709111 1.0013355101960479 0.0006299334773848
1.0014612084885943 1.0025043773511382 0.0004341509481661
1.0020675469406302 1.0013492415152905 -0.0007400384345015
1.0024376105499773 1.0013581522303323 -0.0012547615868010
1.0017281860488623 1.0020980569086508 -0.0003187980254888
1.0021941471175551 1.0014848110222496 0.0000663603698182
1.0022069247870948 1.0011302142695648 0.0005409710046799
1.0023142306822337 1.0015260018266321 0.0007049424599962
1.0016445021244396 1.0013202502530472 -0.0022855292939984
1.0003580200757776 1.0020701028752348 0.0046019142829218
1.0016558644998828 1.0016623132578288 -0.0026460625439147
1.0018206479704346 1.0017654543158050 -0.0005709167526107
1.0017259628063706 1.0018556594586441 -0.0002836424037678
1.0018371609045231 1.0019004458841378 -0.0007220944616020
1.0022971690299836 1.0029056987012073 -0.0040732701947774
1.0023209286173469 1.0008506232114065 0.0001243730632341
1.0021718553703436 1.0012010497565589 -0.0005337620081248
1.0020581115402358 1.0017369015937361 0.0003363011811295
1.0022463565750068 1.0014766552575767 0.0014487639013221
1.0016576076483905 1.0022029723287229 0.0020598727836926
1.0018279492574553 1.0012919159845119 -0.0019502714011529
1.0019396271206462 1.0005687957876859 -0.0016708074593085
1.0006473821679662 1.0002804981502247 0.0015600219577859
1.0016697182005772 0.9994042505188360 0.0042828208252012
1.0016811116077868 1.0022094107891324 -0.0007341391060301
1.0021712668724698 1.0011735970251843 0.0002966894631407
1.0021039133036511 1.0007219637431173 0.0042442226167685
1.0024157454080869 1.0007773667221018 -0.0005616846554252
1.0024287008519381 1.0015598089119213 0.0004332472507062
1.0015948046095302 1.0023344495044386 -0.0006339724292510
1.0017380935661320 1.0007499472260835 0.0007849209790203
1.0074234379927194 1.0003069511820712 -0.0044334067604715
1.0018096029266836 1.0010471583963747 -0.0018268475085770
1.0019308182113362 1.0011319988834122 -0.0016940115734471
1.0016261748132773 1.0008314904648674 0.0048628640588859
1.0024689486828771 1.0015615992681328 0.0016016815956027
1.0017452942265352 1.0004816015272457 0.0001566918498782
1.0029678686056918 0.9992076327639369 -0.0045310967837214
0.9985737155914272 1.0005941045444908 0.0015450381242884
1.0019772144631025 1.0016101332606289 0.0005152436017622
1.0017230578766394 1.0029871940791855 0.0009136812959698
1.0019598812544630 1.0002078198335165 0.0019071339438514
1.0023161470734183 1.0007183697041495 0.0004335089290928
1.0020457843107562 1.0014342512726644 -0.0000008579420860
1.0045592520063653 1.0009426173683322 -0.0017158049583772
1.0018900636443366 1.0008752252349393 0.0013916182212407
1.0022092838877577 1.0002783332781278 0.0010260428671792
1.0015826055165731 1.0002691247351454 -0.0016555856697478
1.0023852570294021 1.0015007745962290 -0.0002806500876304
0.9994790286693495 1.0027652334777997 -0.0005539324835152
1.0021314428845689 1.0010600163592656 -0.0003754276505654
1.0020895661057225 1.0014617951211020 -0.0003334533615060
1.0021319987103974 1.0010418017943301 -0.0004978755127825
1.0022230757485151 1.0011306115051046 -0.0008331745627850
1.0018538204110243 1.0019079177939496 -0.0009994590861490
1.0018906589664123 1.0015074054976887 -0.0015603922050045
1.0016393691558758 1.0015486202212038 -0.0016196718560318
0.9981736809069490 1.0003095049499440 0.0002695813539789
1.0029672902317730 0.9972210747347241 0.0031419244917876
0.9975341589112799 1.0004091957986714 0.0002506401899837
0.9976156365807470 1.0004464061587683 0.0003192057090847
1.0022139197046860 1.0009763398731037 0.0004969878115359
1.0031482899611261 0.9993861455380136 0.0032018857793520
1.0017934264660437 1.0017311303446557 -0.0006511980236224
1.0022486947708058 1.0013885054824587 -0.0001568243427795
1.0017439720204857 1.0013478227902191 0.0036744984849121
1.0016731663780485 1.0005134474868618 -0.0000101374262731
1.0016482713741275 1.0015680314150184 -0.0007452791756748
1.0011613492567148 1.0030972744443194 -0.0002288069248219
1.0017488322093826 1.0018770062177356 0.0001182001899965
1.0032100581823336 1.0013399250689066 -0.0013870681052926
1.0015525503435907 1.0030188871018146 -0.0019168826300607
1.0020295377066466 1.0015918365870189 0.0006036923425806
1.0019486435457079 1.0017682646859787 0.0006530597054267
1.0019406815204424 1.0012011961367424 -0.0016459294065672
1.0016740931409791 1.0012749544387209 -0.0003892399582626
1.0020731093015398 1.0014673420245521 0.0008643972650721
1.0014872441760323 1.0018900567292792 0.0054189952153178
1.0013294307849525 1.0029743329757450 -0.0005157497752049
1.0018961997298661 1.0012132921900563 0.0001997339053398
1.0025523293230214 1.0006838789175705 0.0004081356164672
1.0038218903665632 1.0010290585281936 0.0038367289642025
1.0049595184510824 1.0003591062495543 -0.0026279498074734
1.0011849487820441 1.0024576838450823 0.0017969125517570
1.0028218592148808 1.0006529809688314 -0.0012266792235852
1.0028224837813693 0.9999031808832952 -0.0020345292811525
1.0016348239706150 1.0020647197707038 0.0016746672219313
0.9993268213767262 1.0004416444692874 -0.0019978915640727
1.0011832595626731 1.0019922681200617 0.0045110509055542
1.0021852321991027 1.0008333162628074 -0.0006678671804017
1.0017610361964793 1.0008489509977072 -0.0005510551811465
1.0020311311904748 1.0009619862216304 0.0011350321626081
1.0012967503274501 1.0018913396031899 -0.0003066870073302
1.0018393532505769 1.0006831809899990 -0.0010767424921249
1.0008495933655395 1.0040103876991828 -0.0012686896808895
1.0016696075380780 1.0019533127153872 0.0008734754414599
1.0009153154495261 1.0003028922203063 0.0019962885396064
1.0014073267961694 0.9997713760582334 -0.0021634189969976
1.0012500134984041 0.9998461923217012 -0.0019861532802938
1.0007909123168754 1.0003458611394298 0.0018989501071542
1.0009197241391603 0.9999491078534777 0.0025066334765460
1.0008797152026563 1.0001180893858290 -0.0021271785770794
1.0008533692974084 1.0000609621118379 -0.0020021488215457
1.0013695135431957 0.9998442928586488 0.0023501555404703
1.0019465168573360 1.0012931819022379 -0.0002187506445016
1.0025921316057791 1.0006620020553509 0.0017613923298347
1.0019749620844993 1.0013316736373514 -0.0008502886750127
1.0058017672615984 1.0007042636571015 -0.0027282463706572
1.0020170413368372 1.0016988155933535 -0.0005867212763934
1.0017131534443677 1.0014680944384879 0.0014292875050574
1.0010054676659632 1.0041271177790441 -0.0033442690659721
1.0018966796975868 1.0018388985017321 -0.0009821901730126
1.0017955631166260 1.0020002551945162 -0.0003123608608760
1.0023204384243181 1.0014960802531647 0.0045813485365593
1.0021382586851630 1.0011976060807903 -0.0012305550333887
1.0012382133674262 1.0019355063555981 -0.0018159449518401
1.0022777297937207 1.0006300524855625 -0.0001229182796456
1.0022014036365117 0.9999820995639452 -0.0006874906472509
1.0007314276862791 1.0026876376991358 0.0018584964363052
1.0026111434111484 1.0000285029536176 0.0008599582981634
1.0017478173594625 1.0018373145792125 -0.0005915652826531
1.0015833964969718 1.0019911369866938 0.0022604782016955
1.0018102953827477 1.0009189762349693 -0.0001325436467724
1.0017900565561018 1.0010341391126725 -0.0005877776278334
1.0018336408483282 1.0017363974765483 -0.0006934479592609
1.0027513075465346 1.0014270660274094 -0.0002606271061573
1.0013384128150689 1.0013161759448184 0.0001308270105771
1.0025512086880874 1.0005020862111318 0.0011244782038712
0.9968655565336465 1.0007219536750445 0.0007621002226069
1.0025803995446798 0.9994086126535611 0.0008888891352813
1.0030431129610184 0.9992546843108041 -0.0016110629986985
0.9967493752767855 1.0008623254950966 -0.0004085977853876
0.9968185977351414 1.0008977778077188 0.0007580126671029
1.0025346045440180 1.0013221530731633 -0.0033081506712883
1.0032773047851160 0.9990500807410742 -0.0020884032103939
0.9967979937215332 1.0008098290668350 -0.0004514505660675
1.0033514814412332 0.9989045854993228 0.0022461007877244
1.0025261048840763 1.0028878730091206 -0.0037593690733760
1.0017755470857312 1.0011771418312421 -0.0017458640635281
1.0018156129442850 1.0019576129166219 -0.0004733164389343
1.0025284717861891 1.0011071487528176 0.0004222941145591
1.0038867482987630 1.0011694257905417 0.0006849803612726
1.0152823714881978 1.0000236608432893 0.0021615351882285
1.0027025705212815 0.9982368203925643 -0.0022653523172909
1.0022291036031119 0.9988501094511979 0.0012303431194140
1.0024639374261151 0.9991021320386160 -0.0016175104534345
0.9964222772374213 1.0007359337098409 0.0003360817830125
0.9965439697269320 1.0006779174766440 0.0005317136868516
0.9957296166408394 1.0008295791357724 0.0000294216188211
0.9956670769685684 1.0007845306197891 -0.0000724653558262
1.0029395610973773 0.9984323591351166 0.0027610493805294
1.0024764698721875 1.0013508847600554 -0.0007597571806407
1.0018756792786969 1.0013700603086015 -0.0019052953846696
1.0017014980314976 1.0020773552382023 -0.0008726741911644
1.0030308087569384 1.0000328161863639 0.0025106586084629
1.0010296554631744 0.9994032224292211 0.0059452903084149
1.0012239138134720 1.0006955942174682 -0.0038033007260946
0.9994954228472033 0.9999512748456203 -0.0057556359780692
1.0018988018013606 1.0017548227212512 0.0001474126855199
1.0019789560293813 1.0017507661915632 0.0002339398674019
1.0025948080775422 1.0000061956828321 0.0017375556218654
1.0024297004176592 0.9997992859977528 -0.0043084400996390
1.0017178753604767 0.9999055852014006 -0.0036498220708314
0.9990169391848821 1.0000988310596992 -0.0051296827733158
1.0012001468884280 0.9987547893700645 0.0061715103952116
1.0028181811262045 0.9999981632119562 0.0016397224835243
0.9990448142112942 1.0000853062003157 -0.0051607407570067
1.0024229261413218 1.0008300653889215 0.0033077311887625
1.0013095670021057 1.0004011942573794 -0.0012850052329156
1.0016828165950278 1.0003159567660962 0.0006141421015546
1.0014213756267372 1.0012749182313436 0.0032344985764395
1.0013632407469064 1.0011895530498311 0.0019421580664801
0.9996413409948868 1.0063619099863605 -0.0007366945271163
1.0017170998666636 1.0018461840734549 0.0002064691947594
0.9956670769685684 1.0008639940448543 0.0032858696059674
1.0035962343497249 0.9984323591351166 -0.0030938234121176
1.0023385170451007 0.9991021320386160 0.0012403375052518
1.0035119955104570 0.9988501094511979 -0.0023995873097809
0.9964222772374204 1.0006998345852987 -0.0023704926463968
0.9965439697269320 1.0006435320421454 -0.0021900127419057
1.0034523047995345 0.9982368203925643 0.0027928303034214
0.9957296166408394 1.0009164933095305 0.0033300937132001
0.9967979937215474 1.0007108309439239 0.0017165621629725
1.0027702121762652 0.9994086126535611 -0.0017134070933040
0.9967493752767855 1.0007697791916075 0.0017749496382102
1.0026151840823210 0.9992546843108041 0.0011836537580075
0.9968185977351414 1.0007784032916687 -0.0014742743972723
0.9968655565336465 1.0007205178455820 -0.0013322612549384
1.0028470953521373 0.9989045854993228 -0.0022594811781484
1.0027472176209502 0.9990500807410742 0.0023415181573413
1.0004770626223018 1.0021942907462140 -0.0002251299884038
1.0020540216386664 1.0011253503836279 0.0009100827479901
1.0020329776515497 1.0010734024335743 -0.0050672226267785
1.0020555319738926 1.0009744221518537 -0.0057880875375847
0.9989382291329368 1.0000135248583959 -0.0047188334113587
1.0029955977630205 1.0000405525915781 0.0006007444075441
0.9989905845229997 1.0000273519083527 -0.0046106869038732
1.0025894772725790 1.0001135575327420 0.0007093594704037
1.0023745685407059 0.9994562590026091 -0.0037656001857760
1.0017823395924574 0.9995849162404332 -0.0033343255069378
1.0010831813581869 0.9987407024870025 0.0064949732528179
1.0024535304459219 0.9999493192756386 0.0039378423834381
1.0031748657071107 0.9992345062988253 -0.0021898995933602
0.9969148720301665 1.0008676236570015 0.0013134440041680
0.9969148720301665 1.0008851583514571 -0.0010045144683953
1.0032557997852654 0.9992345062988253 0.0023252679723915
1.0021071478044421 1.0015712150269174 -0.0017020478657245
1.0025282405834799 1.0016043852815066 -0.0015247634736051
1.0024473293160441 1.0033642428353575 -0.0064536168143180
1.0012663198674447 1.0039657297012747 -0.0028685864605658
1.0022070322569716 1.0014942035360601 0.0002208450398312
0.9998093714958723 1.0041047950569588 0.0023487258499536
1.0021628476538758 1.0009465049881450 -0.0010314133878751
1.0026810765946612 1.0000226496392450 0.0035317066652078
1.0014175846739422 1.0004533946140659 -0.0049327920430274
1.0010781204324373 1.0003413010098323 -0.0043517103382477
1.0026575568116143 0.9999794287771903 0.0038465197750904
1.0009118267758279 0.9995824776928511 0.0054470359970630
0.9998534341413061 0.9999265363542423 -0.0067220082228344
0.9998757354572039 0.9998892764902396 -0.0065252293806445
1.0015730064607238 1.0003909512493490 0.0049186230231956
1.0017231176081556 1.0023453066200660 0.0003478810047037
1.0021053945683662 1.0004103098193058 0.0002716661380387
1.0028057431086295 1.0035432102919415 -0.0066144114562010
1.0020421385301641 1.0018425595699072 -0.0013185757310498
1.0026940094178036 1.0014410239984073 0.0006413394812863
0.9984987205222486 1.0005899461279248 -0.0011012912627775
1.0028700414327192 0.9993377702432771 0.0046176579961908
1.0021658413590300 1.0013249660619992 0.0010671472001653
1.0011398617033238 1.0013272049352224 -0.0016425114668314
1.0019507360495741 1.0002549237208351 0.0007586348091459
1.0012951699753889 1.0010425825358262 -0.0013229335152751
1.0014090315089967 1.0003428364171494 -0.0013358371810415
1.0021811630776669 1.0007726816150428 0.0017863815350648
1.0017298149853240 1.0003670178101611 -0.0002378572077524
1.0009241274501606 1.0009927161667447 -0.0003691054748496
1.0006348532184435 1.0036272601727443 0.0018524214973094
1.0017911472636347 1.0003415180732262 0.0000831601012120
1.0033268361200081 1.0011301620276185 0.0001837853214873
1.0021709837978934 1.0016755114673170 -0.0020278638293876
1.0018801395802495 1.0010569034211572 0.0005512786644242
1.0024490382899953 1.0010643822224661 -0.0010515591411602
1.0004714574991429 1.0029640040225465 -0.0058933199565833
1.0018553503752936 0.9999167733429059 0.0036011944047195
1.0006701992812095 1.0023425723631116 -0.0052501041167442
0.9998166644438576 0.9999706288783788 -0.0034750355639506
1.0009557152317619 0.9998620029269174 0.0053778167006287
1.0018580215413626 0.9999405772258971 0.0035714404266823
0.9997980312539156 0.9999753569224764 -0.0032688084334161
1.0004938695672330 1.0028180486689533 0.0056670292213035
1.0011788521626319 1.0004354431967832 0.0028403618172905
1.0008140227009783 1.0025050983285282 0.0011723103929927
0.9992075191181919 1.0002337719008076 -0.0020381222412036
1.0027261361426802 1.0002444709599487 0.0040255800207178
1.0150809397510507 1.0002700917857190 0.0031196172440727
1.0022888171087492 1.0011756430183134 -0.0004375481363458
1.0010400803461259 1.0019929208138736 0.0022331595817096
1.0018220386723573 1.0016755729902858 -0.0010149666073072
1.0020280429904633 1.0003802881504853 -0.0002353396044489
1.0020246745123478 1.0007479100052388 0.0017698790098699
1.0017031810682866 1.0013035149303937 -0.0007216695852991
1.0021756388088119 1.0008390033943617 0.0009049593610122
1.0019810576580279 1.0014497812739185 -0.0016068718847256
1.0021878605302847 1.0004314679623059 0.0018799844972872
1.0020250334480294 1.0009293014678797 0.0028904447783886
1.0032408035349447 1.0037386634899947 -0.0051958882363015
0.9988679339369900 1.0131321548370829 -0.0010236243801346
1.0019348117223565 1.0003199476781497 0.0040631733052343
1.0021703082124911 1.0002692609062476 -0.0005761572244000
1.0021249113610022 1.0002577057627799 0.0004675842718059
1.0020356715804839 1.0008914397170416 -0.0013742408030476
1.0015814952623172 1.0007352274453665 -0.0013350304236431
1.0017037681495942 1.0004318997931021 -0.0009040833544360
1.0025537680244099 1.0006755641190164 0.0012609533092831
1.0013380445505358 1.0010683946396777 -0.0013065172533442
1.0011950883170211 1.0013355395873069 0.0015656315006521
1.0016488471042397 1.0013729431959311 -0.0014070828515364
1.0056376695121330 1.0007696397253041 0.0041103400263282
1.0021781639378695 1.0013201978984767 -0.0018402176589234
1.0024420236362610 1.0005190067427472 -0.0000121146216723
1.0028215774576996 1.0014114729753469 0.0001858169380723
1.0021051268975212 1.0009874652377453 -0.0001029463983806
1.0014561292477668 1.0012560211153438 0.0023596763136754
1.0020642732644496 1.0015107800182650 -0.0004855169281609
1.0023821508951214 1.0005698967054084 0.0013765898288612
1.0021586694689320 1.0014119279683495 -0.0001437073343833
1.0032297103002108 1.0008622482047227 0.0007579066121795
1.0017354234920492 1.0020542468497922 -0.0004825123232917
1.0035244286090319 1.0000274839385286 0.0047382036611716
1.0013572476176875 1.0010971118661702 -0.0056362662842739
1.0011489996701228 1.0009486351083778 -0.0054930147835411
1.0005991959804175 0.9989983815671049 0.0067336550488248
1.0035429910212392 1.0000050745014777 0.0048311708226635
0.9986455828936969 0.9999385129295241 -0.0083984879231664
0.9986657375065044 0.9999754233537553 -0.0079451489852653
1.0014903226751548 1.0011299976854229 0.0051952634951196
0.9985700721190441 1.0126857637557010 -0.0008034705628054
1.0012674445089353 1.0019884695897598 -0.0000597098364514
0.9997843261597826 1.0003165190960881 -0.0011174446545374
1.0019405153420027 0.9998141617580909 0.0038581868483568
1.0006649599419271 1.0002499758252874 0.0013282098056211
1.0013487152022598 1.0014584972861340 -0.0055275902496699
1.0015589950142021 1.0016042487345158 0.0025136879493164
1.0008062150956507 1.0040481159986050 -0.0008294747391774
1.0036349866992837 1.0017607858928586 0.0026135386971926
0.9982454496375276 1.0003621035355381 0.0021799801284365
0.9977319320549076 1.0006058437426990 -0.0015795521985084
1.0013170327030185 0.9974396436302326 0.0096003068315578
0.9977115000665405 1.0005547013779743 -0.0017648782975712
0.9997870022818048 1.0002790358425124 -0.0011388285442621
1.0011531681515227 1.0019531241296165 0.0071005340423207
1.0017420307312068 1.0002906906558551 0.0007620391493725
1.0013412381651010 1.0006561022515423 0.0023660223976194
1.0019536241653964 1.0002667765691626 0.0004720669867653
1.0016548770344560 1.0004082632734717 -0.0009451002598827
1.0021755025170214 1.0006821908573604 0.0015824852081875
1.0019501144467566 1.0020051765433575 -0.0007898308337415
1.0020794919237399 1.0007249174542920 -0.0004124758204193
1.0021628156583453 1.0011927293869869 -0.0008432624008351
1.0017998526053971 1.0004066178483910 0.0001112060208002
1.0034197520981809 1.0008545014703223 0.0004431621000697
1.0022606601682000 1.0008051312099207 -0.0046589885485671
1.0041426033733294 1.0001135575327420 0.0002143618771499
1.0016703570085592 1.0021475276833898 -0.0014645231462374
1.0019252001841195 1.0014319427349279 -0.0007609577788010
1.0032401099101169 1.0012360638787379 0.0020652488254531
1.0017769673770813 1.0009299818424151 -0.0002719323430304
0.9986618590818194 1.0127316098050829 -0.0008687344521204
1.0035838321608284 1.0019722356635508 0.0027642059678276
1.0001265401212329 1.0027449679698484 0.0011683542278955
1.0021456190680480 1.0000353770913188 -0.0008117725006325
1.0003501571754951 1.0021295375655614 0.0018724460744683
1.0020667897488040 1.0018964116262477 0.0000262796753937
1.0023244743892195 1.0009758791550227 0.0037682674197792
1.0016180882276451 1.0000621832375778 -0.0047500201730526
1.0025216194002369 0.9999778097799973 0.0027119131861591
0.9995241055417402 0.9999701543880034 -0.0057481080651222
1.0015066097799756 0.9999628709694279 0.0048514840725292
1.0020566482614872 1.0015168349522188 -0.0013159039509629
1.0032250518836170 1.0030170474123894 -0.0063700072702207
1.0025031849685193 1.0003335869749181 -0.0008192487603733
1.0017038619303575 1.0013386987199893 0.0001782103780738
1.0011453417289169 1.0025124580490721 -0.0047380362594884
1.0015463708066239 1.0001078570834350 0.0021742674065469
0.9998434253200432 1.0002221627529728 -0.0024433917733982
1.0016138495968248 0.9998818470114628 0.0041574336428451
1.0012489037649821 1.0020092371522118 -0.0036146193415266
1.0014828833970078 1.0001477582645868 0.0022585613008867
0.9998918267247411 1.0001988930938768 -0.0022889075508013
1.0010813495561726 1.0025031454272564 0.0047059911494357
1.0023949374081140 1.0011304444707116 0.0015736779181832
1.0020360481451795 1.0002150074066192 0.0004651228875668
1.0014133111293162 0.9998747060001817 -0.0004886146339724
0.9987650826387974 1.0004095451917727 -0.0007965919416305
0.9987383269781238 1.0003790382947964 -0.0008406265590964
1.0015783474445807 0.9981156103173439 0.0069382926184924
0.9991173440069673 1.0003138436998655 0.0009885010138990
1.0020882218201357 1.0013414061185950 -0.0006990465751257
1.0028160437631766 1.0008242779590111 -0.0024038242318027
1.0156053301493742 0.9999948700677515 0.0002771761711553
1.0023047771201006 1.0001176553851110 0.0047904635092823
0.9995544343065765 1.0085164902328130 0.0012915395360097
1.0020954247002700 1.0012924937098411 0.0008316593358121
1.0009919415635147 1.0031740885930618 0.0021642412076759
1.0024005060984911 1.0020733686335206 -0.0014550837240735
1.0018722380158147 1.0005754512623084 -0.0014202015825050
1.0005051556961453 1.0004393385749442 0.0015594274717934
1.0009529331876306 0.9999554965022880 -0.0010689929682490
1.0005416278415524 1.0004835364366136 0.0018454090748171
1.0008452498088973 0.9999678508429808 -0.0010918813667771
1.0026905051851454 1.0025294601001240 0.0043042661382391
0.9990752243307721 1.0089402877644540 -0.0012021887884726
1.0004572353669765 1.0034383251099674 -0.0004607042008435
1.0019663526167462 1.0006873434700447 -0.0056796150490602
0.9992999482062268 1.0091656766822323 0.0010274810926678
1.0030490588945069 1.0012644791891876 -0.0003807978256742
1.0018061635097626 1.0017561675875579 -0.0003931733186233
1.0023671008679844 1.0013409376103319 -0.0002970688472821
1.0031697302638061 1.0034688086443859 -0.0060170465840679
1.0038193059883558 0.9998637718650042 0.0012551950088616
1.0073324349196984 1.0001789125119875 0.0005313310866714
1.0034651233157525 1.0010346773547971 0.0008157257070402
1.0021196320501036 1.0024947091238512 -0.0032290997049794
1.0017133811562469 1.0005552890436249 -0.0035291263272261
1.0027354707260934 0.9999314071440391 0.0032988201280238
1.0171434898691629 0.9995224872507984 -0.0009598577996701
1.0009054494941343 1.0020175871055366 -0.0011565631299070
1.0022707042405836 1.0007751427592393 0.0005364312797609
1.0172056108255456 0.9998039755564248 0.0033008731716380
0.9990923454948644 1.0095393895523874 0.0003979284493406
1.0072172556517762 1.0002743524087132 -0.0013816971877708
0.9984278135235101 1.0030734848196734 -0.0016684513031232
1.0016830745365561 1.0017676120944090 -0.0008344030616943
0.9995098154834381 1.0091446932170176 0.0003476497987638
1.0012061118926638 1.0003500480172653 -0.0025951105418328
1.0015642565129008 1.0006622640580585 0.0035510604352822
1.0005237798570328 1.0015951716293667 -0.0048316994137676
1.0023773822759230 1.0002270636513519 0.0036249069797271
1.0174096060383917 0.9997255012342003 -0.0014263497432305
1.0015967152771925 1.0020502302601444 -0.0009884303966002
1.0018152417084869 1.0018362305561390 -0.0007372632050048
1.0005811729330190 1.0001836471328609 0.0008365998530671
1.0021260128751888 1.0003197901209999 0.0002448100285149
1.0040610034772466 1.0018542487138911 0.0037697863125870
0.9997613011035612 1.0072991440672461 0.0022873260122933
1.0022432901868585 1.0018571084983561 -0.0010528191817696
1.0039220508088840 1.0021042639290583 0.0052852053398683
1.0011210180251675 1.0021637359226463 -0.0051574770587818
1.0028855989501944 1.0003888795285096 0.0049249343707690
1.0037246062658478 1.0000146859624763 -0.0055722965680718
1.0000233316073124 1.0020804284218687 0.0053016324637665
1.0029941214816407 1.0003909982282824 0.0049572995961895
1.0011429015827122 1.0015862869159866 -0.0051453225318446
1.0035162657604828 0.9999905048877197 -0.0052723428718739
1.0011159200672659 1.0019518349210399 0.0049138656459378
0.9982068742074199 1.0128603236819487 0.0011662859078060
1.0047232456364401 1.0014313673037989 0.0072199612013081
0.9989101244810062 1.0125987955528273 -0.0005936098404944
0.9990533022266646 1.0091145288348160 -0.0009272638578653
1.0008606943621676 0.9999672700484049 0.0010548286541330
1.0005391782394837 1.0003666944658840 -0.0013625334888796
1.0005597970864530 1.0004443781218890 -0.0014639538807125
1.0009705253829531 0.9999540193398273 0.0010130889679187
0.9958380004407320 1.0013249687125716 0.0007233116637584
1.0031898455700308 0.9977258640244222 0.0008904003358721
1.0037145566611663 0.9958280284200824 -0.0013214179077668
0.9961692313138468 1.0014268253721210 -0.0007042642506333
0.9952430159692915 1.0014503079545705 0.0008517447310074
1.0083752356403386 0.9998252469423407 0.0019128008075441
1.0150018211222414 1.0002135794411922 0.0013954841655305
1.0019058874540068 1.0002769521350989 -0.0019025897645813
1.0017309191995927 0.9999962226931393 0.0028585176191091
1.0020625509936258 1.0010441775987582 0.0002921457300275
1.0019391970152947 0.9977136358674987 0.0006423782511862
1.0020487005590333 0.9950315036644131 -0.0007876850606736
1.0025938979050182 0.9963285552918196 -0.0009675444492052
0.9952506100589500 1.0009098738435969 0.0001116066044838
1.0030786516856769 1.0013289438991801 0.0002425756919082
1.0066794180438119 1.0003319327707714 -0.0003334866706464
1.0023235242169559 1.0007761011709297 0.0013842366922045
1.0023599141558532 1.0013127746297417 -0.0013535008486236
1.0101610547008744 0.9999585276640470 0.0070868311062095
1.0028005005355307 0.9959544617572117 0.0044034674245645
1.0092530492729463 1.0000625474168461 0.0058971243317055
0.9997430461686020 1.0109466018612394 -0.0118681420956002
1.0001030099568060 1.0087210989450515 -0.0098162490574735
0.9971492047754076 1.0005477545008084 -0.0030118937905304
0.9999238813134546 1.0060194311379969 -0.0021578535730113
1.0024299903300740 1.0001579501578912 -0.0028597204871614
1.0020789948236930 1.0011989385699467 -0.0026677468547212
1.0022519972122841 1.0004649882100400 0.0017659446360031
1.0022242213333075 1.0015908227511690 -0.0032181151459932
1.0012490923827313 1.0017851014889330 -0.0071329290097126
0.9995542585715683 1.0070997129691603 -0.0004830666853150
0.9918516754498344 1.0012942108411726 0.0030908261034593
1.0023153223417212 1.0015396504745235 0.0017775144292682
1.0070145415523319 1.0003959420001940 -0.0008495870977492
0.9985053342530205 1.0081194518163463 -0.0025910267952245
1.0004490314147387 1.0036696580364584 0.0017492136914119
1.0035919074133621 0.9957387673960049 -0.0017013340863343
1.0034989235071623 0.9957806313485112 0.0017524753127038
1.0036137325103920 1.0021071405508866 0.0039733637677431
1.0022450189054402 1.0003375412272846 -0.0004293041004685
1.0009869401172358 1.0024154751391934 0.0006413622384663
1.0024610637979079 1.0006603330322701 -0.0012976252558363
1.0027636042626138 1.0013187982233382 0.0006258719996233
1.0015275934076575 1.0027069402585218 -0.0039025766252523
1.0011007930143805 1.0012184044066208 -0.0051092743460047
1.0083974478302136 0.9999442195934780 0.0059707722435595
0.9995941042471641 1.0114254920184369 -0.0116350457656624
1.0022655601924331 0.9962793979902634 0.0035290949591549
1.0000142619752286 1.0087194774161747 -0.0094601833038750
0.9992172609289287 1.0113512500213964 0.0124032624557694
0.9962401904745271 1.0015825232086362 -0.0013956979863078
1.0039440458219100 0.9949476526882002 0.0016420976291930
1.0016097766570788 1.0020354925521431 0.0037681882956611
1.0004502340149355 1.0011991891300038 -0.0027762818742444
1.0011189150551782 1.0027709991583207 0.0021220459976034
1.0018771631005408 1.0009957254800814 -0.0013804440087937
1.0021767825350352 1.0013325633143610 -0.0007927360994732
1.0016778647017703 1.0018735814307496 0.0001284113496284
1.0016473122804717 1.0007217068108401 -0.0001856261072180
1.0016480865023174 1.0001248022837117 0.0019959940338383
1.0024712630310757 1.0002316922998937 0.0017486969028974
1.0018071304669520 1.0020287693091290 -0.0020769489577764
1.0021413550157261 1.0008005334294539 0.0019145790285860
1.0034048640841118 1.0014870196595616 0.0011307295869951
1.0018275761115985 1.0001723811607679 0.0000756781692177
1.0019443384119497 1.0016745590945879 -0.0007377652752375
1.0000198776473552 1.0013223010457366 -0.0035377500890822
1.0017196462703146 1.0002041881001884 0.0023034647146253
1.0014188126912578 1.0003955923225842 -0.0031456322732972
1.0008626228235098 1.0012497540179408 0.0041606709806798
1.0017683902262839 1.0002713130043333 0.0024477863998064
1.0014455781603597 1.0003226269232741 -0.0029496825829869
1.0000525404160154 1.0012582425867944 0.0035506166127967
1.0006942801407701 1.0014935788082702 -0.0018759765894215
1.0010456717334126 1.0017757702718073 0.0033403211775206
1.0009218711160102 1.0011784489168210 -0.0014552176588111
1.0018220302830674 1.0007965452275149 -0.0037220742258198
1.0022227870508997 1.0014556979477762 0.0009194564480120
1.0019932542683323 1.0017808119653253 0.0002070795986213
1.0021567037432684 1.0002603530990879 -0.0012291412249848
1.0020433718603530 1.0011276986012156 -0.0012445972022916
1.0009338243293098 1.0014258991172422 0.0018234528027633
0.9986630306704164 1.0003338292864625 -0.0004032727035411
1.0019506746104365 0.9985756382477380 -0.0022739736184823
1.0015780000727788 0.9999492462816010 0.0025618042877872
1.0027808414236234 0.9982504830734773 -0.0005844026102681
0.9957994739212668 1.0007553754926819 0.0000520825149469
1.0002235843975136 1.0010978870121692 -0.0050857975089680
1.0017156570880907 1.0001208693258927 0.0037078951572181
1.0015271548094300 1.0002034665136617 -0.0042194450948817
1.0017572906849819 1.0001873866986630 0.0037245203263889
1.0002210122277193 1.0013636471595935 0.0053263201221584
1.0004726737428882 1.0010921004171935 -0.0046853958163750
1.0001861439849393 1.0010640478920962 0.0048519101441035
1.0014879072856926 1.0001590170450314 -0.0039694339065164
1.0019424790343714 1.0009281058516142 -0.0006627577013949
1.0020198152381696 1.0004010949910029 0.0015590337547964
1.0028876767219983 1.0008216081709920 0.0016144061718828
1.0012177201398449 1.0010672629439401 0.0024531156566897
1.0021314984181848 1.0009242198333239 -0.0045495806588702
1.0019701287341238 1.0007938912774605 0.0035652468988838
1.0022527204127385 1.0016371094401637 0.0022594438751593
0.9995767590356558 1.0004015150975458 0.0010749895049524
1.0024122357915912 0.9994901623562660 -0.0046245073671048
1.0020921527654314 0.9993523621182154 0.0029887395084472
0.9992438236320492 1.0003775723935229 -0.0028369722264390
1.0008464344323600 1.0003087462482179 0.0012398640639177
1.0014629971628306 0.9988192387946830 0.0050014036734002
1.0017719870361170 1.0013307155608775 0.0006339005810753
1.0016381437420880 1.0023873077582699 0.0030430627733803
1.0006853090644914 1.0002200414608158 0.0014218876631249
1.0026115590836606 1.0013121356356909 0.0016901892458759
1.0025664278442696 1.0019763893807441 0.0064663553704941
1.0065645174971158 1.0005603149804043 -0.0029514132049494
1.0008789174845325 1.0020904330758831 -0.0008000568186337
1.0041798897051639 1.0011599101697597 0.0039960071776939
1.0017598395317784 1.0011380559434557 0.0042933826503469
1.0020736349057346 1.0012545381698896 0.0031647257086844
1.0009952111642459 1.0014217849336133 0.0044692510104303
1.0023987678745903 1.0004171623516878 0.0017272331233096
1.0023340140337036 1.0002107424693161 -0.0029202262809591
1.0021976622557187 1.0005521661702210 0.0013244010257264
1.0023042644170075 1.0011296731091985 -0.0021047467217680
1.0020554292488300 1.0019706068308045 -0.0005413604063975
1.0023030953839498 1.0015329215543394 0.0000846825720317
1.0018043533256715 1.0019479451125544 -0.0030404964497221
1.0015706155682780 1.0002992241152231 -0.0006364582180784
1.0046469218766310 1.0009594823279593 -0.0035353653799865
1.0022544029868139 1.0008646260337710 0.0007090119631132
1.0021790734837672 1.0021388092279413 -0.0035554380138192
1.0028776736007188 1.0005746313023087 0.0031902391433767
1.0034719855849183 1.0001446866297106 -0.0043216054785943
1.0001146890101118 1.0025013460848986 0.0038910116083217
1.0028460614180552 1.0006266096435938 0.0034730311840428
1.0037146082496626 1.0000810352540452 -0.0039941766341936
1.0021749151027117 1.0021948490727981 0.0035275606763671
0.9984099262076818 1.0104302952017605 -0.0020592835404790
1.0009165873399142 1.0042917758328909 -0.0058650502360970
1.0013829893736736 1.0006754786301502 0.0016509500164294
1.0000425276855776 1.0040963440331907 -0.0018565184780080
1.0026809157922962 1.0001851083363682 0.0041102214590581
1.0009084455186785 1.0024900469367448 0.0047646221296741
1.0033776072725509 1.0010950050577760 0.0000292659233226
0.9996151123985689 1.0002782958669088 0.0005145362003461
1.0029538232136244 0.9988827783125830 -0.0043810303832478
1.0030608541814163 0.9990150248729271 0.0025448671840778
0.9994401787233715 1.0003340136206522 -0.0004312662926376
1.0023246307575338 0.9992460566173440 -0.0034588828367855
0.9995935657008033 1.0002866578141694 0.0004786098550380
0.9994531928120325 1.0003247654274903 -0.0004448761867061
1.0029563319673329 0.9989013689811442 0.0044014349373396
1.0004927085220778 1.0030460703739656 0.0035409458432858
1.0021704268322218 1.0012049680108333 -0.0007497798402614
1.0020117038938783 1.0011437634572016 0.0014983808227697
1.0022081719270770 1.0013632867892472 0.0005551526961592
1.0016833961753249 1.0002652741205531 -0.0004250744152769
1.0022907967837653 1.0021723416216441 -0.0039774899856603
1.0014611060464866 1.0024970678758969 0.0014115062026375
0.9993856408504836 1.0109055426805398 -0.0093589815527469
1.0100610766795612 0.9999804987716288 0.0066719516855951
0.9966627860190628 1.0005808096409985 -0.0045869052818858
0.9992717659841398 1.0114092353446760 0.0093193299253606
1.0013021562952513 1.0004756410990510 -0.0017463600128886
1.0010483875190583 0.9987029766764808 0.0052455416844713
1.0013412870527039 1.0006927532775796 -0.0020864277262817
1.0021445160786424 1.0008260084370557 -0.0012203395345258
1.0026727473356383 1.0005075019633851 0.0010446438397999
1.0005592564662544 1.0033658023100149 0.0002194811547646
1.0016210604502598 1.0002493077363241 -0.0027936687584831
1.0018762998020605 1.0011994094966377 -0.0001983552254544
1.0021829304778866 1.0014024670726824 0.0007498003241752
1.0036856821550995 0.9943181032003392 -0.0012334136322368
1.0039407611903961 0.9943304293763290 0.0013965738411833
0.9962087817918541 1.0012908272882528 -0.0006849861415568
0.9994782623744232 1.0002872272279082 0.0003834247932332
1.0037339935451137 0.9985546785827966 -0.0044345943931383
0.9992459785391308 1.0003540705328418 -0.0001499825099439
0.9994975574785410 1.0002613685123274 0.0002786091537221
1.0039406923310463 0.9987742850670687 0.0027396843053020
1.0029776707798714 0.9990671268732856 -0.0036540692723392
1.0040630578018530 0.9985113668139266 0.0047511002152094
0.9992299457147140 1.0003578182386799 -0.0001693486725805
1.0018079579408372 1.0016946108246261 0.0007705376246184
0.9952155956674787 1.0008276763393054 0.0002711904503215
0.9957443540770056 1.0008381332575123 0.0000180658148537
1.0025562458198696 0.9942463780988371 0.0011930724388363
0.9957380982988125 1.0007317339065938 -0.0000537348734608
0.9996187428640522 1.0081805303661660 -0.0081108341051918
0.9968860801390932 1.0005693780194371 -0.0042762408887755
0.9971659347278530 1.0006044021038791 -0.0030668327573121
1.0088593483652795 1.0002437849194830 0.0064814384520763
1.0026144642347627 0.9965011084423571 0.0038282668477188
0.9993323711594511 1.0110254392168405 0.0147896747299082
1.0025761780902418 1.0009924393530594 0.0007216360662562
1.0034042542518422 0.9906442162228596 -0.0013679250038316
0.9916316638755375 1.0011864281504026 0.0029496748298619
1.0038132901530823 0.9924009127763858 -0.0015792234127752
0.9948619860635527 1.0011492351130360 -0.0026700446047334
1.0024014456317833 0.9962234380989410 0.0007795022507070
1.0032470911746461 0.9912393772245160 0.0011988684143144
0.9949672368694246 1.0010184899686179 -0.0023879845516837
1.0008585809161523 1.0029981780499750 -0.0008985816223964
0.9957767418577743 1.0014685094314886 0.0019657407361687
0.9965054061031576 1.0014675907226656 -0.0019014239730059
0.9957292797920072 1.0016131344063564 0.0020902782830503
1.0040108438518778 0.9965941945799125 -0.0017500733075395
1.0029362720796362 0.9976489984374104 0.0009073297470337
0.9965499775536205 1.0013386502520969 -0.0017040817752108
0.9968225399354840 1.0003703501816845 -0.0024592574442160
1.0079157348620074 0.9999516276743817 0.0066608053889157
0.9967639611682397 1.0003460394899981 -0.0024074795404371
1.0007273831960903 1.0029167345735346 0.0004154548304919
1.0038044782276294 0.9952011444257861 -0.0015120529205005
0.9955275013241957 1.0016723396527907 0.0015725251691332
1.0017708304190531 1.0017172268514045 -0.0015847335859234
1.0018721241520050 1.0015425695190991 -0.0048694244275516
1.0026959419510748 1.0026303567192065 0.0050989232481470
1.0016229894721411 1.0016080328395254 0.0018491704274913
0.9997298257732038 1.0022375807559443 0.0012538104507272
1.0020861773995535 1.0003627778300657 0.0010502878742024
0.9995523826432796 1.0024941942531600 0.0011565379397374
1.0042617280629307 0.9978759756300277 -0.0011205905465646
0.9970087132564880 1.0014878654961445 -0.0009233397521810
1.0023409568664094 1.0010572315195791 0.0009555342018314
0.9968404345575885 1.0013609694914689 0.0009502098560684
1.0028418785791966 0.9994353567218505 0.0001897686819389
1.0022160047007911 1.0003414089530076 0.0040666534681518
1.0005579584571620 1.0018134276606214 -0.0006403446283123
1.0026221008343126 1.0005740022698004 0.0015970431214380
1.0018522770486031 1.0012720310395999 -0.0015213591740391
1.0031260930238859 0.9999320714010117 0.0040563318242881
1.0021628767808122 1.0002521131173181 0.0033208255865947
1.0021112456416519 1.0006358072932249 -0.0017785383791076
1.0016447023163297 1.0014577220498937 0.0035598292348069
1.0016862631379950 1.0012519515930181 -0.0004399739644508
0.9990926560730271 1.0004506919203555 -0.0008297227872140
1.0023360358981763 0.9995728171507678 0.0047232948271734
1.0022327336821617 1.0016411438384205 0.0055216565662346
1.0017964824960854 1.0010100770419379 -0.0005856405578579
1.0027056044622975 1.0003517060111173 0.0021826047073310
1.0053945492306371 1.0000805827910468 0.0007029371744116
0.9992030051435870 1.0003420902822038 -0.0028436322481635
1.0018295395330388 0.9997939422151980 -0.0020650972046040
1.0019964531473922 0.9997340579887009 -0.0025362388207990
1.0032037065894810 1.0003846111040282 -0.0018768888144521
1.0010011669455665 1.0019612585177322 -0.0076389071502923
1.0016768654203330 0.9998622936351267 0.0040888373041327
1.0005292951242912 1.0000459383065001 0.0010020630509680
1.0010928152756742 1.0015329081609821 -0.0059021945076300
1.0022517964169286 1.0008865751735203 -0.0003331743960291
1.0020232892630754 1.0009644327540412 -0.0050315119635186
1.0024056500753575 1.0005470115280064 -0.0007386175613765
1.0075559718051454 1.0006294134388616 0.0002967775813878
1.0025809198189926 1.0001036291166578 0.0050021069454964
1.0016499031603967 1.0012920876099731 0.0006015834947513
1.0020250711204339 1.0001956784932058 0.0035571169930864
1.0005960885390590 1.0030680906813814 0.0022237401034699
1.0039701747603047 1.0014178245876140 0.0040776446459245
0.9986107846351032 1.0004865478746594 0.0023479770168018
1.0012515821936567 1.0004738354925700 -0.0026619795701027
1.0018909119480055 1.0008092082140156 0.0000342525221502
1.0017065664488449 1.0011743297041211 0.0036688553509985
1.0022840207088184 1.0006588585761125 -0.0021455410647326
1.0033532253006390 1.0009768444748683 -0.0013071506479234
1.0022959550216197 1.0013145146577236 -0.0009370467911043
1.0070316033595288 1.0001918774621812 -0.0026157434387875
1.0022649223685247 1.0009868513539797 0.0000480912575494
1.0010259069896197 1.0045564220350527 -0.0033317100280738
1.0017504426684365 1.0003753261441763 -0.0030749864336355
1.0045790618415438 1.0003307488695818 -0.0028015462284437
1.0021502596944800 1.0003890438080081 -0.0005721922999107
1.0011755866767216 1.0023191524465513 0.0016868800505113
1.0009274113609368 1.0027126999019893 0.0004096303546768
1.0014965140223984 0.9977627579123793 -0.0091877313408541
0.9989837986330833 1.0106092381138609 0.0084976319688635
0.9966588505361630 1.0004689626775487 -0.0052776898475735
0.9996068096067621 1.0078132718500084 -0.0071730267210240
1.0023938330745379 0.9958319906435628 0.0044112280414440
1.0106353054476329 0.9998653602653028 0.0076277131000642
0.9966881009042643 1.0005076348995869 -0.0055000225961841
1.0109139884638900 0.9998317444542330 0.0073958219894175
0.9989166757275311 1.0107322991316172 -0.0085867993956389
1.0016846590740449 1.0017578304177586 0.0016675099773452
1.0012470145798928 1.0021048782650805 0.0015875851424598
1.0006313626700587 1.0026708807373141 -0.0017287844685758
1.0136866828278333 0.9998586504011236 0.0114292765383951
0.9991483924945519 1.0121564279823740 -0.0121562972473293
1.0134224721436667 0.9998970892845920 0.0113571590826652
0.9960106587425829 1.0005114888593019 -0.0068626336769234
1.0022437479961548 0.9953839384875468 0.0049497894075933
0.9996766677970070 1.0094722809826733 -0.0106046463709440
0.9991773207777167 1.0115372624492556 0.0112426902266363
0.9960803021140195 1.0004811221378518 -0.0064168934609181
1.0017248883777918 1.0014768289216827 0.0010963959932475
0.9961581380089831 1.0007005657341539 -0.0033027167802038
1.0026018446833078 0.9945981007266710 0.0097400861454771
1.0008929770354476 1.0028314654617272 -0.0022676800883357
1.0025660842763262 1.0002024834582521 0.0020803288514857
1.0016068144958430 1.0007937968858418 0.0007712958985239
1.0022193136406503 1.0010107358785139 0.0005640350035783
1.0024320153931709 1.0004047843308070 0.0038873410794635
1.0019544757765766 1.0000885765156133 -0.0033447415853687
1.0018011159787312 1.0002002947199451 0.0030881757133799
1.0019561760425062 1.0009615752125751 -0.0006227729340635
1.0032850494136620 1.0012104925924599 0.0011561199360124
1.0006587698212541 0.9997880127672968 0.0014541400970065
1.0004245729219041 1.0000435023679055 -0.0008571355773922
1.0003699207024861 0.9999840764534914 -0.0007133681863110
1.0008383717726077 0.9997701365050577 0.0012705458276808
0.9977677313062034 1.0004845914156633 0.0005465679264447
1.0017289194381733 1.0011724436298557 0.0002265306230217
1.0011474464467447 1.0001729076660251 -0.0038619982845763
1.0014144072171245 0.9978492017102042 0.0092758015735880
0.9981560399853930 1.0005618872824162 -0.0019233646661653
1.0020002770879086 1.0012637228853527 -0.0002600417881699
1.0047914155165700 0.9998602844570366 -0.0011076243607304
1.0022543130378430 1.0012414911471323 -0.0017773554019828
1.0023853488780068 1.0006779042996092 0.0005688233342542
0.9982860735699520 1.0004585245563249 0.0025070090574538
0.9981480845941872 1.0006125897516636 -0.0018603687227179
1.0023952968028946 0.9986293614496776 0.0042834801446623
1.0014604995115111 0.9983694391764740 -0.0071095540024850
1.0023054008428605 1.0013475415855067 0.0007982864455244
1.0154266813690291 0.9999979116907795 0.0009487538794981
1.0018443898394234 1.0007163056748059 0.0018153131112380
1.0014889108132907 1.0013358905004017 -0.0008309005159946
0.9992755377267843 1.0099250263079123 -0.0005525288951639
1.0023925168447363 1.0005122892394702 -0.0038869188692112
1.0017041164321128 1.0010132348855165 0.0001018061852517
1.0017713879287569 1.0024010429201462 0.0033894002547708
1.0023557910351881 1.0012502596848207 0.0002924251743095
1.0004198264174604 1.0000965510929365 0.0007230635307001
1.0008958564175447 0.9997798879293006 -0.0011348352532355
1.0008408546756657 0.9996388596839534 -0.0010685506137862
1.0003323746636996 1.0001346068294750 0.0007887418192809
1.0007380772473109 1.0002243162091611 -0.0015606407992249
1.0009681605458440 0.9998792863189078 0.0016938936250853
1.0005683259844094 1.0004260260061184 0.0017499813730332
1.0012282027636650 0.9997797540244405 0.0015851595208649
1.0011919966906866 0.9997871046229670 -0.0015452409615905
1.0008036573484806 1.0002281380602005 -0.0015427371961501
1.0012351348029416 0.9999147363379137 -0.0016017750622370
1.0006963968169236 1.0003868845102188 0.0016352518169003
1.0011891264387887 1.0014097019646870 0.0011889520824495
1.0018923152124841 1.0008673120596436 -0.0039894955665046
1.0021681310261095 1.0015344443502598 0.0020709846118969
1.0001766811373440 1.0024843396436345 0.0043779581144203
1.0009108809251834 1.0031115470802938 -0.0010056947168180
1.0017550536088098 0.9999155394775076 -0.0026164983355064
1.0013478879888336 1.0014587433912099 0.0035970856262136
0.9991912783868462 1.0002964256197380 0.0022866768171271
1.0021969570777673 0.9991168285688545 -0.0054077375793134
0.9987951740532306 1.0003641694723924 -0.0017113593894734
1.0022162713986764 0.9984782778800939 0.0032807631568735
0.9992374132550260 1.0003201171722853 0.0022786021000447
1.0021834745941842 0.9991938975345969 -0.0046325190119570
1.0021936049633753 0.9991269589495014 0.0051841031619582
0.9988018696983194 1.0002916568156641 -0.0015943380145876
1.0006100773899427 1.0000538426773518 0.0011119828667421
0.9996918446364497 1.0001647446730124 -0.0007650197075871
0.9997173847299792 1.0001312310745700 -0.0008543606837262
1.0012003420170819 1.0017126223250465 0.0074312322488466
1.0034225203340541 1.0013925963194275 0.0007100850278637
1.0060343919370045 1.0001164716795476 0.0039925108998472
1.0020743356243926 1.0005378818488777 -0.0018472435539458
1.0018851846614993 1.0013982398270784 0.0015817638961346
1.0015454573186764 1.0000651048547027 0.0023049703516758
1.0012265215714724 1.0003594386448360 -0.0025808990665780
1.0013472023234671 1.0044897541906941 -0.0030323393511189
1.0050330964681313 1.0013132625691414 0.0071830038673654
1.0022770012168545 1.0015213574169519 0.0018537047921962
1.0014538402165662 1.0003550486562121 0.0032579086714296
1.0027389896063796 0.9945561463572007 -0.0097541667230817
0.9952583494865568 1.0006235533797898 0.0050237344622151
1.0016600302810090 1.0008799524131997 -0.0041062243556772
1.0019699496204872 1.0016671039829408 -0.0003969350453685
1.0005375492486244 1.0018346456227718 -0.0008670653797182
1.0012421907771158 1.0002666831945179 -0.0026566579165043
0.9992752226637105 1.0025946649585185 0.0005103531899482
1.0010344161735694 1.0013643056817363 -0.0044995959825595
1.0015703752799316 1.0001566832592339 0.0037509882120935
0.9996381100168711 0.9999772182985773 -0.0051633907966147
0.9999272282712010 1.0000266782721323 0.0061955167909091
1.0009838176054762 1.0011229197283935 -0.0043983196290560
1.0015438522929465 1.0002338800494677 0.0038087774455178
0.9996159406336813 0.9999549248358334 -0.0048974866016591
1.0009931932440614 1.0013728916935838 0.0042564754560310
1.0014804920515559 1.0000306538641890 -0.0001688106281914
1.0045866676019062 1.0006297179836801 -0.0009514535390732
1.0016051068409790 1.0003250417400538 -0.0031713416874220
1.0024483620115414 1.0002498453781703 0.0067952528797762
1.0026259307622487 0.9992456707312093 0.0046847617966026
1.0015744878021065 1.0024009904089666 0.0023511648568150
1.0022361975242964 1.0012600555371358 0.0002791927053481
1.0159256967944950 0.9998155808967563 0.0003497021583208
1.0028076314631318 1.0001527026688848 -0.0000593459823975
1.0003644951724111 1.0006325333197419 0.0028546433775465
1.0000829688917059 1.0055127364251295 0.0046200644997646
1.0017919540735880 1.0010638073507006 0.0010693227368184
1.0026957129509706 1.0003090717061984 -0.0006634671358560
1.0013715418437976 1.0012893624149766 -0.0020260892998656
1.0006049140600870 1.0026417115666313 -0.0002202453322107
1.0172138545281111 0.9999021050431163 0.0037579825012758
1.0033241021596200 0.9995989186086994 0.0040585949049314
1.0023660479389620 1.0004539755015867 -0.0022970650064016
1.0084272755220940 0.9998847688497202 0.0018611029302622
1.0032427745091570 1.0006223903470599 -0.0042729715151393
1.0015666324064172 1.0016835068042003 -0.0022335305287414
1.0019451870742173 1.0001596272377131 0.0022697996566966
0.9995796273303245 1.0001719396218116 -0.0039135405789197
1.0007016278292475 0.9996737438643141 0.0047969016629599
1.0018563402370981 1.0001690885025192 0.0024947450998294
0.9996831934207921 1.0001286294002638 -0.0036632649347550
1.0016118988555800 1.0016507867783588 0.0022109349094196
1.0015716709971714 0.9998905928883177 -0.0024716456036134
1.0022984467219205 1.0008073717185981 0.0005482080306252
1.0018509126342481 1.0012000167756543 -0.0017451898880183
1.0070627543052901 1.0003721406156683 -0.0014689612416651
1.0028559512997610 1.0006544789531284 0.0033908047118946
1.0018919079805113 1.0011414052899350 -0.0017485406456638
1.0023442373108988 1.0002117634000456 0.0021143154515384
1.0029188835953633 0.9973060443394646 -0.0029665369782204
1.0012006358214538 1.0026841887875937 0.0021560948643916
1.0019589525883388 1.0014273127754227 -0.0000075840648726
1.0019180375355814 0.9999313002632095 0.0010912286409924
1.0014879954289535 1.0014576753239801 0.0013380237191298
1.0019511041280513 1.0001547198061440 0.0040360507763419
1.0050352625464554 1.0007700097074987 0.0018057060215462
1.0019493668445814 1.0007913042509282 0.0012507145550363
1.0004890362135694 1.0058639769803952 0.0043167194382258
1.0017754157608849 1.0010565173269284 0.0002036277204846
0.9998611821085093 1.0022799110565908 -0.0077880066314515
0.9992613788724610 1.0006170890662214 -0.0039382010545553
1.0013939837206001 1.0001765883903311 -0.0012090612088290
1.0014619643691556 1.0003550451060870 0.0005259066409791
1.0008224896674593 1.0010662291097145 0.0028250915415881
1.0015805454099476 1.0008920346695502 0.0019009773637613
1.0018107171027451 1.0004696431655531 -0.0035268240770149
1.0026591056392729 1.0000443671101751 -0.0030855165911546
1.0023598450996107 1.0017757073020397 -0.0034197925424720
1.0021150673281545 1.0010035651151930 -0.0012353280471523
1.0033342357174482 0.9950013034258492 0.0003519443742081
0.9973415844925928 1.0005394194349611 0.0000803408012025
1.0019078631901965 1.0016815996610344 -0.0029549275934686
1.0030433640786711 1.0001932475043931 -0.0037337116288643
1.0023087051658230 1.0005957777361691 0.0001257273069954
1.0010595196621110 1.0009600681803832 -0.0033761182200830
0.9991727478767695 1.0005884012615489 -0.0042581503070701
0.9996828028600939 1.0014287661449215 0.0099355983519086
1.0020372195512772 1.0008574308949922 -0.0015969461416559
1.0035181359395238 1.0013132410238248 0.0020213813031863
1.0030235678216137 1.0013949270170042 -0.0016304506018119
1.0032956341396486 1.0009790037308346 0.0000555117836504
1.0020699313351753 1.0014854206080892 -0.0005322511028949
0.9996279184690077 1.0013169597590292 -0.0099774212221722
1.0015831413396410 1.0002762126050619 0.0070320641352541
1.0018659279516522 1.0005135083733445 0.0038208693973565
1.0026698960211771 0.9991106289276994 -0.0008566795777123
0.9978374798491144 1.0006989461677365 0.0000433878289028
1.0029208547596811 1.0011971511545312 0.0001769329767106
1.0032044691309157 1.0000500930281422 -0.0038385279366690
1.0024948720244156 1.0003286981733328 0.0000676021424834
1.0024327698729754 0.9994278838704080 -0.0046904014282362
0.9995270721145417 1.0003816276769266 0.0011999365742911
0.9990217554506381 1.0004151588710797 -0.0010462357624985
1.0023001161383653 0.9988626399574988 0.0029008503274811
1.0022404561939082 0.9996162273690776 -0.0036400327351145
0.9994962737001889 1.0004154845225239 0.0012446825148181
0.9990418984629142 1.0003744767811868 -0.0009705407047466
1.0023112945506065 0.9994510494530182 0.0047039598511601
1.0013335876084981 1.0019360155267307 0.0002034023559446
1.0038369030239951 1.0012662414142974 0.0013022818525289
1.0011707975471800 1.0015447967313156 0.0002877628704400
1.0016076570831425 1.0014199888453319 0.0023426198754377
1.0028136811565678 1.0012856569074036 0.0020545418360953
1.0016002936605881 1.0009115031509517 -0.0016674042975796
1.0015455543154625 1.0002879393244977 0.0005941380649802
1.0014720328586597 1.0008996758949569 -0.0013461267773547
1.0014340116049085 1.0001133202171058 -0.0012321079065849
1.0025050670738298 0.9974451063593867 -0.0039161404437264
0.9987952048572013 1.0003648185636171 0.0007563530917285
1.0021845471886484 1.0009394685173296 -0.0003632692937164
1.0026013072464222 1.0021147972648050 0.0032959623882807
1.0021943123425165 1.0011689957487808 -0.0004106256298398
1.0010526851237858 1.0014093819392043 0.0010702087397362
1.0019976395793695 1.0013506831423864 -0.0001321331560943
1.0018518940522272 1.0009034621829414 -0.0006798009713956
1.0018294504965322 1.0013818504336314 -0.0007027875104792
1.0025921521058605 1.0003344170802633 -0.0035313481465379
1.0056515933130707 1.0000122204544997 0.0032704940101844
1.0029258146980244 0.9998771406454936 -0.0020540347113921
1.0021877157790127 1.0008209402587824 -0.0003799055502331
1.0074687313787958 1.0000281743133244 -0.0024741570871044
0.9993412765375970 1.0003675503291911 -0.0032638011806103
1.0021781233028917 1.0004085309941384 -0.0004933699746302
1.0014032283010408 1.0002807593087528 -0.0028767362578999
1.0024280710205018 1.0018542553171510 0.0034546140016572
0.9991012800690118 1.0008824212569947 -0.0025698270188532
1.0028381010542609 1.0004540283335719 0.0085162339570183
1.0024868446855697 1.0001485854693191 -0.0036708307206509
1.0029765496236989 1.0000610175707096 -0.0085926594561955
0.9997406404563622 1.0008679349406080 0.0039752406024990
0.9992670733629053 1.0004298264155669 0.0000160520226501
1.0024912406309823 0.9997333232429608 -0.0013290932238890
1.0024862460350767 1.0006326868123430 0.0025254968798475
1.0005052739354172 1.0022182926077041 0.0046725659344752
1.0017279654847151 1.0015251337049473 -0.0022220020385363
1.0076359824331029 1.0002621983605657 -0.0002894231067963
1.0015571014784199 1.0002802479420778 0.0039830102936448
0.9979888496648219 1.0004581823343175 -0.0002678728981967
1.0030594772768526 0.9972126158560717 0.0030581826919048
1.0027979202572641 1.0000656782425734 0.0005746146380052
1.0037151522545591 1.0001797448206322 0.0020721150408291
1.0023130257403481 1.0013249403306523 -0.0001114683052568
1.0028719422236618 1.0001722975112666 0.0039835392679351
1.0019078497663663 1.0001805344094779 -0.0016689172942648
0.9956436600795349 1.0006188776506917 0.0041686505461004
1.0026690106590395 0.9979318882680414 0.0041608128586704
0.9990231160036361 1.0003014523558296 0.0011385085826505
1.0021592059508502 0.9986621639142980 0.0035866845557388
1.0005023563446944 1.0036313319102561 -0.0008169388604855
1.0022688198841070 1.0013494281418200 0.0008970853297284
1.0021145636546047 1.0005162189559140 0.0018237165744315
1.0023686750920167 1.0004889405447033 0.0010861613427250
1.0029801871027120 0.9950599267559065 -0.0064581973949638
0.9961368151422338 1.0006963422347757 -0.0026297830051154
1.0025515312623370 0.9983022281561555 0.0012977060936011
0.9979704220349001 1.0005063990369694 -0.0002333491878127
1.0028157749637867 0.9979894046085809 -0.0022275009662024
0.9981198396859446 1.0005189718329148 0.0005339259352075
1.0018305359056525 1.0000588555396441 -0.0030369355412711
1.0016009003110384 1.0009742686614218 -0.0007230384518606
1.0005822815436827 1.0032786870523729 -0.0016329471560653
1.0002152775505082 1.0022927587031700 0.0000427629455307
1.0023126027077420 1.0010187107447406 -0.0016725549281462
1.0034066274161562 1.0008884519374426 -0.0017315133402132
0.9993606904593743 1.0053278086152484 0.0008005925723195
1.0014846520293395 1.0001850959247172 -0.0042097513296323
1.0014197110026104 0.9972227806618823 -0.0098950631778805
1.0022392763341388 0.9983488669754705 0.0046812358404203
0.9980335519382226 1.0004600155088959 0.0021771109790243
1.0013707123833921 0.9980254991389625 -0.0075875775277719
1.0027807042209482 1.0012606623231748 -0.0010490142539930
1.0030749154585434 0.9970392749297314 -0.0024643048652698
1.0025509736774485 0.9982677609185451 0.0012166625101634
1.0025359208818891 0.9978881123525217 -0.0020234110088792
0.9979883064591571 1.0003465065023622 0.0000471606899782
1.0018387652964258 1.0011662995775448 -0.0002686257599359
0.9990166815921728 1.0030328535453226 0.0002573549855299
0.9998950953937481 1.0046943016744476 0.0011063892977048
1.0019600506146988 1.0007245454478602 -0.0040285174426620
1.0023942390052889 1.0005526219875804 0.0003415702196242
0.9998374892455538 1.0050265764209432 0.0021074694009258
1.0022303192366231 1.0002494006423712 0.0005291709969296
1.0048953463217696 1.0002113779880160 0.0018559466272371
1.0062898239119853 1.0007428560644414 0.0039620172719023
1.0023594626706929 0.9995972355019729 0.0050200797404920
0.9976639667120251 1.0004808726669767 0.0002369610671295
1.0025013371043048 0.9974440741585201 -0.0009271962061878
0.9986093959852935 1.0031411972939412 0.0022360587101312
1.0050362550765490 0.9996840665247368 -0.0007765860580611
1.0018161284478342 1.0003102376006359 0.0024130717905520
1.0001716278254473 1.0043687445812652 -0.0008422128217321
1.0023011289787789 1.0013456421844655 0.0000387095872072
1.0003551581067816 1.0048079579232068 -0.0016810079147264
1.0019763802370045 1.0002107123380348 0.0035571589626116
0.9993669561061321 1.0031197879049822 0.0001719995426698
1.0021761344606852 1.0002894446193342 -0.0020056270775101
1.0013320710548264 1.0005664431839099 0.0018431256748025
1.0019218155173499 1.0013786222548045 0.0006687053130087
1.0023386190828754 1.0002526497457029 0.0011918974729198
1.0015300622575332 1.0006413036980795 -0.0051123793545654
0.9990838715865430 1.0026434706557077 0.0000700233305408
1.0003521144927225 1.0048698447840725 -0.0013407901343301
1.0014505358770807 1.0005572911752845 -0.0035732540317395
1.0018052473329142 1.0010859886180969 0.0002356355694841
1.0014587341818719 1.0010865154865258 -0.0011704059326118
1.0023789890905390 1.0008401978043913 -0.0002440641375889
0.9990923522413189 1.0026087084833570 0.0004029790227879
1.0017942296082887 1.0006272139938213 -0.0024490186806631
1.0012717225840384 1.0008780997291713 -0.0018828004188270
1.0004450480131173 1.0007099654315810 0.0025104372225288
1.0012616049405556 1.0008389560231372 -0.0014463051904125
1.0030553966909463 0.9997772535662590 0.0013803479157715
1.0020763967726254 1.0003708842794916 -0.0003162749915590
0.9989527766562872 1.0026116752773491 -0.0003205589818011
1.0053197973776420 1.0009294410728533 0.0024080412108206
1.0012280298366907 1.0020125124642623 0.0022915184368477
1.0000352569240363 1.0047783243386448 -0.0008202777778628
1.0034847548084731 1.0007464768925804 -0.0001893001858089
0.9994379834278725 1.0005400873464703 0.0001194818435196
1.0033342962514036 1.0018039830477032 0.0003044795764271
1.0001794484699669 1.0001191081523717 0.0025464077313354
1.0011901090599427 1.0019916077868667 -0.0005248451888609
1.0004014043841596 1.0049730088083346 0.0026864658953821
1.0028088613665052 1.0007120846115700 -0.0018883007285038
1.0015000004140624 1.0002774232359697 -0.0027253422773452
1.0042614776964460 1.0002263739805441 0.0036539170900261
1.0015088428150425 1.0013619375452856 -0.0006409989072135
1.0024246532450105 1.0013015852484022 0.0009823620207129
0.9986634255539588 1.0003708780907745 -0.0006112344039604
1.0025125978242198 0.9977381144071245 0.0041213350004455
0.9989472563526256 1.0024339819372170 -0.0000847590342011
1.0030545959297446 1.0002950548137253 -0.0015770733012990
1.0017711891739103 1.0015023966874312 0.0012202740143982
1.0017814848584992 1.0012872670286572 -0.0011336958881546
1.0012498626931923 1.0009072408893365 0.0034117042286651
1.0034620972568684 1.0010004710536977 -0.0015228284583563
1.0018636619986547 1.0005300766004683 -0.0030927697543814
1.0022290106016660 0.9994717603339706 -0.0027733988687749
0.9988747689293997 1.0004389417028297 -0.0005566913327301
1.0024650495482932 1.0004440665088823 -0.0000392499977161
1.0021857232567777 1.0002372075795347 -0.0020535134966464
1.0023536138476892 1.0005092936422342 -0.0033308124685810
1.0020905243334273 1.0014108588739461 -0.0009581236204233
1.0022168565686795 1.0004777177451154 0.0015725826154012
1.0018281456826978 1.0015566361782917 -0.0028656414535811
0.9950583880383398 1.0006407038901568 0.0043630952493822
1.0001167659194727 1.0001520971177631 0.0059775484108344
1.0018701347611361 1.0008284901350202 -0.0011206503603561
1.0016881672762465 1.0003467884073918 0.0013616421379551
1.0001821931361308 1.0003514687286343 0.0015334836241789
1.0020287216073518 0.9993801898268736 0.0036992069921627
1.0020743403696732 1.0007849845824766 -0.0008380847321092
1.0017585826664535 1.0013872889748994 0.0002594953687542
1.0034563783533468 1.0013090146673638 0.0010785878340995
1.0016966304422297 1.0010738734681421 0.0001586745567118
1.0022477121799387 1.0010379881677629 -0.0003502005172190
1.0006163188901138 1.0033611716552575 0.0011682642842035
1.0047801595589281 1.0004483475915742 -0.0006307828390330
1.0008144301569963 1.0033066299556404 0.0008836198743166
1.0022074304834527 1.0003177231979263 0.0020941752659568
1.0042683203316558 1.0008921515797371 0.0039507912757252
1.0019262318994722 1.0010277306293169 -0.0003098263280939
1.0023811631025183 1.0004497792134588 -0.0000656108173951
1.0020959447295048 1.0003974932394066 0.0004338252562301
1.0020978449093716 1.0003969518551508 0.0010808454244310
1.0005712134979414 1.0022576623510582 0.0013974679652749
1.0039143582319816 1.0007629030828606 -0.0010469152002935
1.0008602013066998 1.0021753022352855 0.0009699530889466
1.0000947412202348 0.9980443339233284 -0.0104586694121602
1.0024828781695323 1.0003186636038106 -0.0030272978038288
1.0021582829751075 1.0004211142266513 -0.0015008836083013

SCALARS f:PK2stress double 3
LOOKUP_TABLE default
-1.3885560182428458 0.0407336024814235 1.2882628230104898
-1.2372538921834766 1.3204808488697313 -0.6538345592859569
0.8459895425261779 -4.0088535668113092 0.9556146568781007
-0.6800955025708719 -6.9420309837549823 -2.5958754254987730
-1.2334515181909007 1.2423731442767201 -0.6575846354555270
1.2353324234742149 3.5072113024238876 0.4118662471195971
0.2394304041983887 5.9894308805904410 0.1100995273135540
-0.8372621441835626 -7.8889831212215062 -2.6344864790599583
-0.4672871485953241 -5.6495711008337208 -2.0749753677893619
0.7479969283237972 -4.7867600928037781 0.9698476094491045
-0.8828461541689665 -10.1829134868559859 2.8638675899731743
-1.6660565150317050 -0.4599817842300092 1.1219301222380482
-1.3992239309764276 -0.5382248895118010 1.1129363225145679
-0.8952921065665359 -8.0614372176117968 2.7073143883226960
1.6742186332946196 1.5475912683986439 0.4661006672479062
-1.3934100025472032 0.8853947569220785 -0.5779763661831396
-1.4054885430045727 0.7688408509690442 -0.6120924370771039
0.8784022843833005 5.1481160430673762 0.4499193597083667
0.3383179953027358 0.6506699339258940 -0.1911335357850526
0.9144652809100522 4.6713696425756570 -0.2474111337824945
0.4942727795181266 0.7947266289905838 0.1529308786494538
0.7848209684774359 3.4504195052662721 0.4290026851443525
0.3334610986005158 0.6983349753192564 -0.2062358094194658
0.4898264409308627 0.7203358743738385 0.1439189124389489
0.9086899372037375 5.1628287456770279 -0.4490202307676908
1.2024226831450047 6.1642530570957508 0.1246271613552358
0.0601338501896284 -0.2194307545718747 -0.0258280355306311
0.0106773685495419 -0.0258610784613167 0.0252289185405506
0.0108329374382370 -0.0555349338463607 0.0327736731418201
0.0693221185270442 -0.2268247051696011 0.0079637197569051
0.5065139406534998 1.2090812668523161 -0.3320565848800681
0.2544246823925527 0.2071070053165142 -0.3678873199903699
0.5680959629313040 4.2745708246742877 0.7580950014491391
0.4534652571274903 0.2631600574396357 0.4042793498800303
0.5634097328329605 3.9452706987569197 -0.6752901171657454
0.5147361429468723 2.7316529200682624 0.6991330852456402
0.2761046987134180 0.1928489031281765 -0.3799270401592092
0.6217949926057598 4.6759324174206762 -0.7791191169443971
0.4565991825185848 0.2246487093059450 0.4106307065094677
1.0805981149619048 1.6339333004471610 -0.0320651348709231
0.7412499318714163 1.2245838431017975 -0.3544792773677005
0.8600332931067530 4.9262845851204391 -0.5295149685737632
0.4652530416927388 0.9298059306223010 0.1099722568714502
0.2944145764698076 0.9160211705625005 -0.1714084273107322
0.8525686581298919 3.5273792266134820 0.4720209088423352
0.9178712618376300 4.5907518672566532 -0.3562437183319441
0.4474556419850896 0.9587038862086280 0.1151330307636366
0.2989234004932647 0.8561382792102588 -0.1708078876073136
0.8393066755954247 4.6819367021429441 0.5308779437220992
0.0134735861197688 0.0185911914458996 -0.0370528743910240
0.0828635899418869 -0.1755558939776306 0.0161535096306919
0.0672216599544842 -0.1935178248817746 0.0198448059423710
0.0084354047352058 -0.0384203831746408 -0.0566655817752117
-0.2730561434542653 0.7050895418125266 -0.0680212195029848
0.1216100606173088 -0.2063258488120375 -0.0046941363026979
0.1208245153948707 -0.2437120726074080 0.0031931013898120
-0.2068362965619244 0.7753749585134316 -0.0205245805091075
1.0453421008939334 4.4863979921100148 -0.3941634911851123
-1.5176903281813845 0.0630880422504919 2.2860014828601969
1.0657505529200426 6.6488051448328918 -0.3691144551268941
0.9764518956130541 4.6108920610611426 -0.4076648083456844
-0.9915735574454300 -7.8386252971516148 -2.6592371214794137
-1.5677017020373414 -0.0755413017485460 2.3089504003715180
-1.1724440220633017 1.2393783543337815 -1.2725479824108596
0.5414705341108520 -3.4783716377341736 1.0498154833793374
-0.6139063754708936 -6.2440130277773971 -2.2444093613731799
-0.9377903934494979 -7.2938802657788688 2.4810955975252593
-1.1541795208290766 1.0779368042061201 -1.2038191266948710
0.1060158478464279 -0.2519959383608826 -0.0132901129956395
-0.2154329004799280 0.5323711130731936 0.0571299092234174
-0.2465541036978114 0.5525888485675357 0.0629175121475667
0.1258259598430191 -0.2930018342617938 -0.0256147581596736
1.3908261974939271 6.5899149602147258 0.2792180014416918
1.0522973918296299 2.7679051474315743 -0.2294047166153692
0.8830398986954500 0.9870428873141266 0.1156732585720202
0.8281149473425368 3.1346809336092378 -0.4179790619536606
1.3201055123448413 5.1817953836992015 0.5177615325371128
0.9686115307754721 7.1982416594728527 0.0901654294971336
0.7456916450022494 3.4190582998754904 -0.1240105021212207
0.7348380855256376 0.4550561131049926 0.1486085759803926
0.6870068412800510 0.6843952513766851 -0.2695460602992630
0.7260779595719555 0.5925186560008256 0.1696600712723471
0.6967768260970948 3.4152189398002752 0.1975023837039590
0.7333149784420080 3.3735069768563322 0.0347921299527680
0.7329622718497845 3.5703911382356037 0.1186138669333883
0.7153675474373481 0.7762576904215213 -0.2389863560048918
0.6748171536850237 0.8529392830276861 0.5631937751908563
0.9607553743620314 3.6961435861698111 0.0451155312131952
1.0304449904360973 1.9204597044984408 -0.2427027325519429
0.1186596524306273 0.9565359988102523 0.2921103444628473
0.6181737580655110 -0.8776685944510672 0.7805550807549277
1.1131296700752071 9.9875722187426348 -0.4941261708684879
0.3350518814739440 -12.4782767387076881 -0.4927933187363778
-1.2470555252852311 1.0426777458368228 -0.1279213950854692
1.0982760969768885 13.2569665584056064 -0.1147377412333012
1.0748033108367894 1.8034562938576562 0.4726804861403968
0.3059182924982952 5.7719793454443433 -0.0003882331394605
0.6672714428205710 1.6565341899854111 0.6354249315649964
0.7976218648348323 2.4966189105242487 -1.0517249284475505
0.8987018728100870 0.8413080909708353 -0.1752656971082223
0.4740290680508076 -0.3062735785150800 -0.6390204275150305
-0.1112847235338332 1.0793559634415635 -0.3352797640846346
0.9989807821629691 8.7276273499816526 0.0523675660164985
0.9470371740078408 5.7244877155055702 0.1096198630485225
2.2736887341207921 2.9515624258785436 -0.3864953539699508
1.1618999571530979 5.6060916467112811 -0.4739819546413484
0.8973655326168064 16.9606444012078974 -0.3300957033778143
0.0503945943198135 0.5649920228633689 0.0354986393240806
0.3835875801735729 -0.7605408031480019 -0.2102675498049796
0.0155475764845354 0.7038480271074422 -0.0965846503799290
0.4721933024366130 -0.4292649604303173 0.3559460961217725
0.4126695944868106 -0.8466160544330040 -0.0843273359389485
0.0455011396294058 0.6579149874826541 0.0258707979766653
0.0128405676646638 0.6208391481928531 -0.1057188910238469
0.4214304207650023 -0.6047628465460936 0.1627521100791463
1.2034864918496624 26.9986589001836919 0.2094257661962958
0.8807915707752754 -1.2780904583014918 0.7541862334611849
-0.1055936460758787 0.9731127583087469 -0.1076088970124761
1.0802179216651777 7.4545185634135063 1.2648925782112490
-0.1568609830660157 0.6490034470379434 -0.1572446047211710
0.7384070280819812 -1.1673195231176214 0.8695244150495902
-0.1615787807699373 0.6998689772084141 0.2019543658850854
0.7892158990397694 -0.9147707902966272 0.5696284253500432
0.7277592409127566 -0.8930609728660027 -0.6604081971813630
-0.1709776363125926 0.6741722452067510 -0.1723075747749842
-0.1609424838648900 0.6311187059171640 0.1960119562780113
0.7638573241181961 -1.5206198507688844 -0.8768552215902580
0.4055398387012931 -1.2493075362636188 0.0739622687251982
0.0141816027911415 0.6973302061973135 -0.1052092482204095
0.0457687347706711 0.7111251127325217 0.0323607262023877
0.3906795263342601 -1.1895313326517361 -0.0692557787280766
0.0480347235137299 0.7966593789747682 0.0267817534163401
0.0140899956957012 0.8005014473183263 -0.1028764492017778
0.4567509198796816 -0.7853186195429479 0.2404324932354168
0.4327525160765376 -0.9975483129540912 0.0128280595288429
0.6396103513571230 6.3496190040669864 -0.2486599416704729
1.3835111260537758 5.8690801596663684 0.5918273880463724
0.8086790680924620 0.6810067634359376 -0.3909880731674080
1.2107933364660852 12.6888285766201143 -0.3117774699197587
0.0068606188868328 8.4361477864447423 -0.4360169665054944
0.7849343269390161 -0.2401940410132442 -0.5473455067495039
0.4593362149223078 9.7746055834737362 0.1067245501915085
1.2888633768823998 4.8565448214307354 -0.6807993489693186
0.8560080830943453 4.7628600981539595 -0.0386778613105234
0.3258347744306046 5.2381244650695686 -0.1924131643480662
2.6574116043369838 3.7198553779676709 0.1045196532844363
1.0414668954641699 4.2952398293045020 0.0192469691027169
1.1010072303256491 5.4994765289601686 0.2328937127262940
0.1672923478622581 4.8483935762782506 0.0363089737480035
0.7196693161848176 1.8298747182378390 0.5436973847351151
0.7210763507484937 1.0033182055345939 0.0351750288009051
0.8285150015443151 3.5383928683795962 -0.1568562611998299
0.7628675624668653 3.5147682683123529 0.2232582535449041
0.7758410251642671 3.4804727417884167 -0.0441315985748549
0.6905672240215537 1.1880391265716885 -0.1569024025211855
0.7170694708425267 1.1544822563512709 0.0465127101365088
0.8108903215746849 3.6665497993729068 0.1735882083272717
0.7010929651564697 1.0471898514288722 -0.1500272858734908
1.5090044821069184 8.7263047164620229 0.6001719878337964
0.6582175056558358 -1.0915541821449990 0.9633630248018952
-0.1691439154744183 0.2664587943796567 -0.2529465783916220
-0.1799247294355769 0.2304769459589144 0.3605632905726815
-0.2110890563087271 0.1702607626975205 -0.2813215057022281
0.6389824923240772 -0.7919491507663811 -0.8241503761166469
0.7352391940160855 -0.7264798616379116 0.6391243307863171
0.7253872230772744 -0.3992890527246538 -0.9852775125423734
-0.1867129813417839 0.2027956277200126 0.3704285493197889
1.0707141257963075 3.9968522714710786 0.1558202664442012
1.1073077427400482 5.2098592865655942 -0.1104803474789670
0.3218947426664900 -3.0937502288781085 0.3351780383240936
-0.0213512697052003 0.5511741895457465 -0.1372492760473749
-0.0201348827928593 0.6054359515489410 -0.1496661073507916
0.4421443455123421 -1.7650051090579846 0.3093051835050352
0.3894942078066719 -2.9749392504170631 -0.1845821316950479
-0.0337877642251659 0.6030580045827808 0.1070997764671049
0.3576972322668143 -2.9613195451723424 -0.3484874602130661
-0.0354358193421657 0.5262072778372090 0.1008544488953686
1.2344724639864968 3.7196429342989457 -0.0534912714951234
0.7763206383535431 3.1381062354597464 -0.4573236444817183
0.1894942726088229 -1.7644891199142678 0.5118375014592879
-0.0110636606517416 0.1981080484740351 -0.2718162831174705
-0.0270044305687434 0.1665796110714937 0.2949718463217538
0.3236490712899013 -0.6511073352458813 0.4502742121441194
-0.0134038197848340 0.1744945729432361 -0.2820123112756372
0.2139953242466494 -1.6541365994293229 -0.4368853843573891
0.2010621575567429 -2.0062192456635066 -0.5168297714400464
-0.0278454369870612 0.1158711243184630 0.3095805812789102
0.8823831883895714 3.5644418836367251 -0.3174542285853618
1.0279966308548036 4.7970101610555265 0.2288411313362915
1.1079735136210467 5.1917896328585984 -0.0562156285073736
0.8465037367437911 1.8149744680292290 -0.0084204959658585
1.1133560396654270 2.6695615197488021 0.0010790804526459
1.5410259255233179 3.4147863816868860 -0.4477596225039706
-0.0204289921889981 0.6357153515919394 0.0795277248324014
0.3746099091412680 -2.2459682900346190 -0.4171113969559770
-0.0113355419265036 0.7959673173450493 -0.1437815522269454
0.4677250509287336 -1.2039471102401540 0.3192711754096381
0.4426874895434934 -2.2674456130302949 -0.2551107896916189
-0.0258214482678875 0.7439152395396406 0.1015855669862216
-0.0118631838612453 0.7171270680155893 -0.1421841929249098
0.3693897698290197 -2.2598019920037360 0.4119556770923705
1.9941550868897269 4.0587695825725438 0.2566231369825654
1.2368327998647228 2.4844691060512152 0.3253073213661155
2.2931520648633810 6.0462273454805766 0.8721702427593608
1.0968077524667883 9.2615536109294556 -0.1358116182148760
1.0917262615581125 4.6986178897210555 -0.1343482777772198
1.3243897398143767 7.1140918028871516 -0.2566528902144206
0.6116022733120212 3.6678570156873596 -0.5350510232134534
0.8067117636213292 0.8056448009882824 -0.8648403673883603
1.3050140793750498 7.5457795490365260 -0.3360444039288331
1.8552274169403933 1.7685983534078096 0.1983304518018296
0.7455428457915242 1.0460970939943381 0.8050902750391006
-1.6009403265729787 0.5961740276514881 1.0625964072259193
-1.2837122912458561 1.0264757838122081 -0.7835434787248210
0.4556409535755883 -6.0658274941038872 0.8820781078513218
-1.6093843376449488 0.7461015162100983 1.0837042451138790
0.1816645738296981 -8.9818933200672149 -1.4354334815330227
-1.2759240318748835 0.8818853267420221 -0.7447383057721512
1.1417252795702104 4.3362060536035303 -0.1233364748834773
1.2806470139071755 9.4027807827441627 0.3865255202225243
1.1630859067529276 1.0974243291212118 1.4344816686913544
0.1899093201325458 8.3559828240089846 -1.8061917662364282
0.7585959194018822 -0.4620435148242524 0.9760822563459650
0.3552704397349408 6.4442144576012801 -1.4442719511432880
0.0206307363927811 1.7297058450560010 -0.9845503630306454
1.1327474737119403 1.2929112986163147 1.4549201025644027
0.0563768153900776 1.5786744249034983 -0.9491793694727367
0.1945784877384718 8.2921663972326645 1.8100374912454389
-0.0975775478080811 -12.6380958011030078 -1.7560981707042767
-0.0946223841800231 -12.5174478892043339 1.7585814605411054
0.9034206788664427 2.5625389122651683 0.2431118924748028
1.0063286129858791 4.0694735986780870 0.2166986591904945
0.9234346246318387 6.7695872369961059 -1.0960784346139958
2.2746165564422083 3.2000918043729198 -0.2940606130970279
0.3753864344116007 -1.2384306098154823 -0.8882262460114928
-0.0246495569741366 1.0798562625009656 0.3126441357891653
1.1121577660547208 4.6697590748142215 -0.1191990052752774
1.1589247973913048 2.2791707464574080 0.1433691887646280
0.6925864979042423 1.0457894120873135 -0.3416476667622495
1.0634528476558971 1.8214994042254320 -0.2033697715328107
1.0837048510262040 5.2868736449590994 0.0136817149024409
0.0191861517196193 -0.1379257562636325 -0.0895803680002258
-0.0864459897820729 0.0582781514779295 0.0940900686758537
-0.1084076528378770 0.0638428491211090 -0.1167036884958109
0.0284159435073440 -0.1117605437533029 0.0694801228627747
-0.0988955038406763 0.0776706276003726 0.1073024957225036
0.0308624080087202 -0.1290773246191419 0.0797559295776918
-0.0963466384117330 0.0844461262777274 -0.1058090841363700
0.0238425779716367 -0.1257800444930157 -0.0806345506748396
0.4609926349104850 0.5816150281657158 -0.1269131603326773
1.2699162802786816 1.9426448880877794 0.7163415877478378
1.1790300976622972 11.4721763109968258 2.0254323932184528
0.6397846164448646 1.4516970080616418 0.1565159117976357
-0.1478930031170848 1.2201856813189507 -0.3664989663494473
0.3831658805455003 -1.1255366122809429 0.8820717566087608
1.1937467868026292 3.8120486099617761 0.2617755031084892
1.6433084917500671 2.6560862999925647 1.0857233387680569
1.0870260944962966 1.3189127152815157 0.4130437817540629
0.2415284167665036 0.5623479202991639 -0.1501010864042152
0.4558479030104036 -0.4888911219330086 0.1036120617640885
0.2728173669788103 0.8099998781494284 0.0568819879232999
0.4840321470908429 -0.3747768625643185 0.0676061974307330
0.4462955500118609 -0.1833763431804807 0.1978361561678957
0.2489162279309009 0.7904187314790756 -0.1687639003444988
0.4944350436455614 -0.2767967747351309 -0.1140314896892691
0.2783964402433525 0.6739197674031395 0.0528259704696305
1.1159211464194259 4.2070726077181613 0.1786697306252657
0.0922947207897623 0.2528091665585482 0.0148387593947406
0.2313192440087115 0.0353988958114877 -0.0542566972302226
0.2198081394378388 0.0591553530944967 -0.0630682190495470
0.1112895851050462 0.4435667853990584 0.0658838138200766
0.5150533455109225 -0.6634505890906848 -0.2147036459659777
0.2452182325603269 0.8264732598454685 0.0198539430235464
0.2285040672650711 1.0133938718701225 -0.1431384593141484
0.5069013020915238 -0.0176906776102277 0.2530840450490549
0.4901323758257565 -0.5510925275788335 -0.0638898592227338
0.2299054035689099 0.9985317280238921 0.0264837634554403
0.5000598674000946 -0.5723655008085153 0.2221300979903210
0.2295564893598011 0.8790094973865836 -0.1436542466313618
1.2176515157970575 4.4769425004292085 0.7950368519386557
0.7596893402558311 1.1459585522667026 0.4332429377393370
0.6445420796307736 0.8759777476586337 -0.4698770327075330
0.0392348054001311 -12.7472333845649892 -0.9814578268838051
-1.3559623285465370 0.9445478578510446 0.6467409325179359
-1.0824318629634750 0.9016613866618529 -0.4519133649592697
0.2021674771484115 -7.3118626972550773 0.4423895915769192
0.1567124916973035 -10.3867510474027060 -0.8234328135787107
0.0005286322164530 -12.0138700970300167 0.9006666320239122
-1.0741895522603866 0.8374827386316818 -0.4183040543624881
1.0928593609531552 2.2391645332835646 0.1915769548428467
-0.3722263652322391 1.8225008692541758 -0.4285585147247525
0.8089900626307938 1.8221938755580716 0.6589338952204769
0.8156440825267587 -3.5495254601520321 0.9546771371676341
0.7240783475881558 0.8367948064540334 -0.0636190226700360
0.9205722029159535 8.4971071176428605 -1.9364427480037276
-0.3724501117482947 1.6355279611954012 -0.4368729180274908
-1.2993083687911213 1.0915883089858964 0.6527841154985977
0.8426398590491214 7.3463144751988976 0.0123818899178957
1.1564064779322687 5.6951902230971525 -0.1632631455390020
0.2151792118499795 0.0433027398176005 0.0405781283714478
0.1096098757951312 0.4284995046334693 -0.0321929098433167
0.1022936905422242 0.1221571596507774 -0.0359450422877357
0.1805515858844579 0.0279174707391625 0.0749159084811620
1.9169796153456722 3.0213338851814102 0.1761488648829953
-0.0775147953918107 0.4615221601535320 -0.5377087684090394
0.1782142094790276 -0.7545443379112333 1.1034246324403079
0.0148600102739291 0.4490305109595342 0.6260929058982618
-0.0733635739994315 0.5425854916967682 -0.5602075116119453
0.2688492982573862 -0.6962102679749886 -0.9878047199950204
0.4296599816545443 -0.5732920446010838 0.9088744873381751
0.0055255040830814 0.3376908081766603 0.6373234090188600
0.1696870644804386 -0.7182022144390983 -1.1528231085093568
0.9224999271607287 6.6737924454200259 -1.5430881439050570
-0.0314081173095635 0.8975482466826863 -0.3770558125914453
0.3750881425376419 -1.3306007466519123 0.8909222869498602
0.0554255086969290 0.8997790290462668 0.3704961422345958
0.6118128291014420 -1.0638062718140744 0.7182269882894654
0.4561070687168019 -1.2455771190000484 -0.6515606439355354
-0.0316372653407162 1.0328826029896829 -0.3914024771570682
0.0548380470351287 0.7710514254069263 0.3586301177480598
0.4039090441578302 -1.3294242163104641 -0.8909329195141574
1.2318831349822179 11.7070057073272444 -0.4592882569277291
1.0459751295741326 6.4152970310715220 -0.3353261330519474
0.9434261716812726 2.5874444193152604 -0.1539042558637904
0.7032045093673407 0.9680491280070137 0.3717764408791841
0.6729940322379089 3.9607650589492884 0.8994864540161612
0.8460049796754389 4.2480741131876796 -0.9451511194134214
0.4548813893913573 1.5216011783031658 0.4875867433512450
0.9294247261687919 7.9938427315665992 0.0511761535005357
0.8333464309808006 -3.5677106955313449 0.5577727442110132
-0.3199471695418551 0.7039787786932369 -0.0029692031920798
1.1318578537723041 5.3792279779354191 0.0056680701291256
1.0244779346423583 6.9256635702784992 0.0693439343508923
0.9535728082140472 3.8379235551738744 -0.0949070772423758
0.8510316518654392 2.9645226662008257 1.0166849924885020
1.1411492287053455 4.5970374275111689 -0.4227452295734814
-0.3697441537861578 0.9900632108180761 -0.3084740403807451
-0.4037803480402228 0.8177986367929582 -0.3373482397389818
1.0676713791268215 5.5019987762987395 -0.6961636610744154
1.2098545843574990 4.1678219707924109 0.0245560563124159
0.9214632430085553 0.9364177917321995 -0.2572825599159548
1.1277901573781868 9.0064345707210460 -0.2747804928904507
1.0271829206410099 2.8019448178084976 -0.0993543397830071
0.7844527664201559 1.0700562877661188 0.3554623308625903
0.2497676009713664 -1.7038089850858327 1.0427019709481764
1.1026070845616065 1.5455987400372615 0.5107533582018732
1.1665478074615900 4.0637319347815213 0.1768389330069366
0.6445053874556411 1.0602579974234856 0.5298750616387039
0.8272459674192100 0.8533373156581522 0.5285404388613155
0.7771138821199947 9.0297338746764435 1.9943249014917295
-0.3299245604845623 0.1422522143164859 -0.0277711814623200
0.5868622477103634 -2.7384432248382962 -0.4285768226991049
0.6326252941129550 -3.2317099898092114 0.2025750929670384
0.6497762156134488 -4.2925079664063031 -0.4523732928943276
0.8797506760523622 1.5673687382054371 0.3822136478946798
0.9931977992910407 5.8832522813413330 0.3043253009166711
1.1238872985603621 2.4588866672728891 0.2234093822257331
1.0702768265200617 2.4812523279362755 -0.2997330842285419
1.1445153388311753 10.3082316544993997 -0.3593348887993029
0.7813240894955648 3.2607154817070612 0.5454523713856116
1.0170203578961348 5.7938722100123314 -0.0996051398049641
1.1848240007644117 5.7400093122899820 -0.0553059309960947
0.3825702389486016 3.9828828188734557 -0.5568390099318768
0.5830971668848621 1.3330054503799611 -0.5182492461156882
0.5867601407406375 6.1763532226277169 -2.0517720553908885
0.6750749578915342 4.7206725458312224 -1.6172082311917275
0.6544368441676285 -3.8017227964381379 0.9760654093129553
1.1186350208152886 10.2773710133141449 -0.3337099124045028
1.0475122045447223 1.4271077513150814 -0.4375118556723867
0.4829068111424572 2.1258264702767415 -0.5346121216510074
0.6153965534208027 0.1002815880633905 0.4536524332742037
0.5834163888318077 0.0725377009509027 -0.4949527383777793
0.5921775428259090 0.2325154503757154 0.4591354848753678
0.3931583542403289 1.9586058383314624 0.5604907547181769
0.4895102165345897 2.1013010338649711 -0.5016453296375604
0.4721197573292183 1.8728047795069478 0.5362088949009899
0.5373626489708619 0.0627092657297452 -0.4588074854606837
1.0875446460079752 5.7683376834733817 -0.1009418930810513
1.1135384027748629 4.3688543438253085 -0.3767542047544891
0.1094771880854830 0.7485618629833611 0.1465674512134465
1.0968595097505478 2.9260012685673318 -0.9777069636434540
0.0378811185630844 0.9313405861480610 -0.1289562756713567
0.1165088862778924 0.8183191291216741 0.1435717316295972
1.0766448514552527 0.7284649243292662 0.5535866052119036
0.9259260382873751 2.4446694223473102 -0.7795324373061889
0.0409371542671534 0.8706348848869295 -0.1306287791217230
1.1227853732321833 2.9014221638845408 0.9868305081263020
0.8105130151072834 11.1369740481648591 -0.1346765035699768
-0.0959594587463180 0.9585320589241497 0.1388164872859162
0.9069379044470954 -0.8046258348889557 -0.7317888838285387
0.0870444007228512 0.5379695143075962 0.1211790336862500
1.2761728585617962 2.7695491684959177 -0.9758037172187954
0.0031495735447254 0.6746585419656077 -0.0734643806975116
1.2412329103436086 0.6925895543529622 0.5585671893780442
1.0438020803899821 2.3401067510230553 -0.7911461952112945
0.0833859057466361 0.5659185859267681 0.1014713462732355
0.0021650704958818 0.6477353752087103 -0.0774031448467836
1.2831590218120787 2.5273074267322233 1.0040792287486748
1.0740810590177616 6.9747677418136567 0.6949762762985642
0.7849336328254857 -3.5918497515245686 -0.5620582707636914
1.0803477746671020 0.6449375319816053 0.5358666263705436
0.1092768042840085 0.9380320634692496 0.1708815135452642
0.1363807382215978 -1.3885733457520166 0.1818763164051173
-0.0022760437413673 0.1066072092207346 -0.1315979353925674
-0.0034278467476709 0.0791199085207068 -0.1245641469906668
0.1685980224637088 -1.2191467913405356 0.2174693444004687
0.8648280640348903 0.3966720804937097 0.2423450012433198
0.8190816798203649 14.2842169733616675 -1.7002309687714283
1.6190654596335572 1.3200524323937382 1.2948403164655333
-0.2156484233266968 1.1035060634628147 -0.9730820016674842
0.3682605106120067 -2.6420628328994282 1.0585872829173013
0.8390534437114290 11.0031354186259982 -1.4828623832499690
0.7406571681052294 13.4647437540955206 1.5812432315006815
-0.2360745075280791 0.9584498164944033 -0.9167551373205454
1.2045391499139229 5.5423007008319116 -0.1299995933526651
1.0368686406481997 1.5160603325366790 -0.3800982542832664
1.1358911147281530 4.6502164556160857 -0.0732117676021898
1.1541940682274865 4.3865363238116348 -0.3316967046005491
0.9626848297848828 1.6892602535095596 -0.2558549031891733
0.2495326526295230 -3.7888425798839140 1.3124991274814406
-0.3073944801199980 0.8695889844694961 -0.2171105334849767
0.7158034504787667 1.3323646829171978 -0.2393528232569533
1.5950928221845755 1.5002835247357944 1.2913161283307606
-0.0040898203518713 0.1429374735084018 0.1057018148657285
0.1620872813809487 -1.1873433380692191 -0.1476555892661987
0.1600659881668581 -1.3489625459376904 -0.1636316533499135
-0.0051559054623525 0.0798866455987095 0.1108043684477302
-0.3221654090011815 0.7817888245453150 0.0011727356407877
-0.2497265771900430 0.7009478629327641 0.0502885498951354
0.7038392625223394 -2.3988434934468592 -0.4495467143191576
0.7602659815362516 -2.6804204160990230 0.2442962620205436
0.8088536327046874 2.0669165523503952 -0.1083774731119917
1.0259015159089075 4.8131871666984978 -0.0949294103540655
1.0152764397089411 7.0897069778503221 0.1629401605256471
-1.0509916526202856 1.1605528449049802 -0.2202493354028866
0.0699578200430045 -14.7547660060504366 0.8790383162443264
1.1337432949149868 1.2702772765887946 0.7266624478059884
-0.0377400723839646 0.7623962387091068 -0.1220351556784101
-0.0395663370917603 0.7778261622618692 -0.1336752771373798
0.0381420116645292 0.8383175231899106 0.1434117371204207
0.9674883852948583 1.3219495297542814 -0.5546632738141107
1.0587573048337282 0.0385635286171658 0.4899738847500870
1.1750528467758450 1.1905685794408736 -0.7239208645590169
0.0386887090997066 0.8152335947398953 0.1370457915345439
-0.0776608505632726 0.5959853825687423 -0.2233725733153804
1.3501659839041917 0.6732535777561045 0.7768736710001591
-0.0732130977851151 0.5638518870071789 -0.2377164051079129
0.0055030921642661 0.5774198978958105 0.3035893251999005
1.2662133102832622 -0.5223760983065623 0.5262414296122402
1.1597081278020420 0.6870854590352191 -0.6799004057250579
1.3804428887269207 0.8951930356698523 -0.8181996615567011
-0.0018227581083719 0.5669352826272397 0.3134547235293698
1.2708259967421422 1.2648694176105100 -0.1607786239434668
0.8974973580810967 1.3511175933983901 -0.2479714976886004
1.0875907167339172 2.2658082417559866 -0.1258638425876346
1.1682934449845703 0.3010319114666790 -0.6492978510602234
0.9038125646078025 0.4346130759306566 -0.4664082676824721
-0.0901460241037550 0.8722685089804695 -0.1031448079755696
-0.0057890345292972 0.8414346453709614 0.1097164335207392
-0.0995050652736910 0.8174555080016754 -0.0975410311466025
1.1620341267634118 0.3615839680270462 0.6515637575108915
1.3618607842221768 6.8532965153007064 0.7389913767613842
0.8632835731188410 0.4816149924136788 0.1013109865610902
0.7564668121499061 5.3046648008542432 -0.0386976798189763
0.1886160895464171 0.8222357641240490 0.1477603891813248
0.4301182312596611 -0.4671179014794078 -0.3890508225388308
0.4633235337419889 -0.5490780719913572 -0.2657777673942324
0.0197038271528604 1.1283463094817268 -0.2548408905829997
0.2088683039458042 0.9950317817840875 0.1245588594060524
0.4419379936289374 -1.2480482318233075 0.5898821581261646
0.0145153116494503 0.9674539106464461 -0.2627825781142205
0.4808660162533492 -0.7680905577934716 0.4059654730442241
1.0741958000095555 3.9671378580930003 0.0036494678463398
1.7023656234730093 3.9350961856636339 0.0700720393021279
-0.2895453297005579 0.7795831885706954 0.1979703424009102
0.3024572030588170 -3.1581097002271701 -1.0729881069611280
0.4987150649506248 -3.3168919752743675 0.8096309137641606
0.1851730254277369 -4.9165496944990883 -1.3793391760016023
1.0751873447079789 1.9688373850518592 0.4229516509079215
0.2134358402811907 0.6404996810503313 -0.0363993423922884
0.1814850488267876 3.6501196284992266 -0.0730592500960721
0.2409454840268341 3.5854923151884615 -0.0721022622157024
0.2120052978289920 0.5108646379123171 -0.0202296837717579
0.1566604264920841 0.0061375959662328 -0.1868402720503345
-0.0275721372611253 2.2163741136937150 0.2948636875585565
0.1775298148279622 3.5448542287112366 0.0733930157479823
0.2166186799935197 0.5799668036595965 -0.0264944142863855
-0.0206398037498555 1.9963142086348749 -0.2410839353446960
0.2040685594983591 -0.0938878838295966 0.1779706329418473
0.2358462699095569 2.5177556852654135 0.1128578840189329
0.2125106410209981 0.6264190310991159 -0.0298273423796791
0.3151129767108894 2.8238737766088211 0.0368989440856081
0.2128121934932910 0.4987706660962422 -0.0316943258992462
0.1748806009288233 -0.0467246618575557 -0.1865271709994367
0.4713282526747797 3.3402358524897351 0.2171985428570574
0.3626455452491142 3.5312727367815726 0.0956713835164144
0.1385559201678551 1.7261832799063761 0.3263958537476840
0.2283347965525205 0.6273758757777163 -0.0231541010664643
0.2322001551151112 0.6734771901405221 -0.0276197186249926
-0.0241313238613970 2.3623652409238445 -0.2773571441975816
0.2146943926732524 -0.1345372657351999 0.1871516147635274
0.2485570083569531 3.4596618839799853 0.0396654248401294
0.2309689909227261 0.6180026524050265 -0.0303615046070241
1.0972944906768478 5.9868437678848574 -0.1266455162559232
1.5820997872248703 4.3656816922765618 0.0016587632123251
0.9437405139314451 5.8060319978518677 -0.2320655887574121
-1.2520021903076495 1.0672277905770959 0.3754545824454536
0.3687565285816244 -7.2970519145959845 0.4226316510572271
-1.0495794925295108 1.2663227022235686 -0.2951502197652600
0.2353407760413002 -10.6855606079440921 -0.6093833126875405
-1.2519125996756937 1.2053047739253306 0.3866395896651417
-1.0492133529532368 1.0763461445986557 -0.2688592765946377
1.1342700255396407 6.0324401976818081 -0.3387356659311478
1.5557682888797821 3.9443496545957024 0.0028296479899588
1.0968044250223008 3.2782678353316994 0.1560143971406002
0.9642820494930283 1.6990162614607798 0.3057409223347414
-0.0947509204082323 0.8800906772690135 0.1017800012192004
1.1031151536212058 1.0138890498548963 -0.7107293057215518
0.9276012425302015 1.0963520474904132 -0.5590089792995677
-0.0760085458855633 1.0153717945667957 -0.0577815604317988
1.0628267416542454 1.0472090385556654 0.3767193053413512
-0.0895197252220231 0.9237168425886967 0.0902937526236521
-0.0766634004343292 0.9497089886714075 -0.0619266442512303
1.1135872208320043 1.3262138251614286 0.7042873597976193
1.7919169593639128 3.1372000596717964 -0.3342954671298706
1.0387598852357518 4.6262268297118636 0.2043614394681945
0.9676915208375448 4.3416961910351537 0.0390361572808327
1.2040736052126186 6.0966660474769627 0.5207729152077378
0.0553748925920182 -14.6747694556063450 -0.7589152009970458
0.0469209442367661 -14.4922191321209244 0.7752443746036343
0.1985203559080264 0.6182437891841326 0.0916193997940559
0.2844682283358931 -0.3891321828191188 -0.5221315029067991
0.3412319775342101 -0.4886984706615128 -0.3538392553848084
0.3382167657455957 -0.9454551130877056 0.6741971933951589
-0.0075444956837673 0.8557365003190752 -0.2312632514838510
0.1708342862180434 0.7001307780030112 0.0958532278285150
0.3617466729231683 -0.1307182608841970 0.4902138847934188
-0.0086549385002423 0.6740682611454003 -0.2447975317578671
0.6410384384888423 1.2858141891311805 -0.0588797881118388
0.7823217064177733 1.4006172647854500 -0.2129317413340045
0.5454288708223437 0.6509925670545028 0.2203710092003177
0.4265351826664901 0.8202093905792062 -0.3689957553613922
0.5666048095513975 1.2087298098675925 0.2543900715289059
0.5238124937131887 1.1671405010479790 0.3227775295699668
0.7624194307854525 1.4590839994049523 0.1951862136350205
0.4452039675715630 0.6555494323589631 -0.3214455085775891
0.5817085576849226 0.9243419169306756 -0.2395855128698165
1.1226782945074356 5.2848629934032711 -0.0312301066726788
1.1625295334283874 1.8990730295939604 -0.6927393619100504
0.9669798550824368 2.6849897325980887 0.6396962132346081
0.6744389782842350 1.3321187469561746 0.1555313492199009
0.8606572587916069 0.8118358417060574 0.6928294253013395
1.0688753840688319 4.6202327474399159 0.2065794394079900
1.1819009617992957 5.0143010581277832 0.0195083655071250
1.0005849295825116 3.0489528695008219 -0.3590143339558750
0.0386121030950342 0.9347128862630262 -0.0509309711139040
-0.2393182318910382 0.9061651314890944 0.2275886181706908
-0.3113548190110594 0.9829981877454976 -0.2119949421087652
0.3542466343602182 -2.6578134083016041 -1.0036274032803210
0.5678046517464059 -2.8132147092993973 0.7374845488283690
0.2400059557067062 -4.0487212376636883 -1.3039669129837552
0.9648350005562547 4.1960651135844937 -0.1427031191410666
1.1003661833323035 7.4808069715921803 0.2124153573168552
0.8936591298570817 3.1094116626582586 -0.3683958555942476
0.3210525902179720 -0.5997196995772698 0.4717955902680671
0.1627753445179793 0.1967098626773527 -0.3286302800821845
0.1827502196765102 0.2538476046537234 -0.3392962461406013
0.2571348080918747 -0.2148125429251926 0.5133822393387873
0.2139248724935887 0.4322502773108315 0.2998655587059026
0.3343077107115066 -0.5557771186670623 -0.4113684719207235
0.3132324534694073 -0.6560359274602582 -0.4613309340207857
0.2201930687268000 0.2591404237664386 0.3087941298145125
0.1889970004657078 2.1275989179564103 0.6607789506077918
0.8704810543872075 -1.1696683371222238 0.8385454168763981
1.1317310302857444 5.5034256943054976 -0.0833605696905188
0.9170839785535115 6.9636441152047270 -0.3203967411800016
0.8637522218576644 4.8845857805969084 -0.3856964704101573
-0.2645429694163940 0.6898411983986508 -0.6804080864974748
0.9242062779603450 2.6988813225015398 0.1350683997854228
1.0072565165758276 2.6024293703932355 0.1214378147722148
1.2418691608020669 1.6617056157458632 -0.2301675173235974
1.2514523171228022 4.7150680258697371 0.2041000405133300
1.0739439348579511 2.7434132170091172 -0.5593770121354743
1.0455677026764092 5.7688897993054908 0.0140430111504454
1.2519253908281474 1.9818644469907285 -0.0930779468590827
1.1130241603877367 6.0320765535914820 -0.2747568319902453
1.4623819162229108 10.6322984058876120 -0.8089188560853920
0.8537271846868023 8.3633249468618338 0.2418999431657946
0.7404096824415005 5.2781394775025099 -0.2514231968684780
1.2183621878262114 5.0975092217163622 0.1419317608807047
1.2808037276654285 7.9727299788018984 -0.4870887218892040
1.0282198192449059 2.4942321465726756 0.2164348748264131
-0.2941988862415444 -1.8588038583067461 -1.8797343587400421
-0.4267282219532471 0.2549728841460934 1.2495863014635125
-0.4217969187486855 0.9003483814852626 -0.8662479258911469
0.5401845251843650 -0.1939887868088929 1.0515482291509552
-0.0080460158375389 -1.2288407649340021 -1.5810594515743548
-0.2786114121888661 -1.3606069720584675 1.7805884016882181
-0.4299601535950709 0.7749055679693378 -0.8239767661646106
0.7068920020040372 6.7406940915175371 -0.1864123412475329
1.1268829030501293 4.0955973370897567 -0.2414707596710734
2.0850597183387225 1.8088648397790243 0.1650064628151320
1.0992411298527347 5.0133797817035832 -0.0788599593719932
0.8428886494032933 2.8080201820111026 -0.6855817165156287
1.1637021118721831 2.7391598141134819 -0.0072377536290530
0.8945842490212881 5.5753434774885573 0.3036613372950303
0.9562056185542424 2.4706664081199712 0.5542292820727239
1.1326454266605930 3.2342525416937211 0.5005591927291940
1.1068063922994211 -1.3415549441137722 -1.0709190560543032
-0.3372510660455399 1.8580149231524263 -0.4583659707699305
-0.6396697580538261 0.5424606318550853 0.5733782739872969
0.8663165617926269 1.0061312656840367 -0.9540128421716835
0.7908794985582568 1.9201496163887792 0.4559587054339697
-0.5293055737934853 0.4881911115877429 -0.3806210638650961
-0.6258631821376542 0.6290520483860033 0.5738756391054799
0.8750283082236262 1.5658903218301479 -0.7980539116848786
0.8633595522369538 2.0399753125064310 0.8913445619275622
-0.5331988457945790 0.4714991222232772 -0.3544352986126151
1.2177260769947802 9.0525262723199020 -0.3617722531424639
-0.2310981677490634 0.6093066848008144 0.0663805528397087
1.0731488155912638 5.6547486139020640 0.1339807615683220
1.8949533058923511 3.4440955612292798 0.1209123511990297
1.1340988635381604 2.8273298731377574 -0.0996470221669964
0.9403081651192552 3.7194108708833924 -0.3145132954265609
1.0944661179148851 5.8944442925357814 -0.1422972079819773
0.7617068521057363 1.1351995858180310 -0.1430680547083202
1.2531124954303419 9.5654773640764290 -0.8634511900538285
0.5418263094750055 2.5449263178292938 1.0291721554595687
1.6626328082329802 3.1712354694702118 -0.0602686996224804
1.2027756411114250 5.6846433559777134 0.0501132857350428
-0.9083874701906111 1.0248892528270030 -0.0187637475332788
0.5950845629950078 -5.2565987397227874 -0.4026662204429248
0.5732581771218689 -6.5972406606155287 0.1811987610096651
0.5507043363200663 -9.1670980193449534 -0.4494281428226320
1.0833699099825351 5.7358535671034678 0.0131575666743384
1.2302481325968002 1.8274679848675279 -0.7040295409116242
-0.1066796450448661 0.7673596534431231 0.0620935774406851
-0.0994865976330975 0.9320884523611466 0.0129131198963758
1.2101385659241324 1.4609986937213906 0.4265070079223680
-0.0973969612169702 0.7534579921649605 0.0386744508589548
1.0211716478006811 1.3967457099389706 -0.6088106086113516
1.2675157671861395 0.9269425618048388 0.8086462088308867
-0.1051953437571907 0.9054653740794144 0.0088725219723969
1.1532175969937726 5.1986020589362534 -0.3875062082416956
0.5995213020413089 1.7642161454531133 0.1337396193668094
0.5734313498582878 1.1208709046152814 0.1252601173383164
0.7597836557622510 1.3946439082715305 0.0486875667058871
1.6674007263050543 3.9661109969175978 -0.0428988600990552
1.5095284779207041 3.6086109518569769 0.0998681579310699
1.0662910071536247 5.4782205765109868 0.5971119138616811
2.8461822187827512 3.0952509209584287 0.3959927759316767
0.8144573992715796 5.2228591348837599 0.1065354399532721
1.0060359652592319 3.5018874496918833 -0.3917830008098728
1.0884511819335776 5.4078561882828629 -0.1575407547875922
1.2143695669978749 4.5290042743404868 -0.2598830927650821
0.9529173689742256 1.6535708705264596 -0.3013121530406302
1.0618046959088328 6.6948924931864475 0.3249442632189531
1.0987144306270136 4.4062993844472418 -0.0870373018488745
1.1633486006903448 6.0355779514674568 -0.0441047434670077
1.1272530411856414 4.3097491556447149 -0.0053036611376727
1.1504837597846822 8.9272616783674401 0.0441745334907987
0.6184754878413834 3.4319500663004137 -0.2332810454611336
0.7965346264106130 11.2591602973530573 -0.3597477859731758
1.0585936215652076 10.0542254954059977 0.1235987954943912
0.9946093867121728 8.3974307326261837 0.4287543554113645
0.9726978788146987 -3.0642961983622743 -0.5751518959403764
-0.5449614035766230 1.2601769763763928 -0.1665018350947565
0.7311134139682407 1.4513381102307772 -0.1617115099570753
1.0493178329405604 3.7744223998096120 0.0935332373230893
0.8828579082289877 1.2401387315627022 -0.0658342946684959
0.8871212351837120 3.7408782623725818 0.0474612225920080
0.8736345281128371 1.3311815256981423 -0.0842035983899104
0.8831823852681389 0.9474744949238220 0.0514781961384785
0.7921180660879976 3.7968099821376815 -0.0284440198747449
1.0777191354071201 3.5669909002543219 -0.0584314188767128
0.8772825075254818 0.8526305042860579 0.0501187438941775
0.1009075066093818 -14.8335121262768155 -0.8439522569534144
-1.2100501164165223 1.1666185272324776 0.3122483889575390
-0.3997133939657629 0.4474716476066946 1.2358988601605372
1.0967161823179978 6.9564420135287319 0.1209528124049736
1.1429824162874644 6.8144471326951281 -0.0398786403261383
1.0838919944127750 6.2878752192617995 0.0338493021236907
0.8196782104078172 4.7248593642060364 -0.5145466970210374
1.2128705148547874 4.4454981422812097 0.0573832534144127
0.6628284016849004 -6.8839432199544630 -0.5962926149385226
1.1899144430922279 7.9324344389164763 -0.1448450547208028
1.2000885713954583 5.7160673897657190 -0.0013024922251962
0.8211614165082183 4.3209977862960454 -0.9038477197644064
1.0920378678061458 6.4316255495595724 -0.1185940168776505
0.5374282799669520 1.1503781431419586 -0.5665391242595210
0.5132064796807554 0.7657451311445799 0.4989570955217786
0.4241998298778202 0.3538804190602365 -0.5560394345786824
0.5243865057793526 1.1539677749623414 0.4998111149477484
0.3585819596609918 1.4631726872623858 0.5821372423289977
0.5223118549078870 0.6693442801641101 -0.5764776330812664
0.5323379507084838 0.8215474873071431 0.5726051738775403
0.3865719440025644 0.2182637116971798 -0.5142771988812139
1.1856091231643464 1.3134014058160488 0.7331887014238671
1.0365002770788427 3.6679424802786675 0.2972173235698707
0.8879393278745760 4.0599904312173294 0.9145241874457556
0.9086118013512778 3.1726235463096910 0.0580768278129598
1.1121619665761462 6.2615006729227529 -0.0956881657672577
1.5687659617499765 5.0675469419179509 0.2760040121455577
0.9589828594189743 6.4559164285311148 0.2952700724923141
1.5139196932313577 4.7636571000157675 -0.1047820930695276
1.1275922843049113 3.3089399288854127 -0.1905431834222141
0.6592118507195645 -7.8584684059625580 0.5942525952662416
-0.7856251327355197 1.0966171931465705 -0.0453320909797136
1.0523600131652930 5.6314278163821960 0.1339788948866579
1.0915801508695242 4.0149839270213503 -0.4062661459680277
1.0067015427801906 11.0061449763784065 0.0234035081621780
1.9123372995547725 4.3448094740399767 -0.3150898570872075
0.4587946357007215 0.5215160552314301 -0.0820707008157159
0.7987324180400868 4.0540760861939873 0.2576475667139764
0.8260341160457743 4.0146518328000997 0.4404021928483053
0.4496731695013458 0.5870698457959732 -0.0697636547028534
0.7642646640541848 3.8917480525402124 -0.1469689109003584
0.5003101211075268 0.4394481054105490 -0.0021509158587294
0.4875960839632318 0.4585652681931015 0.0057889770768470
0.7742582288829842 4.2597224885197749 -0.2954927965519623
1.0960013864489209 5.7761730201473389 -0.1489479009636560
0.9805665697496840 4.5227773172920918 0.0657765000943435
1.0508815641918763 3.1945626747020661 -0.4567142140249806
1.6424188205108854 4.1600013966892480 0.0580153016459985
0.9209193613393036 1.6688097824921913 0.1087980171118552
2.4350788597754112 3.9133434268427325 0.2033127453265220
1.1946206574643958 3.7384739704156731 -0.0153823358504430
1.0564443724947667 3.8584581319441367 0.0332815790581357
1.1916813896438310 5.4556117598326530 0.0365406756347807
1.1167536048925104 9.5545030250789384 -0.0770393328466313
1.2541557306712308 5.2112006906550823 0.0412498387952511
1.1277307086993431 5.5173210768850565 0.0675644077147447
0.9221129120937209 5.3824996926993958 0.5579381045583625
1.1158834123577204 8.9296202597939445 -0.2680708416489979
0.8560802338790251 4.2142793383823696 0.1898208862795497
0.4825372149561312 0.8279440481729862 -0.1233911294382440
0.5106920951370947 0.8347559099077014 0.0316943378218836
0.4658815610695102 0.9155512513843911 -0.1178284687857339
0.8084384925047944 3.8159650485346317 -0.0678177762646644
0.8699869334546929 4.3201572880716252 0.3430620383254487
0.5278581834146796 0.7782640239703122 0.0385886262946853
0.8287012161599048 4.2235024265269470 -0.1760007095669958
1.8852235385628839 2.8557473342037669 -0.1948305258631054
1.2100114679544534 5.8263619460250711 -0.0005133102675171
1.0981700360402142 9.2088548171119307 -0.1011729826147282
1.0982653611602231 6.1128030033122274 0.8038093828878260
1.1054525177483241 5.1775112279218733 -0.0920243065978754
1.2294021875771497 3.8907041440978833 -0.2865380667239863
1.0033946775929887 5.1209203604413513 0.6339833097619844
0.9800513744286438 3.0174103340358807 0.4184694034179746
1.2555679937437532 4.9586782159625926 -0.0512292642792596
0.9536039820281250 2.1157558183825751 0.0784620095542271
1.0534842233682526 4.9142033181798705 -0.3090776056359960
1.0469527517564068 5.6021363316177952 -0.0253148596800628
1.1335708912653557 4.4606609179463206 -0.2622679405804909
1.2296723016550040 4.0877511352392792 -0.1467743195825029
1.1949849823778704 5.2758491108923122 0.2252940069326871
0.5644487718202945 0.0796519096811524 -0.0787952810996828
0.9356467537894231 4.0653378616394171 0.2252045514030064
0.3690564864655906 4.2131891592259922 0.7395554262155217
1.0989182515512792 6.9077389379529981 -0.0574527357534560
1.0828798741758983 9.2468065058560871 -0.0166764341872384
0.9006839897882999 6.8180212759975900 0.4217979006081792
1.0704882523371053 5.0264832642779513 0.0439573375311246
1.1856096353635270 5.2915974160604202 -0.3538955449897450
1.0977599153062301 6.9980165773634271 0.0981900576564188
1.2386334427332819 5.4947149674842635 0.4374805487186977
1.1077988721387995 5.4247356073590725 -0.1481871753928085
1.1736695054703854 6.2653883759417681 0.4164477711220376
0.9330491134086044 2.1717530124153752 0.1543953137587616
1.0993835476175036 3.6129644694686398 -0.4580596476105789
0.9258289714395195 0.9531991741187646 -0.3530413459235048
0.8644895845056833 5.8582670185788439 -0.1353722731180148
1.2317315304435230 3.9150444402285398 -0.1701766081041853
0.9590113901088770 2.0065320815080523 -0.1059254629726203
1.1630173698119399 5.4382107490164930 0.3848116883167585
1.2247763041607269 4.7851208163103021 0.1895258824636837
1.1031014241181170 6.8079968402555870 -0.0036716790554340
1.0185409593638282 5.0153429850663480 -0.3801459285970193
1.0690908176176348 5.5743300029324940 -0.0146926349730789
1.0354725754627656 2.9056913594783622 -0.3062560986514377
1.0982133647295869 6.4620671708693029 -0.0857755741453108
1.2023036720517313 5.6956025394896184 0.4619353094201601
1.2099687683468330 4.2205066037290724 -0.1321715754687207
1.0839504328771612 4.4739885078507529 0.0328124233097666
1.0712323050258008 7.6315941778384131 0.2769805563833566
0.9393132777859108 5.1773437793507764 0.2355828347920978
1.0308161776460991 5.8294836068915323 0.1179004589238131
1.0438741091647139 2.2798584487014160 0.2164382076104202
0.6730093070218062 1.7265114904992283 0.3600443883476560
0.4183326328386741 1.9063473659208738 0.6106190820678803
0.8827782125843977 4.6784812520080115 -0.2766769187785268
0.9283700324020914 3.9349142453442094 -0.1557142252863119
1.0713292094602433 5.6123918062166425 0.0177867207382620
1.0666775148861116 6.2369604974122019 -0.0080442839111040
0.9452717115522966 4.8035954036693544 0.1435884510796629
1.4103363278833532 4.0663309523979718 0.7331064328630115
1.0723420201092413 5.4909555968121255 -0.1423640471862891
1.4548399644904810 4.8368719157264204 -0.0031245373629964
1.0977763495413260 5.6916013315354377 -0.1596510982552581
1.0936612416447165 2.6976027105209757 0.0704142284656596
1.0975237021326483 6.1435344220855690 0.1399393498280225
1.1059164730855462 6.4918274628699510 0.0360676624970977
1.3293539756994874 6.6267508997192257 0.7256518220757723
0.8434043896270703 2.3029070837634311 -0.1973413597533491
0.5240944913976804 1.3212633359113979 0.1101954182068317
1.1099314297130427 4.1192366571798509 0.0242451431285458
0.9965197103281190 3.1262407838988637 -0.4512356011783394
1.1107334260144850 3.8626398284056034 -0.1121787309679883
1.0867093756370592 5.7688416628651451 0.2799811837182131
1.1534639416348720 10.4249455987032000 -0.3129398898865380
1.2331579530859302 4.3936555071150369 0.0089727150941609
1.0298769221785204 6.5971953622682991 0.3604150070586235
0.5787774244490087 -3.6971644624962847 -0.0579782504936032
-0.8554854588898153 1.1730405570549265 0.0432546596129412
1.1097981157814349 5.1139914911974858 -0.1268989342409412
1.2616344184363464 5.2016776888346596 -0.2881212087947366
0.3942305992486449 0.5193470726413799 0.1489317893069904
1.1214425655617384 5.9459689461616101 -0.2486507250884195
1.0448598396854951 1.3003808388852092 0.0093137732003839
1.0861844800443745 5.5270209816810860 0.1192381554991191
1.0878557338199346 4.1379620412930027 -0.4225854775434431
1.0666379894806155 5.7601888715000058 0.0002127039320724
1.1033431992893050 3.1622152056918780 0.0073444226830987
1.0929467909489317 6.2260642786418616 -0.0096603695043789
1.7069738448498315 4.3163618891358579 -0.1931148876928502
1.1552276405126287 4.7223782057109762 0.0091795735178085
1.1755553657957871 6.6864597891048936 0.7286596857001605
1.1075098469966234 5.5356435788775418 -0.0677313673000797
2.3157428055972553 4.3578628221873217 0.3702824209577141
1.0827259570733156 6.8673513930458094 -0.1262615482577692
1.4158383777014172 3.3816595157789830 -0.6317801392019297
1.1444431261824000 5.2396245709155487 -0.4016112020892269
1.0946951819689839 4.8791639069366592 0.1152073026217702
0.8106101645337780 5.7196850157635719 -0.3061392360045460
1.4395237571965371 8.0057178442676538 -0.6268505751952926
0.8433500488276845 2.3520290593062825 0.2157072729033036
1.0898786746587315 4.6763900001831713 -0.1058524299384782
1.0967518260043283 6.8801940820486740 -0.1680005543890929
0.8807865805553716 5.9821160680357677 -0.0570580883775122
1.1101701381034923 4.0339960420039906 -0.0700706477891379
1.0777379948448791 4.3516316374053776 -0.2981433622908793
1.1317498527346894 6.4972910166990028 -0.3649976842739708
1.0894971031089569 5.6308626890771247 0.0127136347432252
0.9331268940804884 4.2291489619993241 0.2734072793155468
0.3466893231747850 1.0358434110668164 -0.2800676781397709
0.5295248567997384 1.1730985407335075 0.1005643922301054
0.5567570273485991 1.1270133702558172 0.3446795451048954
1.1320879308486240 9.8657533210708408 -0.1550499124478930
0.9907816641052337 1.0436159639152531 -0.1799194657893063
1.0824744960510897 4.3700383942418473 0.0283061195032952
0.9932797312242793 1.0523355482756287 -0.7955867944370876
-0.6997033299414753 1.1780855010958775 0.1354055663579398
1.0654903298215916 5.6179759624848993 -0.1387899364578710
1.1928428784807421 4.9975202393705125 0.1558603557312283
0.9391875905394094 1.7300587585292246 0.0699540967988497
1.3528075162955235 6.2112167832156091 -0.6607551658466901
1.0821614179785217 5.0525908005095355 -0.0701552425779898
1.3491889616356070 4.5054533274756530 0.0413986449242375
1.1093870077128367 5.6322417969604688 -0.1851298158598460
-0.0675701215998781 1.8519051798594806 0.8868971749845290
-0.2262153914793857 1.9662731275609477 -0.6493362498630518
0.8585698015395368 -0.4661550294010064 0.8459255386486905
0.9008274745388524 -0.6755218482755223 -1.2270009277827791
-0.0685646995783386 2.0579182163727689 0.8971025216918459
-0.2262147265722371 1.7579265353126812 -0.6229504568255373
1.0882985339356865 4.2104279399221953 -0.0931269015158810
1.1466214992077930 5.6944282242744748 0.2807745092756840
1.3756805068293243 5.0418956633505143 -0.3379246490715702
0.9471349110671383 1.8443265752174103 0.0868431454998902
1.6101810883280439 4.4238103802449444 -0.0309113508378522
1.6671165127428804 4.4728620690731971 0.4066829144982064
1.2508039230628709 4.4965927240258363 0.0294442331105158
1.1307393799838878 4.7391132460179195 -0.1140079265669151
1.3302369001072389 4.8584548542372223 0.1001652953849413
1.0899836577886082 6.3364670905972211 -0.1960830865615653
0.7978176436738005 4.2941557412611742 -0.2498317537978361
-0.2293279194420512 0.8447497672268550 0.2215670398818206
1.0559341913132063 3.3858075057221555 0.2505885571847448
1.0535816832264462 3.9813242803512368 -0.3698495622078402
0.8723950218681953 5.6314068592227668 -0.2176612925467355
1.0918812063370156 3.1167906441030628 -0.0735069044591541
1.1192382481862506 3.6763493970370518 -0.3521867770784455
0.7085817665162953 2.0812792663435773 -0.1089762244666910
0.3903981410117983 0.9311419363404706 -0.2615564860865682
1.1438718770515888 3.8968128852977757 -0.3331014699467000
1.1125264633021261 2.8057821001109224 0.1339305713182762
0.9985493515814827 6.2713996942623940 0.5372585303283544
1.1575615765793350 7.7256140604736894 -0.3772823521799761
1.1341518617678872 6.1644064208863059 0.1099799929998005
1.2344470572679294 5.8830009264172567 0.5370769032782079
1.3016611576884087 6.2570574419305247 -0.4023425465145971
-0.2727538478737966 0.3753949162188808 -0.4807958922307910
1.0925338443484482 6.2209442011289795 0.0602104178774248
1.2373628205995426 4.4217841453611957 -0.0891503258400751
1.0606781772371858 6.6052714244088646 0.1183372958547469
1.0207505706349447 5.2288917782038400 -0.1389691480544013
0.5626804446397230 1.6537962559605051 -0.5509957845261035
1.0523010530522769 0.1577274312996043 -0.8578395911232405
-0.4994234077012513 0.9201157575873281 0.3515626309172651
-0.4817261956666771 1.0223584587699530 -0.2592661913836901
0.8779613875861504 0.6274191404665347 0.4487547752786172
0.9610826253313562 0.2243511753077753 -0.6714393843816165
-0.5006070299701092 1.0379098643868812 0.3599347128520048
-0.4860245524131366 0.9266187876271496 -0.2459557856341359
1.0063992925268637 -0.2424969861097977 0.8720838685514621
0.8818697536741436 1.4491557825791015 -0.1182210638937802
0.5503055150912639 1.4162745630328875 -0.0045676929603456
0.6440145710724230 1.5146045055242259 0.1443108871714455
0.5434363017494791 1.0948800382515278 -0.1135530170360396
0.6624475709878552 1.3901862882602531 0.0334308593577092
0.5359748869639093 1.4733695615608913 0.0036543118905549
0.8720750232205535 1.5085484007881269 0.1334137268222926
0.5622320112695636 0.9175555899079044 -0.1090771956871167
1.5899232204830995 1.6540929827968551 0.4177610344963739
1.0249195036126166 3.9322399410926394 -0.4545799043228555
1.2930707551762730 5.5646847414715612 0.4796896668681846
1.0932241200931931 2.9748951989276544 -0.2329445013136262
0.8623611054016890 1.3687342911950626 -0.0250422202890554
0.7730509461093543 5.1779512165756820 0.0981281102930346
1.0288993805172877 3.0580269760572434 -0.1086319399240322
1.1062974482158965 7.9708688162948214 0.0193208942279571
0.9967193933605684 4.0571227301108683 0.4571790253256118
1.1988123443152330 5.2104542513613712 0.3185017614681224
1.2378011651404317 5.0248944286789614 -0.0306111303930988
1.1515056294095940 4.9802122542476974 -0.0763625548763593
1.1724562485458876 4.2023122595845006 -0.3660863279004318
0.6902543636588726 3.4053430114192937 -0.6923073797181925
1.0669761188500588 4.9756550382948577 0.0973857179429246
1.0404411514851271 2.8570892807431387 0.1644952725338870
1.0785027690156292 4.7710963568190570 -0.0898319136866637
1.8271986404721370 3.7945251400006605 -0.2186652898270583
1.4830077818082930 4.9282450523880215 0.1596796294997477
1.2722704989714173 5.3816419293074915 0.1999379151642695
1.0905108035475262 6.3033599736705499 0.1368845415072807
0.8339706902541807 5.0819618413569998 -0.2196509579841683
1.3100966490459272 4.7475255111963186 -0.1401842023790756
1.0525169658806328 4.5313267077136352 -0.1159542084551329
1.0872260921856827 3.4579041027004633 -0.1428115032810214
0.9981720171261548 5.4315776296184319 -0.1043084983556854
0.7870667494866705 1.3865826375634174 0.2531401449592768
0.8843833234667265 2.8557578398219272 0.7846937555140869
1.1182100894022753 4.3430225706859646 -0.1653445128311527
1.2188112711092292 5.1323118038433488 0.3122387493438733
0.8845581595129232 0.5069760998501192 0.0791163293324692
1.0112293422849696 4.6566207481889341 -0.2995110164652020
1.0562838801125822 5.5571900069954996 -0.0520030866709553
1.3180783459149332 6.3805317855852701 -0.0184976736450589
1.0943887842671578 5.4136490883432016 0.2744839239092493
1.0307506763177017 3.7869489091128745 -0.0854599009405827
1.1990522075478829 4.1368647008185633 0.1675704549810387
-0.7877249758957318 1.2219001393756124 -0.0373152851733977
-0.7379345568426953 1.1579036257191799 0.0920341306002988
0.6927089002718443 -4.8998998480404339 0.2542045901931024
0.6906738738013273 -4.2702229775064637 -0.4395424803165903
1.1013458230312034 5.2772678335696908 -0.1020749069369918
1.0739920246789938 4.3536752032607033 0.2389123562163319
1.4638769785398484 6.8526205372538245 -0.8513747307293141
1.0821787342703775 4.9835150383989850 0.0953289231950532
1.3911559850142452 4.8229855470465193 -0.0662548927869340
1.2230944492802114 5.5105906749453757 0.0772215417487186
1.1474036638180893 4.5772868388977894 -0.1329420838463307
1.0762444583915405 -0.1491941614816840 0.3193656734720733
1.2760116813974967 4.1133121156685259 -0.2931634451322757
1.3994160656483821 4.2148639294890886 0.3772918810931551
1.3809094069119039 1.3613842540576193 0.7769426729566069
1.1114963002617571 4.9337576580707792 0.2344732600974243
1.1680360415969782 4.8494665952598277 0.0039790618522989
1.8293417305993114 1.0272582726455683 -0.0547073326826730
1.5150933476547026 3.4996686664348355 0.0503330141683649
1.1785591242303042 4.6671633852510181 0.2850833825723288
1.1060021752911811 4.4456714893854530 -0.0731017165834857
0.7544961895991386 0.5916241671413202 -0.9609140200333672
1.2583292219328321 5.0784223521357541 0.0842515467573811
1.2128663978072516 3.9624322371510710 -0.4031989018856302
1.0764398820444157 2.0315130703884496 -0.0761401484750026
1.1185884609091421 3.2467541442945538 -0.4252011332737490
0.8347269458017725 4.8301903450683472 -0.5772612352880772
1.0135924624606056 3.1091570740759877 0.4919073340485292
1.1286570403554075 4.0352665976188504 0.2529783252740544
1.1050925693230980 5.3136076360105138 -0.2524167544833867
0.9581676125748703 6.1914575517043779 0.2579290686475463
1.1149927959542836 5.3009108770187163 0.0818332335392406
1.0325039279189216 2.8314581871760023 0.3398357068129506
1.2013890432279992 4.7190479319161556 0.3043605457275695
1.0841538921020146 4.3311415416286687 -0.4922288346941404
1.0350871018915970 5.8347673137261156 0.2729156523209136
1.3309527369686749 9.3862896592001537 -0.4612922166440284
1.3727707795765063 6.0602950368602855 0.6786477962670798
1.2682357923551559 4.1155811258628630 -0.0495391923406879
1.5041892430686017 4.5076705276453231 0.0176966814150353
1.5705691071588417 11.1627192229337009 1.0444630475595560
0.9752784099975387 3.4947409301920880 -0.3428156687843642
1.0900668159887037 4.1990017530528201 -0.0930181391546118
1.0566496781772166 6.3819028248060174 0.2844571804591041
1.1098727951996559 6.0568530709196748 0.0231605818265948
1.1059223400991447 2.3555276549629567 0.2777960407201408
1.1123578361642255 3.4132248227106881 0.0369429975324287
1.1177469095816677 5.1144134035780979 0.1063531104745482
1.1145360459620406 3.7969307340370095 -0.0680125650173494
0.2631339846581921 5.9050437031795964 -0.0654798384634611
1.1081389090624481 4.3964544438174444 -0.1408540677401004
1.0998473100708333 4.5363603412390701 -0.1447711325390458
1.2084145431083608 4.7116592102049557 0.0923811641289267
1.2067009091457959 4.9026374548528002 -0.4440086058272903
1.0239493331637493 8.6924186592412749 0.3795067921902383
1.3251508011775466 11.5811176679463088 0.6985368024553990
1.0757889352043948 4.8224350752687535 -0.1047396091268608
1.0353365812403155 4.4476368141255680 -0.3103539394422615
0.8327681953789835 3.6651432918942217 0.0323653669584924
1.0625148259649932 2.1248636241879404 0.0737191271317629
1.0794813707191890 3.3545182690183730 0.1694110353764307
1.2709530032504954 4.4003307056285674 -0.3023504216188994
1.0240959785201496 4.6256837086969140 -0.1234604206860100
1.0406974653684493 4.7946509493046019 -0.3440317826323174
0.9649471432787465 3.1403761047234089 0.3880017703137863
1.1082472541748056 5.2836277985825184 -0.0339784573386171
1.2118022881438506 5.2159067676701136 0.4019955883274389
0.5386432186205679 3.8534782251807269 0.1687303799211183
1.2697447292806106 3.6077513571422211 -0.3378061783936663
0.9021919855500390 6.8448902211910685 0.8767470534692829
0.8765457307204003 5.4752648661618757 0.4929145757449009
1.0230644646555207 5.0783017191013009 0.1477768502961724
1.1737341493673936 4.6686014980322561 -0.3424461837479690
1.1745808716202295 9.9441026092743723 -0.0634488225238148
0.9468326192230210 4.0334875519968465 0.6242203625486161
1.0294373499854332 6.9110680526397283 0.4595797031454625
1.1685997609818082 4.6494211345301926 0.1469344639466496
1.1818763620364672 5.2090279498576191 0.2965805858866369
1.7125485833441445 3.0165256593593566 0.2886013139693666
0.9854927103261842 2.8697742168401286 0.6131292264374453
1.1395086001865962 5.4724160688470898 -0.0081369437047903
0.8168469248661046 1.7972601628178422 -0.0486928884206618
1.3293089001087817 5.3869259682619992 0.4499569469408267
0.9963441223627159 1.1572268063568447 0.5063460048531209
1.0921195987092955 5.0481841055106189 -0.0276754388154119
1.1438705001547920 4.0311228999330444 0.0348031517389908
1.0382607262794574 7.0464831289523584 0.3776820903675074
1.2232197933561479 4.6120910246153919 0.0876130161440417
1.0746860469577555 4.5059992294690367 0.1954124472274981
1.0272847146280049 1.0711837461729343 -0.6913204261238080
0.8087168533126746 -0.0383461283737764 -0.5426557550946830
1.2001573864412265 5.0654947157230392 0.2166133282039436
0.9724789430971487 3.9143931215867376 0.2725726502211158
0.9675809449023343 8.0080346545542689 1.0759217618391326
1.1053047344349602 4.4754784733161870 0.1804224983912784
0.3540382948369541 4.7022129229186698 -0.7539222010874912
0.7083572004512098 1.2480193454369817 0.4008990035203365
1.8705358125484171 3.5854530618331850 0.0816956054853814
1.0781401319813628 5.7951124398520681 -0.0011011706829782
0.8936304611874741 6.8946552597851207 -0.7856642813698739
1.1474768040461738 6.8430478819435523 -0.3206459340014198
0.9757254353023849 4.4993540368155127 -0.1112397588343852
1.2529179340673295 4.3162497445251420 -0.1099583238922129
1.0192483247662258 5.7854655627988842 -0.0462334885846969
1.2311954170228929 5.3172552705220255 0.0751376672414389
1.0197605175256124 5.2594749405172720 0.3112412832207826
1.0321574163814844 4.6396961915730710 -0.2211334339191946
0.5300123850525801 2.3296096644283431 0.6126526822874275
1.6570824777063893 0.8645740217392306 0.8922542820492125
1.0595489068448238 10.5840739693247095 -0.0599022589697715
0.9715632906116458 4.1413420209346707 -0.2113662682150647
1.0926556778263610 5.5084689400626976 -0.0128077669477742
1.1414005755752561 4.5381342577826205 -0.3944303859957998
0.9892142639653007 7.4075653641428527 0.2808340468049523
0.8709185808510103 -0.6170845820650359 -1.5644986573445123
0.8582093707458532 -0.7545443815743127 1.5644623426242448
1.2014483954527591 5.9184696703918522 -0.0043953372068202
1.0517018266435585 8.8844912445014845 0.0847911441101750
1.0959561265354432 4.8972489160083459 0.1035307122354104
1.0441476725690726 2.9901216147130358 0.2677381360502531
1.2369588909960090 4.8775812719876370 0.7455678734497428
-0.8032724272130350 0.9251848231619550 0.0345610908353891
-0.9702604868641800 1.1766101623542105 0.0787849403490994
-1.0006308908659833 1.0546081057053345 0.0595650084808863
0.6162702258630530 -7.7825913166658696 0.6069494773889843
1.0413685376110244 6.1669036773716712 0.3525400439819137
1.3119407742878617 5.0585660315370697 0.2461457305297546
1.1611577140948208 5.0926322409534608 0.1683403108369977
1.1757887508903899 3.9842508717599006 -0.7341904322412397
0.5147841677381427 2.1935843497517467 0.5834212610005403
-0.1391097336712451 6.2033095015366291 0.1622195723917089
1.2488823500793425 4.2558142251413260 -0.1762318230826199
1.6868533566317880 4.4447470063769572 0.2164691014740298
0.9937803531602392 5.6490223727915341 0.0669669879157885
1.0827954227948140 5.8468591693261427 -0.0118945846697379
1.1077357074581768 7.8169844208375965 -0.1057806424173917
1.1095196839118602 4.3170431577494757 -0.0421725950371463
1.1154044768994678 5.9287765725273163 -0.3047317194906813
1.1190035091873110 4.8644802761050636 0.1208272250032538
1.0519024323705950 4.8215357749262013 -0.0966370734131197
0.9830355228417480 4.8190395939938684 -0.3175105079329749
2.5883428509894753 1.0295706643832920 -1.1184065230476470
1.1082299835688736 4.6572161197857076 -0.0785646862985876
1.0675211056978520 2.6984850314105224 0.1101324698498143
1.0352271167367901 2.6967994369725798 0.2301371854399834
1.2728746375650952 4.7245502958273287 0.2307468926908084
1.0297443982102479 5.2807646051073895 0.9124766686543534
2.0080398487490116 1.4391753837803405 0.0735735910460112
0.9264208525913125 1.8379744827895288 -0.0474022816372523
1.1474513332120435 4.4178248209110400 -0.1568038405070454
2.7357608900876516 2.2679557151715475 -0.4658461108528529
1.2714980004333247 6.6626252136742954 0.0705934481403652
1.0778552062828513 3.9780507034204522 0.1834026902425901
0.9312630663790114 7.7476304725936460 0.9663617948746217
2.6533649694522792 1.6151898180217739 -0.7604295934593831
0.9236963087071944 -0.2108760404690023 -0.8253324876146230
1.0430724166239944 4.0182202091330295 -0.1077994887924559
1.0558984317235158 7.7484601218152580 0.4817019238230545
0.8627087998803653 5.6012498879420027 -0.2155694375695835
1.1706998521486460 5.5498519459486522 -0.0621703887056981
1.0747530708780118 5.8847674646688084 -0.0003299305523468
1.1497858502326850 4.5836628788769680 -0.1273378661805008
1.1403765210725543 5.1518761786144118 -0.0337350556881330
1.0574058059261273 4.5730121111375395 0.3011517959891822
0.5972621458529976 3.1302390506388882 0.2287586720160640
1.1151510254445316 4.0953550407713113 -0.1986993665851356
0.8183916110825267 0.2979843510046437 -0.0252875039907660
1.2037878831803968 4.1525082604514818 -0.1979240453594998
1.2760756259946480 6.6828896724966320 0.3471586325750513
1.0681250258943393 5.2831664266269662 0.1625013345294755
1.1012875399660869 3.8642794077642986 -0.1127375387634076
1.0081076346854370 -0.0384970956586110 0.2993462485068468
1.7387735940089961 0.8227092396073860 0.5368681221410293
1.0973474847914788 3.7218354585759825 -0.1272538934909570
0.8624629727546770 5.6263300996472010 -0.0839493173471363
1.0625561159198980 3.3243699502022297 0.3810252074827215
1.1444199012048359 4.2816515961275350 -0.1890696343131877
1.0973518169772050 4.2656508477281712 -0.2161050797890117
2.3507260781108523 1.0668700929277928 -0.8924743115672862
1.1080351202489473 5.6541156033424294 -0.2321782450297738
0.5973370638577532 3.4274180312516656 1.1267698949060150
1.1298739355901746 6.1276745144032843 0.3456312428661489
1.0722792972325770 2.8746401435416016 0.0731750259268349
1.0074264481601123 4.8495978070178003 -0.3028421680593059
0.8503929385740421 6.0004199209057694 -1.1493998243487782
1.1511552675372450 4.7224598294399325 0.2502303096527860
1.2522600510109325 6.2262947203641392 -0.0320996240676060
0.9726162325923914 5.7619590293194580 -0.0952911731535096
2.9705268434180114 1.5383751755430155 -0.6415729392414776
1.5984082615901052 4.8497670893073437 -0.5601864091034520
1.7739136045694366 2.0303934798434997 -1.0966851662916630
1.1138530194954150 5.7120276246811299 -0.1718876259558673
0.9388647284347499 6.5799478318391742 -0.4452012901011487
0.9628241145557946 0.0378581072680914 0.5033557340198948
0.8851981234005277 -0.0813263458639092 -0.9082086160664172
1.0344290786733434 5.3891480431039849 -0.2356949924283367
1.3639326156754603 5.4296791382675069 0.0704186270169530
1.1514239080790429 5.0141848345634328 -0.0566618954349837
0.8576269407443459 0.9671006632465805 0.0787743647280547
0.7169252525112567 0.9194424218523461 0.2617052004946970
1.0922726977239245 4.8998526619887013 0.2382859217582821
1.0433306505727244 4.8533020107117268 -0.2364529769796926
1.0625429406341087 2.8929824310120806 0.2509290252749446
0.9957619789191737 2.3944837377722683 0.5624338593249817
1.0772508820361650 3.4280615614916581 0.2389428808466022
1.5496121544944554 3.9539386967704968 0.3503059995150375
1.8235768466832105 5.9287736817148788 0.5154596920696241
1.2522264256048690 3.5290881438138841 -0.4850758317666952
1.1369469488301458 7.9632302677719355 -0.8541448348457578
1.0660725821033252 4.5555741551895510 -0.1345513335831653
1.1190938106182127 8.5534799348260826 -0.0218654179442296
1.4648999656520414 3.9411022153093440 -0.0520534891939350
1.1069308907548270 5.7274763711546530 0.0956923560103722
1.2125200080265752 5.0797805974148771 0.2331593266770819
1.1126954441970092 4.9114204849446805 -0.1475371313429531
1.1050492124393572 5.1164831516877189 -0.0984675298875210
1.1648012214137049 4.2198644831523957 -0.1433374585978928
1.0720692760079142 6.9299849969790737 -0.1393359315927710
1.1551327901231945 4.4610558583554170 0.2299244519290251
1.0698335708903881 4.9108620330707264 -0.1149784546811282
1.0267007793831828 5.8582742704934434 0.4403695683403449
1.0875582424911481 3.9367317359508194 0.1283811728560488
0.8648563579755045 3.1549131418359173 -0.2575647333131366
1.1498940974815093 3.5957499523814582 0.1297074960928092
1.5409358182364601 0.7675193736768480 0.1479087331003423
1.1675118600150263 4.7259327186220617 0.2255661352340652
1.2156115760692803 5.3648233916342276 0.3532022476876359
1.1414321317163862 4.1805367484790077 0.1174101372400389
1.0944576056664819 5.2261510780562626 -0.0865928207488693
1.1001046350714869 3.3386590648310301 -0.1670710247794644
1.3184076749501910 5.4919792857470489 -0.1331567852004670
1.0393943920089772 4.0978347010762395 -0.3828679922258674
1.2041362756154861 4.9574534415124862 -0.0586366701976122
1.1647898477125829 5.0030287585207844 0.1163468803193342
1.1554947319366542 4.7341139160189831 -0.0230819546522898
1.0930878974788079 4.9510616850626077 -0.1200682506912998
0.9468699691210631 4.9304237884935223 -0.1362145496569672
1.0644662577496595 1.4500143036426096 -0.2111990853549463
0.9617008317342957 5.7707938773597194 -0.1797551028157499
1.1095377126700798 5.3605167511861378 0.1213658828133843
1.0033310739806724 6.2556387423615423 -0.3553499795503384
1.0120668698631794 4.9467068054033012 0.3245617992491484
1.1303265523366477 5.4620604188652955 -0.0412229682857777
1.0589655718165998 5.1000621935678474 0.0035444232267052
1.0448755715135725 3.9803030679214615 -0.0006496352136761
1.1585925071629257 5.0233337126378332 -0.0596291454233105
1.1768532880308007 4.5121399309679555 0.1345520225818058
1.2591490142578219 5.3858376869193094 0.1024644760800308
1.3843975173126233 4.2442727215422122 -0.3834942118447296
1.2205233940167750 10.6793914545998998 -0.4096720978827403
0.9856923574247664 7.9380162468272939 0.5221663766786757
1.1754849076762635 5.0675047624164433 -0.0775519988020084
1.1239477346358460 5.6917228700123825 0.0307028078946193
1.0711201478322456 4.3167677820896504 -0.0297622069177616
0.9453431281905665 4.7395649016877464 -0.2439600665879251
2.4870346194045245 1.0801925499919165 -1.1226990198691527
1.0543504034190396 6.2412273970641809 0.3073424536413134
1.0212668134530700 4.3416064071211053 0.2370522023838344
1.0481758313540475 7.2477205659524371 -0.8110868262125954
1.0552135015966260 5.0034681880347120 -0.1590769209425789
1.0845684941671823 8.9847878284906724 0.8985366679480519
0.5942559889084492 3.4797285511179412 1.1555830768252677
1.0693660035773820 6.2526319393563750 -0.1400003369156353
0.7973231947766698 5.3959387263137808 -0.6526140672107771
1.1767857005303983 4.4159567871857464 -0.1779052636177488
1.0878004103239229 5.3126931226953831 -0.0921580496661684
0.5795898579468106 3.3718252471575307 0.2368675242260223
1.1759782381528445 3.0709400110580805 -0.2886840032385949
1.0981370140324418 3.1527869127256376 -0.0178774202703418
1.0716333115376202 1.5235256043886818 0.8186680964528067
1.0162681878777078 5.1612359593426707 0.0630618253668045
1.0846313083867709 4.4964932015521537 -0.0321498800464655
1.0135461898510876 7.4789064189337795 0.0592500671452732
1.0252810597938133 5.2910994688227566 -0.1613756911324288
0.9762383461762310 5.1365799105617178 0.8637296335653897
1.0143850463843895 5.7688824794227127 0.1082955529644637
1.1507167357634684 4.8224791372803253 -0.0676192627167530
1.0763860083614958 5.2589811206293664 -0.1769568969257751
1.0885552089838921 4.7856608205831206 -0.2547730897837401
1.0942098870111823 5.3081217682022865 -0.1239428306978630
1.2768378712431259 5.2149876476953896 0.1166400572820678
1.0755601018674281 5.3634897383148248 -0.0197088508124832
1.0907118036947177 4.3162185109948705 -0.1802137293916456
1.1029024610657616 6.7249091457296322 -0.1506265658364206
1.0872758840669616 5.5979129684266402 -0.1630916537021181
1.0690141946710494 4.9009451861330549 -0.3530297757240982
1.2092022364140123 5.3021229852506746 -0.0451121233883612
1.2810163241916432 4.2978546200518437 -0.1913961867231267
1.1539506349673878 4.7476066117919462 0.3571298174359612
1.0444511823064433 5.7232304835651293 0.0388072458982113
1.0845601359160226 5.0019685122882009 -0.1212849233330707
1.1776748818047358 5.4078828467709350 -0.0552619279247085
1.1155317453074460 4.9345053260358576 0.1657787137380478
1.1176820721195821 5.5141061705425072 -0.3388565075420036
1.1109851058289968 5.8197441505852190 -0.1201238081277923
1.1387743101437600 4.2237969383523071 0.0593132395019822
1.0559921263760008 4.3474713330863892 0.2443896958919732
1.0773118408914961 4.8924486277752113 -0.1076662062130333
1.1107784242210033 4.5998086587510967 0.0124948997307374
1.4845184076962910 3.9188458418688743 0.1907994752119785
1.2465525232636629 5.6426156948100816 -0.1137937117480671
1.0568909116774503 4.4053939605658838 -0.0984027079065396
0.5818531610615642 2.6488835752045956 0.0179811048519775
1.0930082385805113 3.0142657076829242 -0.0164274664808175
1.0590169112225309 4.0751149061464140 0.2154535796031066
1.1001100003170732 6.2212840553205142 -0.0551832149735011
1.0036800729168340 4.8642667564966233 -0.1968501445804999
0.6618274523087947 3.4772807818105202 -0.0461321760794435
1.1045752263601833 4.5749204293269141 0.0182469963777377
1.0960776102749692 4.9512680009295389 0.1234020255026808
1.1076094869535134 5.1942627880723062 0.1086392582417850
1.1526722413716686 5.3500229252347964 -0.1125788726737688
1.0972542299259136 4.0192038563976871 0.0812755419445897
1.1087197748777955 5.4802603413738611 -0.1452253340246120
1.2078709134979015 4.6925387515095132 -0.1752510866198966
1.0419736706096010 4.5275825980584772 0.0106282852727880
1.1407915529321708 5.1817956022328477 -0.0546001557096994
1.0303949746646477 5.7405151856353109 0.0030906418352585
1.0918934211695430 5.4849132188435892 -0.1214150028539625
0.9220690973063944 0.9369455044619530 0.3916463366292418
1.1089671149783726 4.9226248795520977 -0.1044989017496709
1.3450425976451768 7.0348990162453129 0.1800645912865166
1.1145983906970001 5.3837239403082071 0.1176170171718645
1.0660834626580098 5.4341992034460125 0.1355078723446144
0.7797456774872698 5.1063302855949395 -0.2459675331996755
1.1743750099059045 5.0609749775585335 -0.1224553642367779
1.0706369937888331 1.5370679439511732 0.6548103694581873
1.0162521035601226 4.2687034792718004 -0.0013219516548563
1.0507060921868772 6.7942387064004803 0.8038469197936288
1.0879969195105892 4.5268137052654245 -0.1608715148007722
1.1802539383498267 4.2136521339064137 -0.0352386596133630
1.2176384009706960 3.2745973168218181 -0.3424590553456849
1.0463088671195420 5.0739996033197370 -0.0635886014222188
1.2012460903160613 6.1286248427231120 0.5968104804930463
1.0764109769646073 3.0279005507874142 0.0854193058241169
1.1219643063830840 4.6492888880183072 -0.1026909018537355
1.2771202325712754 3.0785984344573709 -0.4138566076349636
1.3327811515732231 9.0497734528909533 0.1864316727962187
1.1180620845498512 5.3052636915567151 -0.0899873031889993
1.0497550190765712 4.9904730252714593 -0.2139090700628666
1.1664408187694923 4.7696706258955803 -0.0147931073400170
1.0948952784833259 7.1741790936573562 -0.0389675718275082
1.1713507877866352 4.2971575458998119 -0.0158541438815356
1.3923313285831691 4.3170699123059704 -0.4493775277890108
0.6811567851084244 0.5339006123638382 0.3155632910788944
1.3569946846826160 5.1889814942140298 0.1229710296642241
1.1305196913128153 5.2580674010098836 0.0657874525175375
1.0932989839796718 4.1188291291622967 -0.1029413751240156
1.1230608198685861 5.3960322989898835 0.0429767131924130
1.0994577104708023 5.7897069870938207 0.0714309493205166
1.0949997353670105 5.9215337652292304 0.1364357332021880
1.1206753236229374 4.7543371565588508 -0.1583527938471861
1.2632177702286183 5.2987930257731737 -0.0470703417117988
1.0488120656440980 4.8551557792518496 -0.1716004824070375
1.0876659422204324 4.3776988734667617 0.0470594859004546
1.0887623574388798 6.5921137354131343 0.0016512272056833
1.1686724841096490 5.3159860182885321 0.1839841300266083
1.0825890542244558 3.8789431475927478 -0.1998903677589837
1.1314565792056539 5.4359566318290131 -0.0094773362047849
1.0892015353571640 5.1307257190238200 0.0297611231080446
1.0296550977280925 4.6563475653117123 -0.3329398618930338
1.1260028135464788 5.3851437316082773 -0.0138427776848961
1.1492967455362362 5.1583504039687682 -0.0018907310316516
1.0858234185209814 2.9843520600092384 0.1496146311403671
1.0824845003580772 5.7391509482044194 0.3039607603309243
0.8429087412505429 1.3831945989645771 0.5782173601986091
1.0985359768073719 5.3216148449647696 0.1311721569405187
1.0841167995702681 5.9567702788098869 0.0082561164821177
1.0854186009112885 5.5364731563198539 -0.2891734646029880
1.0423121460361846 5.7645800837938435 -0.1471384419088121
1.0793760567237092 5.6615969425853532 0.1402405654704439
1.1336382089682751 5.2330894655256914 0.2212364826300640
1.0906672523145742 5.3248016510772924 0.1392574104421436
1.1179690397717381 5.1742767952952988 0.0130603042619340
1.1278365472697183 4.5988942365372703 -0.1596794129681851
1.0798445103428886 4.8596093510423870 0.0170884886404903
1.0942792671399695 6.0808312780669374 0.0527214286908924
1.4904537873141603 5.0730448812250692 -0.2238747563660567
1.1352499635082223 5.5791940117617260 0.1012111587456337
1.1827975823437191 4.8544748670616764 -0.0628875106323709
1.0883939845811412 5.6054971817776567 0.1278006172167885
1.0023893020789190 5.7006178106844585 -0.0361707208617881
1.0828917387178219 4.1023895021639696 0.1399421806516315
1.1014709153179860 5.1100094001502869 0.0006845780890537
1.1205932962696972 5.2117234796805647 -0.0192802215067783
1.1041867675086292 4.8086863228545385 -0.0078118150802060
1.1788698557460189 5.2922344683026736 -0.0519147577516895
1.0589321768230209 5.7969608664115615 0.1379882133831763
1.1372784154809685 4.5628496244843797 -0.0793399656989290
1.0843532431246028 5.0841490609140303 0.0702583451658830
1.1262652202113426 5.5093132484218135 0.0156905696274338
1.0353417799963143 5.1097805118404924 -0.2529652046134964
1.1715171669198570 5.1560187731856306 0.0033709922969941
1.1577717658405955 5.1287167015911717 0.0154947195948297
0.8616182905940641 0.5089305798982821 0.5997275184274047
1.0995637285680369 5.0389856506217097 0.0065135936216397
1.1395793228743092 4.8151753484036721 -0.0760935758869580
1.1582839386381789 4.6401551086132029 0.0012529375361177
1.0942165791862288 6.2591537963519590 -0.2430340648799946
1.0450039645219831 4.4921154032038233 -0.0118828780905815
1.1330114013147532 5.0193402778565419 0.0136658738165628
1.0932096081148193 5.0759466410947800 0.0533592223156067
1.0545358054784097 5.4534857840825941 0.0541890210913840
1.3632872878560545 6.2306255033038997 -0.8875844720272997
1.1698294481067897 4.8540153729567894 0.0432624681081570
1.1594781819643660 5.1122715622130990 -0.0251542004891779
1.2764200503000176 6.3424959500014424 0.0028941974398140
1.2394085070801764 4.0954069979444769 -0.3797460384404627
1.2388406093233262 4.7303208570154966 -0.0452566133775358
1.1055126052676305 4.1142756290588149 0.0137059415956580
1.0857179209252428 4.9114191184392952 -0.0507252899438305
0.6145341805077085 3.1578655164769653 -0.5312297898130408
1.1423020061083002 4.9275291557077496 -0.0720626752450568
1.0813835805479861 5.0809547925943788 -0.0637682447567305
1.0942966737015125 5.0916258713983309 -0.0629900740122540
1.1852045151639858 4.8535340939558935 0.0915158838792903
0.8752301342961074 1.5667921961566438 -0.4608060969466176
1.1140214433280522 4.4057523124125035 -0.0754353478419298
1.0352042454244563 4.6208876937965870 -0.0116003371920676
1.1565593088703325 4.9573894972075401 0.0041420811498515
1.1331059338102856 5.4054180996214631 -0.0260158056762577
1.0735681005416999 4.0177039490829038 0.1995981655915463
1.1659770818520312 5.1626888172283678 -0.0954853843679728
1.0406394220357638 4.8245088195879378 -0.0110424475637327
1.1721684018373679 5.3126458259668112 -0.0081820614876993
1.2396712772905589 4.8510453935078619 0.0092648519133981
1.1694878801206434 4.5236458321848438 0.0328225816432763
1.0973953832690859 3.5618610676733296 0.1004627819332107
1.2072484374573247 5.1410418803663926 -0.0410292312337689
1.1893222723134602 4.8613720456857648 -0.0227444392433483
1.2003601931151857 4.9214972205308847 -0.0470714171190617
1.3211078548601485 5.0113420262921311 -0.0592659564723533
1.1586743873458170 4.9933092052297638 -0.0554823223285526
1.1187577302090002 5.0047242761978987 -0.0750301181869603
1.1537497822660689 4.8718834436140463 -0.1009376270998750
1.1543488535780251 4.7111030251506252 -0.0599745926975913
1.0960703514019485 4.2210311158492315 0.0912465728219045
1.1971612383785577 4.7030328958196623 -0.0860462511364537
1.2016128531391774 4.8886996553016893 0.1508757210748127
1.1687048935202269 5.0133404047221051 -0.0046036929918135
1.1708926135873876 4.9370260024871717 -0.0657848577144883
1.0997081015044408 3.8420249159950171 0.0516430186502700
1.2031314478368609 4.9605149703764546 -0.0797365440320863
1.1589046702769277 4.8779667643685460 0.0068625502208958
1.1630609845720961 5.1827418519483075 0.1258380192029853
1.1040097240909330 5.4340270680227771 -0.0517000235735676
1.0691230632609234 3.9808362170367793 0.2687076356568301
1.0660877468274996 4.7375642650646332 0.1596143889057592
1.0753401671490888 5.2233392174795137 0.0834789095742188
1.1242870662328310 6.2417005851345957 -0.0784171091170925
1.0342811617199685 5.4250614156766650 -0.1142013090951069
1.2301623732991753 5.1139890668754298 -0.0362668220927409
1.2413773004170989 5.1409305107229253 -0.0748023475632040
1.1275080547807088 5.7410043321712774 0.0323754861925276
1.1525800690089028 5.2406174115902315 0.0682560315519684
1.1234968850753464 4.8434800904135198 0.0732257868732157
1.0787568070262858 5.4145944214317323 -0.0897672599557835
1.1220640026712656 5.5144966660065711 -0.1026620307177266
1.0999413648470644 5.1453399343032489 -0.1148694359603719
1.1628925672997241 5.0595428941838092 0.0458214550214644
1.1226213333679536 4.9181479154566556 -0.0857122761186173
1.0961239393341469 3.6518346574289455 0.1689682807297140
1.1264409185494417 5.0011534939330913 -0.0845047079266478
1.1380843957620812 5.2172175444053925 0.0174266487479793
1.1386289512151495 4.7982810650659289 0.0563996822175368
1.1134804595953300 6.1127343111869292 -0.0038158578445961
1.1115950161326669 4.9812949163520672 -0.1184896916800844
1.1280283205184192 5.3491068068564216 -0.0006177586370935
1.1350689711578985 5.1849413168724166 0.0313834475683340
1.1345012320369823 5.3301259555040668 0.0643102115504448
1.1108986585461635 5.4674674504451231 0.0752220235276036
1.1365187852657188 5.2519788937119971 0.0076419841060415
1.1509783393517219 5.1168722042916270 -0.0067148233626322
1.1279382824496234 5.3608112406338222 0.0177467404404966
1.1215415804919855 5.8137134587433357 0.0308360932717524
1.1374542849924192 5.2123164125677803 0.0306657008433176
1.2038645610309022 5.2022433731004760 0.3010658487682614
1.1329729017347225 5.3087379784717346 0.0073721771860755
1.1400079168791604 5.1950359966106650 0.0300630383991606
1.1318319170243811 5.2870284506933096 0.0071909209168165
1.1342514612024091 5.3492355897801653 0.0094817332879385
1.1146585105866262 5.5611822616339408 0.0749451211554442
1.1356873890925474 5.1355751391801290 0.0278883461061730
1.1270755531860157 5.2107527924959678 -0.0478437724668649
1.1380700966460211 5.2243717937412244 0.0631272827983661
1.1290700025050735 4.6578308996416942 -0.0771118973221271
1.1127797905877332 5.0343387908982891 -0.0137219783498183
1.1340733953556752 5.2486485114930241 0.0223576102051619
1.1394140360296818 5.0343456653705676 -0.0117829329280010
1.0985578133136493 5.0035125271960332 -0.0097038980801780
1.1352712156693863 5.2744222042901834 0.0227303175818415
1.0888290007863051 5.4248760310002941 -0.0545229923744482
1.1280908242858454 5.3127676186882891 0.0062803090139561
1.1265234259266494 5.9419453621327474 -0.0862796835082193
1.1337139872775537 5.1702602820751453 0.0211650018546659
1.1427009591852084 5.0535124502166235 -0.0396699418033195
1.1419857735030352 5.1354434776561764 -0.0382803339182236
1.1291314689403551 5.3325364761467267 0.0079358828238774
1.1324852718073979 5.3713630069956553 0.0054525121975919
1.0913870109134096 5.5280912282514478 0.0181310141692696
1.1233793578077911 4.9122953956615572 0.0559657397301226
1.1298679287495268 5.4144144937919911 -0.0068438385108581
1.1728102370801863 5.1003011137707768 -0.0339667212280805
1.1304765220059982 5.3275142889549203 0.0174772768141116
1.1324202777988421 5.2897718554155855 0.0168028778142698
1.1246627356139951 5.5580086820663732 -0.0474624984813026
1.1387550750849671 5.4053160467582435 0.0419019418785408
1.0646646717735160 5.1483067600234138 0.3089886450435670
1.1342945652294099 5.2007141652871880 0.0162032213609198
1.1379189655042874 5.3206673653647290 -0.0056249708860599
1.1105805279525709 5.0663459080925373 -0.0223643067683200
1.1029476611573275 4.4348306978095540 0.1692365773055253
1.1270258028056812 5.3866215621659013 -0.0080562035873953
1.1096134149501844 5.0446786002790072 0.1081400824933716
1.1344817555003643 5.2723694976801738 0.0169628341053641
1.1291635096690094 5.1376540300601965 -0.0211288204879779
1.1827240947077946 4.9981426080529081 -0.0342390852137013
1.1412090724951254 5.6419927832067316 -0.0138287216205030
1.1364900985656801 5.4750320774825276 -0.0167889110225189
1.0936414618100814 5.4467391456064025 -0.0330402696340915
1.1121175588834888 5.4534754056171497 0.0381454502000706
1.1815357870905763 5.0765419369491491 -0.0028046580642901
1.1327548118117778 5.3096520761079091 0.0176802945759499
1.0884004169855830 5.3098407698305659 -0.0893535196467928
1.1391596719739443 4.7915999568384207 -0.0061280460177070
1.1366051598430795 5.1938539610228780 0.0396822087653003
1.1375328810221008 4.7977686543592126 0.0444760018291631
1.1519583925700312 5.0731246956430525 0.0019188756795218
1.0942451221949028 5.4737580559342884 -0.0219132611926457
1.1318089546410017 4.9338257479767513 0.0201279705248425
1.1293408457946268 5.6332331634408952 -0.0346627335116831
1.1224579166054145 5.8170814175745793 -0.0190593169774184
1.1376903174238293 5.0987350761738472 -0.0127752252780859
1.1316853735167389 5.3403942192104719 0.0029858292049990
1.1291725563729644 5.1832400244101438 -0.0377404344471951
1.1112498062773184 5.4617773447986995 0.0722902612403145
1.1500193188258208 4.8012263710176022 -0.0088422842096886
1.1275832483569681 5.1674356344077861 -0.0336608958555829
1.1267866369565629 5.0686029569881459 0.0418669147143025
1.1757362226841683 4.9129584344633868 0.0677906168929157
1.0774217698018285 5.5729681921864707 -0.0005925923853774
1.1369013506442003 5.3658920147209503 0.0153866811080479
1.1191395272690832 5.2541547306667731 -0.0823753878559740
1.1498730780428128 4.9591570235666182 0.0082864368742667
1.1338675260041027 5.5969888621822719 -0.0768142156146456
1.0528476343123159 5.4160682632357737 -0.0912474839225993
1.1417363335742234 5.4652997560554200 -0.0394799696413743
1.1272525952555867 5.3102876511085224 -0.0221489697406968
1.1311782846709120 5.3286141596802379 -0.0129856587596990
1.1395035376182301 5.3462967158796069 0.0375527987216336
1.1159102608019655 5.2857098021820432 -0.0303473695598546
1.1782919034287551 4.9230314608613694 0.0183653483966879
1.1284057914024961 5.1634666764984063 0.0628326773453161
1.1346927602914576 5.4391780645561827 0.0027024206655955
1.1344769633147342 5.2240774009140560 0.0142729454505447
1.1350393339631635 4.7706042499316954 0.0004077787008519
1.1242151131271201 5.3595078398132596 -0.0140236335304521
1.1526855793513764 5.1153277414968814 0.0147542338677021
1.1436528470824032 5.1070349540363393 0.0110024336907961
1.1407063707779992 5.1158962025278694 -0.0147542818083570
1.1415480516789065 4.9666547727699202 0.0856364892983850
1.0790450408594756 3.4010581568454876 0.2360477796548767
1.1204197043284236 5.3120097082629467 -0.0248523228777438
1.1289445375432505 5.3651129847898344 0.0008255867026957
1.1390152019260793 5.3423859643075780 -0.0263237663562070
1.1410410297197588 5.1700192828539064 0.0094308577731583
1.1521173407799874 4.6088194905570878 0.0586724229388840
1.1187769388100914 5.3513221791862389 -0.0247575228998297
1.1121681361331488 4.9265053323803345 -0.0960110419659773
1.1458696073142092 5.1424619445566728 -0.0099810762320078
1.1074346220374478 5.2746634697198997 -0.0569882597756275
1.1345497935909452 5.0513478128004827 0.0205800911831340
1.1274142287535904 5.4737418741199564 -0.0240017081833907
1.1111220081854254 5.2149754348425263 0.0158381009070592
1.1095790881107632 5.0935114008403399 0.0237224264048212
1.1590633968750645 4.9791409734610532 0.0022207210709372
1.1647828713114219 5.0655000047788450 0.0627622446931028
1.1508429216071558 4.5544471878913129 0.0233489875906387
1.1104345495178165 5.3033435729106397 0.0219140484492374
1.1440348992857028 5.0953320163348925 0.0182271505179551
1.1414581771527350 5.0747566974413525 -0.0385549689380948
1.1526915139532694 5.1170024894627195 0.0015486694438633
1.1164683304922687 5.2678565763264915 -0.0485088089677256
1.1125664330593694 4.4299307560348922 0.1299162618838248
1.1332502727568001 5.3825980643469169 0.0151899129049436
1.1265797098524164 5.0905990253342956 -0.0459268837222008
1.1275493694037508 4.9763248112777090 -0.0109341626900014
1.1470678639020506 5.0781413302951863 -0.0050215726024742
1.1411584453082559 5.0064551762758382 -0.0034756381819303
1.1337228272572475 5.2474808373411328 0.0162048902931137
1.1508216708375856 5.2140042645512086 0.0792626855960717
1.1365253557449608 4.9374245257358584 -0.0419836500808157
1.1291022365606307 4.9886529588120805 0.0327075269815446
1.1260370749429096 4.7819789237045551 -0.0065909131058718
1.1311591351807553 5.3534801877297404 0.0183773167937257
1.1683715642172186 5.1791912444384423 0.0064926373802107
1.1287368074469568 5.3687171506747564 -0.0332159128941030
1.1265984848147053 5.1749299866030283 -0.0443164021185459
1.1380303939227345 5.1656306063731323 -0.0174826088643702
1.1326559860280352 5.4295369367336344 -0.0045026858412282
1.1591906134769887 5.1662208354528607 0.0923134201711854
1.1196422451672898 4.9071203620786727 0.0715739414718015
1.1298579966937328 5.9995454739777916 0.0456742531527896
1.1153978148979771 5.3687510866883086 -0.0219777081083912
1.1326847519835463 5.4625763754626409 -0.0079727094948610
1.1321276608340469 4.6330738030770426 0.0466426731923256
1.1661919832113286 5.2186741773264309 0.0014285578853536
1.1209356206551804 5.2688562168536066 -0.0314862790871530
1.1316116264437130 5.4184069859566684 -0.0097188398729689
1.1770193110856553 5.1111701163487737 -0.0062830506500370
1.1029577723553852 5.9857086270098518 -0.0856453398857213
1.1319198246664317 5.3667275953707501 0.1053928772225361
1.1400810384921625 5.0512634106228411 0.0111770844900612
1.1253103900038075 5.2767206771900543 0.0713949832983971
1.2477025962938275 4.9962443596894559 -0.0210926499385046
1.1355151421474783 4.8712644807203302 -0.0178253475947658
1.1395327209107546 5.2807704825641162 0.0588574950203572
1.1588025425542052 5.0858662837248474 -0.0033425359412875
1.1023059427132198 4.9209275114894062 -0.0184817198968170
1.1428190397675904 5.1168484700320027 0.0356005831099713
1.1411464287626545 5.2842065070509037 0.0839851764787652
1.1314095287984287 5.3390645822472527 0.0679487586489617
1.1339920054518389 5.2489313649278895 0.0192507874736314
1.1272955177541040 5.0440284240757247 -0.0091333015470048
1.1362267272602347 5.3549998320755883 0.0150163994380752
1.1391565006992226 5.2338635096303374 0.0288964518464556
1.1226694797266961 5.8781901593909263 -0.0257477066485546
1.1653229417592157 5.2162360112905120 0.0770915495758611
1.1651670362550719 5.2208001125193304 -0.0046147833322866
1.1343381058290356 5.2606222809276622 0.0196172515678568
1.1188913233195283 4.1054511484743577 0.0753316246296845
1.0547826838933412 5.5992670945413892 -0.0419535883692340
1.0682858689701475 5.3446785984269436 -0.0967901170706849
1.1288562259233259 5.2903475270712779 -0.0310118170590726
1.1561832575750670 5.1127143767560899 0.0155413120460684
1.1647130778430175 4.9172099943374645 0.0176760467929016
1.1232605946328691 5.8019332889424140 -0.0086845003336336
1.1281493245148178 6.5087927418753084 -0.0069664763517501
1.1391802214936944 5.1830567468335369 -0.0172331768131629
1.1313129113471065 5.2419475618865778 -0.0247296765961095
1.1377133527081225 5.5000510058987047 0.0178832869497104
1.1263389824850674 5.4716273961517947 -0.0033559874328666
1.1241750723315549 5.6612526288385805 0.0677576751875035
1.1316363038952426 5.2531773877435599 0.0141505016438189
1.1291748828132999 5.3887471870454204 -0.0035950984173307
1.1380245331290095 5.5102116982915312 -0.0008074251800059
1.1625133015804670 5.0974070203376112 -0.0017694562247007
1.2214416591988737 5.2613105546234857 -0.0523759239027741
1.1402313771718580 5.0449762366743531 0.0189632558540132
1.1567203941691160 5.3607912468063139 0.2000960959910450
1.0880005214568873 5.4702604747728998 -0.0418459074739205
1.1179839622429775 5.0303029299226942 -0.0319759410651517
1.1200972223045653 5.4076234991910566 -0.1050924211040130
1.1314551519501701 5.3847984222820404 0.0018036675765228
1.1187711834699334 5.2268863439427466 -0.0614938161255476
1.1195818479997206 5.3241457151732972 -0.0178560114048288
1.1253138659060806 4.7363769091794303 0.0199182276998491
1.1473340364496611 5.0568434896012340 0.0174263793091949
1.1727113321385410 5.0297730237371043 -0.0569907674526518
1.0642832156269129 4.7342676207376311 0.0116687443679576
1.2208388875141361 4.6083074875014303 -0.0410422261796121
1.1422851789864508 5.2486451618147090 0.0309654979832079
1.1582677481273265 5.1167256032589545 0.0827790630299375
1.1582603242325489 3.8743470803743305 0.0531110973733802
1.0895387659807538 5.5452088127948942 0.0484926602161579
1.1449137861256553 5.2078761665355824 0.0524559056830619
1.1422353909167235 5.0978077614997757 0.0129503458236607
1.1101469473256029 5.3427702464364755 -0.0331316253272550
1.1321110319123535 5.1400983948314822 0.0190966196721210
1.1277422256517617 5.6612406614995043 -0.0665286799289577
1.1208108718684535 4.6075286663753161 0.1735906347585396
1.1493525191442060 5.1424390061423004 0.0117764947195222
1.1354591534115834 5.3240423379608153 0.0142786963450079
1.1934695272137787 4.8773502667344912 0.0002082419706651
1.1366147510901863 5.2801183626072321 -0.0114790234882862
1.1097262697867447 4.4480793432891739 0.0904919649471654
1.1228597336745714 5.4372676157844513 0.1189277814116610
1.1411383480669004 5.2073357502051092 -0.0016617679791140
1.0988132641432333 5.3479283992128002 0.1392485010550011
1.1183946622912317 5.8993006891317910 -0.0408035975392439
1.1071483596044547 5.9802469920387296 -0.0103573726747535
1.1286378054029118 5.3570351193824965 -0.0152835285262985
1.1265889724369369 5.3799370705862923 -0.0069047590345293
1.1606766968316424 5.1757789539194743 0.0572651177612955
1.1164412144963571 5.3963516607264745 -0.0039206807278513
1.1221649279570620 5.0075663333018756 -0.0956562610205905
1.1003586869062953 4.9341528750435719 -0.0141467217332274
1.1427126324606021 5.1230051454811436 -0.0080059313732651
1.1338453942513773 4.9770787127854454 0.0139861132641566
1.0809020538039462 5.5510775111364001 -0.0001710855400473
1.1202162175506964 5.6694555672815090 -0.1240663510769720
1.1165644058272515 5.0805546853020838 -0.0128238097644753
1.1274532441806109 5.3581631704993988 -0.0062487791785373
1.1437953731015815 5.0056476733860515 -0.0351755518765486
1.1325911857567252 5.0909671750809995 -0.0002002398618803
1.1450670348340466 5.0688436499039282 0.0071061452091067
1.1385002349894509 4.9764731966095725 -0.0027678505661429
1.1334712102255211 5.1394082305776481 0.0195266091565457
1.1413909483840838 5.1341691928518127 -0.0176372283584226
1.1235062880176327 5.2275444278826857 -0.0341349880316278
1.1431749721564011 5.2258781800626428 0.0464823942391808
1.1740764551461207 5.2852718150327540 0.1617968295929370
1.0892552426409110 5.0163471434536673 -0.0725698618497074
1.1368434065875734 5.2402375345856651 0.0228593181505327
1.1288065663816476 4.8259825413212099 0.0085724304939077
1.1274483235734296 5.3336704096385574 0.0035246193254689
1.1273961088747708 5.4160514219581914 -0.0019372758185312
1.1363992590921059 5.1288079565190170 0.0056783519169178
1.1300721125220101 4.9548897066478528 -0.0139212404019501
1.1202080183676815 5.7739948117259745 0.0237145382285998
1.1882102014811180 5.2633735587124244 -0.0173831626173779
1.1483733899566386 5.0556550926945745 0.0315553434752552
1.1976090659382923 5.1580789638795803 -0.0051447723508285
1.1284912982947846 5.3724215800541213 -0.0038134371112234
1.1189888675790953 5.9593168796179885 0.0167803882004346
1.1982678441245325 5.0927931067683012 -0.0062291049522161
1.1293007765751129 5.4685713191966219 -0.0197345640219759
1.1405718377328438 5.0174582379542079 -0.0397345383709101
1.0741790091433738 5.3820166963543050 -0.0611819720336552
1.1296931487785922 5.4254976647935100 -0.0134968738458276
1.0837567592670203 5.5533769139706735 0.0260574330993164
1.1360595857685460 5.1260023500393546 0.0208778881422478
1.1464396204639578 4.5697862208021682 -0.0633820606677813
1.1205187509412522 5.0253474893025283 0.0190092082664422
1.1533742275645600 5.6147332779099113 0.2436818477202586
1.1199562127143159 5.3740397881089033 -0.0177434307045786
1.1209575604486217 5.6369430580273434 0.0383896982929140
1.1266582232573490 5.5608015887599809 -0.0041286351080829
1.1639079607735672 4.9469454729323390 0.0173969360579209
1.1433073714704032 5.0964415416300390 0.0185371061728512
1.1695905866622960 4.9273448685309162 -0.0212430319077589
1.1361649323632912 5.3599568863866249 -0.0111918118819737
1.1297057339685534 5.4037549075965821 0.0185959087684248
1.0842012120136784 5.1809237815867624 -0.1176817258599750
1.1185742269762977 5.2538632140474180 -0.0371084796149811
1.1284630607453148 5.3432950717110845 0.0022696611304403
1.1180477533049888 5.1819233728530234 0.0090839119104569
1.1355232069842196 5.1347167973116123 -0.0133594564679410
1.1430462417307821 5.1853804526572338 0.0307521654014506
1.1296654797359209 4.9977675813030542 0.0103147101945981
1.1462262412052249 5.3069450956485920 0.0330277060703220
1.1475988296600197 4.9293288366985166 -0.0439707316889150
1.1292263108054503 5.4882868199531227 -0.0135941175721649
1.1382708480985138 4.8172800709405097 0.0162277534910345
1.1377413163003081 5.3333448379460293 0.0218361796147270
1.1215894805954481 5.0423195714033264 -0.0201864717080733
1.1232642564710300 4.4005821694191862 -0.0721453016698792
1.1501770367899475 5.0975246644689047 0.0082125397604957
1.1318643998049647 5.1855722175875458 0.0414239997283189
1.1206185165999030 4.6623562172927393 0.0353329443648023
1.1384609578860660 5.4298406575081017 0.0173431784233905
1.1731891358565605 5.0373961613597062 -0.0570046733291095
1.0880684593020287 5.1743340028490268 -0.0927115833520094
1.1277515620456204 5.3848278735065191 -0.0065277613040666
1.1006078118470404 5.4947351212908293 0.0307855452806201
1.1368864473629643 5.0355613625777753 0.0186297462874493
1.1412918669258392 5.1139060060279293 0.0211855113685661
1.1330601622702410 5.0908476771966518 -0.0170637841071641
1.1244695303755563 5.5130065552100183 0.0345975000719420
1.0775050546869420 4.4825868837663370 0.2116500921685889
1.1365200872748911 5.1578077668119748 0.0305978534250943
1.1617947581097201 5.2064653734046757 0.0362490238196940
1.1055128549877509 5.3036176588108050 -0.0466585347814348
1.1189098379003459 5.3438815505234647 -0.0037035794778880
1.1248739281819673 5.3989144418684205 0.0173883351845000
1.1258197102805785 5.3593631466966345 0.0052809935156824
1.1274330221603976 5.4537539956853696 -0.0178202239630755
1.1184741777635554 5.8389248765824115 -0.0317858044642006
1.0879161163865700 5.3850593897532644 -0.0814791508612794
1.1362271132310169 5.0950933980423230 -0.0115320450885288
1.1323205087729544 4.6667011007993091 0.0562711834352692
1.1264907141618556 5.0142404343275739 0.0011142545194415
1.0918660992478533 5.5259470934430270 0.0863682155142631
1.1581507472980941 4.9697468345920335 0.0234981334269766
1.1250918743406202 4.8911974657960986 0.0852917846859542
1.1130495533883491 5.2196790490649549 0.0163896436170106
1.1662021409255250 4.9595489842119065 0.0579148331412749
1.1347311271675882 5.0781978439143893 -0.0037851713085859
1.1027369239529763 5.3271906307551946 -0.0463075867021553
1.1313101190896788 5.3001189309881891 0.0094320065830828
1.1375207242503760 5.1598006569227399 -0.0346156224083242
1.1111162926151958 5.0640438179719904 -0.0406261563885598
1.0992897073274019 5.4602517455123714 -0.0144522153639968
1.1294993190490090 4.9037086698572754 0.0283246694961266
1.1824012697528161 4.9236602500277575 0.1062731210314798
1.1240817416235964 5.1123215831718563 -0.0488675896224288
1.1554429061782443 4.9837870098950621 0.0070064045120642
1.1314141164730795 5.0108500169863444 -0.0734232097107343
1.1352866835554880 5.2110405566441846 0.0226370617545378
1.1554214869040207 5.0600704524944664 0.0138688839883455
1.1630820696503608 5.0246126989669202 -0.0082973267932368
1.1289732746846330 5.0461082003227409 -0.0181353610291584
1.1405991676042528 5.5802548801163887 -0.0058772150051765
1.1482716733029730 5.0248524311110314 -0.0148156927011358
1.1506841747751366 5.2842150504369476 0.0939492241505975
1.1018242920218411 7.1975936766921924 0.1083790812165595
1.1316508040551345 5.1569992888336795 -0.0247764876220744
1.1165718632642931 5.3088518017446695 -0.0231901764507684
1.1417904076892731 5.1195197716922802 0.0175719316490046
1.1692291270517456 5.0678425948088552 -0.0016701439032729
1.1313254839593918 4.9320145391193613 0.0049140013697403
1.1257859488496886 5.6378133295911796 -0.0373425569172380
1.1295906529426809 5.4149328800340752 -0.0042138193116318
1.1150088726750804 4.7895771121225277 0.2183849457459987
1.1290239825287003 5.4498530915561485 0.0210302103573867
1.1176434725542543 5.9502087681779354 -0.0702110102724031
1.1413062171932509 5.1364328752695867 0.0058572795845349
1.1536802366878618 5.1679351285566799 0.0621098170355895
1.1114393712980233 5.1386619773846709 -0.0059887679850810
1.1315453475219102 5.4504572253169554 0.0051012650771766
1.1264664114391187 4.9431465325850628 0.0429558180680395
1.1536284637686851 5.2243761143150413 0.1546116685318355
1.1258933717334079 5.5106680563641790 -0.0329393070397956
1.1039017185000268 5.5452314816544863 0.1317109816601580
1.1437233601510539 5.1024336987516357 0.0262109542153413
0.9575278265084548 5.9367731078045720 0.0494592537664191
1.1012056913510870 4.6944874293493468 0.0044029680121079
1.1365328117957252 5.2007070153955102 0.0214344665019916
1.1294472958696995 5.3990970708967323 0.0066063907953497
1.1275091835167341 5.1820951420527477 -0.0361436828960987
1.1350939896883891 5.4762708393074595 -0.0005024527484656
1.1132631850120933 4.3145419407851726 0.0284344327895413
1.0721333081646593 5.5586060376398629 -0.0236940602324866
1.1365746495338231 5.3704295855605979 -0.0210161812879210
1.1286401565578288 4.8304014220350764 0.0331105492720132
1.1401963677541076 5.6848873678043983 0.0194829588076288
1.1282038319384098 5.0510954618034454 0.0010878260913388
1.1510899808623307 4.8858667445515795 -0.0190348892169714
1.1449346805361522 3.5921155212418046 0.1067499624665447
1.1274876082651097 5.0611071614474188 -0.0057035564776717
1.1302638516285148 5.4807843203310496 -0.0328395053715670
1.1089978052461305 5.5420514481216419 0.0907760850210940
1.1613115222353603 4.8592743214598482 -0.0170968580085491
1.1349041656583463 5.1783270600317639 -0.0043903041082404
1.1382466865910426 5.1817266381496037 0.0106978406243073
1.1546686895374993 4.9026220813334653 0.0086737494255041
1.1360192813404009 5.0606813780618287 0.0080608552097182
1.1620458127599611 4.7799826233573093 -0.0111653811319952
1.1855205207312922 4.9533584406566549 -0.0169347633998016
1.1266213926618747 4.8948768249768158 0.0382677496360041
1.1005653268555537 5.4953683162383795 -0.0575383107928923
1.1263573246045617 5.2418499346425369 0.0336002555746183
1.1412495762163253 5.4322000849781436 0.0243524196546570
1.1292997474099964 5.3782035351269846 -0.0110413053635383
1.3405904239203974 4.8325559476860818 0.0288987069877986
1.1445529326561243 4.9183334598612802 0.0593901616540621
1.0977017784456931 3.5019601321036369 0.2884210521494360
1.1343226503223602 5.4264848590990793 -0.0294752954394442
1.0983402462308727 3.3481519289749690 0.0931306840995593
1.1579883487123375 5.0516265870209383 0.0058021288078868
1.1284755031232119 5.4262422316729433 -0.0023971167815255
1.2307875902890406 4.6452914563569507 0.0852871389335461
1.1242151080691929 5.0760457834509891 -0.0586617055662649
1.1434654250190734 5.2331706821252082 0.0495992434111424
1.1753146388275455 5.1403471895672199 0.0356349781059445
1.1566169491593155 5.1801415233461725 0.0264787134336456
1.1030854015704676 5.3395280740358135 -0.0614098496129914
1.1114763179402365 4.9453434144276285 0.1049816006607408
1.1389577608110137 5.4658411167007754 -0.0337986215189668
1.1464241302323410 5.4486852858360058 0.2178039321110457
1.1142447666928823 5.3394662426827564 -0.0317018659183934
1.1269714827842028 5.2030331128717595 -0.0555855885772315
1.0924257781874034 5.4527070390144337 -0.0292196380786188
1.1606623786747092 5.0496634075033748 0.0118805993505232
1.1323693041466298 5.3089541580823791 -0.0178701457938658
1.1296967108276328 5.2493791088331578 0.0369916543747293
1.1342132016136812 5.2234529811667878 0.0182813520929198
1.1294523272807508 5.4043311843837358 -0.0085711572144679
1.1212749440239471 4.6482452931111879 -0.0204865775647784
1.1397369708373395 5.0532378458612088 0.0200062815102881
1.1056252080262723 5.4585833677092186 -0.0029365206837723
1.1308996513956135 5.4395165593036570 -0.0087118701722871
1.0829566312350638 5.3871689022246434 -0.1183407446935185
1.1132045488180473 5.3313225461777272 -0.0387586156469927
1.1360997989111457 4.6482505153606928 0.0050274356105740
1.1355081994216951 4.8760325661806680 0.0375284808380556
1.1508157573451978 5.0143421778908719 0.0037820750518427
1.1363948980383165 5.1981652686698068 0.0264485487112057
1.1330554940820723 5.4303357418314606 0.0006850070561610
1.1271547874870571 5.3540004968483652 -0.0059628205770617
1.1283715048758247 4.8092044778454346 0.0245615547670559
1.1364601580034452 5.1548722318818792 -0.0328230817023965
1.1770308126039826 5.0817657048797358 0.0237763913787366
1.1358839485329408 4.7253769527591105 0.0292757328014790
1.1370297264663716 5.1742150440416150 0.0114581274624007
1.1087702669551847 4.1849457198172617 -0.0397389073644542
1.1491355787256976 5.0687487439630212 0.0101212284533652
1.1238466516630663 5.7414507316886247 -0.0975504681260438
1.1330361972343175 5.0961386496772301 0.0201838564333878
1.1497305774345814 5.1071497986295205 0.0111067898169284
1.1299868890598275 5.1458167348586743 -0.0157821464768476
1.1358607001359220 5.2418317667696881 0.0326648490643949
1.1262690169212108 5.1172369352074103 0.0498033425734694
1.1357708652937450 5.2282994891285721 0.0032537628132055
1.1149711417738690 5.3521692893710791 -0.0083642241929370
1.1244030425822156 4.6180081650152625 -0.0417558823485517
1.1090378251614699 5.3979934370276368 0.1373985383774327
1.1380163468481461 5.1756411810374781 0.0293331432061084
1.2536830700302135 4.6438110904820293 0.0041679499068400
1.1059322051269869 5.4474330399095052 0.0053604292015794
1.1117063131369911 5.4222554878932963 0.0129363907780449
1.1425012212418841 4.9944039116809655 -0.0482376612168666
1.0944104312408303 3.7381016282454671 0.1080278383132865
1.1402406848626665 5.2384930451091263 0.0004173301925455
1.1442911598940368 5.1575243346402289 -0.0008510524180938
1.1145384411258670 5.9818405741316631 0.0501808929583850
1.1383981552174276 4.8725855351528304 -0.0386121609187719
1.1267762418962555 5.3312153460418763 -0.0208072475563581
1.1982448061488038 4.6258772238563157 0.2117596818612575
1.0799650532390284 5.6186765056073913 0.0365947005425530
1.1109649916679640 5.8072494682722340 0.0719728659708652
1.1399005718322694 5.1407489218407783 0.0099962276400402
1.0799081729669313 5.5622909606142796 -0.0085398187367096
1.1103297199219431 5.4643238266112677 0.0315235633261982
1.1236959637558726 5.1221558495971937 0.0486439289712532
1.1781755427996132 5.4569475010220536 0.0352705968614275
1.1379260533894668 5.3290781490813837 -0.0117555192581315
1.1304581048020339 5.3843892028885891 -0.0058878102118594
1.1460999227241775 5.0601377648610075 0.0296856960371459
1.2655360162673548 4.6884362867427800 -0.1671110008742143
1.1270331732050518 5.5213560848949124 0.0157175146946733
1.1360319722381194 5.1932016642180736 0.0238571266520157
1.1184383724970026 5.3555451714594966 0.0138074383685343
1.0861983737973200 5.5263048012154483 0.1397476814603196
1.1077093914636131 5.2019422440389107 -0.0287982505062311
1.1510474013899623 5.0755658600732687 0.0058293035073627
1.1307530338647012 5.1882796293277993 0.0365166678399585
1.0980504074303834 5.5249868539757676 0.0136275265924315
1.1256311821601084 5.4034433338866998 0.0049506806183248
1.0688249053862260 5.6903733270532024 0.0981924818607471
1.1179751776092781 5.3769737531305664 0.0722621522056776
1.1167792141219042 5.4192788531922140 -0.0046877748132760
1.1336714269725181 5.2222189067022500 -0.0364212619899569
1.1625532078519389 4.6842330253303919 -0.0725546721048817
1.1320554679864085 4.4994729336508881 -0.0236944585454590
1.1111555499295480 3.6880143573351458 0.1685086150415849
1.1459604026918702 5.1235165906832725 0.0198719556097727
1.0758319111750800 3.4421181044836704 0.1637013559309896
1.1231935912467288 5.0848433040486487 -0.0536913492070376
1.1195035676801843 5.4187967979501508 0.0234532360849250
1.1467642761083359 5.1095370745057869 0.0191737892202332
1.1391127423833232 5.3264807916378194 -0.0593255956239152
1.1407590546081561 5.4122779450821605 -0.0492759126656147
1.1270101713675593 4.5462850978003200 0.0688516621793008
1.1234580028099825 5.5947637914793100 -0.0684046303698267
1.1352179380790073 5.1549660877611192 0.0330216350346620
1.1089264665462710 5.4589403075707708 -0.1276568042371458
1.1294691953546043 4.8552457947035172 0.0672464693874251
1.1466534224741065 5.0960938153811748 0.0010939918716427
1.1459659831188480 5.0949025763211546 -0.0172854184032898
1.1209258016076107 5.1434656758927826 -0.0531572062277596
1.1413678406927461 5.0226834141990802 -0.0170832401898014
1.1277664050280281 5.4112521327096887 -0.0002931484395800
1.1337861235449933 5.5960811801805130 -0.0132275072783259
1.1309202641276510 5.6420078739491313 0.0095321899111523
1.1270533747994191 5.0757250857106415 -0.0440546047859850
1.1765022575191315 4.9138718822483130 -0.1020282881016992
1.1576811002436451 5.4656783071190249 0.2230827556759918
1.1356793140641825 5.1737254779722317 0.0234121938671943
1.0529817549314953 5.6705313317685242 0.0382010981722004
1.2294209171737771 4.6583953964427280 -0.0879188424776806
1.1273014600556719 5.7055228959531972 0.0005420376771399
1.1464691821376654 5.0248670766431331 -0.0467071243285032
1.1377632532514115 5.6984541078100115 -0.0409979336223574
1.1356354730639489 5.1519360576446589 -0.0143124529409370
1.1021319728978065 5.4941781311015960 0.0307835902745028
1.0943645580318868 4.6625188975345173 0.0751198299925152
1.1250176183273137 5.6188731265199383 0.1194601232212414
1.1053836782358786 4.0633765136884765 0.0640312498814307
1.1216701000357490 4.8844891303560187 0.0210870854874171
1.0911259260078299 5.5429195558605970 0.0035765335535509
1.1286409133466102 5.4823219888505452 -0.0045651658003051
1.1052513354183147 5.1037552258251999 -0.0221007993994760
1.1078175338184102 6.1208884557464458 0.0603158730331257
1.1078256224161682 5.3263734184396254 -0.0447037023735944
1.1255225027160034 5.4215687268351234 -0.0026150641084037
1.1116228260190819 5.4063109874018869 0.0336704265757864
1.1583240454106614 5.0815395913557051 0.0129742773195267
1.1209361505902093 5.0233210377599020 -0.0009771109715965
1.1542442357950689 5.2255694076791954 0.0351438508338267
1.1356365357149873 4.7002796734290468 -0.0336848219629855
1.1372731956758857 5.1404382100617649 -0.0019863033494400
1.1344391918990793 5.3138190236537586 -0.0091930895556223
1.1264243550068067 7.5773380396267944 0.0612758799023981
1.1372561035259836 4.9121922154079014 0.0268118989219636
1.1324205050658129 5.2294690728592688 0.0024739382016782
1.1238672243076882 5.4084523260528936 -0.0050043117813155
1.1258805073995015 5.4764126361236363 0.0137257182202349
1.1258672562275831 5.5739295761115200 0.0076905003653634
1.1635136817995859 5.2363098015977956 0.1577150641348286
1.1268095121562842 5.5183911725383794 -0.0252756665935797
1.1326237507891317 5.3923762390345216 -0.0104306010183575
1.1828753740022988 4.3897518971920109 0.0266636464680414
1.0579226888962936 5.5153656867227863 -0.1287718585577298
1.0947380475842601 4.8686438678017847 -0.1181389048184920
1.1365178026558960 5.3687765861877095 -0.0143448975377817
1.1241604323687557 5.3330130999469079 -0.0135927834918128
1.1341277274414667 5.1120718508823346 0.0308880596089908
1.1350645915101256 5.1220914493885106 -0.0379957752467795
1.1786285638172391 5.2104233590923403 0.1328862930558539
1.1586991887327149 5.0680187524279923 0.0147255089993078
1.1364298859976436 5.3684125001968193 0.1065643120172226
1.1231781057173331 3.6900553335538970 0.2079298037777355
1.1311429658604935 5.0735495021097430 0.0160074751914530
1.1165568082976687 5.1709322019250008 -0.0068928975397274
1.1305044153982688 5.3750896756087787 -0.0065012131073565
1.1422528115117694 5.0887620905579558 0.0002423660442885
1.1173563880036108 4.5587126576715358 0.0622554667957279
1.1096276685631894 5.2969914031590273 -0.0553920248254828
1.1299023785422293 5.3086364937516795 0.0400227617828602
1.0566690834078802 3.1347038188086529 0.3211124665711873
1.1380002063093784 5.1955705182077381 0.0267829436429592
1.1547218490114035 5.0160648667744256 -0.0080221836503590
1.1343602182751953 5.2921078525415801 0.0551021030934828
1.1333021225587383 5.2156289773187643 -0.0024128787356828
1.1314570437365801 5.6205061672998875 -0.0227224892779797
1.1199404755153382 5.4542308233916375 0.1299343017268857
1.1223189638669342 4.8774434124727541 -0.0471710472188225
1.1817841856919535 4.9564722664951919 0.1504679924028243
1.0980173367114470 5.2086944285803707 -0.0818410771161323
1.1397622476680296 5.1441246544074364 0.0103405345122822
1.0764327934936333 5.5815026367268059 0.0333650190213034
0.9586509257210684 5.6519382560425058 0.0246021104456372
1.1085545851961895 4.8162121992117735 -0.0108883555626903
1.1200020667232584 5.4197768719102077 0.0008369979650590
1.1413520272409992 5.0896628924731520 0.0162829934599476
1.1278347653531076 5.5404019718938242 -0.0009304700088791
1.1428299226244334 5.3493359250771029 0.0602011871866168
1.1694889117733616 4.9231493667123285 0.0387503028037872
1.0756742248446827 5.6082965959704119 0.0575078761172810
1.1329390872381286 5.4087245341308217 -0.0222567380563105
0.9503339891376309 5.8556255404775088 -0.0141447092707472
1.0725921193239896 4.9758652163552419 -0.0200019372481201
1.0882281581813384 5.1298058890865432 -0.1434041671603393
1.0500635935677369 5.8686444670722464 0.3506389631375523
1.0940551010586386 4.9340832794983180 -0.0078408359782128
1.1468333691601107 5.2694029591450917 0.0276788792153576
1.1147140007666301 4.5486825662679458 0.0697868033149629
1.1283664366852433 5.4643086697244021 -0.0028578538942007
1.1302808827164825 5.0646085403398171 0.0495458445126326
1.1022785789499263 5.4959307974144851 0.0593328252073076
1.1655659662619788 4.7989123705082433 -0.0685864421538539
1.0978250954535378 4.3412196640585261 0.1374377807722918
1.0973397728885936 5.3208022869576297 -0.0566578827866423
1.0838832885075762 5.0017285334311481 -0.0628543850364091
1.1278491601273770 5.5881051640281143 -0.0054840140661571
1.1350034129727757 5.3754372275725633 -0.0478347862779354
1.1186748502576995 5.0599234022369766 0.0407738671698042
1.1310710730467561 5.1665982381583495 -0.0236106659038136
1.1287021266612980 5.4585216033461332 0.0052334847667201
1.1291906477833633 5.4244812431676195 -0.0030086124177898
1.1247944494501856 5.3897859863977367 0.0171521642311835
1.1268436584131298 5.4329381003049475 0.0352416100578001
1.1296710998108144 5.2248711914576118 0.0466908704144282
1.1421036528367821 5.0781549079806743 -0.0143791074620214
1.1402754845922731 5.1507855858001612 0.0220734358802418
1.1205268980077145 4.4740065792038655 0.0964664125318436
1.1145295765666783 5.1375170263049394 0.1225035371289917
1.1384129530703082 5.0277942869217984 -0.0583143059383479
1.1455105774240031 5.1013680618162969 0.0206387733385402
1.1329203732223487 5.0094744500806989 -0.0035080167884470
1.1331949593824278 5.3200330596765530 0.0226719436893618
1.1278448311059901 5.4422687661336697 -0.0016626627691753
1.1451468088207024 4.8505187666753447 -0.0147345739876195
1.1353087967390738 4.6764672533667087 0.0117119488005667
1.0865107926518627 4.2963794695623108 0.1841639770436763
1.1326878374819529 5.3344161547400777 -0.0079023284556566
1.1394141978377792 4.9048989615311394 0.0070676006254466
1.1394081455383140 5.0579529538841488 -0.0013700149787232
1.1133661322528829 5.1618181755278094 -0.0203515864277370
1.1200238367082256 5.7668460180252579 0.2916488453348718
1.0891885992501176 5.5427641739750877 0.0063164030159462
1.0049360186077421 3.7962458983546585 -0.0279010622626879
1.1373941071154521 5.2547984812989341 0.0470632920748416
1.1292483925586723 5.5998329187220719 -0.0189584581961587
1.1297539730340278 5.3353492714384307 0.0749200188777548
1.1348340842655948 5.4684759011104376 -0.0448293276917734
1.1223370632369161 4.5202374607003817 0.1469706861917275
1.1324961387638663 5.7455900104842561 0.0583281799810154
1.1244123001833406 4.5338163853500912 0.1353616557829449
1.1453987882808077 5.1929411022320098 0.0406180970749110
1.1379127894382788 5.1879499843805688 0.0295445388280075
1.1308080151059960 4.9630043037602372 -0.1303429446794588
1.1275207871974948 5.6320461725190105 -0.0487022308649593
1.1208121673245162 5.0217576711198442 -0.0934354892192363
1.1391106954888492 5.0925598589539431 0.0186100664439514
1.1289160119347481 5.4509545734552454 0.0064028778037314
1.1306148566970036 5.3552071524485996 0.0009825166834418
1.1358653948591999 5.4707379083499754 -0.0178300149307058
1.1937074216442771 4.9219698794749487 0.0853256922824100
1.1067896353821010 4.9265831918012530 -0.1416770702320964
1.0888793516886874 5.2725240317509705 -0.0565268175336885
1.1474424685465241 5.1345199264366110 0.0111676390784809
1.1332687987502712 5.2025624746425052 -0.0176049130709556
1.1001920593019365 5.4653577505182476 -0.0060916310645232
1.1099184333064993 5.4487239192269614 0.0379608447030951
1.1350649090470846 5.1948564081549735 -0.0176347787242918
1.1269440510835296 5.4868119106288287 0.0695123787632955
1.1276922814673738 5.3401081354714002 0.1164925311552832
1.1421602985396027 4.8463831516668865 -0.0878517887892192
1.1783048134522633 4.9647500142244390 0.0988111863172547
1.1243545785994102 5.0433288664845257 -0.0607951423089018
1.2124481531711331 4.9868962270580965 0.1467410180621753
1.1298385767292887 5.3804533944444506 -0.0270756248574831
1.1355637872890174 5.1378626406398809 0.0252305691274536
1.1280381633083141 5.4071152752881506 0.0427582287558183
1.1387194684886988 5.1852103210928604 0.0300679044080087
1.1290893783172959 6.2686598648275424 0.0242679626689341
1.1390495081766476 5.2018947356609999 0.0320491839829883
1.1219335670936299 5.4351957465176435 0.0772387063848455
1.1409119084757844 5.1058917610773031 0.0096068786297400
1.1272454864235413 5.2921810363925834 0.0149531787109472
1.1348617364128644 5.4697739057906105 -0.0140020321659547
1.1265213279196447 4.5184288548228864 0.1070553819441967
1.1136796892798591 4.8785214778125532 -0.1357554937032514
1.1569728580139480 5.0023979974852306 -0.0050474283211052
1.1553914267265175 5.2712236735495388 0.0448704186491630
1.1184664177360302 5.6438897999286413 0.0784151771977875
1.1328516504743071 5.3192834134727445 0.0377202974741938
1.1440934181577778 5.0648829613289967 0.0074060080853662
1.1444447816259853 5.1299197933779297 0.0079562381454098
1.1554397744338059 5.0275404959030778 -0.0595912611654513
1.1523218396382076 4.5401471199351855 -0.0580654209585708
1.0970513722694279 5.0539881027479252 -0.0215458151713375
1.2150758593298356 4.8203272987677419 -0.1002361585202079
1.1350693616776588 5.1054454466606609 0.0285828822502008
1.0671594642347773 4.8421853968281194 -0.1040115026360911
1.0628824268728079 4.6063468242413910 -0.1533646926695715
1.1531125008566747 5.0510221672601450 -0.0104872564849574
1.1593844785242564 4.9487313265582697 0.0369779429168259
1.1348935044084745 5.1514949205634863 0.0643779551591068
1.1278065277414777 4.9383357776671239 -0.0956147246946840
1.1154374567583814 5.1032266542333966 -0.0041545037001614
1.1335803818000711 5.0209211926342237 0.0208547808125831
1.1268003443292722 5.0469056399694381 -0.0097648742266179
1.1406885486906080 5.1319114644348796 -0.0821647867999936
1.1377077832478784 5.1410573118825598 0.0195321750586342
1.0945214741320743 4.7442182735063643 -0.0173777595736193
1.1592862303929166 5.0513441304241224 0.0257407324238060
1.1797508716578704 4.9986043542213778 -0.0266068835190170
1.1665223786826608 4.9978980671094702 -0.0224376009628738
1.1167056532737982 5.0840318120847909 -0.0679317965524200
1.1289923091992480 5.3146714967016546 0.0380771905568642
1.1363661186491008 5.2122971501634314 -0.0178748718822455
1.1107577798310946 5.4378054578278645 0.0007911054221518
1.1422519590987512 4.8349534803910705 -0.0433616976142525
1.1661952314893869 5.0965760178485633 0.0888184424506795
1.0948177504369632 5.5390421242421528 0.0707351433453106
1.1382449877175485 5.2164319015973124 0.0234484796635998
1.0488460945526910 3.1816786848881340 0.2440214118271131
1.1295152497874843 5.3964889471567155 -0.0393789850902371
1.1090703233322750 5.3655865092988906 -0.0327079538139200
1.1278784601279304 5.3345024714215183 -0.0265369575196439
1.1643001984775967 5.0416282204700735 0.0247678914080851
1.1080775457925518 5.4054257013335594 -0.0193620264356078
1.1351261473377332 5.3061742381381629 0.0104616860322247
1.1058297814966938 5.8333812827553890 0.0469291978770018
1.1823264417351691 5.2877025735547232 -0.0799851071779787
1.1106378682429960 3.6920335726901623 0.0491170241650011
1.1147267347426311 5.0132475676005521 -0.0180906295053932
1.1186742967397076 5.6969756255541668 0.0261122949831266
1.1276018905570755 5.3188041601884102 -0.0089357972947784
1.1285138714962972 5.5020332809585160 0.0044506938040273
1.1269483741469239 5.3701673387028492 -0.0045847894137485
1.1261120738387906 5.3926567038158835 0.0163561293885507
1.1130744483860899 5.3832046663396227 0.0088729133268863
1.1172273030409505 5.2532250201032253 -0.0403031220996046
1.1380039314328538 5.4279710192956951 -0.0594053823207095
1.1422621507855162 5.0730603371363152 -0.0432046236724883
1.1733463286307464 5.1456009262103635 0.0985288250796221
1.1193534820752402 5.1944570893180320 0.0547330491921349
1.1228668702301212 4.9171541336241011 0.0494224212978309
1.1701069422461920 4.9757158361217302 0.0257614346232453
1.1148604678147600 4.6209639504591502 0.0547520660618750
1.1462345065790220 5.0597098988820228 0.0062553745799020
1.1455772358093543 5.2138218404241146 0.0511896754763692
1.0903654930451938 5.4180333561375713 -0.0514216064076626
1.1193625011796764 4.5575563788166047 0.0121338336945389
1.1243227864772469 5.3013508445058424 -0.0263711537695758
1.0940308034588981 5.0442545481426224 -0.0181067623491920
1.1364970291444931 5.2688490537025725 0.0112332264891242
1.1397668664014222 5.2019412537313627 0.0249315439687876
1.1373374302461214 5.1725554863182692 -0.0160276850674441
1.0881794412140287 5.3853449200600405 0.0727453306825023
1.1064666888469443 5.3617613491178204 -0.0348061197127790
1.1532855479916782 4.9219629165901013 0.0443558068954818
1.1340285816589770 5.1211871061286036 -0.0248902998851267
1.1279141964386699 5.2842051135622548 -0.0394110152730993
1.1340093024126527 5.1096562380712882 0.0217711399978555
1.1175067624095947 4.8781916396985157 0.0854592023905770
1.1384332738011218 5.2741948715061406 0.0981049980473156
1.1238744992843821 5.0384044412202673 -0.0185529009006951
1.1720826798684472 4.9431100743196801 0.0389492699795132
1.1182183364527978 4.6949481111915619 -0.0517854282067159
1.1383554102152225 5.1204588152733166 0.0187717170540132
1.1350202609983906 5.1360236772098764 0.0167989361581823
1.1761670788701790 5.1641317011460197 0.0573641907648681
1.1326942186486744 5.2617253427408635 0.0101863212946679
1.1441680700563284 5.1368876521349609 -0.0392933566950353
1.1259199857630238 4.9703338079585215 -0.0310970179183939
1.1286274783572912 5.3175802161110521 -0.0479966194266011
1.1344268969257931 5.1665171692553180 0.0124055880921749
1.1368547028591003 5.1748185114342773 0.0298026554831654
1.1259052003345094 5.6033087222867701 -0.0350896458712476
1.1422946224182697 5.2339198729089871 0.0235002413570471
1.1043579419071907 5.3740845627615599 -0.0446026097766583
1.1282078240983497 5.4629844837194703 -0.0022007909221416
1.1005195179577814 4.3749967909188898 0.1254683935159123
1.1192363653206125 4.6828180582589791 -0.0433915074283905
1.1101342857983429 5.0366978130058611 -0.0886598274656714
1.1864124423985882 5.6863101936667508 -0.0942480295620040
1.1456335806287992 5.1635620690156507 0.0147492932318811
1.1324053837853569 5.3504423843473807 -0.0065172216879896
1.1197967524907226 5.0940552981515390 -0.0148241095781731
1.1289502250022367 5.3364327140782493 -0.0101615260578138
1.1942056076615863 5.1011787339444039 -0.0167568693999406
1.1384604857794505 4.9562534955846083 0.0190349115538098
1.1274321287419091 5.3359461380085964 -0.0055517795381334
1.1329670171866015 5.2900066478896415 0.0139297461991960
1.1388896391681331 5.2245990841201877 0.0352369312408470
1.1213115102177496 4.9482074118602970 0.0097685384902047
1.1300910181971411 5.1899977670757824 -0.0199073280918231
1.1151916051212432 5.7935256356221885 0.0173506423161186
1.1789045592127696 4.4597774632137819 -0.0539072009491410
1.1333962122432142 5.3197243486512686 0.0018370173694732
1.1339018383490542 5.1757889507175836 0.0570349516563680
1.0971200582292793 4.9573770672245763 -0.1665229913164833
1.1114807010210841 5.1205729726922469 -0.0047700998284712
1.2268192790268531 5.0326659733742156 0.1865831827039816
1.0990765296753173 5.5891924448787371 0.1389484443186659
1.1318341239277248 5.0393323580216407 0.0109842505264056
1.1258030138274342 5.0807638014609884 0.0045972723282695
1.1691233818948330 5.0891523189424852 -0.0229939734502602
1.1258985153707188 5.1635560135357004 0.0106114572203076
1.1791529619673946 5.0720037291985047 -0.0034619180752731
1.1332408181289346 5.3976566032038891 0.0077915347732918
1.1303785282772050 5.3920970073247263 -0.0068691959475937
1.1321922588761058 5.2834982078316930 0.0030347741218481
1.1315685755921912 5.3537211831964546 0.0042445385481847
1.1342379140594563 4.9308327235116893 -0.0432996076433948
1.1434150227334519 5.1014143425240057 -0.0355544779247391
1.1755900404750583 5.1223642233846940 -0.0274468751001595
1.1428725245149427 5.1206581183114412 -0.0010154779553980
1.1056369566811199 5.4367925840155520 -0.0125318685304638
1.0896507090708027 4.9665268542287899 -0.0650785678482034
1.1485620704534789 4.9742100582231386 0.0114027806977086
1.1362827284070203 5.2415728566063828 0.0167044607002403
1.1248119956442728 5.6528167311922424 -0.0210490679600114
1.1249905712784882 5.6114872513242906 -0.0113705048192983
1.1199486007647954 5.4174152480040325 0.0332930601032026
1.1266846127256407 5.3664445998573962 0.0533426757667847
1.1273949690610672 4.8900155102601710 0.0515242740044575
1.1241687604931383 5.7001713220745316 0.0320514682663243
1.1244624274697046 5.3688268239771295 0.1129772779150385
1.1400826317516239 4.8394098001390375 -0.0354176457484451
1.1158409626297163 5.4340668792524562 0.0143082577380192
1.2266737664616205 5.5544806289613637 -0.0794859541737531
1.1079042449221761 5.5361531644112727 -0.0159695405229119
1.1032105708223345 5.5082669849617067 0.0793724985725961
1.1345454195241929 5.4227136612932112 -0.0171980394982852
1.1770117556346127 5.0612278778125637 0.0733281158878429
1.1263359148123886 5.3999693359021199 0.0058779481116414
1.1035486105965544 5.7603834561864131 0.0889870682434420
1.1286219597413774 5.1475547750651449 0.0065505212716735
1.1555894602381982 4.9423495409660338 -0.0742226845914427
1.1944674381289042 5.0076767487298888 -0.0335113066881796
1.1144438945541659 4.9038704404381823 -0.0439118282199075
1.0686351996967214 5.1776960214386687 -0.0845314186856574
1.1209997139642411 5.8424253376300976 0.0617495798211503
1.1352712743478763 5.1165187748563632 0.0008485908164574
1.1270953829562220 5.3052661273112536 0.1120429530260477
1.2126921848791634 4.7513037865871901 -0.0561048712605006
1.1370417291909309 5.0689945374096581 -0.0648197768302236
1.1550334673731701 4.4330589402908096 -0.0457744772344572
1.1043443128382948 3.6152981480110498 -0.0450077254220836
1.0390139826038427 4.9075859610696346 -0.1118050953274745
1.1241868387759513 5.7690823851341708 -0.0045464676103542
1.1232357627604452 5.4131752007584133 0.0043189440332011
1.1343042442657914 5.0284031170056327 0.0056752478129525
1.1270361808595082 5.3193955611755630 -0.0228360734615026
1.1210812818303719 5.3839542649810488 -0.0134310199492546
1.1185135207135857 5.4252117510639275 0.0087387757969258
1.1400027066698819 5.1252130241526705 -0.0427527803140212
1.1283583372903792 5.0900200794385198 -0.0663992884382224
1.1503438217275896 4.9241124473678175 -0.0347695056908135
1.1087687984949444 5.1305207886124657 -0.0795109792590265
1.2201186082295652 4.6282897228846513 0.1447206320375193
1.1276277062142084 5.3640740846540078 0.0405436261328741
1.1127836883290851 5.8538113653790891 0.2807335101308532
1.0958132454137988 4.7036086434593951 -0.1432533441641553
1.1428900786615579 5.1978794430912725 0.0322278652891112
1.1205669343645108 5.3476399283899152 -0.0183565075981637
1.1336643450280108 5.2131856854937944 0.0131852443227195
1.1359258372604533 5.2721600208559138 -0.0168370056905223
1.1355988759901940 5.4578540549835521 -0.0229748631451165
1.1079997168910680 5.3453296070059393 -0.0289108812225935
1.0917369713563754 5.0719562061541543 -0.1002390550605321
1.1699244606577872 5.0652911752247602 -0.0007444616202343
1.1476418029514741 5.3230915913178540 0.0537851802066596
1.2151882779389442 5.4503756046395964 0.4046692982324644
1.1451625119537880 5.0375527691259494 -0.0067976783431909
1.1394030575823066 5.4909041684076785 -0.0233127659059567
1.0885228927681301 5.2495756602559416 -0.0920812393885452
1.1373478386942573 5.0920200599534660 0.0186609283063077
1.1258597805545378 5.1398485485448804 0.0995586515631854
1.1372396971707450 5.1338021158342926 -0.0261230163025531
1.1116685043836372 4.3432417862929764 -0.0879535724283232
1.1512117265555166 5.0816555073181755 0.0130232224094448
1.1459566928993319 4.9914070577139054 -0.0389407886959456
1.1437419204039856 5.1910589621989782 -0.0025952936051005
1.1376481391470503 5.2233316063810395 0.0484508567240028
1.0955773661062500 5.3387348565158730 0.0766619479488269
1.1099289710407079 5.3676566260168883 -0.0606885796271110
1.1312459008388205 4.9194962554433390 0.0009406890719286
1.1386862814414811 4.6240640297752869 -0.1585280814683941
1.1048655853586915 5.0384129165401639 -0.0066834523925105
1.1415019306039411 5.1885431985653714 0.0239814383399971
1.1326125346120528 5.2087432252040342 0.0338976582285546
1.1392704684175436 5.0579192141164446 0.0164307383783282
1.1284170526032060 5.3474549748689117 -0.0178833615698575
1.1017293362030482 4.1129428731534290 0.0062237555953817
1.1329730353561758 5.0888424623338491 0.0112481115465060
1.0999737052358574 5.0873710500939282 -0.0328353584795411
1.1325874643514444 5.0034600974778360 0.0174100437887123
1.1454639258689472 4.8761327633857414 -0.0719380206132874
1.1406158637647204 5.1113339121726531 -0.0182530055734486
1.1017603771254756 6.0295379175470663 0.0103670616408916
1.0975568109574723 4.9944937904726885 0.0827160342039654
1.0681657409714354 5.4376923300856603 -0.0583281909253051
1.1345365110618570 5.2773720720366857 -0.0009361325612526
1.1109259057885432 5.4250080854031584 0.1318486582311129
1.1482643187581341 5.0650006782269914 0.0098706932494046
1.1342327180047236 4.6514504971017168 -0.0009689588158131
1.1152624492302736 4.5850492617736682 0.0182171322144995
1.1240429228175883 4.7416922683091762 -0.1358990250538221
1.1169902239502605 5.0774813398892960 -0.0129138529037277
1.1581130159807889 5.0758591013155145 0.0091604376307206
1.1472020336723285 5.1856510214790887 0.0272729119156724
1.1368701421033420 5.8179815076977581 0.0079463267573396
1.1327819737854206 5.0975388815945761 0.1004558624969413
1.1015828664634828 5.4403572561901283 -0.0077389693364338
1.1373283907891336 5.2065729372921892 -0.0682880332193496
1.1001708482397670 5.2743575702124303 -0.0645805688287571
1.2256552421765070 5.0180658415156341 -0.0350210392877682
1.2018034013493073 4.9662382672189187 -0.0325354092895176
1.2281673939970392 5.0304294740286055 -0.0563580080895844
1.1327546662436441 5.4109191578050568 -0.0063120277644561
1.1289561984322296 5.3016033245673508 -0.0174398149071988
1.1339879225429883 5.3696171337971581 -0.0183342455899228
1.1009180243369812 5.0935113047450002 -0.0275659051241606
1.1160380340880265 5.4415901916516018 0.0562555699454671
1.0534152561244354 5.1461309475749495 -0.1697545367810892
1.0760304258202114 5.2537849934558958 -0.0000525536245104
1.1396428663136888 4.9856668037248104 0.0013795330118257
1.1306595740252174 5.1505285382699721 0.0050507194409156
1.1113150406598331 4.9326281351203525 -0.0684057265453629
1.1302416018792878 5.3594523792351128 -0.0224359071192597
1.1291222385639503 5.0976099455000936 0.0420637802935682
1.1251863581002786 5.3808022371788953 0.0337206790462823
1.1236684238094503 5.3295101117197987 -0.0011728952481296
1.1275231037687099 5.3214986150771333 0.0164630973447951
1.1308324331993029 5.1394586779912297 0.0257837375567448
1.1313901656523908 5.6618812964404217 -0.0330568069860787
1.1218591867052878 5.4074789444253701 0.0361429283994747
1.1131592015538585 5.4407273667250715 0.0653266955595921
1.1397907093287576 5.1409536046272457 0.0461441120634840
1.1181878409830506 4.9813124068197547 0.0608884178743375
1.1074521058045896 5.4555243952606975 0.0870416865428086
1.1364493041848949 4.9529452224080881 -0.0163500976752908
1.1600744780788075 5.0305250315644390 -0.0077227799281359
1.1587143210471467 5.0254628276352449 -0.0026660156453973
1.1282563975439222 4.9446906787387563 0.0027796363485910
1.1508846414845744 5.0431942610317027 0.0105119798486029
1.1087893935655651 4.8904580589562068 -0.1302047797730851
1.1718886905321113 5.1820650182937333 0.1275115392679965
1.1879755631512683 5.1175408058812755 -0.1011257535230514
1.1184982783236486 5.3878912677629067 -0.1187452062371587
1.1381624786529940 5.1371812213831838 -0.0281128859708115
1.1362251431909161 5.2553085855521458 0.0006412928617246
1.1256762119942374 5.0957490866262649 -0.0172721936371359
1.2101775984668732 4.6078744973697878 0.0145528894771974
1.1090679838308601 6.9657607352388808 0.0856853877363880
1.0762782699864117 5.4006552096412381 0.0708580621341010
1.1375363556703078 5.2171886529910187 0.0002259184889541
1.1031126214625369 5.3245250846376155 -0.0487497773951593
1.1205473787204807 5.7808146420252964 -0.0162104673662482
1.1191950751258954 5.2027159289536034 -0.0455447523365198
1.0553358020786887 5.6540078022585023 0.0622547417162946
1.1302285494738196 5.2619750928115412 0.0150884556590599
1.1286861304232232 5.3098973511386331 0.0001514072637526
1.1229203055037720 5.3250519184961647 0.0154292427535325
1.1330961279761689 5.2853174536922793 0.0007303257726657
1.1447482976590653 5.2268076327491251 0.0794940178915724
1.1412079374360726 4.9107575374300279 0.0075289262373583
1.1531986589871759 4.9338007979155361 0.0090898018447271
1.1636742587811930 4.7517267794675622 -0.0677481542906842
1.1504810589593564 4.8408263885971250 -0.0415453198652282
1.0910335668775906 3.7287661593019985 0.1050851718264673
1.1181426617842158 5.4282714399156804 -0.1050930742039706
1.1278849674005358 5.0390638983867246 0.0133055085159913
1.1847864517213087 5.0872429215646022 -0.0160602554117386
1.1367524180976434 5.2973918388526799 0.0208406648201905
1.1497513519853495 4.8905700958585419 0.0670957710340886
1.1214108166964460 5.4674588957124834 0.1138241148530124
1.1528196154398467 5.0838811886846900 -0.0292861222260145
1.1695772316895161 4.8541912206761957 -0.0298424410156289
1.1267937578170433 5.3329592654272258 -0.0080092666898929
1.1288754074656464 5.4809079428402789 -0.0056034928088298
1.1382005921810900 5.1814471857156317 0.0098669750267626
1.1168173700915693 5.4152116101560628 -0.0059653582052244
1.1536902264175890 4.9626448964752434 0.0108227043235628
1.1084712039305205 4.6352451037292148 0.0773692603880666
1.1036428190415410 4.0287779000597155 0.0605627798452255
1.0737892209822253 5.5992987279032542 0.0787570836162374
1.0994613703416127 5.5013588436978109 0.0457204789232317
1.1353720544409061 4.8729600446568844 -0.0619993831627282
1.1405731211558907 5.1310742221462560 0.0078304224307246
1.1087086081504103 3.4062283480934230 -0.0324764487459814
1.1378785576419206 4.6040461380196254 -0.1892807127477007
1.1227291820496950 4.9313292038103267 -0.0483550626588849
1.1857043589353309 4.5372140364835669 0.0685038895774545
1.1333277499806673 5.1421361758104034 0.0133106723298483
1.1315250252769886 5.3910140242885261 -0.0092089937361383
1.1372055332265685 5.0797130314758929 0.0082185313574453
1.1334090249737969 5.5034501563434759 0.0421366026837442
1.1579741279597762 5.1545248326250812 0.1156610249789799
1.1155302127579916 4.7195399020728868 -0.0966383260741781
1.1746121779397904 4.9278596909015491 0.0949121447110299
1.1378149967041309 5.3305794305021905 0.0218007858628264
1.1178237798510191 5.8042304455759854 -0.0554158666832508
1.1211829042331378 5.3805994728749607 -0.0717847324990302
1.1290929925890525 5.5103402440461737 -0.0185884051175521
1.0947704635345061 5.0358489761992251 -0.0385671878674897
1.1305385245621768 5.4127110468566997 -0.0055870217994803
1.1320300306356257 5.2564675901393345 0.0002993398676787
1.1330918341872682 5.2305472524869172 0.0280718473598950
1.1187852563292977 5.4267382361844989 0.0371621662573066
1.1318466259965936 4.4861273329003462 0.0213706937513045
1.1067945823732548 5.0041476573416697 -0.0333331824917091
1.0936165524524561 3.4405986358040144 0.1637673623616282
1.2863633308582549 4.7520923469846554 -0.0219332694364974
1.1478396587079709 5.1271444964764852 0.0320012971239954
1.1856821216917559 5.0937760260815708 0.0074539023374300
1.0690270059244056 5.5720959795809852 -0.0271700400304786
1.1358380649985913 5.4122008814759939 -0.0649501788964689
1.1281407436201305 5.2865749704594540 -0.0299115235530191
1.1413580178022271 5.4896139485302378 -0.0307795987039387
1.1275569054074230 5.6836891578937401 -0.0489891222634005
1.1260304023576762 5.6789487073537961 -0.0335932267924156
1.1189399785537835 5.2104305161913560 -0.0535533735062873
1.1141731756665649 5.3632255647726641 0.0868664303947115
1.1594002762183728 4.9348693678624382 -0.0013574918270569
1.1665524898335957 4.9377330213781692 0.0531325913607824
1.1059755753909994 5.1698870427201014 0.0043269069343631
1.1708076850261788 4.7880608106086866 -0.0110555295634154
1.0887387880906527 5.3727004399442366 -0.0706033559020979
1.1221388957422582 5.2177290928775069 -0.0376760213350109
1.1450369785059127 5.1107876583997749 0.0213745803769254
1.1270133236629665 5.2838102224988477 0.0518316001759431
1.1271900310451506 5.0874997950784104 0.0593928195600885
1.1018325879358344 5.2601179706909225 -0.0241669506852503
1.1660060372014496 5.0638194093939006 -0.0103472119899549
1.1330530761400519 5.3806616010814849 0.0584653948736429
1.1374154684221631 5.5266982460554264 0.0630092937208171
1.2131419239904329 4.9593702512167912 0.1280453130122098
1.1394965574121712 5.7986996392079639 -0.0699793074417797
1.1115231048843084 4.6269995101875878 0.1931822813860209
1.1345715479112710 5.3567736601120801 -0.0084260736005718
1.1627292473975657 4.9741645706742288 -0.0003283559269383
1.1524214932862693 3.8718133172018310 0.0083923377837280
1.1441873320834774 5.2378906694780341 0.0672076177965190
1.1303844729365042 5.0475077483038753 -0.0257317384909481
1.1144680859899305 6.3162974054258605 -0.0982409899409730
1.1336939304786176 5.3697213298319770 -0.0034058703455471
1.1176535769113740 5.5155812982311900 0.0342978217598727
1.1483267316379850 4.9829744517141714 -0.0434709030961618
1.1515969883779673 4.9516189626320131 -0.0288884853728368
1.1443270412103610 5.0949025912989958 0.0154216613802767
1.2170977127548961 5.0918616990383869 -0.0979768366238878
1.1169205508659152 5.2316856561211162 -0.1333792524833244
1.1182339264797545 4.6815025697056436 -0.0709409597807155
1.0882591180204761 5.4186123623432705 -0.0399182314683498
1.1191806830528253 5.0946193809505216 -0.0835571330656552
1.1381183147908105 5.1316997522024721 0.0083025380591678
1.1268617971212644 5.2799392246521135 0.0524354792442623
1.1422782979443018 5.0858506208408549 0.0342836462584214
1.1238528696494234 5.1262380827131055 0.0031012330640258
1.1226841146372524 5.0896197439043513 -0.0113185320306442
1.1722132100209235 5.3091044121159818 0.1742531252097110
1.1794455946531064 4.6569591601704357 0.0864882834243180
1.1110026105616291 5.1452915774263586 -0.0213353383477797
1.0982628804578205 5.2213919603582220 -0.0240697308925727
1.1289546875879659 5.2747314794454203 -0.0192162879892530
1.1029323403754694 6.0019381022278324 0.0329088745932597
1.2141117420041614 4.9071321973600730 0.0808393992948230
1.1289934760417291 5.4917889456978566 -0.0084345459114565
1.1222342953727522 5.3893606707361252 -0.0089454024892234
1.1200055290743283 5.4178575350407430 -0.0005599328148883
1.1281842320846793 5.5491580481893381 0.0005300263747613
1.1210029423639223 5.4144391622395496 0.0152362322713538
1.1349585958379871 5.2551986085940117 -0.0169021514679982
1.1368372217018070 4.9942090251981659 -0.0288820140375348
1.1108723891368533 3.8914774302952733 -0.0672519443303714
1.1150956563554515 5.9024376884825767 0.0726135495760265
1.1347430215649450 4.0676779410819863 0.0921086344528762
1.1474083432489832 4.1641522069738448 0.0175958441107770
1.1279342718886667 5.5317603424253949 0.0190774140638159
1.1481745751247310 5.1318272258397792 0.0277358495645410
1.1169667541034594 3.2904957244007371 0.1659082141942320
1.1376967325426224 5.2388815706432901 -0.0146746862011432
1.1378350338539693 5.0755112014317048 -0.0234129660060171
1.1385218707717912 5.1580928246476194 0.0202082848068505
1.1321060823457250 5.3238169562789839 0.0491758499432335
1.1490711935727691 5.1794718950220684 0.0474971527312815
1.1283479332254391 4.5776311099928506 0.0768408172925703
1.1136962176760088 5.1663445492880644 0.0014372116728118
1.1269175129039974 5.1564739708096434 -0.0574624712546838
1.1297277653749589 4.5266775556420162 0.1047678614899593
1.1467220173795638 4.3638288447736100 -0.0128129748739780
1.1530678249533688 5.1138143377168870 0.0344623463897986
1.1323071353939751 5.2977782662268398 0.0037904672254456
1.1003316045592124 5.5558604314562166 0.0709936063814882
1.2117578164392193 5.2246457216094235 -0.0072730315900310
1.1835440372954824 4.5885588098877115 0.0837738512022493
1.1254903529555891 5.3342342414675556 -0.0095185637994105
1.1267563165561145 5.3101684569027974 0.0400404619204123
1.1318505786653050 5.0978895595372400 0.0356372541465345
1.1320450233511847 5.1640774446956463 0.0030685156398177
1.1338509424101528 5.2618896276693494 0.0030183729448310
1.1476614351368710 5.1478187787213781 0.0111584827887966
1.1084852078182559 5.1764196983413253 0.0228118360703587
1.1003900350134583 4.5751507690549040 0.0450266660673187
1.1060190105381282 4.1794661004123554 0.0434162592750435
1.1636876047596725 4.9585900532356790 0.0721934673911773
1.1104880383413767 5.3290819656758837 -0.0227915464993106
1.1278257167644590 5.0475221907564762 -0.0190333268822539
1.1346042755726942 5.3568092463982255 -0.0083316330315386
1.0659830554832097 4.7675074580858716 0.2564999217662816
1.0997718139604322 5.9298682944684877 0.0358077026088543
1.2487669762947908 5.1066758529435337 -0.0408240525625510
1.1005597529240398 5.3660309453386743 -0.1410550920279554
1.1069071272600146 4.8543221825757534 -0.1301698342644863
1.1414192448098921 5.1959180010837844 0.0277453738479059
1.1303158395485213 5.2124774804939324 -0.0875407374141979
1.0738483226572517 5.5694096322370577 0.0102693023549148
1.1400084142440481 5.2067321139194975 0.0341119416900426
1.1394925965384803 5.1205257762437961 0.0084175743594847
1.1460620815730851 4.7461461970137968 -0.0110313094325411
1.1135253477032712 4.3712995122149296 0.0149458140271115
1.1013422226843117 5.0176762397729675 -0.1170567413756304
1.0979424447221511 6.0061764046302413 0.0795080282292098
1.1480036370073359 4.9959367192703530 0.0144058681712339
1.1262222485559754 5.1638752864233544 0.0092452150608102
1.2094417910313111 5.0020069203812865 -0.0489570552390547
1.1335648982860087 5.2469071131809004 -0.0104490680449891
1.1232809098130232 5.2370864096645446 -0.0357339436953883
1.1232471402646258 5.7121378322458876 0.0041567044821246
1.1237054039309315 5.6187169245020661 0.0128996333237704
1.1252151740619136 5.5290096440078562 0.0182180828808754
1.1195478401899663 5.3576373909381472 0.0354165094890937
1.1473866761502669 5.0687013609012359 0.0495368574328700
1.1478128097154210 4.9923530709762192 -0.0070410782067040
1.0965728068704486 3.8549892047678984 0.0478785027675980
1.0896255990057919 4.3723614665153177 0.1664926505229644
1.1436964127244300 5.1177697869601895 0.0391245314017674
1.1332302967287489 3.8790091867456731 0.1418688641211626
1.1189391494248655 5.1006758186983596 -0.0076656271581919
1.1333769580386890 5.0437191937580792 0.0435450054778487
1.1498251637273258 5.0170816575414952 0.0096726328794124
1.1163241302286788 5.8912630924517213 -0.0509776816022918
1.1323983793559775 5.3279828519091881 -0.0127052344482452
1.1057433318500773 5.3956357700840023 -0.0305302673283821
1.1197798675406938 4.5684148131921507 -0.0048300720968067
1.1262586187527388 4.3051883575889347 0.0442866592849192
1.1617144351764201 5.3219085676082099 0.1715146744883138
1.1444248898471341 5.1474355222460195 0.0167137570092133
1.1212009473655864 5.4099594513240143 0.0183920239456020
1.1227258411860817 5.2670816882880294 -0.0309432469551125
1.1275869753922549 4.8973493779823114 0.0183150978462160
1.1320571832097748 5.3936977823946002 -0.0025522549283790
1.1319525256514733 5.3566052859213551 -0.0019554269968140
1.1309133121696275 5.3318099478049987 -0.0024264281792960
1.1386618383119593 5.2373260632022109 0.0124836207186658
1.1927015468084348 4.5558220307271275 0.1389989478692358
1.1287707453176403 5.0363221494484405 -0.0144862366130354
1.1316956228203261 5.2859768588448901 0.0220960316442900
1.1410719610211606 5.2767079491860009 -0.0143194682029012
1.1117418156651335 5.4050823303725872 -0.0106809649142892
1.1309922845538571 5.3008700014679988 0.0030947986086539
1.1353498908744581 5.2204704460407516 0.0119419751902240
1.1479756739650600 5.1960493705682254 0.0623323468062690
1.1563831166832446 5.1032054892161636 0.0564481927397898
1.1171747359215309 5.1888861483354249 -0.1224798966834898
1.1472401615931445 5.6095815636934301 -0.0102069467200847
1.1208552035823602 5.2254556657249482 0.1153719100163699
1.1289860280181916 5.0559659506434427 -0.0070457107094827
1.1164263185767116 5.3607637148605898 -0.0244805160365653
1.1271347079256093 5.3351085024765936 -0.0312140166305927
1.1422779441666218 5.2179958282751056 0.0005130009111442
1.1351912701394622 5.0884720315480436 0.0188442917437614
1.0770393811460202 5.6118586856538606 0.0600762028289197
1.1113784120787606 5.2462077126932858 0.0210445083506536
1.0980140221845927 5.4093630684040654 0.0676116160856686
1.0941612113482388 5.0546303950939189 -0.0349765340595833
1.1270010065987233 5.1256459676327832 -0.0196950143869397
1.1277410373721901 5.4364882788097324 -0.0014509018787762
1.1455725155645857 5.0715382115537997 -0.0143250085068172
1.1563456488126418 5.2709858950863930 -0.1000940511570207
1.1344976485732543 5.2798063058496663 0.0025139303503895
1.1292104283921389 5.3933978676681562 -0.0088381662839477
1.1348228378530343 5.3202313464329780 -0.0076621460122657
1.1300937330568728 5.3148233749802962 0.0030206071419889
1.1694699413987522 5.1016169288692748 -0.0692899983183323
1.1388048904915296 5.0277345512716467 0.0225469676939521
1.1343793564302393 5.3103885933824575 0.0137585352142533
1.1327745038974304 5.3534865753396410 -0.0633544548698902
1.1228702987884149 4.8661842445338115 0.0673157086152158
1.1149491197003503 5.7326700566474367 -0.0749545380037212
1.1431197252942435 5.1183859366366216 0.0224022454095961
1.1302589876001616 5.4000860703829412 -0.0097983066607779
1.1249122710589408 5.2733176332691318 -0.0223476746561094
1.1929504937470614 4.7052114449947506 0.0387582498631717
1.1177941791233761 5.0738915175224113 -0.0293685388403969
1.0978370139899869 5.1865850034949244 -0.0199709340525493
1.1411661793001588 5.2956980979379331 -0.0311507883409599
1.1238470679391475 5.3570011885425703 0.0402441609257163
1.1194789477342642 5.1574113950584195 -0.0689911851091857
1.1120829442513633 5.6446100449836374 0.0300069897218574
1.1404467844416151 5.1588021540865467 -0.0045938618116422
1.0284929983088853 5.6015839243380086 0.0821235489038750
1.1446755576042915 5.1267800820545215 0.0075337722664176
1.1009436042047771 5.2482829526670631 -0.0623783080977737
1.1113284153600207 5.8884228062707162 0.0052113617455694
1.1315134572853338 5.2572661100763955 0.0135148682179916
1.1409457881714771 5.2528044578436663 0.0557159956877895
1.1160984840955979 6.0802464897986841 -0.0031750652128780
1.1347070673969604 5.2397606796649203 -0.0185420062733913
1.1128439341440006 6.4777005197399751 -0.0969419740461464
1.1309168567500172 4.9351800192010042 0.0384622126477301
1.1193446619576060 5.3347590847362616 0.0574309532596611
1.1324443379508224 5.1851726372958185 0.0177176815370036
1.1433959370832678 5.3349110668123059 0.1979376961970011
1.1318462800340474 6.0123211141358057 -0.0330050441200564
1.1415971022823008 5.0987877315004591 0.0177705902099453
1.1433963288060354 5.0995372563251653 0.0707818717016549
1.1297998706860752 5.0012832970650276 -0.0602894341066322
1.1850057605961986 5.0356284024515388 0.2210033735240322
1.1576194708860681 4.6695160730651990 -0.1296568348755633
1.1190869610161578 5.0349699819756326 -0.1313616734738654
1.1013907617694427 5.2910640297756970 -0.0798842664927045
1.1225159157306734 5.3984374768232000 -0.0076370651056922
1.1402997197046805 5.0847944918134687 0.0169119864352375
1.1282986007442992 5.6053988369528529 0.0385355613282714
1.1409174341068113 5.2949680072489729 0.0939698730737997
1.1368536625853423 4.8257007073110101 -0.0492126008329834
1.1507587752479826 5.1744026775407210 0.0455815479420329
1.1975356277342728 4.7350755940344103 0.0064335307857076
1.1241580967093543 4.9818906287799356 -0.0854077087868925
1.0855097955818560 5.0079769668444314 -0.0413192426133580
1.1122766830485318 5.0842687502800796 -0.0512988696230425
1.1624250366319304 5.0519721550274177 0.0418902618148649
1.1292275675817744 5.0353798442533835 0.0348743280262919
1.1355172074304969 5.3276330927579627 -0.0153846101213025
1.1233137459914726 5.3841523917858556 0.0668811729226671
1.1351621224684667 5.1512656265858352 0.0936978844345884
1.1575097126580605 4.9966887887812170 0.0075007421294575
1.1667885620685055 4.9953284766402879 -0.0036408148110830
1.1399290318782767 5.6852327702802681 -0.0255997559588352
1.1283548167620443 5.4600291314468068 0.0178707156087151
1.1444418897350541 5.0196866916904792 -0.0163535896144267
1.1375636000898435 4.9968943797656458 0.0162146250310393
1.1395056635206740 4.9613626868990428 0.0069942487135578
1.1661243946568152 5.1510958865211540 0.1204411017616031
1.0916935918911859 5.1966704570127424 -0.0204613195658172
1.2719109600995686 5.0929244402164615 -0.0940983101347217
1.1149865901009868 4.0716651783737579 -0.0622505300407836
1.1169104840710593 5.9551259547267206 0.0161949583187017
1.1272972087287036 5.4050175521952273 -0.0022987550229868
1.1112235937157053 4.3761543949041899 -0.0235524453246925
1.1383091264466061 5.0675273400634451 0.0091790617444287
1.1384658422786071 5.0561288924026444 0.0281170942505634
1.1871018135146207 4.6640457944070484 -0.0342997443504907
1.1297392581433121 5.3567648335982456 -0.0024824848273499
1.0877672368525184 4.8737984997033754 -0.0165415430387115
1.1393750280860302 5.0036467019123760 0.0139786760281682
1.1553233259529618 4.9419847573930937 0.0270470640706704
1.1223077461339173 5.2423799272962901 -0.0265715878444430
1.1409766689557661 5.0865600618903430 0.0161337154989013
1.2266108762062706 5.1577982071328972 0.2612542655652403
1.1164436796483068 6.2542634888737805 0.1158781749684083
1.1391019413789949 5.1968839703988703 0.0244374468743260
1.1149440603808529 6.1366905269987280 -0.0626461311038734
1.1342095284624429 5.0221476642988350 0.0226778762076438
1.3004963206045597 4.9947201428441401 -0.0152677696720425
1.1604391283267534 5.0855216364053932 0.0536987441572576
1.1337237504331312 5.3040960771001542 0.0012468046982034
1.1300774822432131 5.3754398669568513 0.0058499944196982
1.1421434901123495 5.5524209276211272 0.0244678336698527
1.2147121249605835 5.1462038381336130 -0.0353849623764114
1.2795532915180241 4.9954336694973680 -0.1173837526987094
1.1418312111355469 5.1219996227138003 0.0100993457755625
1.1270914089401325 5.4279135191368084 -0.0017832767342219
1.1293153800389879 5.4902820985851770 -0.0098861283862703
1.1361072846354110 5.2581254666965673 0.0009310699808832
1.1050401020449276 5.0920104961028256 0.1239878415887758
1.1020375600088492 4.7336981082239085 0.1013204774598472
1.1735256371914451 5.1315508972259396 0.0203907380447291
1.1044560606880578 4.1804066820367947 -0.0854541332358631
1.0534840865269208 5.6222326310882957 -0.0090052818386858
1.1379871808697251 5.1419683442311754 0.0090599319772434
1.1274609897124630 5.5769995350502315 -0.0067638688147504
1.1285577495252690 5.3999574428228589 0.0449236009418671
1.1203490388054937 5.8317287449458304 -0.0363446853194062
1.1246604347949940 4.7519577154935453 -0.0171742962662058
1.1159904150624560 4.7799320393699762 -0.1520746073996717
1.1412362942769374 5.0951159563844959 0.0166039533881965
1.1110850367689782 5.3981555533407466 0.0615601307025313
1.1317036792135464 5.2315309435164190 0.0357602930783363
1.1374970768517232 5.1693956293671146 0.0294719446249825
1.1728097165536122 5.2120574688597996 -0.0152534813658059
1.1247816715208483 5.6286575142915884 -0.0519362007526554
1.1279953809017360 5.3226858440020246 0.0214781345044101
1.1253783150226331 5.3124171251366512 0.0347209563169958
1.1170069187555141 3.7181600168932465 0.0544704289629243
1.1457096372701316 5.0986599226401470 0.0134318833624045
1.0850588004968582 5.4334574374558500 -0.0475320263507816
1.0965726203325554 5.7328584639646740 -0.1083280411892305
1.1275665759801206 5.4279825716518602 -0.0017947937772554
1.1415072542742521 4.5631114869596745 -0.0223598207649660
1.2386381598064553 5.2484300463224907 0.0456744010047625
1.1228755978924054 5.5571607122095221 -0.0836959630407288
1.1076256683603909 8.3055666797708110 0.0417026893213686
1.1443091915504013 5.1912012573916479 0.0402340376869708
1.1258045343126424 5.4243992357286448 -0.0021461101578078
1.1558238269210808 4.8529417954498797 -0.0259417594322709
1.0811054375232203 3.0163209276887981 0.2303395438936295
1.0747295024924781 5.1768438878227387 -0.1652482524221371
1.1379325023126388 5.2526816871131281 0.0394448241669749
1.1464509524854465 5.0399083329098504 -0.0071782381923158
1.1508237147590152 5.1014342739337089 0.0247758705434824
1.1354279350241077 5.1335957579422207 0.0260806442733237
1.1240668889744976 5.4144528995298566 -0.0041213418875970
1.1247392050817155 5.6867689669554347 -0.0023147557426270
1.1255298288071005 6.7110999375642857 0.1037295119551558
1.1335300202442629 5.1740585450746472 0.0308804088397866
1.1665598207802912 5.1596508809367876 0.0520979777049458
1.1310968659533480 5.0883085894068047 0.0531370564900355
1.1183293051500742 5.0345681852762798 -0.1466213943916380
1.0973031322232940 5.4367215290198994 -0.0235221079567233
1.1175624575124250 5.4021485476271414 0.0406605981094185
1.1398329986639315 5.1994125219528469 0.0196784722122589
1.1247391421302724 5.0399718852341513 -0.0471683946426338
1.0301959754938179 2.8249613912393521 0.4288935936430400
1.1145351803980972 5.0965799602409900 -0.0262542666080523
1.1414591358518089 5.2116616620146754 0.0149537650631018
1.1326765770458538 5.2444525159498783 -0.0740745461631356
1.1391812292773600 5.2265202855266875 0.0398612251696382
1.1279712354613241 5.3859528569666910 0.0055468867706842
1.1656150349619765 5.0987227399612776 0.0225109040471312
1.1351795617224647 5.3556921249853175 0.1151808609523675
1.1417882885410979 5.1375319415216154 -0.0046793405775809
1.1132590593344895 4.8354280376856940 -0.0443426337527579
1.1260403821911316 5.5269160411177474 0.0428895425418469
1.0895842616196363 5.5374001270075714 0.0180914932879035
1.1242489351827851 5.3941288540180947 0.0421066477344850
1.1241492564952313 5.6525816656880528 0.0052158191990387
1.1116736891156627 5.3531341746757963 -0.0163891824352113
1.0481065362924706 5.5747039393197371 -0.0869059486432337
1.1421117716350799 5.2774286855293955 -0.0112578164043754
1.1347419910033532 5.3826436882928190 -0.0157684384841965
1.1345655675313677 5.3498866078193377 0.1018245617312697
1.1281457566647060 4.9126167793956705 -0.0236395576648954
1.1118696119477673 5.2770138784211769 0.0744212529102209
1.1063338126052691 5.3592088464789827 0.0639378621341769
1.1330341958212313 5.3192036015877493 -0.0021596426732053
1.1077443346547700 5.2729587723794245 0.0782999135817997
1.0825921102275486 6.0775842850009507 0.3315626483328350
1.1420800304963461 5.1030897244702134 -0.0070042829293795
1.1403385461952498 5.1253123580877613 0.0176976663988260
1.1319853514429250 5.2040187536879143 -0.0198764807182958
1.1338242826301792 5.2394222743695460 -0.0176783714859961
1.1386798110914169 5.2562856165823444 0.0030652176714391
1.1236550771208293 5.3803182644219367 -0.0117087802364922
1.1061868454755373 5.4865586022286861 0.0257839100877164
1.1134078194756640 4.3331425830832035 0.0332870706776644
1.1201471444431033 5.1028110342873987 -0.0330840685429289
1.1255875896921685 5.6123281785858943 -0.0649034983736869
1.1285881695563116 5.2809118019327315 -0.0118685554365438
1.1014340838300367 5.4585134597384881 0.0293189802887672
1.1290446419178148 5.2279834635741471 0.0041096875555122
1.1429045471616390 5.1847943835685930 -0.0029156151361852
1.2131603577933439 5.0977824522265056 -0.0243402714314565
1.1379561428300282 5.2187580969851890 -0.0000987467076181
1.1397863911195238 5.1238505046285390 0.0175540991030037
1.1483492552712686 5.0880600639662363 0.0424817058738540
1.1403887074110484 5.0972388261512789 0.0100335693500120
1.1409412024733385 4.9162999046053608 -0.0132271121167368
1.1424518093821221 5.0315188093597634 -0.0179447000641368
1.1397459247155928 5.2042166860631269 -0.0115874681149840
1.1516495774174123 5.0483218479843597 0.0015297531649816
1.1338462016411992 5.4251461453193093 -0.0127340181076474
1.1167622437353166 5.3492295130405552 -0.0123297671846615
1.0188949022529965 5.8273461279658640 0.1079505288566309
1.0784216643593836 5.0093718861363374 -0.1435441980849651
1.1266343359734230 5.2700912154752988 -0.0346756593014158
1.0961609779865260 5.1728775424977531 -0.0802969865034916
1.1252448713651850 5.5012042567559316 0.2422771454301593
1.1329845123202198 5.1296626114729937 0.0473946512229093
1.1433289326297420 5.2860424798943990 0.0528911225709917
1.1286254592630933 5.0994302054617968 -0.0821228425031084
1.1226642783035707 5.1534995607383101 -0.0695796941934311
1.1349511608044409 4.2472888316024910 0.0583045879980270
1.1343742599429381 5.2974451280046129 0.0037130195947381
1.1010037239734942 5.5775502869703200 0.1129195941897122
1.1475496371989624 5.2487666799993900 0.0476971311016887
1.1252871351379745 5.0011973483785068 -0.0129720023541027
1.1317022146643003 5.1696207521682105 -0.0188039340348509
1.1048440555081052 5.1466797251539900 -0.0134769406882202
1.1076822077122541 5.0645664036770723 -0.0315483745269681
1.1006650573465866 6.7966371338300187 -0.0634103836065549
1.1291774567890629 5.3867243291725249 0.0392525296708420
1.1614925397761118 4.7312032816466862 0.0108891023666697
1.1388543788957679 5.1863431912298452 0.0160294042988087
1.1441208639010154 5.0597376598945019 -0.0030513248907311
1.1213035517273846 5.3762817275233408 -0.0124853755930099
1.1469811955435649 5.2814951180131944 0.0576968630312765
1.0301948976159661 5.6854578785677399 -0.1019586970221795
1.1205823487137769 4.8256365223684332 -0.0617578371814196
1.1218445223659583 5.8170571528098183 -0.0167147574687846
1.1129386020156755 5.0975693620000753 0.0712171581051328
1.1344800781746047 5.2037804421130387 -0.0300549024519061
1.1057425293814243 5.4073858225843914 -0.0003193669373401
1.1326704720526075 5.2331811929502505 0.0464369634271608
1.1108228317083555 6.2596598397279459 -0.0305106859860433
1.1714387000041797 4.9106448435673817 0.0351049682815554
1.1504559547621911 5.0552062783078791 -0.0142859836217816
1.1349695874345820 5.2256992601917807 -0.0034686958765879
1.1569869148232392 4.9819462179501501 0.0292633621886477
1.1272843532211090 5.0712194203251384 0.0014587594954262
1.1927127820826280 5.2313293746331420 -0.0190782620621896
1.1714075243888009 5.1095033522553317 0.0986866751598572
1.1035010527447995 5.1402973726575567 0.2644451767064215
1.1300714959756024 5.4318963577008574 -0.0521459308520654
1.1523368218243930 4.8549968397304601 0.0457236909765225
1.1129057105681375 5.4244150329560750 0.0079532795634605
1.1258846943579872 5.3809288740124988 0.0199701473773086
1.0976347431172973 5.1248428777341886 -0.0997892816271910
1.1774909149402364 4.7713308574309679 -0.0074976745917775
1.2761117748694932 4.3958156770200070 -0.0403519893194639
1.1330250423506931 5.2760839951488308 0.0352893121438886
1.1283847121675341 5.1508538590967792 -0.0116823722670116
1.1221184468312440 5.3956970838243459 0.0692593199007954
1.1299049850781022 5.3607596968522406 0.0051275757448299
1.1195372220729465 5.3341304793151227 -0.0210230964497607
1.1110193775869794 5.5264542937636341 -0.1302550805170641
1.1320204500029236 5.3887703618580174 -0.0116341389703380
1.1015364989250231 5.0460515408911855 -0.1292781020007555
1.1325569318097914 5.1971773627687083 -0.0152250155635411
1.1313176920669179 5.7147438732405096 -0.0513394799818924
1.1457047760906032 5.1321928414369440 0.0262008624599159
1.2019460948012057 4.9701488674318490 -0.0198784476293623
1.0649727270289546 5.5923852313940490 -0.0255181990402364
1.1291640674329371 5.3802532024534155 0.0057409653729813
1.1135694827577458 5.4529652869637681 0.0308350089017445
1.1135122207111476 5.2785512146882496 0.0598374332887388
1.1142628470783331 5.3088717307045341 -0.0395753328002944
1.1339811116317062 5.3676887136932461 0.0213748478745138
1.1328609029640722 4.9390366828212287 -0.0515655409453002
1.1078193543544721 5.2096151625591496 -0.0688062734519417
1.1299066454448623 5.0145862887954351 -0.0464135588903908
1.1340625217186340 5.1499183458836360 0.0173487250152883
1.0818659562118154 4.7918241259242702 -0.0018513869367271
1.1292179813475214 4.8922200374177383 -0.0069836751671301
1.1946565600514600 5.0201730159773126 0.0243553644097933
1.1473447460088808 5.1308287623875160 0.0081721035255581
1.1314212389574094 5.4905234862455305 -0.0127703056285208
1.1291464239550193 5.5057966506833509 0.0012173661795904
1.2225279313595312 4.6852167106112548 0.0383332902465901
1.1404775630536732 5.1347077622385173 0.0263360277858386
1.1238467103516210 4.9612918405718975 -0.0533001276458124
1.1256568783041239 5.5862136767367767 0.0116498568881015
1.1481823430735871 5.0966856810427066 0.0178686753669469
1.1214075182176253 5.8200871122065987 -0.0243083295779012
1.1144925760439941 5.9411610740667875 -0.0744377744334969
1.1447694784745515 5.1775055751150418 0.0042895099470702
1.1361821898148203 5.5210238797876343 -0.0025492247013232
1.1191119973362640 5.0223013898348352 0.0066566449278617
1.1779591097453517 4.9086115062451450 0.0556520780194298
1.1246579381994393 5.2215675732675768 0.0670613408448903
1.1208958228000547 5.0470133104242123 -0.0499340891700871
1.1468187844783708 5.0169834232728130 -0.0380024873379342
1.1291643553110069 5.4295687288597634 -0.0264477253950815
1.1375505510078763 5.0664644586493299 0.0009006969394506
1.1005062446312748 4.5987611652915072 -0.0010473523919273
1.1353466855331085 5.0226630463954711 0.0349438385185644
1.1330524443888661 5.0829624565811775 -0.0125240044787463
1.1296544255945473 5.4900482869189924 -0.0156202535586400
1.1381394462171581 5.2905828336118628 -0.0156674408711162
1.1356931099049772 5.0271970296979029 0.0100324118740731
1.1269842675611992 5.5351759443730737 -0.0092408582573305
1.1298594515501061 5.4771224260352351 -0.0226483128491589
1.1405054046205299 5.0872167484098618 0.0166454406087844
1.1229447062491031 5.2074273201442214 -0.0301437573855857
1.1214124509256331 5.3807639923876573 0.0013400262122249
1.0868940497063619 4.4002522767447632 0.0239602769818281
1.1271269247794651 5.3864770899572392 -0.0034809792327359
1.1006564382897368 5.5151963808620348 0.0530852138234445
1.1363605893756481 5.2084370448964012 0.0271093251742156
1.1318452796901486 5.4775082950157596 -0.0935529435093542
1.1154969625746232 4.5398678491402862 -0.0556492442798844
1.1267810143013461 4.9317307540234605 -0.0167666231963771
1.1334570009441622 5.0601665007824197 0.0156620719312185
1.1351794134051492 5.1617516854344290 0.0204135968944267
1.1308161589777246 5.3557155533656209 -0.0099050055361796
1.1104450840370281 5.1768532744600266 -0.0904068597005015
1.1038787938715102 5.4710264927365611 0.0655056103980103
1.1165329647150959 5.4345454590078806 0.0115389124029549
1.1233844794054715 5.1401214902690384 0.0696342753360775
1.1190013513768513 5.2299754900155158 0.0792454899348188
1.0962975628605653 5.5354862487038154 0.0700608545002185
1.1267686485510504 4.9038972809747250 -0.0101837338743464
1.1444080471447382 5.1921330617198578 0.0192981303293224
1.1288503158072698 5.3264956262249257 -0.1078094594487615
1.1229584494821845 5.4139427085697447 0.0030042075529929
1.1237117915330970 4.7457312772587432 -0.0017671059619320
1.1394296876152172 5.1144456215434362 -0.0036252078849032
1.1293023999711818 5.4165846863235787 0.0060815793763001
1.1348242801685795 5.1357942495409299 -0.0143165393391995
1.1411445963063942 5.0680122069940179 0.0170119846132861
1.1706267499891667 5.3040618043538954 0.0423719307710933
1.1358655619305298 5.1469737940994431 0.0185447045326821
1.0983501745552307 5.4604650983096894 -0.0166410141079636
1.1305482262397595 5.3778103227985508 0.0222840770315969
1.1416797007047406 5.2105481200420840 0.0001650698034998
1.1265164796527336 5.6291412739956694 -0.0248972039895963
1.1399617188371380 5.1739879874230690 0.0135913871531908
1.1425282581320888 5.0863473497528497 0.0167451405841754
1.1359134757126919 5.3258962719378040 -0.0032974673000081
1.1282301321526724 5.5002674216898928 0.0029877353108698
1.1187078712515861 5.4913534947348497 -0.1512857611483904
1.2026671055128306 4.7100381105553630 -0.0624538748870620
1.1964503930667938 5.1149011502636510 0.1085862475350922
1.1386596278187531 4.9215529385330585 -0.0556029337886253
1.1271310856636412 5.4831158827143778 -0.0418516402588393
1.1484022652609289 5.1502912662194422 0.0115070739569887
1.1200154501856916 4.9780858477658576 0.1042538396978462
1.1366039888222392 5.3474581496804623 -0.0745793845072714
1.1401245502863198 5.1097301224539562 -0.0379829162129043
1.1147702722641524 5.8130259709200809 0.0144391435420911
1.0979983424101056 5.5169888560752369 0.0177070436986715
1.1347734280557185 5.1638950749524417 -0.0051392786870236
1.1294602358580479 5.1613797193081323 0.0237566793746041
1.0956498805030226 5.4268018152079192 -0.0142581046646345
1.1551055875244309 5.1091751679902897 0.0155037562684349
1.1389583389916924 5.2569974572199145 0.0055052431560209
1.1062466435478955 5.8062501597608609 0.0225736081176558
1.1307844790613908 5.0675791330882785 -0.0191620861723393
1.1501495118705842 5.1850512596545473 -0.0050390125683443
1.1315411442993861 5.3094966391665332 0.0192606282679821
1.1570948141911523 5.1140570862378141 0.0102630461867791
1.1459527754979149 5.1594722921594451 0.0326746868089995
1.1365920995736254 5.2757601546042414 0.0335652763012132
1.1310663348885872 5.3357111653305473 0.0049261137729931
1.1481509140179873 5.0588356397496028 -0.0077264146351295
1.0890236657936925 5.5135148564896044 0.0219685679043054
1.1175413627918447 5.3919445633840111 0.0175435882623502
1.1037974353664060 5.4974717431296716 0.0232816038275357
1.1285287355293938 5.3678347532124109 -0.0138721600653261
1.1282714488118122 5.1830867247284340 0.0300019129948933
1.1201208566964411 5.3911837350740068 0.0826234406180294
1.1245311007289307 5.3165242474488617 0.0358194664182423
1.0387586654261733 5.3631502868190459 -0.1344660289160842
1.1457485930003961 5.1604094725977747 0.0205247022125146
1.1289610389485740 5.2107223395242084 -0.0205625589705866
1.1230655564071523 5.4832234781559839 -0.0599476214933751
1.1284223502624040 5.3026296274277165 -0.0143156876910523
1.1242895600841527 5.7629695028233803 -0.0108180282506086
1.1357865977826438 5.2858158106533040 0.0442886339752503
1.1423716114260298 4.6977458429005443 -0.0731682884265905
1.1319848454022605 4.9254539192860962 0.0132903825577851
1.1385976724080367 5.1809373922989730 -0.0006686638222996
1.1709302187166868 5.4268505746019668 0.2015091427765671
1.1526294923294345 5.1307458147669660 -0.0127242947132959
1.1422868196937477 5.3187229146881059 0.0376892637104552
1.1251280839610496 6.0739050270294399 0.1190869044470921
1.1296741679897337 5.2701997370695999 0.0320095707756943
1.1390357864076406 5.1612354455376437 0.0327356051244024
1.0931925075713513 5.7463749870085419 0.1459962186770324
1.1298590966227511 5.4475874605848249 -0.0307091714805622
1.2083184608781041 4.4988788859892255 -0.0093935979279648
1.1245445858474898 5.0816542825977677 -0.0791150855188000
1.1269682550450755 5.2939111787593243 -0.0121567756108518
1.1207455821805037 5.3646221791905235 -0.0143414999591815
1.1776439427790826 4.2057743286514739 -0.0223778144132795
1.1962515645399694 5.0517577557490281 0.2200888218950403
1.1217611274406489 5.6021484964079429 0.0317322564346430
1.1276358373664199 5.2531745923370972 -0.0165290904522765
1.1301365313766987 5.3486318145783693 0.0053683715211357
1.1106964915888249 5.4632399068237536 0.0560834314605423
1.1238541447760397 5.3639840662848561 0.0560250311880164
1.1365858367004962 5.2891625194203487 0.0655221993527776
1.1341876519042604 5.1307118910612202 -0.0375399272521451
1.1223886820129956 5.5031790558119802 0.0419922304494111
1.1505542680214418 5.1234395381656306 0.0215271455334113
1.1705334095241358 4.9081282996771760 -0.0412565569415624
1.1578438275052296 5.1165418509355218 0.0043177114140371
1.1746474469061556 5.3171820451523368 -0.0369350331046885
1.1329565371182677 4.8541471783331449 0.0511193717228642
1.1318015297218389 4.8998908544409696 0.0054714293824893
1.1336765298543361 5.2171271814254201 0.0109032447425542
1.1766848325883750 5.1259206692010073 0.0378889212218882
1.1392173207167138 4.4106290879745735 0.0368291228925994
1.1532732922006599 5.0003473686636255 0.0134822914762089
1.1245620482070329 5.1713371903378098 -0.1199168011650962
1.0828453015302932 5.4386356238535543 -0.0332918585485533
1.1323231098246413 5.0570172132815490 -0.0449504651018227
1.1153850567706125 5.0293323835648343 0.0297893492641005
1.1238784237867456 5.6649747575146918 0.0392716274990158
1.1325818611722871 5.0640930660147934 0.0408398634997677
1.1330932194512824 5.3113421576416648 0.0178192347026957
1.1486119435217028 5.1746342887259358 0.0353617799792803
1.1308819346204497 5.3076743265941504 0.0324484954141931
1.1329859349642979 5.2634440302688645 0.0134253213179941
1.1417122605996055 5.0981318029621958 0.0150233455707950
1.1371385587046461 5.0190096883436137 0.0278709321109791
1.1340689804318140 5.0916284970924268 -0.0053449641598770
1.1542334302501218 5.1353163906648902 0.0469867901136083
1.0900135861380347 5.5674397709023147 0.0465270996642844
1.1385681559903829 4.8697401258454223 0.0116527348947148
1.1480125327842940 4.7440474021377987 -0.0212324767346687
1.0957020378005298 5.2965194565362754 -0.0678399687879821
1.1373438614662805 5.1073026518623790 0.0218647073286790
1.1449306196088516 5.1417386774158835 0.0545176482864948
1.1068315019878274 5.8174497983498634 0.0048077448983834
1.1554991984934644 4.1321160068669167 0.0117172325817246
1.1323250743167914 5.2964322757244791 -0.0028378591341351
1.1324383878605360 5.0726486909043480 -0.0073549737735095
1.1100967413565472 5.0801985443012807 -0.0227949480746018
1.2725840817176657 4.8837865519912116 0.0946531042352122
1.1509394660042878 5.1143051421861250 0.0208869670880417
1.1313401761604889 5.3269429729073234 0.0041172151835734
1.1298448926364903 5.3478958781178791 0.0195908019461847
1.1134466104855421 5.4056099497499996 -0.0133991898937794
1.1309075285064345 5.3037789386544008 -0.0127976231358295
1.1321293105221357 5.3572731258120339 -0.0134636867933905
1.1353381226011083 5.2820736990848847 -0.0023909232063117
1.1153146765650235 4.9320873018243185 -0.0988247491879789
1.1533629014952123 5.1529688398035089 0.0159256048711561
1.1372780069385346 5.0133562264807932 0.0023857793463806
1.1345645709088068 5.2307033187437861 0.0283886035615582
1.1249755244142243 5.2829505031467949 -0.0288589918035512
1.1179694459125042 5.9670516147954498 -0.0362923687282415
1.1322459146506552 5.0369415383134601 -0.0066289045681292
1.1859761979978702 5.0188751875774953 0.0039228620023991
1.1341305858423962 5.0794800692036262 0.0337726842283578
1.1322476478284160 5.3066038436276894 0.0310161471687069
1.1201933001618243 5.4649890395955492 0.0583893530238802
1.1879568790318158 5.0327354145706380 0.0486882513267157
1.1347072658697643 5.2078005231002837 0.0137832730607174
1.1256144824821703 5.6988135103955377 0.0066555355670091
1.1295637459395511 5.1751565151069023 -0.0192104384949605
1.1204599758734211 4.6691471554097630 0.0470547643740353
1.1283199944972997 5.7472759310257349 -0.0730830505496034
1.1620446003103009 4.9436360123539593 -0.0305941536871063
1.1354105796411342 5.0540115043413056 -0.0747988700423603
1.1474192966949850 4.8510566424811685 0.0256158448840875
1.1390779557763204 5.1208886334292822 -0.0019195628652227
1.1350560188319538 5.2762501287222321 -0.0134525674154651
1.1595411958199087 5.1308394771191086 0.0099632295420857
1.1251402927149092 5.0667264232558589 -0.0053465459530732
1.1422534741723325 5.2275637150562861 -0.0352269810678057
1.1040182598328208 5.2434973080300491 0.1259157018948477
1.1337606725446681 5.2141165172117372 0.0143826333498539
1.1570494260248148 5.1405291582669941 0.0458629219621613
1.1240189002160352 5.1583431769942196 -0.0427427171214364
1.1675255234026671 4.6744100064713043 0.0110276655807687
1.1235112845152231 5.1642933098773796 0.0581589420530937
1.1356879840963030 5.2333680437505699 0.0274266588620661
1.1554268392964078 5.1913655408364248 0.0672451947343240
1.0685381565451810 5.5892321324218806 -0.0032744522819743
1.1299244770601466 6.0234479841075128 -0.0592571822549583
1.1206041702872549 4.5685553412003994 0.0068341106885750
1.1072341230395115 4.4339692072288859 0.0995646892227867
1.1311202036166339 5.0868570656482417 0.0054639909110335
1.1278964099872193 5.2537596865951190 -0.0385037596797219
1.1040313009284553 5.4423128524418010 -0.0100704903610134
1.1293643957023720 5.3587700055204124 -0.0108024742026958
1.1187580296882429 5.2974325317620687 -0.0287387220443657
1.1239593249884641 4.9921483165716829 -0.0037740271391113
1.1089339509646761 5.2460375240043646 -0.0731954860363474
1.1394663027244187 5.1055641881456397 -0.0106023766493246
1.1624362800288139 5.0595350306102214 0.0007425636373563
1.1112802391270864 5.7105932372295261 0.0543736095247248
1.1241784015020762 6.6348560108786634 -0.0484650682742256
1.1352824466377240 4.9188646830543048 -0.0773944986599074
1.1367715013827735 5.0438843051648314 -0.0107366884507482
1.1530715815590027 5.0827091334878167 0.0018967080762894
1.1620347403528248 4.6673143252151030 0.0354767957586966
1.1363801102527729 5.1707989248715096 0.0110402103336209
1.1331401497957809 5.1073707721746437 -0.0185736167180931
1.1258831516295151 5.3258939444924502 -0.0152544290251987
1.1236089232356428 5.3987907003320288 0.0733412331445246
1.1306500335365737 5.2343953315320881 -0.0149707600809084
1.1160237797855108 5.5832313239818667 0.0580725033038308
1.1261151589211034 5.3902053672641372 -0.0074635114640378
1.0860888895575596 5.0848294705414290 -0.1433004192059828
1.1729104549324347 5.0923385539584514 -0.0345523403355224
1.1417060202476375 5.1554932410465080 0.0204373858156308
1.1313283345996901 5.0413142225860277 0.0251847639252862
1.1292553367032003 5.3437353577433200 0.0327515209863083
1.1325079998158047 5.3707292073196911 -0.0368338609027772
1.1369370746702749 5.1445307766657047 -0.0049914484088316
1.1338387445622711 5.2495186296896481 -0.0028742644737625
1.1224529758317270 5.7181673214899496 -0.0039679600750290
1.1184100220464748 5.1897473540003372 -0.0017052021312687
1.0185663422500906 5.7901002113273359 0.0603142766451200
1.1338622814667501 5.4470449710299045 -0.0110273207567524
1.1327324569269055 5.2634307030775878 0.0303035158353539
1.1387105263403186 5.1743156727793149 -0.0011853900623389
1.1336797937916525 5.1632691642574384 0.0367101173119089
1.1286947805765319 5.0065847513696857 0.0854819089671898
1.1338902288300063 5.9347087186983503 -0.0099730141924721
1.2231707666392939 5.0250204437321093 0.0052941589444118
1.1577813897721994 5.2400902239533931 0.0476593082499812
1.1276801812707318 5.4478175476023685 0.0210426315757118
1.1333051010035693 4.9913080495401800 0.0281818885205129
1.1246373795476605 4.7869414349970594 0.0302527096961405
1.0669396603420980 5.5466114553365555 -0.0508547628348037
1.1231343101523104 5.3583000727968235 0.0201349725035466
1.1298001768415775 5.3802829837993249 -0.0010526151146260
1.1381493872810289 5.1974212562914568 0.0051681611592052
1.1682606229748445 5.0347915823166538 0.0079399072574975
1.1276961075989935 5.1513780301127126 -0.0501088180073808
1.1316132167866724 5.0209214627118168 0.0282674902388452
1.1867893465600146 5.2131373291875107 0.0124676401463092
1.1366731162703003 5.1437424240647607 0.0213456200885713
1.1373549196513610 5.2281165243018570 0.0123714257898104
1.1374580432218020 5.2818433777516729 -0.0064777828213345
1.1302014086037970 5.3750743511577452 0.0208913514821648
1.1408177442337104 5.1937273864714477 0.0243531961259004
1.1380039152022527 5.1862850097157969 0.0098145793970599
1.1401835588797824 5.1488979270605357 -0.0013188711457103
1.1356707755551239 5.6711728782608706 -0.0586990027181932
1.1360439740660575 5.2397846978904488 -0.0181155006317749
1.1558423499591954 5.1358364323866601 0.0644864766355742
1.1340250792810800 5.3654200750024925 -0.0135935204301841
1.1418132095680080 5.3029521297464788 -0.0095529798815037
1.1541046866739453 4.8396725298671104 -0.0181095348102820
1.1139959708537552 5.4486519423082225 0.1120212654686531
1.1356198298604769 5.2714199364032686 0.0152207264531779
1.1365457274845494 5.2401411283247734 -0.0120151362766808
1.1448641327888707 4.7276198768457061 -0.0224599958691206
1.1137419385193152 5.4108351518753288 -0.0122544122214470
1.1392569516996620 4.5580357313414410 0.0803682549310239
1.1322409948005949 5.2432005004080651 -0.0218681901308483
1.1276982708577610 5.3808814808576404 -0.0105999309386045
1.1340482590025569 5.3516917583270427 -0.0095753699219515
1.1218526214792803 5.5270630435051782 -0.0863464309067014
1.1615174949870817 5.2257289775642839 0.1277910011489110
1.1218333810676766 5.7268339767218563 0.1211891333121360
1.1393231744390362 5.1910777969378694 0.0152727179648619
1.1449238662078272 5.0645597509519513 -0.0082702525575754
1.1295339518943674 5.3389864087634349 0.0629624506208106
1.1298521145344063 5.1689471933924649 -0.0209512906918795
1.1497999442335205 5.0798387974109085 0.0132230982723223
1.1303782521256311 5.2827078947170278 -0.0441141522400821
1.1194946841145297 5.4132105150792382 0.0559295410071938
1.0807979875213416 5.5351003323439878 0.1076654914741144
1.1330608191068616 5.2538071818544108 0.0167086808267530
1.1113920879271137 5.4495659313729101 0.0056149798201530
1.1150351447052733 4.9436403431305180 0.0893110495043423
1.1099865366587398 5.4518344176858040 0.0072494108751062
1.1949593878257143 4.9435615333542211 -0.0000275791305878
1.1099634220054881 5.3882180817796685 -0.0229964811084080
1.1293137949341829 5.4011496935500078 -0.0086263595595660
1.0896368822512819 5.3209847907915400 -0.1069179441839821
1.1449826368094038 5.2759201735976760 0.0974718128535889
1.1187513598490146 5.0468213512966846 -0.0314775497576250
1.1535530241635834 5.1072286813136820 0.0363018940132614
1.0932950359397868 5.4420747660683411 -0.0291194597901559
1.0768936363261414 5.3990860563409724 -0.0697693901665530
1.1289509772218105 5.3641640285276919 0.0343022052095801
1.1273060118531320 5.0316290199293459 -0.0524807727128442
1.1347894717140432 5.5723597113706491 0.0154569358384562
1.1268047539981600 4.9919003383460989 -0.0428973620770487
1.1039892502638775 5.4613779253659152 -0.0030720801721702
1.1892651964924843 4.9652621929702363 0.1562428252149768
1.1370290343034732 4.6383822006362969 0.0105000416851614
1.1345753713915467 5.2100410675985431 -0.0133066028573873
1.2177513938543374 5.1794633292543191 0.0461081402050900
1.1414172588552394 5.2012358846744737 0.0050266119238830
1.0672473085603833 5.5127667392535518 -0.0786344658496768
1.1340065422050818 4.7751003043840017 -0.0399125444053081
1.1469461974972732 5.1794081154060709 0.0260018737506991
1.1274196825772373 5.6137698242125538 -0.0135861650625668
1.1467707110954415 5.2230490061594779 0.0009961459895236
1.1329114779238785 5.4585279550164252 -0.0110885795660562
1.1228319152166371 5.1805864372727957 -0.0427765584585887
1.1291366290167155 4.4980149592751930 0.0268978635830186
1.1171610542660542 4.6906133117914246 -0.0838284936805578
1.1381175113925335 4.8397309360826393 0.0067820319354733
1.1329494630985353 5.1004539628912262 0.0096410297208526
1.1302168871599432 5.2403220139243167 -0.0141755972798180
1.1545747098047103 4.8473742672420794 0.0319521392384599
1.1197891577526866 5.2159182649238893 -0.0587212478582944
1.1647259078737271 5.0782947721149405 0.0388113263678562
1.2446520424030372 5.0325677234702528 0.0105984869706297
1.1330550680355440 5.3360804141118878 0.0672689728129758
1.1270466209014829 5.6075986219849572 -0.0147109951769333
1.1235179588326427 4.6840438146726449 0.0405359953866062
1.1468878997022549 5.0241925801269645 -0.0374688956125456
1.1332347687877677 5.2940266951954680 -0.0151470227737821
1.1472105138442252 5.2363765360270076 0.0809890144272454
1.1364268338306118 5.1650523144248135 0.0264965417030352
1.1335971228021038 5.0728589821580705 -0.0404744761863136
1.1340220615492220 5.2835519353283820 -0.0083712615592683
1.1268019089465058 5.6205895088681963 -0.0235902848592533
1.1649249228648824 5.1062125303632691 0.0725206241168754
1.1343349235830660 5.2697013189547919 0.0290819560681937
1.1356456903198862 5.5619979390354759 -0.0065370023779489
1.1520696463742275 5.1264360930967543 0.0433303624605737
1.1350070962906931 4.9406912635964071 0.0723728600776567
1.1193519974887229 5.7911248670118605 0.0300927953408183
1.1286126430189856 5.3841810470807916 -0.0091187833992468
1.1340387143319095 5.3817829593451636 -0.0114574920405739
1.1348610346420243 5.3257604517686303 -0.0073632964314839
1.1266869659728971 5.4063224358787219 0.0134460858060736
1.1110999466531790 5.3933437266988227 -0.0217091222396245
1.1208295912923161 5.2476572417275840 0.0660986607784739
1.0220543915629616 5.7150465997961746 -0.0504421693034042
1.1392856543723999 5.1912685149938769 0.0276835714339034
1.1207139817535032 5.4093119715014319 0.0410476316295495
1.1436616809965701 5.2077604220221314 0.0385158559450121
1.1268316891365746 5.6168286991184946 0.0144461784431740
1.1348204893598937 5.1107039458589005 0.0154429941464601
1.1030930051564825 4.9384944403821214 0.0022848189312353
1.1668725987566644 5.0638539725688680 0.0316963762918964
1.1055357860801667 6.7459418727659033 -0.0106480986836824
1.1155152479691353 4.4485826982459145 -0.0346435226282759
1.0819903214606248 5.4518371295935841 -0.0648769174003784
1.1384125509633516 5.2456754333536688 -0.0018524738258376
1.1171291571825879 5.1068447419881506 -0.0913988449456267
1.1389797875734793 4.8142696646306096 -0.0775074527471760
1.1349956607550677 5.1899262822255849 -0.0018299022691887
1.0972298481942373 5.5702241562174368 0.1379209817712621
1.1358818539671360 5.3084107667920417 -0.0087184446841301
1.1201278280973876 5.7583412646679495 -0.1108852769609687
1.1333698811170332 5.3453231964243617 -0.0098596250250173
1.1582717461461844 5.2315698079534556 0.0057393244335798
1.0741725770648123 5.4577802344862087 -0.1026085261323613
1.1413204475194474 4.7614761460078689 0.0429014998507178
1.0908847382588232 5.2340006972081641 -0.1278492486246401
1.1083174170158148 6.1248132850343602 -0.0571098654239365
1.1320683692196507 5.3314259246359663 -0.0041126474012179
1.1341801948171402 5.3705482626211039 -0.0091333708178786
1.1473171035390022 5.0265162769382696 0.0089639238744275
1.0915821921771263 4.5202770010445272 0.2137407559868839
1.1758396188229745 4.6424342566497794 0.0419332307762134
1.1301429937488225 5.3260929915998512 -0.0109503282610289
1.1205847387334746 5.9295677412048882 -0.0465206581307992
1.1126342624885321 6.1468738601951145 -0.0284349200671693
1.1257032607687287 5.6080810676956032 -0.0849525155794533
1.1002471624662757 5.2273386406113005 -0.0982642169495846
1.1120184638625388 5.6280413098129332 -0.0936577483891425
1.1271068499226125 4.2674850822795189 -0.0074492019411647
1.1041811849801504 5.7962701700803496 0.1447698659813134
1.1088996809558656 6.5032280755765965 0.0299782056429446
1.0546897518686267 5.6675853679235768 0.0333272694974291
1.1090808437080086 3.8872718657584766 0.1162357283595946
1.1119287504199118 6.1994792988374909 0.0572749498860629
1.0853736816536561 5.1300669391433660 -0.1240791684098355
1.1010392572392798 6.3776583015745940 0.1382784976066098
1.1201434396156367 3.9993502602678661 0.0163002467369748
1.0348094691535989 5.7068174228342903 -0.0030749776894757
1.1122310785827598 5.0886292738247443 -0.1056273866597187
1.1328844311720097 4.8714029721963570 -0.0778830266745981
1.0645032721061256 5.6984254398710021 0.1333870280442160
1.1096738434274755 5.5204064070461101 -0.1108247126575224
1.1687395856675138 4.7082963299972631 0.0109341718057214
1.0881406801816638 5.2291425071243500 -0.1069660417532924
1.1496251261475698 4.9622099782100797 -0.0326074192201139
1.1307056840722922 4.9125696021424465 -0.0838799957374505
1.0787789333921611 4.7338414361506977 0.2615145899933650
1.1434494317055255 5.5344978181628681 0.2459583698328229
1.1144059047101234 4.3641497227007946 -0.0136038787376138
1.1252039883350176 4.5846189882553601 -0.0311701349568550
1.1527283133704636 4.9173204592972342 -0.0182364661487604
1.1122312226463820 4.3572197519662677 0.0536377130909853
1.1328064101742159 5.2923330503753965 0.0845034261676914
1.1613541468475208 5.1006546291446231 0.0796833686165386
1.1029109696869528 4.9807362153176591 0.0953772474040233
1.0857501904700513 5.2326523536916456 0.1199332030617883
1.0694042748685979 5.4746453855285617 0.0133291560031686
1.1119458925908174 5.4400795152130010 0.1064162655070854
1.0999311898132806 6.1056370071949218 0.0212361623172559
1.0348746200737600 5.6190713627652853 -0.0036876813880614
1.1119288535402907 6.0598442684785621 -0.1961948473879506
1.0887327578132635 6.5792316220281188 -0.1480959166646121
1.0901232664687261 6.4354982604203661 -0.1087020063139252
1.0290395811183086 5.1077651819721224 -0.2326051238504889
1.0171862586289375 5.4545639100255494 -0.1447933136852784
1.0761848348961169 6.0572251919145570 -0.2223344155784853
1.1904209639640131 4.4888048060814318 0.0010411540682478
1.2763830836080945 3.8015882453410352 -0.2161643291560325
1.0662115925390778 4.1739165215990761 -0.3878046457044091
1.0322065442644073 5.0443772525553703 -0.2517724504555278
1.1537484808940779 5.4631660905572534 -0.0517828196587382
1.0614016778373438 5.4448680027815843 -0.3033761752704430
1.1382038091115754 5.3523653442928305 -0.3479959067211366
1.1620285898046288 5.2603548977796830 -0.0084593493805406
1.2344336618792122 5.0215584228386065 -0.0877113286209781
1.1903691774227128 5.0035070725622743 -0.0034294048977697
1.1732832504398241 5.1828860709123008 -0.0585702127207836
1.1796409006693656 5.0031839757817798 -0.0218109272802852
1.1524787370380143 5.0918588644494118 -0.0108128553679671
1.1886195437653340 5.1044638012992660 -0.0177280886086820
1.1353186899876329 5.0326298999122239 -0.0391304637670643
1.1593251761992900 5.0075271121437392 -0.0236791473664106
1.1737824420246077 5.5646281569302456 -0.3018829398247792
0.8397259211109072 5.2881678613000549 -0.0147408788831132
1.1185703459703165 5.2071031365303346 -0.0195827560541818
1.0829711085893767 6.3458766874918355 0.1474401297841292
1.1217867999735138 8.1233283276320609 -0.1115131666550360
1.1712136800150492 5.1167679424467565 -0.0289265747474229
1.1670194561353664 5.0177524073827806 -0.0013994430345549
0.9551541979908702 5.6933752366503754 -0.3116782978498255
1.0207214366762534 6.0160249699217783 0.1261433966942270
1.1546974195980308 8.3994739509380167 -0.2140535938774500
0.9616236287912187 6.2342580783669863 0.0682062362144844
1.1134774928959206 4.0556565833122962 -0.0589377470265809
1.1888066522098550 5.8134203962153768 0.3328416120303054
0.9873445826011386 5.4818889617799496 -0.3563784252631146
1.1782170823506193 5.5175248690779108 0.2537618125182727
1.1058169742364208 7.4011624083219489 0.1255332152083046
1.0357200921334750 3.9408845352814525 -0.3444830552357983
1.0571289957111398 4.4217114970561857 -0.3232101983379472
1.0810144714797527 4.7795652219710387 -0.0022717951019030
1.1819343132015305 6.2108158937768305 -0.0090691950209700
1.2955962649029062 7.7940063780520932 -0.2439406569937143
1.2074893004450091 4.9665191446978509 0.2180558484015156
1.0648269999758873 3.9902957702427280 0.3458448809668200
1.1177978279946172 5.7912986079347588 0.1046189653606923
1.0958907586343285 3.3098107703611244 0.1600326779469076
1.0931092697646245 6.7795039024536425 -0.1159131396201472
1.1471520656620555 5.1491965806993463 0.0069336058600758
1.2718849994871404 5.5771703886240269 0.0076731124058293
1.1562033069482129 5.5621394515148994 -0.0008976035370711
1.2134887177869682 5.3457579192730966 -0.0470520689997043
1.1694412134638299 5.2184885830656995 -0.0070602829826661
1.1458385973604102 4.8408909594054004 -0.0364998212778645
1.1506670886599324 5.9944098111112192 0.1519084926605872
1.1185288460600371 4.6676929928319675 -0.1927060238706948
1.1190707744045632 5.1611976863652700 -0.1761420691780819
1.0428518435489633 5.4426821877525313 -0.0235658023288764
0.9780124561533341 6.0149883660629877 0.0746047463711907
1.1729302271685760 4.6032951001500226 -0.0342878286032725
1.0868400559285820 5.4160522960374751 -0.0201666218916397
1.1163083655448387 5.3574361445505296 0.0968101024511406
1.0813978231301582 4.7214929987640124 -0.1176353071984440
1.1049099636997821 6.9803823049509006 -0.0457687680638870
1.0298196433590683 5.2652357140036976 -0.1895453979372745
1.0787044347508197 5.3846369026349281 0.2118096726266563
1.1998274965315694 5.4216326404593227 -0.0358971760231987
1.0596424151114219 1.8514688804300732 0.0411456360704811
1.5359432664129347 3.5365243111249858 -0.7940682716206757
1.1425499417934724 5.1166481940594988 0.0100439535633144
0.9677969166510655 5.6851452726514493 -0.1030889094750173
1.1138811488868752 3.6548909930384439 -0.0329245364651855
1.1192287374811167 4.8173620726245652 -0.1294170329965848
2.3887883099193088 1.4432568423670269 -0.7090789245360801
1.0375931388130817 4.3911645983738294 -0.3191578801695815
1.0933186319805124 5.5216871894114847 -0.0202264262402629
1.0865188881661605 6.0233941049710138 -0.0935716456535232
1.1172793457257109 4.7973684258281226 -0.1833839525547246
1.1050180306281796 4.5847962357386534 0.2211079899502830
1.2042271831923894 4.5626544603015944 0.2085517767059940
1.1352555811658327 5.1793452944891154 -0.0791681987033155
1.1036956585067006 5.6586798241262963 0.0817299731322577
1.0254375596709515 4.5636710718223581 -0.3206844166021671
1.1364754178649425 5.3788227371771002 0.0142105136740792
1.1203566049321982 6.4687941427095366 -0.2073954850028983
1.0868053813760046 4.4153146330590491 -0.1212912112500861
1.0189189378330052 5.0046570642114636 -0.2292321559029221
0.9561892382733133 3.9105122346090964 0.0953564409427714
1.1082917849848208 6.3096100873896415 -0.1221668204881830
1.0473867831324470 5.3571261592578727 -0.0953276403707402
1.0988107403325886 7.9432676549241341 0.0697818288301384
1.4346906412824350 7.1211936360409576 0.8876780080727801
1.0293714237003964 5.5049394424188627 0.0261067735836123
0.9954720605466942 4.4839589060883762 0.0360303919199624
1.2008074496584513 5.2589830918065914 -0.0358610610326799
1.0454589695005290 5.3806289252823154 -0.1157088598087179
1.0976926402516560 6.5577302517749185 -0.1985334114464782
1.2406631117212512 5.6869939462961696 -0.1331814107474132
1.0544346720484705 4.8058378055792934 0.1073408031741611
1.0903065219041870 4.6310691594747491 -0.1507395344239191
1.1204965835334599 6.3956932034865464 -0.2467710670881881
1.0119370217332710 5.0557086410770316 -0.2151582357767927
1.0418979010458829 5.4442189165356112 -0.2861112844428762
1.1056702313442064 4.7815286069676741 -0.1349980018368832
1.0591654184983048 4.3530087594953164 -0.1135862685061309
1.0138401663564118 5.5364922048109655 0.1095743600295036
1.0956061173243028 5.0269267850811366 -0.0579084035235824
1.0707358329758523 5.1328627065553514 -0.0413477778782322
1.0993980118893374 6.4405174531236824 0.0135523913428457
0.9046840283702520 6.1193215289909935 -0.0105081098601024
1.1338758546958494 6.0444396378150724 0.1243684690986123
1.2118028073448697 4.1805745816549393 0.0343017298577053
1.0406592186207162 2.2658508608693864 0.3589811561805898
0.9280736175315090 6.5649825989755870 -0.6891538207156018
1.1004973975273953 6.3777505001958463 -0.0100556404423609
1.0610040234111653 6.1450578838385290 -0.1978200755722561
1.0218123877947338 5.6644045127867519 -0.0425293963123867
1.3188614878459060 3.7504453452766038 -0.3390966690400433
0.8037468088624066 3.5363271262910247 0.1603612320690522
1.1171556826682159 6.4667295523552859 -0.1460017079807015
1.0059936672961636 4.5488028353855317 -0.3039984499775494
1.2026531228525341 4.4931940842127753 0.1308947174055713
1.0556787562702430 4.6066348859581074 -0.1533729178902232
1.0352369700454589 5.5456649375458769 -0.2784078168164857
1.1058073650791567 3.8294189561094680 0.0047257949468905
1.2177007556255339 5.5097638945867802 -0.0590436753039546
1.1045374821894780 4.6447865445351235 -0.1704648548030025
1.0227530727894933 4.6468330839663627 -0.3204374811267353
1.0999289147766480 3.7573643720909740 -0.0100059735523659
1.4743787567897289 0.8087275096754177 0.5752716133937089
1.0593881628906607 4.0848314234757321 -0.1316604158363857
1.2398180543919779 4.6575214797460003 -0.1113074076251130
0.8190452031887833 0.4829659257062450 -0.4221365552345154
1.2523638686041885 6.7569350638502979 0.2829068094025268
1.0523035181945297 2.7705803385264867 0.3343104491026566
0.6333667472549431 3.8575804419193354 -0.5181295274507279
1.1319340317672772 3.6354866889761590 -0.3091341998001845
1.1752749920800452 4.8683840877287183 -0.1676298193911408
1.0770959984194415 4.2557608500395290 0.0502563016512258
2.5737184923149528 1.2839568235154695 -1.5177179181674332
1.1857356570819788 4.4137529596293366 0.0740489298577755
1.1545656036131831 4.8051391861040686 -0.0320883735817598
1.1789613649076074 5.1839534040084452 -0.0267018848448026
1.1625271167882152 4.9363830983899408 -0.0320119243023048
1.1925145027327975 4.9585373902615464 0.0503034199937074
1.1596063933632748 4.5296656655819509 -0.0132506364960931
1.2100384589249071 4.9582083858975121 0.0905410905192586
1.2011848883320722 4.7808415604730019 0.0014832636947547
1.1826071235838955 5.7288521686442069 -0.0153250168661963
1.1578485781726953 5.4583620974538887 -0.0515975047182920
0.8105478338106876 5.4812801369116091 0.0085691320737367
1.1568932316295510 5.5753180675405973 -0.2708835726273776
1.0536840937755307 5.0365018235530705 -0.2021300790279700
1.1107810858033060 4.1645439140137537 -0.0190519879148437
1.1130108246667187 4.7008135015274277 -0.1039000926279606
1.0900954287162301 5.2875512105855824 -0.0242776308295151
1.0950285044341637 5.2478752301695408 0.0209846324189812
0.9898958056538134 5.2227862232151727 -0.1313714864296996
0.7194519693478798 2.0017604703821363 -0.7038754423128456
1.0893645988825369 4.3450726458093474 0.0182454778824192
1.0306726087171332 4.5137132170193865 -0.1290661401322051
1.0439123242435751 4.9317674139679664 -0.2932359928338681
1.2146263247196480 5.8459506774772096 -0.2304021888309993
1.0181798875297079 5.4347312275405040 -0.1868271899519435
1.1017322692937537 3.4647719231565084 0.0366666237511411
1.1151467256659064 4.6390999917950468 -0.2861697919734068
1.3078631070705391 5.5507146297947072 -0.2228157884294620
1.0304231754257267 2.4348017530199293 0.1184061580169891
1.1212088622952023 5.8012211948361943 -0.0165321228229947
1.1724101052783160 6.2483166762068914 -0.0357306185268415
1.1879681044022807 4.9860743434656660 0.0916165689665903
1.2035644562097452 5.0845433757294245 0.1545179587808277
1.1915898014620347 3.7669885574828226 -0.3074285366249359
1.0596710403311251 4.2279066515503194 -0.1785998557248092
1.3738855428857824 4.3964612061346786 0.7178323702337204
-0.7862948090224359 0.8960045625280170 0.4601901011787032
0.6281344657606022 -2.4013162303997690 0.7520138200130362
0.9313320628479688 5.3993893512962581 -0.1992215417961932
1.0534910122651824 5.0223887873377668 0.1059357160621564
2.7372305921940350 1.4589873893121943 -0.6560458306157024
1.1265044372216764 5.0132063003231853 -0.1545163774941370
0.9552016936542882 3.9784681353526934 -0.1175116761384739
0.9904389740323712 5.4263336594258922 0.0780881342738146
1.0997206455079021 11.6506366365289988 0.2229366240751010
1.2183081560955531 5.2562290730448273 0.1844480752164033
1.2108790649394978 5.7322746364271042 0.1265383893094912
1.1480708359436924 5.5514035827816359 0.0128376155583009
1.1226370597509665 5.6230579099009645 -0.0245925716273656
1.1347778989682726 5.3978024536149833 -0.0749609381564155
1.1775255397123248 5.7911695243217425 -0.1581396882370786
1.0881046639353176 5.9565496020299697 -0.1797812631128443
1.0912899052113729 7.0336442299762556 0.8917019744527586
1.5196410077719897 0.7790263678532556 0.1858244271348396
0.9944865673896456 4.8406869877409582 0.2063702537568362
1.1282014854718374 5.9123976702669925 0.0925390970278761
0.7768988376792957 6.0509891165298004 -0.3845141355811691
1.6019628756315081 6.9841334719082386 -0.5792738588334247
-0.3033372674336646 0.0619591113646307 0.0030187646499038
-0.4325042504234869 0.0742420385200789 0.1047822585295910
-0.4380616087631006 0.0426965783351945 0.1008713834938292
0.7097229673953983 -3.9394986679407467 0.5913905968128830
1.1936139342089191 8.2531156631455485 -0.9037400762237701
1.1065087138428069 9.3575413080408136 -0.0217764754439606
1.1671751051223549 5.2238655416801816 0.2317012493065825
1.1617595901238802 5.1597281875030552 -0.0136054884398155
1.2095849169368604 3.8167043805529546 0.2587289026591914
1.1371594297171217 4.4667649162066159 0.0276873110947960
1.1318875459389368 3.9577259731382251 0.1075536745026089
1.1516148515209848 5.1897128422086078 -0.0171756756899321
1.0700386325866802 2.6282793122411729 0.2239731125512827
2.7081239080756769 1.2590619543225090 -1.6137476466530873
0.6063959554045570 3.7114878578998480 -0.0425791135170181
1.1780269636253091 5.3965240815300994 0.3130491768450929
1.1650227147544707 4.2702230453873753 0.0678054571521579
1.1161535928548676 4.7995575329660856 -0.1011243763725094
1.0862746315384246 2.8702761063663260 -0.0770229619486389
0.6389854799215343 3.1794806663333821 0.4127698313276676
1.3627460359678885 6.2315763079882114 0.7790803081138310
1.0972256642015736 5.4282785429470684 0.0299348043133497
0.5355104549075628 3.8856707494915619 0.7146691928943428
1.0408261686397673 7.6289233282508331 -1.2847713041942295
1.1083532674003254 4.3208072949076524 -0.1376798281559199
0.8435918150353678 8.9469025847630803 1.2254657354620921
1.0200130606296620 3.6557055015201474 0.3094644695183302
1.3452773929924611 5.1764110068306701 -0.2044095539342602
1.0981991431999092 6.0019659891827040 -0.2599292463974804
1.0854126444838639 3.3965714431867351 0.0222947885261374
0.7040965739658379 0.6919691209639685 0.4462427393528854
0.9044988425166252 0.9501883838843946 -0.9521676772854303
0.8469139341311234 7.1792574757261720 0.9330324827710919
1.0697117024320060 5.0509833252686338 -0.1954772328060678
0.9509654793579309 5.8341375396790180 0.0411037398088803
1.0700589459587122 3.0477190546578443 0.2381595639258500
1.1266952063927018 5.2488757885400483 0.0941850248312117
1.1003108989805415 5.7737061106355316 0.0265462606569727
1.3724884181401538 6.6503039218368585 -0.8383952592334959
0.7635484157579548 0.5205014277602102 0.0370439543040234
1.0960084964891232 3.6172676284944463 0.1001488866575577
1.8353654770617558 4.7434391618773359 0.4338175166278783
1.6014814781583271 6.9328914536007238 0.8871477001024514
1.1854252218182386 4.7182467968181108 0.0287583536494007
1.1139434247603814 5.3474422632597616 -0.2550567086237255
1.0457946408047918 2.4297683411565862 0.4460168951902388
1.1087156687548623 4.3532681955957093 -0.1072014968901884
1.1859526396839870 4.2206990358594378 -0.1696915133297065
1.5981197417436104 0.8975901086580825 0.9268572253588210
1.1112069049453501 5.6822160917511297 -0.0750847792781163
1.1189422917376657 4.1889922143971052 0.0187595102943845
1.0947268527509482 3.0279914156348906 0.0809535627856409
2.4325657834309036 1.1605459462135770 -0.9160127892948405
1.0339868844799978 5.0017595684089500 0.3718086760278133
1.0359068781062597 4.5688079768170766 0.1881400467119575
1.1229027388510033 5.3011064363381459 0.0220284160455500
1.0438370520946330 3.4818252660816520 -0.2851785483090880
1.1403702800283337 4.7072024319228385 -0.3346850410652258
1.1801393286452613 4.3292790458929407 -0.0796238752610886
0.7315460447040891 1.1482088028268800 -0.1652898353096167
1.1139706643085701 4.8077161911118367 -0.2792135149859991
1.0118697329059383 5.5060284173088547 -0.1260478922981900
1.1899116733688349 6.9463227960531340 0.5614996363987055
1.3454293559122499 0.7657702987224594 0.3160987490113520
1.0786867347014972 5.4398236616125883 -0.0184419825132807
0.9804794828688660 5.2741077162980075 0.6076613812205786
1.0755701457157665 5.3132565828564813 0.0225427977479654
1.0415891249071416 4.0443209113961940 -0.0112152555386611
1.0666961902388379 5.8467467793836407 -0.7234428344824593
1.1008095805780223 5.6285292760408616 0.2549159747457415
1.1686327371179128 5.2796804676684506 0.0892592120939675
1.0523366577296118 2.7645692132123871 0.2951608643681872
1.2444367370775689 5.2590658605083611 0.3367316252248163
0.9995132353203352 4.1297133260024177 0.0458237023460910
0.8706663251968992 6.0117877336675374 -0.9244399177389602
0.4022023892397790 1.2026707734416113 0.3435898644186590
1.0393190690226934 2.2976891304334255 0.1298147001972681
0.7436645721356032 1.2047804708042475 0.1572547261176018
0.5249968094446196 0.9692847268620226 -0.8362842164429971
1.4132534571798043 5.8611200081500545 0.2860744127870264
1.0569441586488886 6.6531311697998010 0.0905360247014826
1.0564291268524830 5.2967169365150157 -0.0955799684910601
1.1907447279317187 4.4625214613635222 -0.0904951706230188
1.1113401558702096 5.9345213641296555 -0.1801736806363659
1.5026273386187297 0.6949889555581966 0.3225227370885074
1.0753208028206076 6.1122954648573877 -0.2925372227187533
1.0889434581663615 3.2784519695559160 0.0372357666513231
0.7835129514376717 5.4715077004437802 -0.1734158467392667
0.9075000610694257 2.6359269627695254 -0.2906748990912015
1.8103720012090052 2.8619461133383832 0.1101087798319732
0.9714796294984774 3.5216396305119466 0.2896427986248459
0.5894688098123786 3.5047666286063759 0.4630987633008925
0.9580286387323350 5.2180385203732307 -0.3284581286081035
0.7794876091814612 4.5496496483739461 -0.6932709225026624
-0.2189406714665870 0.9108663051059438 -0.3711349815116068
1.2214807694399785 4.2282394506699070 -0.1217398926625652
1.0181632852543361 4.2103291827509777 -0.1703962018477619
1.0395504068142518 5.5645008897891248 -0.0819502954240810
0.9186668852551387 4.3869511207467466 0.7251965596664037
1.0851693595102516 5.6093903691670270 -0.0135744674816976
0.7965750257260704 0.7431199788955852 -0.6233244180960537
1.0791363465949919 5.3549269624564593 -0.1055441252333588
1.1707431964453818 4.1475772405656661 0.2172678667634484
0.9801815310872336 -3.7868570016477907 0.4858910643676795
-0.1589538322672719 0.7532552437691782 0.1189938723489619
1.0950476074454643 5.7882467941868958 -0.0043277488295016
0.9708650047646190 3.3184573453834676 -0.1462280099488783
0.8863604327480924 4.0238708887665879 -0.8396194635528413
1.0454492102158879 2.2367771709785806 0.0447844247945410
0.7048284855041487 5.9548545162464563 -0.1988967626572954
1.1222635482872949 4.1891267022270879 0.1073855962878913
0.9678334262791475 5.0518365011453241 -0.2127184252907947
1.1200076191728758 7.8446749317259048 -0.2402123413239293
1.0744249315437455 5.8364940910525371 -0.0796325556919506
1.0982044973306682 3.8527979343403231 -0.0195088188948958
1.1264232684634432 4.3597690205376862 -0.2027120165669085
1.1127478619260767 5.9925803650803298 -0.1392823943829880
1.1140013531282251 5.9962698333658286 -0.1029516873204056
1.0010234047440230 3.6824108713143091 -0.1930533299171590
1.1351336474282028 4.4731548451583505 -0.0985981421488670
1.0126504890200816 7.8486275462884203 0.3867631997149541
1.0929133758212137 5.9904335508466682 0.0222695529552074
1.1039802554014868 6.0998933214391453 -0.0300605991387528
1.1199689464428140 7.0551310389979749 -0.2442125417036639
1.0664863395437250 5.6995157094328857 0.0102926987664083
0.6015300721170501 3.6840057630387975 -0.2422120292665937
1.5923079703745122 4.4089274839701966 -0.1255364576192134
1.0704253399595347 5.4311649921675835 0.2731169780447599
1.1317525702432241 4.6489001162173542 -0.1532868137112113
1.0490643612194412 8.1538805863322761 0.3087092044135639
0.9775878864002768 4.7429340340584858 0.1285795879499628
1.1336710146077991 6.5573414791674844 -0.0598072169906835
1.1753536689115409 4.3089108018822389 0.0449407973119304
1.0584864382104870 5.5784650527864024 -0.0896343341595651
0.8318367998145195 6.3724339414406659 -0.0808258686094584
1.0806253421796863 4.6883946262505303 0.1338507657064784
1.2269171493314674 4.4088250380561913 0.1338207924420856
1.0572569022557923 4.9009347415529083 0.0003294177963636
1.1637881376521160 5.0378466611303319 -0.0875407550821364
1.0880358928369340 5.8820464480513888 -0.3257111066550129
1.0398976799877762 3.2457973961939794 0.3174637961172619
0.8720031682506890 11.0759268602574643 0.3608806671160311
1.4053972118145410 2.5789234993494707 -0.8423366740842708
1.1746769257326557 5.7376137311514288 -0.0103240917300846
1.0926688242243257 4.6043184073421735 0.1682990959325603
1.0898274865401176 5.6040402977372104 -0.0195331082853664
1.1267757384742001 2.0868618246335759 0.4818538007028784
1.2948199118051986 6.3120082670902011 -0.6861681147261885
0.6699040673361911 0.9342429865592804 -0.1462262854468291
1.0571849462264906 5.3895381192906102 0.0088335324807204
1.0515608584628693 5.3243962763718242 -0.0913768491171306
1.0829684942360294 5.5611959415520449 -0.0059591048362738
1.0448141508382447 4.7781907747203709 0.1465408437216873
1.1095193515039945 6.2208795017457650 0.0083086841017413
1.4757912246293938 4.3816628548402621 0.0960523313184300
1.0941370077089951 4.3904065634217346 -0.0947478837184337
1.1474661374348643 4.2173430970819075 0.1261277201404057
1.0814081758573670 7.3816269303607758 0.0874731960241070
1.0927037860722610 4.2276020048118630 -0.1482234813513696
1.2409427924843726 4.3271838492833297 -0.2511513377551866
1.1068384305298407 6.2816988995662166 -0.0640913611726372
1.1701024784446490 4.6361899844198540 0.0132955019521725
1.1046169927117431 3.6351160617100629 0.1082247161336291
1.2257416704879502 4.7771013758780709 0.1412295775897078
0.9170353506146629 4.0652774647212464 -0.4581216162605372
0.5476934842474817 5.9473999601977141 0.9277839179463473
0.9888669479854731 5.0378366756823620 -0.5311354856745230
1.0774243840559006 5.3573304110751323 -0.1146002787037058
1.0578248162035535 5.5939803479328951 -0.0569669927963381
1.1107177930818828 5.7433830745911427 -0.1450225752188871
1.4864181017201030 8.7007010731755923 -0.8209119007380039
1.0944111110821824 2.8665864887445043 0.0248474217232721
1.1047738065019048 3.8286117996406563 -0.1068209008447860
1.1661268805340086 5.3234020879476516 0.0674667959965211
1.1883931159448178 4.6251908941490676 0.2902333072949593
1.0980307724071290 6.5686934303821616 0.4143760361124242
0.9848713615023753 4.0203669289626207 -0.3907289938249857
0.8858041989292688 1.9962028202922750 -0.3336694853219246
0.3137501001363683 0.9236170255768562 0.3119683792802972
0.5401774422697746 -1.3325157411084321 0.8518629682646106
1.1100794546067170 6.5885548580769191 -0.1476737455064759
1.0991610439158250 3.7506349757547168 0.0593691689593115
0.9756490915033558 2.4743936427246642 0.8480282885795505
1.1173681216668765 2.6785213874885656 -0.1121601136046665
1.2779781995614292 4.8953238706190456 0.0867902455091223
1.1006715679169463 6.9260569627402422 -0.1276116470989501
0.8425803958407325 2.4664435208550017 0.1569268478438691
2.9913319937775964 2.3570048939411001 -0.8754197869751228
0.9290880820030515 3.3236040835077012 -0.3656442919985254
0.9943140772426237 3.5874038547835614 -0.3390933933812962
0.8052997570642567 2.6936678443301738 0.9730533103438687
1.2933788408543756 4.9103494475760900 0.3208444451314874
0.7922507518025421 1.7088088212838113 0.0312917678882579
1.0163023242075195 -1.6260930423575373 -0.8982450938978338
-0.4536196007495384 1.3953214813136232 0.3106497593672118
1.1087746742999793 4.9482913999093086 0.1033275442432475
1.2809189002923949 8.8053408906598261 0.1843654299585671
0.8216553685077810 0.9810132388857977 0.3802906619083039
1.0661524041387185 2.4918034812108800 0.0865608810222702
1.1011649118269307 4.4635342827681574 -0.0001719047395374
1.9972659809658040 3.5731906618089142 -0.3414606807719343
0.9274126631818086 2.8520634487066330 0.2782875399862789
0.9358333704644214 1.2277202525796722 0.2045496823243600
0.6841253324889841 1.0782783596391028 -0.3304543925327239
1.2490703375225480 4.7194092446112306 -0.0562121475938114
0.3434424347106764 7.7284162927851918 -0.1121565444759510
1.0607535420014753 3.4213520437946614 -0.0750958372636548
1.1239767819585487 4.5503245348930870 -0.0668156418372843
1.0573120433601366 3.3700140735357258 -0.0995813407916507
1.1109521577092405 3.6397805511130419 -0.1666778588239791
1.1186326917934262 5.7682674820434006 -0.2007283787234368
1.0531488532675610 4.6418980546628932 -0.3128518287835536
0.9614136446651114 4.7088504344746323 -0.3249510765931841
-0.6704710408410782 0.5086207404710072 0.0541827535388117
0.6237720766033074 -7.2208943347566272 0.6177185370842349
-0.9078517762715248 0.6620522364665303 0.0504615457566083
-0.8675757355687052 0.7836549149512902 0.0642648541411517
1.0768286803771292 3.2010970333450026 0.0993612262390536
1.1274247543795826 -1.0954180334685593 0.6348963671715920
1.0597548700157544 5.2547359928338331 -0.1307037315946745
1.1726155872528001 4.3743272651454479 -0.0314044680242887
0.9588404858266901 4.1699440828188967 0.7365547074143239
0.7699100117675214 1.7844272293138936 -0.0020250199303721
0.9696147018422352 4.7639007746279169 -0.1495289278224158
1.0799529481643519 9.0061369462470520 -0.0462394949061415
1.0711758163431568 5.6589768618855283 0.0237404488895211
1.5432591796939308 4.4291490988294191 -0.2772025074831312
1.2184202008571425 8.8639610442258014 -0.3869854260111200
1.1258773580657702 4.9069345480839539 0.1210439647300517
1.1287746784970847 5.3907994958678236 0.1310581804457434
1.0120528808600937 3.7850752300508521 -0.3295554577865839
0.9217667124903206 3.9387484717124641 -0.0779967374368298
1.1182988689420306 4.5632889644067163 0.1732143268855897
0.9584036234287867 5.6682532843032138 1.0894329238546909
1.1222761664365073 8.6902615562441508 -0.1041416261666416
0.9978218040316199 3.8082712354923522 0.0399956548651668
1.1530432543171740 2.4412283389530383 0.0814455358391850
1.7187551211859333 3.6813510484465057 0.7650094880417203
2.0380815462203588 2.0066927726292114 -0.5213480376236587
0.9611383893120908 7.1967526266743977 0.3621813603842771
1.2532880967940729 2.4085458926011922 -0.2446355371294416
1.1034415991699988 0.2930675250953899 -0.4045066180793471
1.0620830316571588 6.1708553433669433 0.3367025163214905
-0.1827398149619837 1.1163484649080295 -0.4008557869405176
0.8613092249119416 5.8901730336302016 0.9077071458300821
1.0369252093632657 2.7910164858655317 -0.1334538294205487
0.8715286652702471 2.7507367810556174 -0.1102101628671877
1.0009758904256989 3.1250067633563527 0.2269936984242718
0.8942905153924713 5.6098455486635910 -0.0616555001964922
0.8693432668761653 2.2982624782375662 -0.2151698651399686
1.1364926482251665 11.5437046951742346 -0.2575140180819139
1.0545675797111469 5.8601806315728924 0.1755207850612802
0.4245031637909110 1.0416275235258836 0.3990446701972528
0.5143001298594401 -0.3604204119045515 -0.4310997330020319
0.4668282487121133 -0.1812705507487352 -0.3960167045383705
0.3836058769355648 1.1379013232296513 0.3797454173821267
0.3547368412806212 0.0452074257794376 0.5003476035982716
0.3732079925383635 0.5129392147810202 -0.4249212261417871
0.3514970869835690 0.3459297764011239 -0.3998704727027989
0.5134509507688070 -0.1614993105748074 0.4684901582409886
1.0336893469211621 4.0444262781783493 -0.0438137829067007
1.1633510338969961 2.3897084578790859 0.3514497138459040
1.0523763769841343 4.1596094500514011 -0.1703242738719581
2.4378039531858424 3.1488834314474112 -0.5411675326740768
1.1421707035379451 5.2075190602272690 -0.1176958290584646
0.9749589090350138 4.4949578354459003 0.2866165873744151
1.2178763302547693 11.9151231003995228 -0.6790176643862678
1.1219597767269374 5.5811100358720935 -0.1971876872164019
1.1141809371090232 6.0177379980814916 -0.0627637875924900
1.2143532761924969 4.7105173877313193 0.9179608812416693
1.0902742668601677 3.8132017133226861 -0.2462854629398787
0.8785368009478440 5.7260697203775424 -0.3651956033005186
1.0334027085930495 2.2343456364118284 -0.0245365625156093
0.8739485423882285 0.3891865397643395 -0.1368910931598709
0.8262734317782777 7.7597346681082344 0.3752776583631365
1.0458246537616325 0.6019642003162242 0.1711284635886915
1.0627585029615398 5.5465466129822083 -0.1187969367628714
1.0261378570851714 5.9538935905164454 0.4544048209881660
0.9051569905434623 2.9583703101805474 -0.0265134967656917
0.9198936380420695 3.2804181898266020 -0.1176374473700469
1.0767532998719278 5.2776971962931816 -0.1391761443995000
1.3795723244316009 4.5833253442108308 -0.0521490849599150
0.7965076353736860 3.9885673881618469 0.0262369175369570
1.1160334923932467 1.9280792558101063 0.2242311638798030
-1.1148169575102014 1.4127358872945091 0.1538374678678482
0.9101730679152221 -1.1528858068039458 0.1764463583976113
1.0625003487187163 -1.4931270445509695 -0.3193150553296898
-1.1333250894168985 1.7862929042617948 -0.0825450118513660
-1.0984295733652012 1.9008812092893452 0.1531348048901758
1.2686524230312126 4.2522615454131794 -0.6620148719423279
1.1139702792638337 -2.0215191011419846 -0.4133965494517693
-1.1242671121200571 1.6475182367063925 -0.0911739599219895
1.1141487134642041 -2.4159568382002452 0.4442860199509631
1.5745339993937715 8.6933556260684064 -0.7572401231859642
0.9415166413380521 3.6844363786685155 -0.3496439047589299
1.1136273821118401 5.9009226031566637 -0.0950849504154475
1.2276743304308306 3.6336350982437788 0.0844219894742814
1.7776221120968883 4.0795297867095428 0.1366158790061114
5.9901856036638339 3.0869475866147784 0.4202646602799112
0.7233262570632752 -4.4243606017071011 -0.4474408031715924
0.6588751161700821 -2.7959812881685218 0.2438386737855198
0.8020998258000184 -2.0383703295797093 -0.3207572158527718
-1.2908324103802526 1.3627763469274154 0.0679064247961020
-1.2534018088168268 1.2232339869698852 0.1073830189750399
-1.5521555894951984 1.4882782538768735 0.0059554286778293
-1.5865641366781862 1.3481719791700595 -0.0146674664945784
0.8555462742477846 -3.8250668134268624 0.5455474851309889
1.2552973801121383 4.3135009560416853 -0.1520539913550173
1.0194382686692052 4.2509587752496003 -0.3818047148493298
1.0918716767377985 6.2182372673768249 -0.1754385680973985
1.2110165246127305 0.7021737430271082 0.4992495452262177
0.2780166708779432 -1.4494792227254907 1.1843027856173109
0.6216833400506756 2.2216953865953704 -0.7611188609148645
-0.2250755100408234 -0.2117190976415739 -1.1525770127057204
1.1064701848855298 5.3424736379752007 0.0295843127303185
1.1374789048948037 5.3469240121656396 0.0469414676740655
1.0340160568270216 0.5376074275707453 0.3457568563839243
0.9212029807663896 -0.0665213240064806 -0.8570643300202305
0.6613501721468359 0.0873393889510772 -0.7273293509006332
-0.3846446792336303 0.1036535866862969 -1.0287384255285781
0.2152924497025679 -3.2404429727348991 1.2257553181469651
1.1211926495386118 0.5591062683422373 0.3261347279324471
-0.3762995181540112 0.0712926075079912 -1.0348567194374498
1.1265793870288527 2.8377092385670188 0.6607323721793310
0.6021596347914486 1.3961037507353966 -0.2567593999895671
0.7342641943300788 1.2286119468937957 0.1225781021616362
0.8172289043852645 3.8968584435359879 0.6485430083672822
0.7797219680299164 3.6381332345681976 0.3892915772019261
1.1218535717455664 18.0190705061898910 -0.1513319308336260
1.0524361685629346 5.5653307154672831 0.0414665283550729
-1.5750642054076700 1.5818008794214811 0.6653882516688256
1.1153770311878954 -3.6925731327406330 -0.6105246587604631
0.7526622691924200 -2.0642572502046486 0.2460199979563541
1.1666632413804250 -2.5368029497250473 -0.4743951216519988
-1.3003790755532694 1.2650718587029557 -0.4789320581693540
-1.2621890110794163 1.1295910520156414 -0.4422532081715105
1.0200149691423812 -4.2726277929468539 0.5508277538575975
-1.5392781494412389 1.7432652105624364 0.6744002098326058
-1.1452996172015930 1.3695947296461850 0.3465484717603575
0.9847134849688212 -1.1133270925871905 -0.3399980457870858
-1.1531600638464727 1.5267883685979109 0.3584572091691552
0.8930814153477316 -1.5793419550528094 0.2347952380752270
-1.1230802632648897 1.5643185702489217 -0.2976990542859827
-1.1155982946013852 1.4096383533188805 -0.2689328642364590
0.9139702482539642 -2.5163990234259135 -0.4473761366048224
0.9031573559317025 -2.1262063684048051 0.4639898906447122
0.6281804386169588 6.3059545357017432 -0.0453879523904673
1.0427271395049942 3.5914024320739992 0.1821194785969893
1.0143917440646544 3.4606674463446092 -1.0141765283147879
1.0006264554500701 3.1915305724834697 -1.1580519457548266
-0.4316953868780001 -0.1563641127006164 -0.9461172683220239
1.2008899367653969 0.7121418412775649 0.1194617461392137
-0.4075023260457099 -0.1076309372131688 -0.9243754406040330
1.0542397824461542 0.8375893530133328 0.1412147774692892
0.8326551930413121 -1.0486588609487570 -0.7480625474343640
0.6239226557064828 -0.8064124203763031 -0.6634827550761861
0.1641344450519016 -3.3002146733800153 1.2903000219300360
0.9617384466705555 0.3591505756146450 0.7837566339086992
1.1098936993767212 -1.5219640883420091 -0.4339062015658353
-1.0661153253918350 1.8358065684190192 0.2652637472193261
-1.0622972945839286 1.8848574291540465 -0.2028845096967072
1.1417532078868760 -1.5053544419934697 0.4606589243547926
1.1516126961652582 4.8660262310228291 -0.3412022153430196
1.3254729939392647 5.0431120965900353 -0.3054545993421896
1.6271499380822749 10.0547242832692660 -1.3031656378604546
1.2906588636129444 11.5046262672581552 -0.5817371188572491
1.1770644236715950 4.6653859664871247 0.0442476146143808
0.7395848976464771 11.6095692957059669 0.4778950375727102
1.0503011582467965 3.1072179303424750 -0.2062046146121456
1.0678650088942365 0.6089597016640547 0.7027937013903259
0.6466749567370460 1.5836949921180390 -0.9859301972394082
0.4911804744526011 1.1948332259920365 -0.8699080766385299
1.0490263218356919 0.4841733660357899 0.7653629032935321
0.2690669826630368 -0.9720413567238814 1.0860145176264340
-0.0914587866034925 -0.2001108565917702 -1.3452103561225368
-0.0889428675969275 -0.3029646636682449 -1.3055297878247099
0.6961700512897628 1.4380974646371971 0.9825452089247002
1.1538987778190735 6.9821000912399311 0.0700102092969742
0.9212029842330356 1.5790842796714264 0.0541984262866915
1.8036607583993900 10.6364518074010004 -1.3357609924878076
1.1801365137059059 5.6210090960481489 -0.2646540761991844
1.3595024700156630 4.6117621656313839 0.1283482321513539
-0.4840909407450336 1.3675824565730912 -0.2214550284377058
1.0030840026207253 -1.2781585721708970 0.9160799574572872
1.1266770758391231 4.1788911149350225 0.2136803092587803
0.7186231781681856 3.9824852096900059 -0.3295543373454234
0.8285960586299100 1.1097309554970303 0.1513007827952448
0.7241636473678756 3.2069775802631066 -0.2650408717101665
0.6300873605043030 1.2511456507352139 -0.2668007746502491
1.0221856904671505 2.6209958183066480 0.3568832134240918
0.7632600727061908 1.3819709130278623 -0.0474798495806930
0.5670789361986579 2.9906491616926001 -0.0739848770411908
0.9744096157614599 10.4118571808113121 0.3755678824362116
0.7825979704657597 1.3221024470736542 0.0165962563218347
1.5486008518023766 3.8570858232333394 0.0366880897372212
1.1971914244171507 5.1751735871835765 -0.4066484155131218
0.9602410179225676 3.3627123048741945 0.1103235003030883
1.1873100695474774 3.4976128600448493 -0.2102178855900906
0.7654369741741798 8.5191717894722760 -1.1924489625384012
0.7184325111983809 0.1460402190576784 0.7174742057124320
0.7238627443193202 6.7878651877840888 -1.0590911583649034
-0.0840729150262381 -0.1098155081810155 -0.6952919859581264
0.3427340705470008 -0.1750826713098401 1.0733305207257975
0.7243239542683511 0.2135903150210974 0.7116098490558849
-0.0900277611376302 -0.1013214734598398 -0.6540544206036223
0.7463756060950961 8.1067176314602420 1.1458865649878278
0.5543882931560733 1.4720723837601895 0.5678123924138718
0.8236925486160493 7.2561137929870592 0.2364976966114195
-0.2722273293020061 0.5051148578422325 -0.4086823942527313
1.1284307570558356 1.2473301640252810 0.8017733525965313
5.9591310908529715 3.7468399711509495 0.6074460000321195
1.1461894552403598 3.7798681338401519 -0.0875366999749557
0.8104503897911433 5.8508657207185450 0.4493880585973720
1.0598485746994644 5.1034966080595288 -0.2036605075952156
0.8844929348910919 1.4788486969606855 -0.0469524395593893
0.9551142538938157 2.5197752767734678 0.3536577081793131
0.9388657265741273 4.0256927627947858 -0.1446192071457761
1.0341014570972094 2.8054990698721407 0.1808383015881641
1.0775467636868377 4.4967831455432696 -0.3220387150850201
0.9568328670270608 1.6581157447026045 0.3750535869876286
0.9893073255832427 3.0371447716499889 0.5780399312912429
2.0206401073701081 11.2645152560512400 -1.0490639631016818
2.1471026750087669 37.4016501448206071 -0.2165688964785397
0.8289899221505684 1.3032804602306696 0.8107658705380238
0.9188219537237127 1.1937458064952298 -0.1148648168201958
0.8985259350721240 1.1519774852926439 0.0932230222343453
0.9885169709781683 2.9268488584347252 -0.2747528008087142
0.7769047216046469 2.3946023200600197 -0.2669782493163627
0.7655234120742046 1.5607345388323943 -0.1805275862974910
1.1514107031782679 2.4191786030190316 0.2516250807414444
0.7463855507738070 3.2885196394039102 -0.2617575970446688
0.7423655972629871 4.0168743271580087 0.3141049560590654
0.9305041903061809 4.2126659974927989 -0.2820884861739895
2.3826554507479192 3.3090603141840536 0.8158924180858991
1.1297516334306961 4.1696939651169718 -0.3684710884873736
1.0765530357220681 1.9531468962423999 -0.0024164057681737
1.4043349683790105 4.5530895403572771 0.0371728322341065
1.0359301348436454 3.2107481136599292 -0.0205869750105230
0.8292067731323796 3.8462496348362682 0.4730347068825159
1.1236175777039354 4.6841335420445960 -0.0973098897695186
1.0621702695610726 2.0866211861770001 0.2746736578555409
1.1415384190867066 4.4227637947013907 -0.0287855331611165
1.4567953939236868 3.0804253581567766 0.1511585149722173
1.1009635150286139 6.1590048922196639 -0.0969859024541890
1.3993324960469631 0.7984799060586582 0.9414823660600867
0.7479814604197397 3.3983002059548060 -1.1297536935354291
0.6360930040185727 2.9353598297556251 -1.1007958083706970
0.0210441684423677 -2.6687208605907169 1.3404758193812669
1.4018886015707710 0.7396433050405629 0.9598430728348563
-0.5838935599873855 -0.3879223991332577 -1.6854610505289036
-0.5653686548103530 -0.2856084755668403 -1.5944953022965906
0.8093644126809576 3.5139443445768013 1.0411614630221431
1.9414363016305940 36.0456268949671852 -0.1697638319463306
0.9019756183341640 5.8793278289416744 -0.0120093573414856
-0.0234861010573291 0.8519921033766547 -0.2238764881660495
0.7311115374591011 -0.1250224548484541 0.7682434293977919
0.3149376823000735 0.8403497193947449 0.2655666273721142
0.8169973616137018 4.4187827935061206 -1.1096134456055133
0.9390827390193308 4.8535080544790263 0.5045340595693980
1.1270819120931226 11.6417993212322450 -0.1684018443400161
1.7928494146500733 5.7093188464688591 0.5228325509455642
-0.6329708930418335 0.6754797281600194 0.4382074951240242
-0.7897240551421889 1.2598200835681417 -0.3181458962124831
-0.0231993051403717 -6.8720101446101429 1.8975686916517596
-0.8084672439376150 1.1115762001472824 -0.3554180262928066
-0.0299300975931579 0.7466496550320325 -0.2281249021713084
0.8298138530481246 5.7980185712284138 1.4291797558081583
0.7527104975975132 1.1691983578309828 0.1520642297835794
0.6640221066046507 2.1261500603474124 0.4732484509036750
0.8322425498071916 1.1434975864407064 0.0941518062050486
0.7413336109786359 1.4842679996385046 -0.1887178453542739
1.0022063935218855 2.3634500154052018 0.3160317868806380
1.1763206261196628 6.0628110766973480 -0.1586606547747240
0.9734727401489729 2.4632358448121545 -0.0824012025411033
1.0993664008598356 3.8036175363856990 -0.1687588224538232
0.7990234967494519 1.5077728364056504 0.0221989270897371
1.5306293120284979 3.0959162030194931 0.0883496639160441
1.0530249146991175 2.7437827944267594 -0.9309819912179976
1.6695513200811629 1.1457850637536238 0.0425454866783621
1.0928992607831645 6.4122166392407198 -0.2945293972778377
1.0525933595857413 4.4335148618214202 -0.1525074033053235
1.5336614223097844 4.1430667539310724 0.4125470648102826
0.8940753774901267 2.9829181072822517 -0.0544022806304934
1.9868535101086333 36.1969036768242773 -0.1835586060422512
1.8141904911749980 6.2991039099615342 0.5535185884011417
0.5974620479259714 7.8005868587056071 0.2362460673180827
0.8623147850407914 0.5286326015334524 -0.1616911448144731
0.5633411982107830 6.0998529159382766 0.3775101465222392
1.2012824774555069 5.7771072124604812 0.0052754483767559
1.1152223439107760 3.2332522566522415 0.7533546180540863
0.6492196262930849 0.5170822090528466 -0.9474846391100374
0.9976233330458778 0.4464596984709587 0.5396900448762295
-0.2097643225528123 -0.1527292020236032 -1.1510897376506328
0.5846330317535585 0.2152447727099686 0.9675558406925470
1.1212140435616185 4.7010031664497278 -0.2637561596397553
1.8666404421133240 9.2207754178391355 -1.2825320153538520
1.0636931766805946 1.4419658956727459 -0.1632663408115796
0.9463226395700997 4.1250386733947746 0.0357174113183608
0.9487925506554763 7.3603012904992013 -0.9555165153211685
0.6367760021464142 0.6171996559856431 0.4337391431169591
-0.0205971867521715 0.6010412950549793 -0.4893114828770369
0.6136418874953745 0.0028213732345815 0.8286185842373966
0.8936406531415704 5.9453246928020818 -0.7272168094737547
0.6193046233674652 0.7175289747721882 0.4506868723612152
-0.0055927773889847 0.5443857763051306 -0.4582825064251839
0.9216013912996632 7.3208991929464577 0.9491310693517251
1.1784389297738798 3.6749241867505518 0.3147192872421533
0.8547050397303420 1.0136835768931933 0.0927321580139075
0.5390512206850986 -0.0712264427090950 -0.0973993280649070
-0.4130662344041120 0.9104139232260509 -0.1599802702289738
-0.4299459968288039 0.8188777715128094 -0.1688122477838551
0.2343076718298669 -4.9553098504308455 1.3736185958436564
-0.2910659279419193 0.7107498874522813 0.1983050376964831
1.0993790449330234 4.2094774801734687 -0.1400029313986010
1.2833638112257606 2.8952094686061725 -0.4797640023849958
6.1102192295942563 3.0649074604451862 0.0538511092022764
0.9332609760546037 0.8108641011902817 0.9544872699806556
1.5123056550582474 24.1871812700973905 0.2677287472118475
1.0924414020988549 4.0726020036373107 0.1665267996813253
1.0260480324916619 9.1947370264342627 0.4376775718306216
1.3679506731095967 6.3467714393733923 -0.2921316697421869
0.8606402976363902 2.0009662298435171 -0.2836642576212907
0.2886868128761330 1.3440706143371910 0.3121394010788913
0.3712953667735810 0.0656902622259960 -0.2133578588407822
0.3116833995817526 1.4770674907961170 0.3694269405760960
0.3307820503944354 0.0791092587619854 -0.2179837892741538
1.5669787680505944 7.7118395082584978 0.8654910947473993
1.4053659669014524 25.3124849321991618 -0.2498641785941160
0.8674671146436609 9.8363386898101624 -0.0933605120176213
0.9085390960836056 2.3608212469594885 -1.1351885319051864
1.5393134937100850 26.0057372681307974 0.2136628796643213
1.4652362692817422 4.1821884336087862 -0.0760995295500753
1.0698926432117413 5.3279939788271200 -0.0789208008183313
1.2101268203627371 4.2632181358100167 -0.0594635811267410
1.9357554095157796 10.4904540967167588 -1.2138011385093632
1.4915436479147857 0.3779121885017707 0.2490275173226914
2.9375265865621412 1.9615385423499914 0.1048508360310966
1.5841407966235472 3.6148922211486796 0.1627328880353710
1.3369320888220446 7.4933163589848313 -0.6498434259513884
0.7893704254112306 1.9209000190005863 -0.7051494497263020
1.0719145026259580 0.3609327753140759 0.6561204643575612
6.6078629745758093 2.0347228329382610 -0.1856146397194635
0.7631850484303260 5.8910257731712745 -0.2328132343964827
1.0593596809121895 2.6433748589183641 0.1071465222413368
6.6832214054166270 2.8480899951651337 0.6391196545283667
1.5307256466304533 27.0413770436982475 0.0829073581687713
2.9106278127217147 2.2095505492688381 -0.2728326977537083
-0.0167291186950652 8.3970668570359077 -0.3389500488878571
1.0230538940372282 5.3364208187956184 -0.1675367829468914
1.6189471824066897 25.9858104728209369 0.0722582447181537
0.5487476580152154 1.2351112757148375 -0.5185664443669936
0.7512791707721614 2.1937411276673671 0.7100519427418852
0.5183626188880546 4.6357845447729300 -0.9719338268187531
0.9877028314662356 1.1262648597299607 0.7223808099967665
6.7489359372884925 2.6592197418325867 -0.2759493221843106
1.0447717995211758 6.1206847262378226 -0.1987281964577849
1.0892506944922633 5.5570263505963400 -0.1480361517575346
0.2686699856095790 0.6353818187358283 0.1672527364195987
0.9113844719782108 1.3274392886034510 0.0488204018644104
1.9768244398844093 6.0646099448106421 0.7538955301196404
1.3530042095442509 20.7332505816289050 0.4716072847312998
1.2630874769339011 5.7016513624521954 -0.2112427278006284
1.9662494712564398 6.7572371051979232 1.0585228057310978
0.8681942330281642 6.3692841508281672 -1.0387216022318291
1.2172929650081499 1.6935661413935277 0.9812823786615364
1.4727429687121234 0.8091836619496705 -1.1068570662002943
0.4134504731513826 5.9157355056852952 1.0696953488097845
1.2606246979169220 1.7213875388195179 0.9875362213923633
0.7620932268126228 4.7364673762396254 -1.0337762641546187
1.3866958841601491 0.6968646655088846 -1.0475473122231218
0.8249866873614687 5.7652662160937957 0.9887755013805107
1.8310481770813789 36.4821349084708118 0.2467632926008597
2.1401528283284321 5.0293823368756030 1.4402535346358525
2.0595389165859515 35.8594899110487404 -0.1253010463655160
1.4312159862220482 25.8095894614110222 -0.1928688789592247
0.3368600227991255 0.0804887251069355 0.2105793876824409
0.2879951215199774 1.1450966829972531 -0.2726273458908267
0.3116202125222444 1.3689859926022994 -0.2930023084811235
0.3780637037931516 0.0649373694901833 0.2021915206155803
-1.4087696231283373 2.9135159845515632 0.1466681201211814
0.8166346115094523 -5.7666051727185659 0.1753196668376341
0.6452827746400349 -10.9806439353494376 -0.2579074756794962
-1.2543271857101903 3.2687458254336632 -0.1427670535559159
-1.6245879591127681 3.1491412492795230 0.1730090842598761
3.2746320501677895 1.1722894535792281 0.3761908000283807
5.9202808806098410 3.5654006433599812 0.2716684160144546
0.8139601474363771 1.1655133155450144 -0.3795321755968973
0.6866336403495604 0.3415989906636994 0.5697972279520025
1.0302661491083265 3.3627962432969905 0.0584411240730895
0.3167283311396036 -6.0512541862240674 0.1267937527226008
-0.1778909835821151 -13.5423782900292018 -0.1537593008821030
0.3000047996072939 -9.8048077204047619 -0.1896529545136997
-1.7301103320370383 1.6190643005807970 0.0226206526581988
1.4897745148981572 4.3704602197423092 0.0484870175695727
2.7117392577701125 2.2644513105170110 -0.0659314280970851
1.0798897282581426 2.6579253206430735 0.2764654830054890
1.2010089485752318 4.1834996764216648 -0.2709056722273197
3.9807026005475628 1.9385031742135732 1.3908598090327569
0.2999756971602526 -10.7960059153230574 0.8616900428904346
3.6528746611460905 2.0403889010372267 1.1595597567447284
2.0129842926166055 31.3566537807008530 -2.4886000074264607
1.7345838300155485 24.9655947992303240 -2.0369555453361796
-1.0388901868951783 0.9838104443988063 -0.6072735098282116
1.1649655474592622 17.0981635157633995 -0.4424291397366418
0.9967706733284142 0.9374879690737404 -0.5696344226598117
1.0648336843723469 3.8098103982835458 -0.5340314352860270
0.9891424055386207 1.7652550335557819 0.3523053661062800
1.1990912884160214 4.9509816863226304 -0.6450918112616044
0.8343937383997400 5.3411264993083343 -1.4344528459285424
1.2331716513649968 20.1159768704878168 -0.0995500808132588
-3.0424629875292761 2.0279734322544773 0.6319773149381887
1.2278572071000113 4.8181755227900291 0.3561426130468002
2.8555984864499808 2.5118470717246066 -0.1679077039260340
1.0143026142910050 22.8425053207126574 -0.5373030605053478
0.9090095692795165 10.4953421542422554 0.3548295668849294
0.5782157767002516 -11.2539554063223051 -0.3320240310009168
0.5495664462133435 -11.1553474911266424 0.3421280261168031
1.8496219959545688 6.6942651015360424 0.7961326896990201
0.9621518264308189 1.4013731766504427 -0.0855989932364737
0.8750804252454658 7.0352785465856709 0.1292936327029448
1.1115587869305161 2.3577698395494435 -0.2589736685418995
1.3628360545375195 4.2795090065099615 0.1251728024808644
1.1421649928229793 7.9824241410218484 -0.7870067485198987
0.6722266622943863 3.6859034428446913 -1.0250669639491281
3.2951356451892706 1.5387879445142458 1.1753135556661940
2.0500514944339998 32.7090971546409151 -2.4450711341105533
0.1546717270418048 -9.9991503073061239 0.6921872527269756
1.7016140900768479 24.9375267745758471 -1.9632050964490013
1.8787316459511159 32.4360559061745519 2.6080609216056523
-1.1949665404033170 3.7255133646472696 -0.2830738876439145
0.5597323522951559 -13.3942397356522225 0.3192029392992776
1.0419062978396545 6.0924270157901921 0.7576774904316881
0.4162697916010660 3.4867724979651973 -0.5575329494328194
0.9966017831715078 8.0743337147370031 0.4283276495522998
0.9462675011801956 3.1903432593524106 -0.2761965161618101
1.1327272166978493 4.2021524800960863 -0.1587341177650742
1.0423002236590933 5.6351742678979164 0.0257945256978971
0.8010796942557793 2.3680415517959239 -0.0371136535831169
0.6809377263860662 0.6847206615711915 0.3981198005644738
1.0298230957249233 1.1497616124926311 0.3483807996842724
1.1228048926650174 6.1043759578246544 -0.4173917139706108
1.0117292589209490 2.6922280127578380 0.3825703296965389
1.6497442121106458 4.8836912607899556 0.2260255104448143
0.7633972109543748 0.8516022532972356 0.0150915408084001
1.1084089386178191 5.1245171519016646 -0.1480014966467944
0.2670902574964822 3.7534704434820241 -0.7114561522925690
0.7247191991113339 0.9242615878299457 0.4595406055736200
0.6413121569353269 1.4087889375416598 -0.6284546161649113
0.5870235159639988 3.7199936298178877 0.8351488098041625
0.7572190877845391 1.1241356189851355 0.4884248141620487
0.6378957797883043 1.2069847666089566 -0.5890902067816900
0.2673227654366352 3.5786650873992683 0.7138121678470803
0.5739138660772969 4.3656272539988983 -0.3769856491060104
0.7670746595283329 5.2414518242655763 0.6716357305897481
0.6024027340468833 3.5174632880586660 -0.2919199574709597
0.8800673095059702 2.6257864063365859 -0.7442943577599170
1.1753618515392450 4.5601252429813304 0.1841856649203013
1.1491264940494372 5.4348991055584550 0.0415557829750316
0.9111834886346691 1.1668418874720412 -0.2450475063944754
1.0386843644418324 3.5965240731963664 -0.2490701325585151
0.6559687235730076 4.2214694510809094 0.3661567892558394
-0.4690113596795031 0.6755652738078074 -0.0809810123490611
0.4917953224609158 -3.6213134028888061 -0.4504394568936397
0.6170229961507414 0.1771815533826499 0.5106970971473586
0.7590424098002411 -4.3741881558024760 -0.1154092593818331
-1.5388151869808975 1.2923271594212000 0.0105377402951228
0.2983933088718950 3.1696759025034611 -1.0216104835198760
0.7032181665009685 0.6950565393749003 0.7395609307983791
0.6430500149432871 0.8940670899450467 -0.8422348482930866
0.7329948572014054 0.8913098583981974 0.7430197644905111
0.3493921504322831 3.9236832759579112 1.0711262448093817
0.3982405245024396 3.1997849323360401 -0.9406465131045889
0.2776070989225809 3.0645220246699569 0.9745358865765775
0.6193626235833487 0.7590263642839710 -0.7922260980690649
0.9593449945068738 3.0108364655659652 -0.1325469898441266
0.8844384091386075 1.5379442117512980 0.3110831540796732
1.3124506298943026 2.8992749802834910 0.3221474023027331
0.6965709734889179 3.2649000486415325 0.4916172945155085
1.0257973759280767 3.0540930131756454 -0.9097808947683478
0.9388581436772439 2.6468136981777359 0.7127096482264427
1.2216182569692275 5.0834248531231969 0.4529501717645452
-0.0895285983352099 1.0506149266505831 0.2155341463874711
0.8515693846809301 -0.9396809592076518 -0.9188388885621219
0.7016883674964827 -1.4021651409183173 0.5937696855704943
-0.2304543909136998 0.9219261167335180 -0.5691863703481371
0.3991659484743909 1.0424255977261234 0.2478720722188421
0.3382658839938602 -3.0169300262765182 0.9929173861467291
0.9716681053757008 4.1162856910066941 0.1270277469009031
1.1249520975931420 7.0920019544703399 0.6126886173806808
0.3169808969487199 0.7600582480257064 0.2842517109836936
1.3002954084555591 4.2325046852678456 0.3381341355970804
1.3992467604398351 6.1376283058798720 1.2979718752495977
2.7085621103685225 2.8938927971993875 -0.5842558101486106
0.7673806387223382 6.0917675944564120 -0.1611043620866587
1.8856471629704894 4.1235105676936348 0.7966710312110056
0.9215087274732927 3.5833472146498435 0.8598986384129234
1.0726320640404368 3.9685112131104541 0.6336928953063975
0.6730731288405535 4.2357307557033375 0.8975191268729765
1.0379667630832170 1.6592055504246466 0.3444155846680167
0.9690220477105490 1.0677606672905211 -0.5819246435308499
0.9854347222820814 1.9996962020424747 0.2643354404122745
1.1415467952064942 3.6563359967740396 -0.4210109114083231
1.2113879652353008 5.9854282340252052 -0.1087101039291342
1.2228867797323217 4.7940845008815058 0.0169662135280067
1.1037433086360526 5.8787412970719410 -0.6108695459275179
0.6862671649266617 1.1590083768710262 -0.1270515553101481
2.0315808573294807 3.6461551312102678 -0.7035910582785917
1.0705950685708894 2.8933644157255589 0.1416747501566954
1.2890667844358179 6.4971585767212261 -0.7144066061774872
1.2565042412932561 2.2053125439912589 0.6360256532689195
1.4033014566735031 1.1158393877487485 -0.8591637706770844
0.5388477430642107 7.1177643411127445 0.7861551634914368
1.2535716958517216 2.3474941832170768 0.6926129460182548
1.4877531424664114 0.9820946058834183 -0.7934592702999167
1.2986112095157230 6.6551180352266659 0.7089728924396702
1.4330639733947508 29.4825228806832627 -0.4311917522980717
1.2062247939572399 12.3861662802723185 -1.1922043551532879
0.6856323869612835 2.1868991753185392 0.3302072180067444
0.8316412947292359 11.6300422096595941 -0.3775533945251226
1.0984102646266058 1.0712490713480316 0.8185109117107423
0.8499694895289472 7.2498140931948081 0.9612323867069333
1.5617320797045970 3.7676563362336704 0.0058407803110217
-0.0984637020061381 0.7093401302066720 0.1031032319082041
0.9465131865126212 -2.5450871203188314 -0.8673464636765909
1.0203010004542195 -2.1616490738622591 0.5039084798335483
-0.1573364699916658 0.8317281366205771 -0.0864672470571130
0.7717612432132624 -1.6529841644834160 -0.6865864289447822
-0.1054031396942116 0.7286290285576197 0.0959116206451624
-0.1539791308358492 0.8082061262264183 -0.0891903248222546
0.9511451531443732 -2.4920892332730769 0.8714504051935410
0.7988828648854491 8.7382235353399995 0.7164752005001757
1.1048778874351646 3.8396463810762382 -0.1500555766063146
1.0290291281141957 3.6362650161567274 0.2998985871493406
1.1514139598275226 4.2951087076774677 0.1111682818389797
0.7244741263343731 1.0853921611019828 -0.0848236915187537
1.3388115846592188 6.6170665884960185 -0.7991840303622852
1.0792177908258542 7.3623546336341672 0.2843900096441803
1.8830127163839347 31.1211625395044749 -1.9620936107231881
3.9481344738289312 1.9760425125365981 1.3096969165886976
-1.2335332574668516 0.9891596040140951 -0.9260276087153088
1.9370797314292325 32.5562610053474515 1.9582566629152800
0.6134974018833805 1.6061554098439370 -0.3490614935164533
0.1485336417250514 -3.4252454812840805 1.0417929042614547
0.6718318928464108 2.2287682172889527 -0.4173799928906395
1.0188963557721786 2.7631104972113678 -0.2438646996666787
1.1654000237154594 1.9674044723276365 0.2082664931501803
0.8937498306965830 9.6501620132006103 0.0444552199558894
0.6934966296603261 1.0341014747131145 -0.5575657480052671
0.9871550539586826 3.7650200397931619 -0.0397188475270025
1.1490797106352078 4.4012405542497168 0.1501781684723278
0.3311320901374793 -15.2035666474106055 -0.2392686847581105
0.4349106405480461 -15.1176441485365149 0.2707937788579297
-1.2656692406249050 2.8913040749777661 -0.1387722854059859
-0.1514288776084444 0.7071024662127696 0.0768547302723097
1.1904391068426823 -3.3128080298170310 -0.8754309440830332
-0.2310640228937088 0.8494149113186678 -0.0300850119827806
-0.1488473938495697 0.6378385099658397 0.0558371297646866
1.3207297670241362 -2.6635135860799020 0.5410218172406761
0.9949927445370440 -2.0258615948139607 -0.7238813174734355
1.3110467747953813 -3.3667824113458944 0.9371777816591538
-0.2367419468065417 0.8568028008654478 -0.0339712844685685
1.0582065665547318 5.1542811146120533 0.1546294678409831
-1.7609133237922727 1.3793449279449133 0.0549515184851110
-1.5444639366681321 1.5154602509306212 0.0036568370125018
-0.1334991956428706 -15.6307601610125033 0.2319144855701679
-1.5684336895727597 1.2130544411355695 -0.0108724125155019
1.4471076153868776 23.2885349059743056 -1.6801524700222457
-1.1445179766360101 0.9995161415994650 -0.8628429019719553
-1.0208964785451078 1.1476717273596579 -0.6184726110949932
3.5323106200742362 2.4803261955017617 1.2764753301653036
0.3373327432289184 -9.3063785975889424 0.7510334878352972
1.8358435217972688 31.5718240146665323 3.1075056470838658
1.2236792650721993 3.3188515066076061 0.1441834171600129
-0.5223132399621490 -25.4652799350118428 -0.2616148031510634
-3.1542369607240484 1.6770422882465807 0.6031384305410368
-0.0042093948726161 -20.5122136054155284 -0.3039063089250880
-1.8425325668519963 2.2243331547549952 -0.5421725562378118
0.2023583129838586 -10.1380306989842648 0.1527876559050890
-0.4644642923413208 -23.8494386459818273 0.2299055731787966
-1.8255761008377320 1.8740703212473115 -0.4845316672956336
0.9395911133473742 8.6650280316494559 -0.1816272830322115
-1.4060710285243434 3.3106985210791580 0.3988955147637850
-1.1116292226769386 3.4543550215731860 -0.3852676218280262
-1.3963978413089866 3.7115676153610595 0.4244561602529023
0.9156097371909644 -8.7754555629616675 -0.3424451877555998
0.7005225606558766 -6.0331085349061073 0.1786870800786137
-1.1192402460945723 3.0973404991387254 -0.3450691628060166
-1.2051459004514229 0.4140064989327913 -0.4958075820733359
3.1049695420809593 1.4719256828250502 1.3125051662717000
-1.2335899243766471 0.3332825927614267 -0.4853782749331276
0.8714552977991666 8.4070122628798654 0.0839668970117074
0.5552352659395832 -12.7145983922989068 -0.2943094560177357
-1.4653755426890864 3.8373281581308478 0.3195195739573733
1.0472065644811526 5.2125730467376146 -0.3180806533140303
1.0445199758005648 4.7553716804187411 -0.9767493739680879
1.5862655457312143 8.0055637342634611 1.0257971247539834
0.9664032273232597 4.8745583495726503 0.3711011613759237
0.3380354571612980 6.2812594385774103 0.2531969962218144
0.9037042119153419 1.4418077108579024 0.2095062596649258
0.3183608533702548 6.9740963647544172 0.2338788167045263
1.2714114233375138 -5.1308156667788971 -0.2203146279926649
-0.9033887247002819 3.6106018018718071 -0.1869048482991715
1.1430759002194957 3.4557477807918202 0.1910552910320502
-0.9967256933508440 3.2172825728219765 0.1923117827838403
1.0196148102962186 -1.0260226895463964 0.0376539252894275
0.9450298137144852 1.4199224494739890 0.8110861229265500
0.5844834824073064 5.2422736440178586 -0.1288775954645144
1.1579624497811027 2.1464721044083577 0.3185208549244847
0.9911637686304244 3.9676837177210746 -0.3047528482771740
1.2248399537695329 0.4450763180053648 0.8062350020502310
0.9082874892775752 1.1525872533419903 0.6621094440798972
0.9671970084880468 2.2200811995531473 -0.3551646029574916
0.9415528369196287 4.4607346284820704 0.7140212077160356
0.9220138826383089 3.8760850321506748 -0.0881525590365636
-0.2734495054165633 1.0923736277275322 -0.1665520412782283
0.8373936877219575 -0.7210161286814107 0.9389372110350701
1.2046874704275063 5.1118674919645919 1.1073572940218117
0.9176625823122199 3.2136141342269977 -0.1171966806922401
1.1460398528912656 1.5367637416033055 0.4348516163244786
2.1567715050205729 1.3011981227123419 0.1391641381814841
-0.2539339859487445 0.8135005078595300 -0.5704876875437923
0.6870872400630336 -0.2128648543935193 -0.4112001529005013
0.7407078610002804 -0.3467947108805555 -0.5047383212453762
1.3505291345244510 1.7276936830434380 -0.3736260578557799
0.7678001458402884 5.7973904517009052 -1.5382083405973439
0.6350562495372825 -0.0402604055706723 0.8147740370257553
0.2203290341880524 0.2363378173815612 0.2002412262440947
0.7282504955295643 4.5821557523565248 -1.1858312598778666
1.0740755943494273 2.9546026326307797 -0.0665809029184033
0.9890087835953724 3.1501255077969113 -1.0065924123395988
1.0674716001614422 2.0255062588709882 -0.1473545491715627
3.1139772166579718 3.2775017417995254 0.0586517468411410
1.0393487766226148 0.8279270637415576 0.9960895912437986
0.9154750907620500 3.9826152400202619 0.1205610788991573
0.8416363909443062 0.9670800711477001 0.7092638141493667
0.8473894701380550 8.8150441817953151 0.4498579409710504
1.8536535190840691 4.8124924275346848 0.8141496966969255
-0.4615526123679223 1.1011491160094049 0.4718704733630253
0.5914056596656569 1.5942721132230970 -0.5321526699184758
0.9153694283025124 2.6639316835168803 0.0068475710271376
0.9094803047986697 3.6713244012589619 0.7349525541686788
1.0398488073561056 2.3207956653776765 -0.4283578515636497
1.5279932517393155 3.4299688094394023 -0.2607666042271307
1.1763442728278017 4.1749350440487643 -0.1875737621168999
2.8197564827802428 1.9442038096255285 -0.5165433174408712
1.0992615459701462 3.2407698126652775 0.0096141697226093
1.3110483520202174 13.1427407690722333 -0.6776406949126779
0.7694437553053134 1.4172451332102645 -0.6138862408099224
1.8820287923373245 1.8520095472645612 -0.5561313593047349
0.9346990946569740 1.5281359020960006 -0.1141349546964575
0.9300447039622118 6.8014208986926405 0.3398143169261731
0.9105355283256893 7.8671219925491211 0.0826884397228839
0.1164654898758388 -5.9344863818798466 -1.8175455962318143
1.6707852757790376 30.1717291032514687 1.7802772621261633
-1.2604537259572632 0.6775011737800656 -1.0651166104899037
1.3753483530946295 22.2183471956071124 -1.4833961911961431
0.1132461370640671 -11.2202599997180599 0.8634953752770804
4.1440806607798768 1.7756535983861472 1.4952915773301936
-1.2418449194170553 0.7946970749724099 -1.1101271484157236
4.2470455815124035 1.7327221140665006 1.4488289591361838
1.6677267883746794 30.5157013419584153 -1.8001289704101064
1.0209309985802575 5.3107365932563617 0.3348080325335984
0.9160049313697771 6.2074675991304433 0.3194848191709135
0.7832801709167481 7.6918737363844949 -0.3491269092594824
5.3002860416375990 2.4161953333081927 2.2304490485627495
2.0119578012682706 34.7515680112464267 -2.5648147544581508
5.2062647132650142 2.4714241175056411 2.2177238363960803
-1.5221045353695943 0.6827206305259325 -1.3874252490122181
-0.0386968568287291 -12.4994784145972346 0.9675269895107000
1.7071022322008174 27.0599179063157358 -2.2095823672863171
1.9097999312541394 32.9431402567243836 2.3652197355926212
-1.4975539353646123 0.6060972195296400 -1.2968632193057477
0.9816858053927671 4.5213347693274519 0.2198619374600595
-1.4092354885195040 1.2182413523617799 -0.6676893772586581
-0.0820805510532838 -14.5669647759882501 1.8982960229656325
0.9184863291903138 8.2017637514097093 -0.4580402203675573
1.0611621824654978 1.0871761844484666 0.4143302090880762
0.7991023973594713 2.5642953429974189 0.1542700783484743
1.0857796955303569 3.2995350016520688 0.1127806566145386
1.0439975203301683 1.6407925219727297 0.7751833552782379
0.7928012841817075 0.6493665079313120 -0.6667040350718867
0.7547019036766975 0.9329563424901641 0.6160166954076920
0.9714642922177507 3.1081974515913333 -0.1245640437142060
1.5474967590992983 4.0771891180659399 0.2308893173895688
0.2200571659724971 -0.4650340288623386 0.2902039160922863
0.1781217051123858 0.2083168574221754 -0.1713139031754369
0.1445012469308377 0.0294085343271156 -0.1425600427956137
0.2883820549995950 -0.4800068831611881 0.2534530749709160
-0.7987508591545993 0.9223201339172427 0.1100222323349517
0.9232141033905477 3.6593996506243092 0.0453686829164902
0.4868093669921906 0.7296652677668780 -0.7713367672492970
0.1003442653992355 -5.7066969964571967 1.8359559324295309
-0.6284193956243653 1.2215576968613391 -0.3869999096497855
1.0491803584686457 3.9717333035503555 -0.0520723037793969
1.8750816749687924 0.5606859192873852 -0.2193353395833781
1.1444293868811111 3.9618315753987461 -0.3557152358990566
1.0855264247649956 2.3912720423487253 0.1135458107783477
-0.5979273848873897 0.9574541910112840 0.5041097108024171
-0.6213537000434056 1.3631632700985092 -0.3744058020757992
0.6743141484167265 -3.3706431620934669 0.8480793140516657
0.2371364834695555 -4.2629820089033847 -1.4093564586184020
1.1867454668413886 4.2701141907156517 0.1598156787602250
6.0418929411476618 3.0393244412547582 0.1843894377350519
0.8771052927622655 2.3946731942406778 0.3628175357906775
0.8600395574147438 4.0748815891443586 -0.1666004580936104
1.6794134552566182 28.1902004925599527 -0.1152639015404451
1.0497012950429419 1.9367154683054701 -0.7755014938237506
0.8816994321606346 3.2039001651231351 0.0203769951293276
1.1797355562084264 7.1592752717239057 0.6823040253375841
1.1876309579456354 4.0042757745503499 0.0585134651618009
0.1869093719061691 0.3570094378675153 0.1445493559313498
0.3133993895886713 -0.4412701247626600 -0.2263631671344244
0.2633331141411182 -0.8503169654007017 -0.2130419941398877
0.1595359998640836 0.4471000767756384 0.1577313404665617
0.3387288031867645 0.7830056551734674 -0.3119645912895318
0.3614701028761996 -0.1450010805329777 0.3379729049870567
0.3109969817015655 1.3195707504175556 0.3502213194326243
0.4454389220507902 -0.3742916146012626 0.3159849188493403
0.4325216244090706 -0.3608769301106194 -0.3080584015778742
0.3656804792394583 0.8068473027853760 -0.3083502626151701
0.4751211477239158 0.0081103079851957 -0.3194688996813170
0.3544514077321193 1.2342007868171618 0.3271237764270528
0.7551577281278691 4.2248429948717039 0.2386056478792015
0.9212893268162795 2.8416128358935540 -0.7979143717267343
1.1679780191758156 4.7751341921249519 0.4150572866800185
0.5586103867655166 7.0851464201224976 0.8844183062442571
0.9828224569751859 8.9978020946433830 -0.2033525980417175
0.6806742686080738 0.1175684522406214 -0.5213485166251904
0.8235965105355066 4.4048114245351773 0.7219157454739007
-0.2666261895498090 0.6797800752611046 0.4586601469930800
0.6884261264948633 -2.0285862390156177 -1.0733852253620944
-0.4110085520779420 0.7900415099477257 -0.3436205651513705
0.5758887900137869 -3.8377144691458427 0.6493163858176118
-0.2433750582604464 0.7559395569249889 0.4570417674475342
0.7014940667917353 -1.8204202246909487 -0.9197298378325965
0.6900435916418741 -2.0026333839890080 1.0290125695437851
-0.4226934742945336 0.5861268145985356 -0.3200243547694099
0.2540724977416022 0.2749847910530391 0.2221785431451528
-0.0905900645937297 0.4041352531448026 -0.1532018960117005
-0.0871291593762770 0.3146921220444537 -0.1710615404328568
0.7988652461843397 5.1295773557838151 1.4942257124339751
1.6383094192204322 4.6192034313477315 0.1418796175979900
2.4098967027515568 1.5418640115498035 0.7897423303523722
0.9329495046955649 1.9361455443850382 -0.3687640185288216
1.0292535300215779 4.3317101950034500 0.3169979784901678
0.6276586036893298 0.4967733996697207 0.4597367447952004
0.5587814109215762 1.2656544027134449 -0.5157251988756731
1.4261386700572107 13.0146362003086757 -0.6161922658530179
2.2391300572051813 4.7559179100404263 1.4313305536059604
1.2089137507316150 4.7589833827780650 0.3714088662987481
0.6468968574449580 1.3017985034411415 0.6507393669336045
-0.0358530473450014 -14.6562192327952765 -1.9001876896017760
-1.7953245337502717 0.8304758001226289 1.0173916275685320
0.8310676638230955 2.8319136218294036 -0.8216854920118944
1.1172476974400638 5.1081620789126854 -0.0796214939505625
0.5804372011353021 5.2986396556967952 -0.1745309614397477
0.5463720941008843 1.0070439699076503 -0.5306488015283917
0.2280215596734884 7.2032848377587166 0.1033021737844897
0.6771387486497764 4.0809775173859641 -0.9033344594597289
0.6523986331854638 0.7675004941346512 0.7484828182265126
-0.1601073340282668 -0.1151218263512466 -1.0337012694301175
-0.0391459296458705 0.0919389086493676 1.2400556515527772
0.6092552017599826 3.3867665868394745 -0.8822071245415809
0.6570562140690265 0.9806099315910639 0.7602984818332447
-0.1723762052592292 -0.1846836399403941 -0.9803877155282373
0.6632618243449147 4.0953335863544824 0.8546005800746231
0.5969967380741482 0.3822350515637921 -0.0336672283547627
1.9468915570447904 2.6923882316973136 -0.1890865429599377
0.7013557608002692 1.2467106850809637 -0.6331776377690926
1.0075877384721368 1.2317939792577042 1.3547115332308026
0.8875388464991980 -1.5858801362137094 0.9294943182195897
1.1038250611569211 7.1151006236433485 0.4734436444694761
1.1421192660490653 4.0082405888496409 0.0558808437723433
6.1982695974245949 2.6221614658608430 0.0678513769752694
1.1487842740204095 0.9911031237934567 -0.0118110284013388
0.2688210124289295 1.8668035251837809 0.5720464288004058
1.1215474552134512 15.6947950875661331 0.9452034310851181
0.9262385141516186 3.3653988580713290 0.2140411483827487
1.1353114194582676 1.4108165080335813 -0.1321577057353209
0.8027575469948850 3.9226065133406189 -0.4062764999396151
0.7680980222852333 7.6013441693759871 -0.0444736381089085
6.7044353328587736 3.1289339125623572 0.7279601877222662
1.2370649967007863 -0.4554288963158484 0.8052681674337354
1.0314075309456061 1.7585956395131082 -0.4581543425747521
3.3067727057570719 1.3502323552250721 0.3660792978622797
1.4075663962423708 2.4194707274281790 -0.8515446795392305
0.9583919620928177 5.0784905170393584 -0.4484338962469349
0.8056211213775395 0.8432199342406054 0.4525404961993386
-0.1399945171019309 0.4139664186300685 -0.7840745295532435
0.2060240258086317 -0.7619664511853532 0.9570631180653194
0.7717499823061990 0.8531163188252462 0.4975020093103122
-0.1064277385481018 0.3108038535315373 -0.7336322934400624
0.9699218235616761 4.9946953811769212 0.4437980890568292
0.6029839084143518 0.0099860715111599 -0.4926088819430537
1.0767772076370719 2.7400370117771073 0.1095074491071088
0.9760192633524980 3.7641663344717053 -0.3494905787624693
2.8692744535611787 2.4553482944751042 -0.2902677961997671
1.2632483216046353 2.4277732110836823 0.6762745542566874
0.9806508401882735 3.6064419331837532 -0.3500494275516852
0.9748643755857826 1.0693566149862135 0.4212982635858722
0.6219333515049722 -6.9929927517469226 -0.5834869282177216
1.0118045852522672 7.8441263733323439 0.4349773313202415
1.0653038769829644 4.4266332249426572 -0.0015198209911221
0.7508810907435354 0.1899277045668196 0.2173598644054893
0.8834690039735026 4.4204728679944933 0.2684202353782679
0.8026428069489990 0.8396447618746077 0.8047803558028431
2.1506492405496913 3.1796538204998037 0.3587714312174101
0.9344313188649546 2.6262135681300101 0.2499941371082222
1.3535643918244034 16.7770649432690639 0.8837179137155109
0.9186434940499347 3.3405752152427270 0.0407586681535904
0.3755730756180445 6.4762515442263133 -1.5738181605180901
-0.1784860087316475 1.6086650817110970 -0.7909454368928813
0.5910790348030001 0.7782565723400587 -0.2413223028797786
0.6541892234379885 1.2949570820927558 0.1050291807649849
0.5381291850093155 3.1848527970793739 0.5666142151519604
0.8070281755433002 2.8393937323289093 0.3804103614450954
0.8110393774465130 1.6982085669370566 -0.7043076945210712
1.0646113346617929 0.6634804346458419 -0.6140608293956685
1.2890873009958821 5.5028478016605744 -0.6858754556598191
1.0424908012520870 3.2595190955183901 -0.2470545207700374
0.3289630446628145 -13.3687834090927478 0.0685110266312050
-0.9592706559773556 0.9915646566302061 0.0161898599180232
1.0921510809359269 5.1439841876107737 -0.5929046741916139
1.2449420481364595 1.1638919716888538 -0.7430048024664687
1.0388856085187730 2.1436235126861716 0.0250922422403800
0.6100962541162412 2.9344848485600248 -0.6765529179358879
-0.2208031316407009 1.5119357836997982 -0.8552862198014461
0.1192663566225522 4.0583369218887722 2.0025758748596476
0.9821108217264687 2.8315108971534757 -0.3192356240630844
1.6590328551581817 4.4164813585834901 0.4036977710542136
1.4800546321319759 4.5484828993605619 -0.3260356915042184
1.5062797708343179 3.4232431722206256 0.0110752505260775
1.1208080363125257 4.6134742250296066 -0.1066643611812183
0.0746194692548473 3.7313155896907868 -2.0103336342512210
0.6674228099408633 1.1365758456665902 1.4045125034845019
0.8408883113431436 1.8349429450608177 0.7631054727912853
0.8863656069630825 -1.9749036712705099 -0.1698148467480122
-0.7275474159993508 1.5423348605275395 0.0087400804694832
1.4011414776231457 3.9661048832911079 0.0353575072232488
1.2800380185851430 0.7923822563866165 -0.7631819930421103
1.0596794509346037 1.4259555776367852 0.0134721143405854
0.8470778533411206 -1.1106949037266862 -0.9316634274895677
-0.1135146680536200 0.9846980582491316 0.2405913140678238
-0.3091562883422615 0.9780629594012468 -0.2100140207321084
0.6869153159056833 -2.7409272291822404 0.5749144556467061
0.8115887316950978 -0.6250093002501674 -0.7237739275184931
-0.1191186091431448 1.0743202299823928 0.2496130319264556
-0.3091629447319361 0.8669802545227554 -0.1947791895296395
0.8033556469383725 -1.0694892711750834 0.9346702429476936
0.9178422244964975 5.7437810587138793 0.0408960025259040
1.7766413646577148 4.3446423756344075 0.2598668375105824
0.7752632862924971 4.6027405694997290 0.0577829337498470
0.9221175601817565 4.3405863967143619 0.4697928084597526
1.3746318795896955 4.1987967130262716 0.4108281461015381
0.8190846652087197 2.8977110223222553 -0.3336794350125351
0.6740631299967411 1.1220922025641229 0.1186037663750815
0.7660796846246948 2.8379281253109352 -0.2694366196412772
0.5943839106282546 0.6076053272526297 -0.2458394675891252
0.4825112914496147 -6.6801619195343349 -0.7714091649870816
-0.4099126003827540 0.7899710834964884 0.1518622817613325
1.0578806840039747 3.0908611185605128 -0.0726203055565510
1.4523966762977460 6.5113281118889912 0.6616534148158227
1.1073646870224476 3.7422587691353053 -0.0821632789428447
0.7008761983097038 4.1965605932122614 0.2148316818111833
1.0654345657400437 4.2173551391838355 -0.0264687123556368
0.9184330141146770 2.9231273729725311 -0.1359657686664965
1.0046321799378122 4.2725686684428181 -0.1408461364907564
1.0945964341903591 1.4716825740682131 -0.7037461000097154
2.2406213929588330 1.1675796909284579 0.6470644986445061
1.1392226928354716 0.2402031545311532 -0.4082591509527470
1.0355677103720944 2.7562627669949027 -0.0759085384423894
2.9590361734675175 1.5679274785463408 -0.4878450320234224
-0.1944542601474664 0.9152206278340265 -0.6546900180717217
0.9496805502269919 1.5886714285180026 -0.0984147163355863
0.6128512404719458 1.0799134741177845 -0.5744680684646313
1.3316401219026475 5.7391968190571108 0.6929954033879792
-0.1859827890628557 2.3199477322645694 -0.5167813013900721
1.1927468609535419 1.9078279250407939 1.6985434771901826
1.0154260179729442 0.9266952899901439 -0.7311438069475014
1.1689877671206172 0.8263164124413400 -1.7105872225165379
0.0634357448695215 2.4142748693841831 0.7984368961316942
-0.2074396441840321 1.0677419052702479 0.0032207279840508
0.9390561835559892 -0.2540923826394922 -0.2642294322340660
1.1142385453704853 2.2884823080524748 0.5039757162396985
0.6356531505259377 6.3976502254461973 0.9423369094234632
0.9910589789180326 4.6618424318021665 -0.4456892894935348
3.0729060453123584 2.2563192804690089 -0.0571013329045787
0.6710410064124184 1.1153426918882479 0.7952229983679610
-0.7149787407158502 0.8918369918393912 -0.0538917987653463
0.6589387005067290 -7.2266145432742954 0.6011185440089047
1.1274977652304108 0.7437348962122323 0.1143214030195671
1.5120361842929282 1.2513046816259865 0.4117376391959896
1.1855235238434914 4.2071265839820793 -0.0223131859048357
1.1720527959890639 1.0722282717754592 0.7929360467227200
0.7958623499998617 0.8928918544834762 -0.3327821586614954
-1.6367092644680403 0.8886493004556228 0.8434438339279166
0.6442956550978562 -5.2784628394115725 0.8209884631672500
-0.3314620753966858 0.6571205787661646 0.2284311523082270
0.5890751677929962 -3.3298919907000126 0.7104974893841990
0.9235615374028221 10.3948495165674117 -0.1656685569549843
1.1725390932852324 4.2683278880539293 0.1796095346397421
0.9446572324179361 1.8828556529165796 0.3640059667232822
1.0409962633498469 1.8545612121368760 0.2166553424617322
0.1831301025233822 -13.2432660211697684 -1.2591151744152336
-1.4170507192813824 1.1987783765305102 -0.5316325505313200
0.6776842483169118 -4.2733559555880589 0.2564498426227403
-0.7127109449678705 1.0244615280597138 -0.0469570267082761
0.7189926972608943 -5.0974636796691106 -0.4394194910149017
-0.6501902763410988 1.0901722722715634 0.1074155492530574
0.7383456624024256 0.5391461324889643 -0.6054070438633707
0.8326992004586748 3.0735385113331022 -0.1447265558724997
0.8846011621709576 9.4091547650175791 -0.3306266197457305
0.5434147162160844 6.5332124958190834 0.0086292112862078
1.1234379384153281 3.3426793863743756 -0.3343944093940234
1.5310988076004561 3.1916313143422546 -0.3452679201825576
0.8052225376048233 15.0058355202258564 0.1638466583029394
0.6224936641644633 0.8336384007728728 -0.8403061229984015
-0.0279854549484438 -7.4556976272005269 -1.9538602716869926
0.5547986217272792 -4.1881947770275243 0.9261003801232423
-0.6985337903305497 0.9097680031902832 0.4379912693699052
0.1295983106412884 -5.2427009768321762 -1.5024321142124422
1.3578022919218069 4.1189257536753532 -0.2097448696011094
0.6317075705040399 -7.7124352637597706 -0.4840059455776650
0.6706602865053668 -4.3705688280723543 0.2403998942893307
0.5878051559519857 -5.4387332551601961 -0.3992111780505688
-0.7375776112295015 0.5759561089970442 0.0094837261056431
0.9656436988363939 3.6638722082165094 -0.0537865103686394
0.2120058395781227 8.3966744060692182 0.0522114401613724
0.8923855806583734 13.3036754514257485 0.2256130134791141
0.9196835883326019 2.4516026930820214 -0.8051437469007097
1.0642236228472979 2.0387413772683693 0.0681461145966178
0.9340576150363044 14.2432311436702292 0.4304043196292144
0.9387327963989831 1.1495524354202660 0.1054764247196908
1.9848225633437069 1.5739772859383037 0.3679952335256167
2.6341698132162170 3.3612309130124403 0.7853892680158718
0.8504432726568585 -0.6451179148278838 0.9980273246868928
-0.8411740016942553 0.8907787867407719 0.0477086383558426
0.4865389859868440 -6.6954343725307996 -0.1826055650241767
0.0686249130959612 8.6276382258761259 0.4542371374001907
1.9369675333671996 0.1116750906427804 -0.1535962352023246
0.7840296190947706 1.2434659946159734 0.4815286241487554
0.9381631851399855 12.4296684120733243 -0.1714211856398409
1.1849187444797507 4.2633635747391381 0.0077495359023799
1.0974343663493598 13.7204715592336548 -0.3426556926964791
0.8252697643311551 0.9998429501054255 0.7093835730874385
0.3693605701439904 8.7135451591654185 0.0348832649004428
0.9237171405603068 1.2549400194334490 -0.3998974498061765
0.6433707702402096 1.8690521436119543 0.3685199277954072
1.0407036581972806 4.2817476486558395 0.1339898604272958
0.9819559422198252 1.1812176943322432 0.2375302080720693
0.7281975410512797 2.1387505925288766 -1.0224100703230317
0.1613174886874558 7.3035540947793027 0.0141817344560750
1.1088795949218584 13.8956041835653341 -0.2733735594499054
0.6850398202570802 1.8744570399923006 -0.7143431770917584
0.9363576461108603 3.4299140210876784 0.0471684281109355
0.7981521556922123 3.3635449169756391 -0.2344491541198511
1.1153679953741360 2.8486801521673266 -0.0487519158907815
0.1577184606312707 7.2066413837679484 0.0816020768700611
0.8383722404724679 2.1350228468429928 -0.4893596740033693
0.6813707335094986 2.7384290552570412 -0.3769786405564566
0.3171719444723631 2.1003338969836420 0.5031365964054427
0.6701152424095985 2.6245017758997422 -0.2895362845519038
1.1716401353348769 -0.0177565492106002 0.2741669017636371
0.9018217388041774 1.4619418751124005 -0.0630914416597566
0.1024825540526322 7.1871921937563084 -0.0649308004761023
2.2932965190009074 3.6887726600796542 0.4785254809222655
0.8890320508671742 5.9440057226869838 0.4610025636011500
0.9650790787063266 13.5707215753624020 -0.1672815709453265
1.5349815570505525 2.8032518878741355 -0.0377175995019351
-0.1169217001195383 1.4136558216344286 0.0239757227914662
1.6850862521985965 5.7665677418770951 0.0609507749382252
0.0929837117734333 0.3775280654529221 0.5093896632072855
0.8717296182564950 5.8730789661836900 -0.1055789446265702
1.1468218885155892 14.2043632925475070 0.5479634607468337
1.2590821493399391 2.5747399463642675 -0.3766937164794333
0.6510552660313772 1.0890870929457996 -0.5441183494057280
1.7338362275509083 1.4988319836267265 0.7255137783180283
0.8732569333101441 4.1523676469244268 -0.1285323522932488
1.2248052210660059 4.1639653929425240 0.1965856764266907
-0.4615137336346078 0.7805335292832717 -0.1227603147270227
0.5434602966420398 -5.8544553303932547 0.8128057369019012
0.0648746868241476 6.6814239950518743 -0.0171561175991148
1.2740484172506341 1.4442467447037843 -0.3139129951483061
1.0050558451403668 4.6031888633668014 0.2447080921092573
0.9664608269057352 3.9958933357436424 -0.2271399483066366
0.6752959149574912 2.8231477574009718 0.6832835917709907
1.5755279933202970 3.5188975852293147 -0.3037614626239202
0.8452513365522634 1.8771946060364686 -0.6176924411722303
0.7804149583769593 -1.0392485062355459 -0.5510997833177077
-0.3630337750244386 1.0152213684578015 -0.1117889202585147
1.0707890363186972 1.7459611036834075 -0.0078261159038559
0.9170530449777379 1.1094596580159706 -0.4093509815767753
1.0352154672427762 1.9172174706231822 -0.6645561154726178
1.1139259550200551 4.4069395649198917 -0.1919452240558685
0.9779676578775195 1.7937054678803461 0.3137649116358385
1.0358563457556436 4.7736882307345496 -0.5747784146156281
-1.8704211487280826 0.8336670266523735 0.8839548538949995
0.0628403522820333 0.4819529756456219 1.1965416388047465
0.9104584819793722 2.7153590035226935 -0.2240646500793525
0.7419570890071568 1.3179907233250081 0.2718102774260412
0.1421643921928623 1.0311771397182792 0.3070331163442093
0.6801373927542113 -1.3325011762166021 0.7351401863080459
0.9831672883848175 2.6324950808776251 -0.1674702409470272
0.9777180918031336 4.2735293305177171 0.0520136630210555
1.6348834880795056 4.3898578567909032 0.2154221907828980
0.8907808774490752 3.3740013050409834 0.0317678505781085
1.1025463218155969 3.3821209006095407 -0.0700275685225924
0.9150313232186167 9.6494146620247516 0.2366018935136196
1.9874864108243360 2.2178553550250153 -0.1252167525310839
0.9832628504256483 9.5331294540102043 0.1788449538031168
0.9416395173416919 1.3413489883853718 0.4175778729148848
1.8676611597523167 3.3833471982430079 0.7866446425610437
0.9728361204867347 3.2891649630782624 -0.0619901929499473
1.0386213518264125 1.7454203760708040 -0.0130846827531080
0.9148522871110585 1.5410844811309958 0.0865469593640029
0.9151178488972829 1.5407359974083854 0.2156272615325351
0.6775636095846764 6.5060568794717213 0.2817689889671720
1.7077274036704406 2.9357670365505051 -0.2084407837204812
0.7766873198403498 6.3290288742886904 0.1953916041555918
-0.3982370894438002 -5.4043032603039007 -2.0779285416311915
1.0493673432393451 1.4027329332350218 -0.6033588556326807
0.9435199525329213 1.6219237980736565 -0.2994230551435961

SCALARS f:fiber_f double 3
LOOKUP_TABLE default
0.0000000000000000 1.0000000000000000 0.0000000000000000
0.0000000000000000 1.0000000000000000 0.0000000000000000
0.0000000000000000 1.0000000000000000 0.0000000000000000
0.0000000000000000 1.0000000000000000 0.0000000000000000
0.0000000000000000 1.0000000000000000 0.0000000000000000
0.0000000000000000 1.0000000000000000 0.0000000000000000
0.0000000000000000 1.0000000000000000 0.0000000000000000
0.0000000000000000 1.0000000000000000 0.0000000000000000
0.0000000000000000 1.0000000000000000 0.0000000000000000
0.0000000000000000 1.0000000000000000 0.0000000000000000
0.0000000000000000 1.0000000000000000 0.0000000000000000
0.0000000000000000 1.0000000000000000 0.0000000000000000
0.0000000000000000 1.0000000000000000 0.0000000000000000
0.0000000000000000 1.0000000000000000 0.0000000000000000
0.0000000000000000 1.0000000000000000 0.0000000000000000
0.0000000000000000 1.0000000000000000 0.0000000000000000
0.0000000000000000 1.0000000000000000 0.0000000000000000
0.0000000000000000 1.0000000000000000 0.0000000000000000
0.0000000000000000 1.0000000000000000 0.0000000000000000
0.0000000000000000 1.0000000000000000 0.0000000000000000
0.0000000000000000 1.0000000000000000 0.0000000000000000
0.0000000000000000 1.0000000000000000 0.0000000000000000
0.0000000000000000 1.0000000000000000 0.0000000000000000
0.0000000000000000 1.0000000000000000 0.0000000000000000
0.0000000000000000 1.0000000000000000 0.0000000000000000
0.0000000000000000 1.0000000000000000 0.0000000000000000
0.0000000000000000 1.0000000000000000 0.0000000000000000
0.0000000000000000 1.0000000000000000 0.0000000000000000
0.0000000000000000 1.0000000000000000 0.0000000000000000
0.0000000000000000 1.0000000000000000 0.0000000000000000
0.0000000000000000 1.0000000000000000 0.0000000000000000
0.0000000000000000 1.0000000000000000 0.0000000000000000
0.0000000000000000 1.0000000000000000 0.0000000000000000
0.0000000000000000 1.0000000000000000 0.0000000000000000
0.0000000000000000 1.0000000000000000 0.0000000000000000
0.0000000000000000 1.0000000000000000 0.0000000000000000
0.0000000000000000 1.0000000000000000 0.0000000000000000
0.0000000000000000 1.0000000000000000 0.0000000000000000
0.0000000000000000 1.0000000000000000 0.0000000000000000
0.0000000000000000 1.0000000000000000 0.0000000000000000
0.0000000000000000 1.0000000000000000 0.0000000000000000
0.0000000000000000 1.0000000000000000 0.0000000000000000
0.0000000000000000 1.0000000000000000 0.0000000000000000
0.0000000000000000 1.0000000000000000 0.0000000000000000
0.0000000000000000 1.0000000000000000 0.0000000000000000
0.0000000000000000 1.0000000000000000 0.0000000000000000
0.0000000000000000 1.0000000000000000 0.0000000000000000
0.0000000000000000 1.0000000000000000 0.0000000000000000
0.0000000000000000 1.0000000000000000 0.0000000000000000
0.0000000000000000 1.0000000000000000 0.0000000000000000
0.0000000000000000 1.0000000000000000 0.0000000000000000
0.0000000000000000 1.0000000000000000 0.0000000000000000
0.0000000000000000 1.0000000000000000 0.0000000000000000
0.0000000000000000 1.0000000000000000 0.0000000000000000
0.0000000000000000 1.0000000000000000 0.0000000000000000
0.0000000000000000 1.0000000000000000 0.0000000000000000
0.0000000000000000 1.0000000000000000 0.0000000000000000
0.0000000000000000 1.0000000000000000 0.0000000000000000
0.0000000000000000 1.0000000000000000 0.0000000000000000
0.0000000000000000 1.0000000000000000 0.0000000000000000
0.0000000000000000 1.0000000000000000 0.0000000000000000
0.0000000000000000 1.0000000000000000 0.0000000000000000
0.0000000000000000 1.0000000000000000 0.0000000000000000
0.0000000000000000 1.0000000000000000 0.0000000000000000
0.0000000000000000 1.0000000000000000 0.0000000000000000
0.0000000000000000 1.0000000000000000 0.0000000000000000
0.0000000000000000 1.0000000000000000 0.0000000000000000
0.0000000000000000 1.0000000000000000 0.0000000000000000
0.0000000000000000 1.0000000000000000 0.0000000000000000
0.0000000000000000 1.0000000000000000 0.0000000000000000
0.0000000000000000 1.0000000000000000 0.0000000000000000
0.0000000000000000 1.0000000000000000 0.0000000000000000
0.0000000000000000 1.0000000000000000 0.0000000000000000
0.0000000000000000 1.0000000000000000 0.0000000000000000
0.0000000000000000 1.0000000000000000 0.0000000000000000
0.0000000000000000 1.0000000000000000 0.0000000000000000
0.0000000000000000 1.0000000000000000 0.0000000000000000
0.0000000000000000 1.0000000000000000 0.0000000000000000
0.0000000000000000 1.0000000000000000 0.0000000000000000
0.0000000000000000 1.0000000000000000 0.0000000000000000
0.0000000000000000 1.0000000000000000 0.0000000000000000
0.0000000000000000 1.0000000000000000 0.0000000000000000
0.0000000000000000 1.0000000000000000 0.0000000000000000
0.0000000000000000 1.0000000000000000 0.0000000000000000
0.0000000000000000 1.0000000000000000 0.0000000000000000
0.0000000000000000 1.0000000000000000 0.0000000000000000
0.0000000000000000 1.0000000000000000 0.0000000000000000
0.0000000000000000 1.0000000000000000 0.0000000000000000
0.0000000000000000 1.0000000000000000 0.0000000000000000
0.0000000000000000 1.0000000000000000 0.0000000000000000
0.0000000000000000 1.0000000000000000 0.0000000000000000
0.0000000000000000 1.0000000000000000 0.0000000000000000
0.0000000000000000 1.0000000000000000 0.0000000000000000
0.0000000000000000 1.0000000000000000 0.0000000000000000
0.0000000000000000 1.0000000000000000 0.0000000000000000
0.0000000000000000 1.0000000000000000 0.0000000000000000
0.0000000000000000 1.0000000000000000 0.0000000000000000
0.0000000000000000 1.0000000000000000 0.0000000000000000
0.0000000000000000 1.0000000000000000 0.0000000000000000
0.0000000000000000 1.0000000000000000 0.0000000000000000
0.0000000000000000 1.0000000000000000 0.0000000000000000
0.0000000000000000 1.0000000000000000 0.0000000000000000
0.0000000000000000 1.0000000000000000 0.0000000000000000
0.0000000000000000 1.0000000000000000 0.0000000000000000
0.0000000000000000 1.0000000000000000 0.0000000000000000
0.0000000000000000 1.0000000000000000 0.0000000000000000
0.0000000000000000 1.0000000000000000 0.0000000000000000
0.0000000000000000 1.0000000000000000 0.0000000000000000
0.0000000000000000 1.0000000000000000 0.0000000000000000
0.0000000000000000 1.0000000000000000 0.0000000000000000
0.0000000000000000 1.0000000000000000 0.0000000000000000
0.0000000000000000 1.0000000000000000 0.0000000000000000
0.0000000000000000 1.0000000000000000 0.0000000000000000
0.0000000000000000 1.0000000000000000 0.0000000000000000
0.0000000000000000 1.0000000000000000 0.0000000000000000
0.0000000000000000 1.0000000000000000 0.0000000000000000
0.0000000000000000 1.0000000000000000 0.0000000000000000
0.0000000000000000 1.0000000000000000 0.0000000000000000
0.0000000000000000 1.0000000000000000 0.0000000000000000
0.0000000000000000 1.0000000000000000 0.0000000000000000
0.0000000000000000 1.0000000000000000 0.0000000000000000
0.0000000000000000 1.0000000000000000 0.0000000000000000
0.0000000000000000 1.0000000000000000 0.0000000000000000
0.0000000000000000 1.0000000000000000 0.0000000000000000
0.0000000000000000 1.0000000000000000 0.0000000000000000
0.0000000000000000 1.0000000000000000 0.0000000000000000
0.0000000000000000 1.0000000000000000 0.0000000000000000
0.0000000000000000 1.0000000000000000 0.0000000000000000
0.0000000000000000 1.0000000000000000 0.0000000000000000
0.0000000000000000 1.0000000000000000 0.0000000000000000
0.0000000000000000 1.0000000000000000 0.0000000000000000
0.0000000000000000 1.0000000000000000 0.0000000000000000
0.0000000000000000 1.0000000000000000 0.0000000000000000
0.0000000000000000 1.0000000000000000 0.0000000000000000
0.0000000000000000 1.0000000000000000 0.0000000000000000
0.0000000000000000 1.0000000000000000 0.0000000000000000
0.0000000000000000 1.0000000000000000 0.0000000000000000
0.0000000000000000 1.0000000000000000 0.0000000000000000
0.0000000000000000 1.0000000000000000 0.0000000000000000
0.0000000000000000 1.0000000000000000 0.0000000000000000
0.0000000000000000 1.0000000000000000 0.0000000000000000
0.0000000000000000 1.0000000000000000 0.0000000000000000
0.0000000000000000 1.0000000000000000 0.0000000000000000
0.0000000000000000 1.0000000000000000 0.0000000000000000
0.0000000000000000 1.0000000000000000 0.0000000000000000
0.0000000000000000 1.0000000000000000 0.0000000000000000
0.0000000000000000 1.0000000000000000 0.0000000000000000
0.0000000000000000 1.0000000000000000 0.0000000000000000
0.0000000000000000 1.0000000000000000 0.0000000000000000
0.0000000000000000 1.0000000000000000 0.0000000000000000
0.0000000000000000 1.0000000000000000 0.0000000000000000
0.0000000000000000 1.0000000000000000 0.0000000000000000
0.0000000000000000 1.0000000000000000 0.0000000000000000
0.0000000000000000 1.0000000000000000 0.0000000000000000
0.0000000000000000 1.0000000000000000 0.0000000000000000
0.0000000000000000 1.0000000000000000 0.0000000000000000
0.0000000000000000 1.0000000000000000 0.0000000000000000
0.0000000000000000 1.0000000000000000 0.0000000000000000
0.0000000000000000 1.0000000000000000 0.0000000000000000
0.0000000000000000 1.0000000000000000 0.0000000000000000
0.0000000000000000 1.0000000000000000 0.0000000000000000
0.0000000000000000 1.0000000000000000 0.0000000000000000
0.0000000000000000 1.0000000000000000 0.0000000000000000
0.0000000000000000 1.0000000000000000 0.0000000000000000
0.0000000000000000 1.0000000000000000 0.0000000000000000
0.0000000000000000 1.0000000000000000 0.0000000000000000
0.0000000000000000 1.0000000000000000 0.0000000000000000
0.0000000000000000 1.0000000000000000 0.0000000000000000
0.0000000000000000 1.0000000000000000 0.0000000000000000
0.0000000000000000 1.0000000000000000 0.0000000000000000
0.0000000000000000 1.0000000000000000 0.0000000000000000
0.0000000000000000 1.0000000000000000 0.0000000000000000
0.0000000000000000 1.0000000000000000 0.0000000000000000
0.0000000000000000 1.0000000000000000 0.0000000000000000
0.0000000000000000 1.0000000000000000 0.0000000000000000
0.0000000000000000 1.0000000000000000 0.0000000000000000
0.0000000000000000 1.0000000000000000 0.0000000000000000
0.0000000000000000 1.0000000000000000 0.0000000000000000
0.0000000000000000 1.0000000000000000 0.0000000000000000
0.0000000000000000 1.0000000000000000 0.0000000000000000
0.0000000000000000 1.0000000000000000 0.0000000000000000
0.0000000000000000 1.0000000000000000 0.0000000000000000
0.0000000000000000 1.0000000000000000 0.0000000000000000
0.0000000000000000 1.0000000000000000 0.0000000000000000
0.0000000000000000 1.0000000000000000 0.0000000000000000
0.0000000000000000 1.0000000000000000 0.0000000000000000
0.0000000000000000 1.0000000000000000 0.0000000000000000
0.0000000000000000 1.0000000000000000 0.0000000000000000
0.0000000000000000 1.0000000000000000 0.0000000000000000
0.0000000000000000 1.0000000000000000 0.0000000000000000
0.0000000000000000 1.0000000000000000 0.0000000000000000
0.0000000000000000 1.0000000000000000 0.0000000000000000
0.0000000000000000 1.0000000000000000 0.0000000000000000
0.0000000000000000 1.0000000000000000 0.0000000000000000
0.0000000000000000 1.0000000000000000 0.0000000000000000
0.0000000000000000 1.0000000000000000 0.0000000000000000
0.0000000000000000 1.0000000000000000 0.0000000000000000
0.0000000000000000 1.0000000000000000 0.0000000000000000
0.0000000000000000 1.0000000000000000 0.0000000000000000
0.0000000000000000 1.0000000000000000 0.0000000000000000
0.0000000000000000 1.0000000000000000 0.0000000000000000
0.0000000000000000 1.0000000000000000 0.0000000000000000
0.0000000000000000 1.0000000000000000 0.0000000000000000
0.0000000000000000 1.0000000000000000 0.0000000000000000
0.0000000000000000 1.0000000000000000 0.0000000000000000
0.0000000000000000 1.0000000000000000 0.0000000000000000
0.0000000000000000 1.0000000000000000 0.0000000000000000
0.0000000000000000 1.0000000000000000 0.0000000000000000
0.0000000000000000 1.0000000000000000 0.0000000000000000
0.0000000000000000 1.0000000000000000 0.0000000000000000
0.0000000000000000 1.0000000000000000 0.0000000000000000
0.0000000000000000 1.0000000000000000 0.0000000000000000
0.0000000000000000 1.0000000000000000 0.0000000000000000
0.0000000000000000 1.0000000000000000 0.0000000000000000
0.0000000000000000 1.0000000000000000 0.0000000000000000
0.0000000000000000 1.0000000000000000 0.0000000000000000
0.0000000000000000 1.0000000000000000 0.0000000000000000
0.0000000000000000 1.0000000000000000 0.0000000000000000
0.0000000000000000 1.0000000000000000 0.0000000000000000
0.0000000000000000 1.0000000000000000 0.0000000000000000
0.0000000000000000 1.0000000000000000 0.0000000000000000
0.0000000000000000 1.0000000000000000 0.0000000000000000
0.0000000000000000 1.0000000000000000 0.0000000000000000
0.0000000000000000 1.0000000000000000 0.0000000000000000
0.0000000000000000 1.0000000000000000 0.0000000000000000
0.0000000000000000 1.0000000000000000 0.0000000000000000
0.0000000000000000 1.0000000000000000 0.0000000000000000
0.0000000000000000 1.0000000000000000 0.0000000000000000
0.0000000000000000 1.0000000000000000 0.0000000000000000
0.0000000000000000 1.0000000000000000 0.0000000000000000
0.0000000000000000 1.0000000000000000 0.0000000000000000
0.0000000000000000 1.0000000000000000 0.0000000000000000
0.0000000000000000 1.0000000000000000 0.0000000000000000
0.0000000000000000 1.0000000000000000 0.0000000000000000
0.0000000000000000 1.0000000000000000 0.0000000000000000
0.0000000000000000 1.0000000000000000 0.0000000000000000
0.0000000000000000 1.0000000000000000 0.0000000000000000
0.0000000000000000 1.0000000000000000 0.0000000000000000
0.0000000000000000 1.0000000000000000 0.0000000000000000
0.0000000000000000 1.0000000000000000 0.0000000000000000
0.0000000000000000 1.0000000000000000 0.0000000000000000
0.0000000000000000 1.0000000000000000 0.0000000000000000
0.0000000000000000 1.0000000000000000 0.0000000000000000
0.0000000000000000 1.0000000000000000 0.0000000000000000
0.0000000000000000 1.0000000000000000 0.0000000000000000
0.0000000000000000 1.0000000000000000 0.0000000000000000
0.0000000000000000 1.0000000000000000 0.0000000000000000
0.0000000000000000 1.0000000000000000 0.0000000000000000
0.0000000000000000 1.0000000000000000 0.0000000000000000
0.0000000000000000 1.0000000000000000 0.0000000000000000
0.0000000000000000 1.0000000000000000 0.0000000000000000
0.0000000000000000 1.0000000000000000 0.0000000000000000
0.0000000000000000 1.0000000000000000 0.0000000000000000
0.0000000000000000 1.0000000000000000 0.0000000000000000
0.0000000000000000 1.0000000000000000 0.0000000000000000
0.0000000000000000 1.0000000000000000 0.0000000000000000
0.0000000000000000 1.0000000000000000 0.0000000000000000
0.0000000000000000 1.0000000000000000 0.0000000000000000
0.0000000000000000 1.0000000000000000 0.0000000000000000
0.0000000000000000 1.0000000000000000 0.0000000000000000
0.0000000000000000 1.0000000000000000 0.0000000000000000
0.0000000000000000 1.0000000000000000 0.0000000000000000
0.0000000000000000 1.0000000000000000 0.0000000000000000
0.0000000000000000 1.0000000000000000 0.0000000000000000
0.0000000000000000 1.0000000000000000 0.0000000000000000
0.0000000000000000 1.0000000000000000 0.0000000000000000
0.0000000000000000 1.0000000000000000 0.0000000000000000
0.0000000000000000 1.0000000000000000 0.0000000000000000
0.0000000000000000 1.0000000000000000 0.0000000000000000
0.0000000000000000 1.0000000000000000 0.0000000000000000
0.0000000000000000 1.0000000000000000 0.0000000000000000
0.0000000000000000 1.0000000000000000 0.0000000000000000
0.0000000000000000 1.0000000000000000 0.0000000000000000
0.0000000000000000 1.0000000000000000 0.0000000000000000
0.0000000000000000 1.0000000000000000 0.0000000000000000
0.0000000000000000 1.0000000000000000 0.0000000000000000
0.0000000000000000 1.0000000000000000 0.0000000000000000
0.0000000000000000 1.0000000000000000 0.0000000000000000
0.0000000000000000 1.0000000000000000 0.0000000000000000
0.0000000000000000 1.0000000000000000 0.0000000000000000
0.0000000000000000 1.0000000000000000 0.0000000000000000
0.0000000000000000 1.0000000000000000 0.0000000000000000
0.0000000000000000 1.0000000000000000 0.0000000000000000
0.0000000000000000 1.0000000000000000 0.0000000000000000
0.0000000000000000 1.0000000000000000 0.0000000000000000
0.0000000000000000 1.0000000000000000 0.0000000000000000
0.0000000000000000 1.0000000000000000 0.0000000000000000
0.0000000000000000 1.0000000000000000 0.0000000000000000
0.0000000000000000 1.0000000000000000 0.0000000000000000
0.0000000000000000 1.0000000000000000 0.0000000000000000
0.0000000000000000 1.0000000000000000 0.0000000000000000
0.0000000000000000 1.0000000000000000 0.0000000000000000
0.0000000000000000 1.0000000000000000 0.0000000000000000
0.0000000000000000 1.0000000000000000 0.0000000000000000
0.0000000000000000 1.0000000000000000 0.0000000000000000
0.0000000000000000 1.0000000000000000 0.0000000000000000
0.0000000000000000 1.0000000000000000 0.0000000000000000
0.0000000000000000 1.0000000000000000 0.0000000000000000
0.0000000000000000 1.0000000000000000 0.0000000000000000
0.0000000000000000 1.0000000000000000 0.0000000000000000
0.0000000000000000 1.0000000000000000 0.0000000000000000
0.0000000000000000 1.0000000000000000 0.0000000000000000
0.0000000000000000 1.0000000000000000 0.0000000000000000
0.0000000000000000 1.0000000000000000 0.0000000000000000
0.0000000000000000 1.0000000000000000 0.0000000000000000
0.0000000000000000 1.0000000000000000 0.0000000000000000
0.0000000000000000 1.0000000000000000 0.0000000000000000
0.0000000000000000 1.0000000000000000 0.0000000000000000
0.0000000000000000 1.0000000000000000 0.0000000000000000
0.0000000000000000 1.0000000000000000 0.0000000000000000
0.0000000000000000 1.0000000000000000 0.0000000000000000
0.0000000000000000 1.0000000000000000 0.0000000000000000
0.0000000000000000 1.0000000000000000 0.0000000000000000
0.0000000000000000 1.0000000000000000 0.0000000000000000
0.0000000000000000 1.0000000000000000 0.0000000000000000
0.0000000000000000 1.0000000000000000 0.0000000000000000
0.0000000000000000 1.0000000000000000 0.0000000000000000
0.0000000000000000 1.0000000000000000 0.0000000000000000
0.0000000000000000 1.0000000000000000 0.0000000000000000
0.0000000000000000 1.0000000000000000 0.0000000000000000
0.0000000000000000 1.0000000000000000 0.0000000000000000
0.0000000000000000 1.0000000000000000 0.0000000000000000
0.0000000000000000 1.0000000000000000 0.0000000000000000
0.0000000000000000 1.0000000000000000 0.0000000000000000
0.0000000000000000 1.0000000000000000 0.0000000000000000
0.0000000000000000 1.0000000000000000 0.0000000000000000
0.0000000000000000 1.0000000000000000 0.0000000000000000
0.0000000000000000 1.0000000000000000 0.0000000000000000
0.0000000000000000 1.0000000000000000 0.0000000000000000
0.0000000000000000 1.0000000000000000 0.0000000000000000
0.0000000000000000 1.0000000000000000 0.0000000000000000
0.0000000000000000 1.0000000000000000 0.0000000000000000
0.0000000000000000 1.0000000000000000 0.0000000000000000
0.0000000000000000 1.0000000000000000 0.0000000000000000
0.0000000000000000 1.0000000000000000 0.0000000000000000
0.0000000000000000 1.0000000000000000 0.0000000000000000
0.0000000000000000 1.0000000000000000 0.0000000000000000
0.0000000000000000 1.0000000000000000 0.0000000000000000
0.0000000000000000 1.0000000000000000 0.0000000000000000
0.0000000000000000 1.0000000000000000 0.0000000000000000
0.0000000000000000 1.0000000000000000 0.0000000000000000
0.0000000000000000 1.0000000000000000 0.0000000000000000
0.0000000000000000 1.0000000000000000 0.0000000000000000
0.0000000000000000 1.0000000000000000 0.0000000000000000
0.0000000000000000 1.0000000000000000 0.0000000000000000
0.0000000000000000 1.0000000000000000 0.0000000000000000
0.0000000000000000 1.0000000000000000 0.0000000000000000
0.0000000000000000 1.0000000000000000 0.0000000000000000
0.0000000000000000 1.0000000000000000 0.0000000000000000
0.0000000000000000 1.0000000000000000 0.0000000000000000
0.0000000000000000 1.0000000000000000 0.0000000000000000
0.0000000000000000 1.0000000000000000 0.0000000000000000
0.0000000000000000 1.0000000000000000 0.0000000000000000
0.0000000000000000 1.0000000000000000 0.0000000000000000
0.0000000000000000 1.0000000000000000 0.0000000000000000
0.0000000000000000 1.0000000000000000 0.0000000000000000
0.0000000000000000 1.0000000000000000 0.0000000000000000
0.0000000000000000 1.0000000000000000 0.0000000000000000
0.0000000000000000 1.0000000000000000 0.0000000000000000
0.0000000000000000 1.0000000000000000 0.0000000000000000
0.0000000000000000 1.0000000000000000 0.0000000000000000
0.0000000000000000 1.0000000000000000 0.0000000000000000
0.0000000000000000 1.0000000000000000 0.0000000000000000
0.0000000000000000 1.0000000000000000 0.0000000000000000
0.0000000000000000 1.0000000000000000 0.0000000000000000
0.0000000000000000 1.0000000000000000 0.0000000000000000
0.0000000000000000 1.0000000000000000 0.0000000000000000
0.0000000000000000 1.0000000000000000 0.0000000000000000
0.0000000000000000 1.0000000000000000 0.0000000000000000
0.0000000000000000 1.0000000000000000 0.0000000000000000
0.0000000000000000 1.0000000000000000 0.0000000000000000
0.0000000000000000 1.0000000000000000 0.0000000000000000
0.0000000000000000 1.0000000000000000 0.0000000000000000
0.0000000000000000 1.0000000000000000 0.0000000000000000
0.0000000000000000 1.0000000000000000 0.0000000000000000
0.0000000000000000 1.0000000000000000 0.0000000000000000
0.0000000000000000 1.0000000000000000 0.0000000000000000
0.0000000000000000 1.0000000000000000 0.0000000000000000
0.0000000000000000 1.0000000000000000 0.0000000000000000
0.0000000000000000 1.0000000000000000 0.0000000000000000
0.0000000000000000 1.0000000000000000 0.0000000000000000
0.0000000000000000 1.0000000000000000 0.0000000000000000
0.0000000000000000 1.0000000000000000 0.0000000000000000
0.0000000000000000 1.0000000000000000 0.0000000000000000
0.0000000000000000 1.0000000000000000 0.0000000000000000
0.0000000000000000 1.0000000000000000 0.0000000000000000
0.0000000000000000 1.0000000000000000 0.0000000000000000
0.0000000000000000 1.0000000000000000 0.0000000000000000
0.0000000000000000 1.0000000000000000 0.0000000000000000
0.0000000000000000 1.0000000000000000 0.0000000000000000
0.0000000000000000 1.0000000000000000 0.0000000000000000
0.0000000000000000 1.0000000000000000 0.0000000000000000
0.0000000000000000 1.0000000000000000 0.0000000000000000
0.0000000000000000 1.0000000000000000 0.0000000000000000
0.0000000000000000 1.0000000000000000 0.0000000000000000
0.0000000000000000 1.0000000000000000 0.0000000000000000
0.0000000000000000 1.0000000000000000 0.0000000000000000
0.0000000000000000 1.0000000000000000 0.0000000000000000
0.0000000000000000 1.0000000000000000 0.0000000000000000
0.0000000000000000 1.0000000000000000 0.0000000000000000
0.0000000000000000 1.0000000000000000 0.0000000000000000
0.0000000000000000 1.0000000000000000 0.0000000000000000
0.0000000000000000 1.0000000000000000 0.0000000000000000
0.0000000000000000 1.0000000000000000 0.0000000000000000
0.0000000000000000 1.0000000000000000 0.0000000000000000
0.0000000000000000 1.0000000000000000 0.0000000000000000
0.0000000000000000 1.0000000000000000 0.0000000000000000
0.0000000000000000 1.0000000000000000 0.0000000000000000
0.0000000000000000 1.0000000000000000 0.0000000000000000
0.0000000000000000 1.0000000000000000 0.0000000000000000
0.0000000000000000 1.0000000000000000 0.0000000000000000
0.0000000000000000 1.0000000000000000 0.0000000000000000
0.0000000000000000 1.0000000000000000 0.0000000000000000
0.0000000000000000 1.0000000000000000 0.0000000000000000
0.0000000000000000 1.0000000000000000 0.0000000000000000
0.0000000000000000 1.0000000000000000 0.0000000000000000
0.0000000000000000 1.0000000000000000 0.0000000000000000
0.0000000000000000 1.0000000000000000 0.0000000000000000
0.0000000000000000 1.0000000000000000 0.0000000000000000
0.0000000000000000 1.0000000000000000 0.0000000000000000
0.0000000000000000 1.0000000000000000 0.0000000000000000
0.0000000000000000 1.0000000000000000 0.0000000000000000
0.0000000000000000 1.0000000000000000 0.0000000000000000
0.0000000000000000 1.0000000000000000 0.0000000000000000
0.0000000000000000 1.0000000000000000 0.0000000000000000
0.0000000000000000 1.0000000000000000 0.0000000000000000
0.0000000000000000 1.0000000000000000 0.0000000000000000
0.0000000000000000 1.0000000000000000 0.0000000000000000
0.0000000000000000 1.0000000000000000 0.0000000000000000
0.0000000000000000 1.0000000000000000 0.0000000000000000
0.0000000000000000 1.0000000000000000 0.0000000000000000
0.0000000000000000 1.0000000000000000 0.0000000000000000
0.0000000000000000 1.0000000000000000 0.0000000000000000
0.0000000000000000 1.0000000000000000 0.0000000000000000
0.0000000000000000 1.0000000000000000 0.0000000000000000
0.0000000000000000 1.0000000000000000 0.0000000000000000
0.0000000000000000 1.0000000000000000 0.0000000000000000
0.0000000000000000 1.0000000000000000 0.0000000000000000
0.0000000000000000 1.0000000000000000 0.0000000000000000
0.0000000000000000 1.0000000000000000 0.0000000000000000
0.0000000000000000 1.0000000000000000 0.0000000000000000
0.0000000000000000 1.0000000000000000 0.0000000000000000
0.0000000000000000 1.0000000000000000 0.0000000000000000
0.0000000000000000 1.0000000000000000 0.0000000000000000
0.0000000000000000 1.0000000000000000 0.0000000000000000
0.0000000000000000 1.0000000000000000 0.0000000000000000
0.0000000000000000 1.0000000000000000 0.0000000000000000
0.0000000000000000 1.0000000000000000 0.0000000000000000
0.0000000000000000 1.0000000000000000 0.0000000000000000
0.0000000000000000 1.0000000000000000 0.0000000000000000
0.0000000000000000 1.0000000000000000 0.0000000000000000
0.0000000000000000 1.0000000000000000 0.0000000000000000
0.0000000000000000 1.0000000000000000 0.0000000000000000
0.0000000000000000 1.0000000000000000 0.0000000000000000
0.0000000000000000 1.0000000000000000 0.0000000000000000
0.0000000000000000 1.0000000000000000 0.0000000000000000
0.0000000000000000 1.0000000000000000 0.0000000000000000
0.0000000000000000 1.0000000000000000 0.0000000000000000
0.0000000000000000 1.0000000000000000 0.0000000000000000
0.0000000000000000 1.0000000000000000 0.0000000000000000
0.0000000000000000 1.0000000000000000 0.0000000000000000
0.0000000000000000 1.0000000000000000 0.0000000000000000
0.0000000000000000 1.0000000000000000 0.0000000000000000
0.0000000000000000 1.0000000000000000 0.0000000000000000
0.0000000000000000 1.0000000000000000 0.0000000000000000
0.0000000000000000 1.0000000000000000 0.0000000000000000
0.0000000000000000 1.0000000000000000 0.0000000000000000
0.0000000000000000 1.0000000000000000 0.0000000000000000
0.0000000000000000 1.0000000000000000 0.0000000000000000
0.0000000000000000 1.0000000000000000 0.0000000000000000
0.0000000000000000 1.0000000000000000 0.0000000000000000
0.0000000000000000 1.0000000000000000 0.0000000000000000
0.0000000000000000 1.0000000000000000 0.0000000000000000
0.0000000000000000 1.0000000000000000 0.0000000000000000
0.0000000000000000 1.0000000000000000 0.0000000000000000
0.0000000000000000 1.0000000000000000 0.0000000000000000
0.0000000000000000 1.0000000000000000 0.0000000000000000
0.0000000000000000 1.0000000000000000 0.0000000000000000
0.0000000000000000 1.0000000000000000 0.0000000000000000
0.0000000000000000 1.0000000000000000 0.0000000000000000
0.0000000000000000 1.0000000000000000 0.0000000000000000
0.0000000000000000 1.0000000000000000 0.0000000000000000
0.0000000000000000 1.0000000000000000 0.0000000000000000
0.0000000000000000 1.0000000000000000 0.0000000000000000
0.0000000000000000 1.0000000000000000 0.0000000000000000
0.0000000000000000 1.0000000000000000 0.0000000000000000
0.0000000000000000 1.0000000000000000 0.0000000000000000
0.0000000000000000 1.0000000000000000 0.0000000000000000
0.0000000000000000 1.0000000000000000 0.0000000000000000
0.0000000000000000 1.0000000000000000 0.0000000000000000
0.0000000000000000 1.0000000000000000 0.0000000000000000
0.0000000000000000 1.0000000000000000 0.0000000000000000
0.0000000000000000 1.0000000000000000 0.0000000000000000
0.0000000000000000 1.0000000000000000 0.0000000000000000
0.0000000000000000 1.0000000000000000 0.0000000000000000
0.0000000000000000 1.0000000000000000 0.0000000000000000
0.0000000000000000 1.0000000000000000 0.0000000000000000
0.0000000000000000 1.0000000000000000 0.0000000000000000
0.0000000000000000 1.0000000000000000 0.0000000000000000
0.0000000000000000 1.0000000000000000 0.0000000000000000
0.0000000000000000 1.0000000000000000 0.0000000000000000
0.0000000000000000 1.0000000000000000 0.0000000000000000
0.0000000000000000 1.0000000000000000 0.0000000000000000
0.0000000000000000 1.0000000000000000 0.0000000000000000
0.0000000000000000 1.0000000000000000 0.0000000000000000
0.0000000000000000 1.0000000000000000 0.0000000000000000
0.0000000000000000 1.0000000000000000 0.0000000000000000
0.0000000000000000 1.0000000000000000 0.0000000000000000
0.0000000000000000 1.0000000000000000 0.0000000000000000
0.0000000000000000 1.0000000000000000 0.0000000000000000
0.0000000000000000 1.0000000000000000 0.0000000000000000
0.0000000000000000 1.0000000000000000 0.0000000000000000
0.0000000000000000 1.0000000000000000 0.0000000000000000
0.0000000000000000 1.0000000000000000 0.0000000000000000
0.0000000000000000 1.0000000000000000 0.0000000000000000
0.0000000000000000 1.0000000000000000 0.0000000000000000
0.0000000000000000 1.0000000000000000 0.0000000000000000
0.0000000000000000 1.0000000000000000 0.0000000000000000
0.0000000000000000 1.0000000000000000 0.0000000000000000
0.0000000000000000 1.0000000000000000 0.0000000000000000
0.0000000000000000 1.0000000000000000 0.0000000000000000
0.0000000000000000 1.0000000000000000 0.0000000000000000
0.0000000000000000 1.0000000000000000 0.0000000000000000
0.0000000000000000 1.0000000000000000 0.0000000000000000
0.0000000000000000 1.0000000000000000 0.0000000000000000
0.0000000000000000 1.0000000000000000 0.0000000000000000
0.0000000000000000 1.0000000000000000 0.0000000000000000
0.0000000000000000 1.0000000000000000 0.0000000000000000
0.0000000000000000 1.0000000000000000 0.0000000000000000
0.0000000000000000 1.0000000000000000 0.0000000000000000
0.0000000000000000 1.0000000000000000 0.0000000000000000
0.0000000000000000 1.0000000000000000 0.0000000000000000
0.0000000000000000 1.0000000000000000 0.0000000000000000
0.0000000000000000 1.0000000000000000 0.0000000000000000
0.0000000000000000 1.0000000000000000 0.0000000000000000
0.0000000000000000 1.0000000000000000 0.0000000000000000
0.0000000000000000 1.0000000000000000 0.0000000000000000
0.0000000000000000 1.0000000000000000 0.0000000000000000
0.0000000000000000 1.0000000000000000 0.0000000000000000
0.0000000000000000 1.0000000000000000 0.0000000000000000
0.0000000000000000 1.0000000000000000 0.0000000000000000
0.0000000000000000 1.0000000000000000 0.0000000000000000
0.0000000000000000 1.0000000000000000 0.0000000000000000
0.0000000000000000 1.0000000000000000 0.0000000000000000
0.0000000000000000 1.0000000000000000 0.0000000000000000
0.0000000000000000 1.0000000000000000 0.0000000000000000
0.0000000000000000 1.0000000000000000 0.0000000000000000
0.0000000000000000 1.0000000000000000 0.0000000000000000
0.0000000000000000 1.0000000000000000 0.0000000000000000
0.0000000000000000 1.0000000000000000 0.0000000000000000
0.0000000000000000 1.0000000000000000 0.0000000000000000
0.0000000000000000 1.0000000000000000 0.0000000000000000
0.0000000000000000 1.0000000000000000 0.0000000000000000
0.0000000000000000 1.0000000000000000 0.0000000000000000
0.0000000000000000 1.0000000000000000 0.0000000000000000
0.0000000000000000 1.0000000000000000 0.0000000000000000
0.0000000000000000 1.0000000000000000 0.0000000000000000
0.0000000000000000 1.0000000000000000 0.0000000000000000
0.0000000000000000 1.0000000000000000 0.0000000000000000
0.0000000000000000 1.0000000000000000 0.0000000000000000
0.0000000000000000 1.0000000000000000 0.0000000000000000
0.0000000000000000 1.0000000000000000 0.0000000000000000
0.0000000000000000 1.0000000000000000 0.0000000000000000
0.0000000000000000 1.0000000000000000 0.0000000000000000
0.0000000000000000 1.0000000000000000 0.0000000000000000
0.0000000000000000 1.0000000000000000 0.0000000000000000
0.0000000000000000 1.0000000000000000 0.0000000000000000
0.0000000000000000 1.0000000000000000 0.0000000000000000
0.0000000000000000 1.0000000000000000 0.0000000000000000
0.0000000000000000 1.0000000000000000 0.0000000000000000
0.0000000000000000 1.0000000000000000 0.0000000000000000
0.0000000000000000 1.0000000000000000 0.0000000000000000
0.0000000000000000 1.0000000000000000 0.0000000000000000
0.0000000000000000 1.0000000000000000 0.0000000000000000
0.0000000000000000 1.0000000000000000 0.0000000000000000
0.0000000000000000 1.0000000000000000 0.0000000000000000
0.0000000000000000 1.0000000000000000 0.0000000000000000
0.0000000000000000 1.0000000000000000 0.0000000000000000
0.0000000000000000 1.0000000000000000 0.0000000000000000
0.0000000000000000 1.0000000000000000 0.0000000000000000
0.0000000000000000 1.0000000000000000 0.0000000000000000
0.0000000000000000 1.0000000000000000 0.0000000000000000
0.0000000000000000 1.0000000000000000 0.0000000000000000
0.0000000000000000 1.0000000000000000 0.0000000000000000
0.0000000000000000 1.0000000000000000 0.0000000000000000
0.0000000000000000 1.0000000000000000 0.0000000000000000
0.0000000000000000 1.0000000000000000 0.0000000000000000
0.0000000000000000 1.0000000000000000 0.0000000000000000
0.0000000000000000 1.0000000000000000 0.0000000000000000
0.0000000000000000 1.0000000000000000 0.0000000000000000
0.0000000000000000 1.0000000000000000 0.0000000000000000
0.0000000000000000 1.0000000000000000 0.0000000000000000
0.0000000000000000 1.0000000000000000 0.0000000000000000
0.0000000000000000 1.0000000000000000 0.0000000000000000
0.0000000000000000 1.0000000000000000 0.0000000000000000
0.0000000000000000 1.0000000000000000 0.0000000000000000
0.0000000000000000 1.0000000000000000 0.0000000000000000
0.0000000000000000 1.0000000000000000 0.0000000000000000
0.0000000000000000 1.0000000000000000 0.0000000000000000
0.0000000000000000 1.0000000000000000 0.0000000000000000
0.0000000000000000 1.0000000000000000 0.0000000000000000
0.0000000000000000 1.0000000000000000 0.0000000000000000
0.0000000000000000 1.0000000000000000 0.0000000000000000
0.0000000000000000 1.0000000000000000 0.0000000000000000
0.0000000000000000 1.0000000000000000 0.0000000000000000
0.0000000000000000 1.0000000000000000 0.0000000000000000
0.0000000000000000 1.0000000000000000 0.0000000000000000
0.0000000000000000 1.0000000000000000 0.0000000000000000
0.0000000000000000 1.0000000000000000 0.0000000000000000
0.0000000000000000 1.0000000000000000 0.0000000000000000
0.0000000000000000 1.0000000000000000 0.0000000000000000
0.0000000000000000 1.0000000000000000 0.0000000000000000
0.0000000000000000 1.0000000000000000 0.0000000000000000
0.0000000000000000 1.0000000000000000 0.0000000000000000
0.0000000000000000 1.0000000000000000 0.0000000000000000
0.0000000000000000 1.0000000000000000 0.0000000000000000
0.0000000000000000 1.0000000000000000 0.0000000000000000
0.0000000000000000 1.0000000000000000 0.0000000000000000
0.0000000000000000 1.0000000000000000 0.0000000000000000
0.0000000000000000 1.0000000000000000 0.0000000000000000
0.0000000000000000 1.0000000000000000 0.0000000000000000
0.0000000000000000 1.0000000000000000 0.0000000000000000
0.0000000000000000 1.0000000000000000 0.0000000000000000
0.0000000000000000 1.0000000000000000 0.0000000000000000
0.0000000000000000 1.0000000000000000 0.0000000000000000
0.0000000000000000 1.0000000000000000 0.0000000000000000
0.0000000000000000 1.0000000000000000 0.0000000000000000
0.0000000000000000 1.0000000000000000 0.0000000000000000
0.0000000000000000 1.0000000000000000 0.0000000000000000
0.0000000000000000 1.0000000000000000 0.0000000000000000
0.0000000000000000 1.0000000000000000 0.0000000000000000
0.0000000000000000 1.0000000000000000 0.0000000000000000
0.0000000000000000 1.0000000000000000 0.0000000000000000
0.0000000000000000 1.0000000000000000 0.0000000000000000
0.0000000000000000 1.0000000000000000 0.0000000000000000
0.0000000000000000 1.0000000000000000 0.0000000000000000
0.0000000000000000 1.0000000000000000 0.0000000000000000
0.0000000000000000 1.0000000000000000 0.0000000000000000
0.0000000000000000 1.0000000000000000 0.0000000000000000
0.0000000000000000 1.0000000000000000 0.0000000000000000
0.0000000000000000 1.0000000000000000 0.0000000000000000
0.0000000000000000 1.0000000000000000 0.0000000000000000
0.0000000000000000 1.0000000000000000 0.0000000000000000
0.0000000000000000 1.0000000000000000 0.0000000000000000
0.0000000000000000 1.0000000000000000 0.0000000000000000
0.0000000000000000 1.0000000000000000 0.0000000000000000
0.0000000000000000 1.0000000000000000 0.0000000000000000
0.0000000000000000 1.0000000000000000 0.0000000000000000
0.0000000000000000 1.0000000000000000 0.0000000000000000
0.0000000000000000 1.0000000000000000 0.0000000000000000
0.0000000000000000 1.0000000000000000 0.0000000000000000
0.0000000000000000 1.0000000000000000 0.0000000000000000
0.0000000000000000 1.0000000000000000 0.0000000000000000
0.0000000000000000 1.0000000000000000 0.0000000000000000
0.0000000000000000 1.0000000000000000 0.0000000000000000
0.0000000000000000 1.0000000000000000 0.0000000000000000
0.0000000000000000 1.0000000000000000 0.0000000000000000
0.0000000000000000 1.0000000000000000 0.0000000000000000
0.0000000000000000 1.0000000000000000 0.0000000000000000
0.0000000000000000 1.0000000000000000 0.0000000000000000
0.0000000000000000 1.0000000000000000 0.0000000000000000
0.0000000000000000 1.0000000000000000 0.0000000000000000
0.0000000000000000 1.0000000000000000 0.0000000000000000
0.0000000000000000 1.0000000000000000 0.0000000000000000
0.0000000000000000 1.0000000000000000 0.0000000000000000
0.0000000000000000 1.0000000000000000 0.0000000000000000
0.0000000000000000 1.0000000000000000 0.0000000000000000
0.0000000000000000 1.0000000000000000 0.0000000000000000
0.0000000000000000 1.0000000000000000 0.0000000000000000
0.0000000000000000 1.0000000000000000 0.0000000000000000
0.0000000000000000 1.0000000000000000 0.0000000000000000
0.0000000000000000 1.0000000000000000 0.0000000000000000
0.0000000000000000 1.0000000000000000 0.0000000000000000
0.0000000000000000 1.0000000000000000 0.0000000000000000
0.0000000000000000 1.0000000000000000 0.0000000000000000
0.0000000000000000 1.0000000000000000 0.0000000000000000
0.0000000000000000 1.0000000000000000 0.0000000000000000
0.0000000000000000 1.0000000000000000 0.0000000000000000
0.0000000000000000 1.0000000000000000 0.0000000000000000
0.0000000000000000 1.0000000000000000 0.0000000000000000
0.0000000000000000 1.0000000000000000 0.0000000000000000
0.0000000000000000 1.0000000000000000 0.0000000000000000
0.0000000000000000 1.0000000000000000 0.0000000000000000
0.0000000000000000 1.0000000000000000 0.0000000000000000
0.0000000000000000 1.0000000000000000 0.0000000000000000
0.0000000000000000 1.0000000000000000 0.0000000000000000
0.0000000000000000 1.0000000000000000 0.0000000000000000
0.0000000000000000 1.0000000000000000 0.0000000000000000
0.0000000000000000 1.0000000000000000 0.0000000000000000
0.0000000000000000 1.0000000000000000 0.0000000000000000
0.0000000000000000 1.0000000000000000 0.0000000000000000
0.0000000000000000 1.0000000000000000 0.0000000000000000
0.0000000000000000 1.0000000000000000 0.0000000000000000
0.0000000000000000 1.0000000000000000 0.0000000000000000
0.0000000000000000 1.0000000000000000 0.0000000000000000
0.0000000000000000 1.0000000000000000 0.0000000000000000
0.0000000000000000 1.0000000000000000 0.0000000000000000
0.0000000000000000 1.0000000000000000 0.0000000000000000
0.0000000000000000 1.0000000000000000 0.0000000000000000
0.0000000000000000 1.0000000000000000 0.0000000000000000
0.0000000000000000 1.0000000000000000 0.0000000000000000
0.0000000000000000 1.0000000000000000 0.0000000000000000
0.0000000000000000 1.0000000000000000 0.0000000000000000
0.0000000000000000 1.0000000000000000 0.0000000000000000
0.0000000000000000 1.0000000000000000 0.0000000000000000
0.0000000000000000 1.0000000000000000 0.0000000000000000
0.0000000000000000 1.0000000000000000 0.0000000000000000
0.0000000000000000 1.0000000000000000 0.0000000000000000
0.0000000000000000 1.0000000000000000 0.0000000000000000
0.0000000000000000 1.0000000000000000 0.0000000000000000
0.0000000000000000 1.0000000000000000 0.0000000000000000
0.0000000000000000 1.0000000000000000 0.0000000000000000
0.0000000000000000 1.0000000000000000 0.0000000000000000
0.0000000000000000 1.0000000000000000 0.0000000000000000
0.0000000000000000 1.0000000000000000 0.0000000000000000
0.0000000000000000 1.0000000000000000 0.0000000000000000
0.0000000000000000 1.0000000000000000 0.0000000000000000
0.0000000000000000 1.0000000000000000 0.0000000000000000
0.0000000000000000 1.0000000000000000 0.0000000000000000
0.0000000000000000 1.0000000000000000 0.0000000000000000
0.0000000000000000 1.0000000000000000 0.0000000000000000
0.0000000000000000 1.0000000000000000 0.0000000000000000
0.0000000000000000 1.0000000000000000 0.0000000000000000
0.0000000000000000 1.0000000000000000 0.0000000000000000
0.0000000000000000 1.0000000000000000 0.0000000000000000
0.0000000000000000 1.0000000000000000 0.0000000000000000
0.0000000000000000 1.0000000000000000 0.0000000000000000
0.0000000000000000 1.0000000000000000 0.0000000000000000
0.0000000000000000 1.0000000000000000 0.0000000000000000
0.0000000000000000 1.0000000000000000 0.0000000000000000
0.0000000000000000 1.0000000000000000 0.0000000000000000
0.0000000000000000 1.0000000000000000 0.0000000000000000
0.0000000000000000 1.0000000000000000 0.0000000000000000
0.0000000000000000 1.0000000000000000 0.0000000000000000
0.0000000000000000 1.0000000000000000 0.0000000000000000
0.0000000000000000 1.0000000000000000 0.0000000000000000
0.0000000000000000 1.0000000000000000 0.0000000000000000
0.0000000000000000 1.0000000000000000 0.0000000000000000
0.0000000000000000 1.0000000000000000 0.0000000000000000
0.0000000000000000 1.0000000000000000 0.0000000000000000
0.0000000000000000 1.0000000000000000 0.0000000000000000
0.0000000000000000 1.0000000000000000 0.0000000000000000
0.0000000000000000 1.0000000000000000 0.0000000000000000
0.0000000000000000 1.0000000000000000 0.0000000000000000
0.0000000000000000 1.0000000000000000 0.0000000000000000
0.0000000000000000 1.0000000000000000 0.0000000000000000
0.0000000000000000 1.0000000000000000 0.0000000000000000
0.0000000000000000 1.0000000000000000 0.0000000000000000
0.0000000000000000 1.0000000000000000 0.0000000000000000
0.0000000000000000 1.0000000000000000 0.0000000000000000
0.0000000000000000 1.0000000000000000 0.0000000000000000
0.0000000000000000 1.0000000000000000 0.0000000000000000
0.0000000000000000 1.0000000000000000 0.0000000000000000
0.0000000000000000 1.0000000000000000 0.0000000000000000
0.0000000000000000 1.0000000000000000 0.0000000000000000
0.0000000000000000 1.0000000000000000 0.0000000000000000
0.0000000000000000 1.0000000000000000 0.0000000000000000
0.0000000000000000 1.0000000000000000 0.0000000000000000
0.0000000000000000 1.0000000000000000 0.0000000000000000
0.0000000000000000 1.0000000000000000 0.0000000000000000
0.0000000000000000 1.0000000000000000 0.0000000000000000
0.0000000000000000 1.0000000000000000 0.0000000000000000
0.0000000000000000 1.0000000000000000 0.0000000000000000
0.0000000000000000 1.0000000000000000 0.0000000000000000
0.0000000000000000 1.0000000000000000 0.0000000000000000
0.0000000000000000 1.0000000000000000 0.0000000000000000
0.0000000000000000 1.0000000000000000 0.0000000000000000
0.0000000000000000 1.0000000000000000 0.0000000000000000
0.0000000000000000 1.0000000000000000 0.0000000000000000
0.0000000000000000 1.0000000000000000 0.0000000000000000
0.0000000000000000 1.0000000000000000 0.0000000000000000
0.0000000000000000 1.0000000000000000 0.0000000000000000
0.0000000000000000 1.0000000000000000 0.0000000000000000
0.0000000000000000 1.0000000000000000 0.0000000000000000
0.0000000000000000 1.0000000000000000 0.0000000000000000
0.0000000000000000 1.0000000000000000 0.0000000000000000
0.0000000000000000 1.0000000000000000 0.0000000000000000
0.0000000000000000 1.0000000000000000 0.0000000000000000
0.0000000000000000 1.0000000000000000 0.0000000000000000
0.0000000000000000 1.0000000000000000 0.0000000000000000
0.0000000000000000 1.0000000000000000 0.0000000000000000
0.0000000000000000 1.0000000000000000 0.0000000000000000
0.0000000000000000 1.0000000000000000 0.0000000000000000
0.0000000000000000 1.0000000000000000 0.0000000000000000
0.0000000000000000 1.0000000000000000 0.0000000000000000
0.0000000000000000 1.0000000000000000 0.0000000000000000
0.0000000000000000 1.0000000000000000 0.0000000000000000
0.0000000000000000 1.0000000000000000 0.0000000000000000
0.0000000000000000 1.0000000000000000 0.0000000000000000
0.0000000000000000 1.0000000000000000 0.0000000000000000
0.0000000000000000 1.0000000000000000 0.0000000000000000
0.0000000000000000 1.0000000000000000 0.0000000000000000
0.0000000000000000 1.0000000000000000 0.0000000000000000
0.0000000000000000 1.0000000000000000 0.0000000000000000
0.0000000000000000 1.0000000000000000 0.0000000000000000
0.0000000000000000 1.0000000000000000 0.0000000000000000
0.0000000000000000 1.0000000000000000 0.0000000000000000
0.0000000000000000 1.0000000000000000 0.0000000000000000
0.0000000000000000 1.0000000000000000 0.0000000000000000
0.0000000000000000 1.0000000000000000 0.0000000000000000
0.0000000000000000 1.0000000000000000 0.0000000000000000
0.0000000000000000 1.0000000000000000 0.0000000000000000
0.0000000000000000 1.0000000000000000 0.0000000000000000
0.0000000000000000 1.0000000000000000 0.0000000000000000
0.0000000000000000 1.0000000000000000 0.0000000000000000
0.0000000000000000 1.0000000000000000 0.0000000000000000
0.0000000000000000 1.0000000000000000 0.0000000000000000
0.0000000000000000 1.0000000000000000 0.0000000000000000
0.0000000000000000 1.0000000000000000 0.0000000000000000
0.0000000000000000 1.0000000000000000 0.0000000000000000
0.0000000000000000 1.0000000000000000 0.0000000000000000
0.0000000000000000 1.0000000000000000 0.0000000000000000
0.0000000000000000 1.0000000000000000 0.0000000000000000
0.0000000000000000 1.0000000000000000 0.0000000000000000
0.0000000000000000 1.0000000000000000 0.0000000000000000
0.0000000000000000 1.0000000000000000 0.0000000000000000
0.0000000000000000 1.0000000000000000 0.0000000000000000
0.0000000000000000 1.0000000000000000 0.0000000000000000
0.0000000000000000 1.0000000000000000 0.0000000000000000
0.0000000000000000 1.0000000000000000 0.0000000000000000
0.0000000000000000 1.0000000000000000 0.0000000000000000
0.0000000000000000 1.0000000000000000 0.0000000000000000
0.0000000000000000 1.0000000000000000 0.0000000000000000
0.0000000000000000 1.0000000000000000 0.0000000000000000
0.0000000000000000 1.0000000000000000 0.0000000000000000
0.0000000000000000 1.0000000000000000 0.0000000000000000
0.0000000000000000 1.0000000000000000 0.0000000000000000
0.0000000000000000 1.0000000000000000 0.0000000000000000
0.0000000000000000 1.0000000000000000 0.0000000000000000
0.0000000000000000 1.0000000000000000 0.0000000000000000
0.0000000000000000 1.0000000000000000 0.0000000000000000
0.0000000000000000 1.0000000000000000 0.0000000000000000
0.0000000000000000 1.0000000000000000 0.0000000000000000
0.0000000000000000 1.0000000000000000 0.0000000000000000
0.0000000000000000 1.0000000000000000 0.0000000000000000
0.0000000000000000 1.0000000000000000 0.0000000000000000
0.0000000000000000 1.0000000000000000 0.0000000000000000
0.0000000000000000 1.0000000000000000 0.0000000000000000
0.0000000000000000 1.0000000000000000 0.0000000000000000
0.0000000000000000 1.0000000000000000 0.0000000000000000
0.0000000000000000 1.0000000000000000 0.0000000000000000
0.0000000000000000 1.0000000000000000 0.0000000000000000
0.0000000000000000 1.0000000000000000 0.0000000000000000
0.0000000000000000 1.0000000000000000 0.0000000000000000
0.0000000000000000 1.0000000000000000 0.0000000000000000
0.0000000000000000 1.0000000000000000 0.0000000000000000
0.0000000000000000 1.0000000000000000 0.0000000000000000
0.0000000000000000 1.0000000000000000 0.0000000000000000
0.0000000000000000 1.0000000000000000 0.0000000000000000
0.0000000000000000 1.0000000000000000 0.0000000000000000
0.0000000000000000 1.0000000000000000 0.0000000000000000
0.0000000000000000 1.0000000000000000 0.0000000000000000
0.0000000000000000 1.0000000000000000 0.0000000000000000
0.0000000000000000 1.0000000000000000 0.0000000000000000
0.0000000000000000 1.0000000000000000 0.0000000000000000
0.0000000000000000 1.0000000000000000 0.0000000000000000
0.0000000000000000 1.0000000000000000 0.0000000000000000
0.0000000000000000 1.0000000000000000 0.0000000000000000
0.0000000000000000 1.0000000000000000 0.0000000000000000
0.0000000000000000 1.0000000000000000 0.0000000000000000
0.0000000000000000 1.0000000000000000 0.0000000000000000
0.0000000000000000 1.0000000000000000 0.0000000000000000
0.0000000000000000 1.0000000000000000 0.0000000000000000
0.0000000000000000 1.0000000000000000 0.0000000000000000
0.0000000000000000 1.0000000000000000 0.0000000000000000
0.0000000000000000 1.0000000000000000 0.0000000000000000
0.0000000000000000 1.0000000000000000 0.0000000000000000
0.0000000000000000 1.0000000000000000 0.0000000000000000
0.0000000000000000 1.0000000000000000 0.0000000000000000
0.0000000000000000 1.0000000000000000 0.0000000000000000
0.0000000000000000 1.0000000000000000 0.0000000000000000
0.0000000000000000 1.0000000000000000 0.0000000000000000
0.0000000000000000 1.0000000000000000 0.0000000000000000
0.0000000000000000 1.0000000000000000 0.0000000000000000
0.0000000000000000 1.0000000000000000 0.0000000000000000
0.0000000000000000 1.0000000000000000 0.0000000000000000
0.0000000000000000 1.0000000000000000 0.0000000000000000
0.0000000000000000 1.0000000000000000 0.0000000000000000
0.0000000000000000 1.0000000000000000 0.0000000000000000
0.0000000000000000 1.0000000000000000 0.0000000000000000
0.0000000000000000 1.0000000000000000 0.0000000000000000
0.0000000000000000 1.0000000000000000 0.0000000000000000
0.0000000000000000 1.0000000000000000 0.0000000000000000
0.0000000000000000 1.0000000000000000 0.0000000000000000
0.0000000000000000 1.0000000000000000 0.0000000000000000
0.0000000000000000 1.0000000000000000 0.0000000000000000
0.0000000000000000 1.0000000000000000 0.0000000000000000
0.0000000000000000 1.0000000000000000 0.0000000000000000
0.0000000000000000 1.0000000000000000 0.0000000000000000
0.0000000000000000 1.0000000000000000 0.0000000000000000
0.0000000000000000 1.0000000000000000 0.0000000000000000
0.0000000000000000 1.0000000000000000 0.0000000000000000
0.0000000000000000 1.0000000000000000 0.0000000000000000
0.0000000000000000 1.0000000000000000 0.0000000000000000
0.0000000000000000 1.0000000000000000 0.0000000000000000
0.0000000000000000 1.0000000000000000 0.0000000000000000
0.0000000000000000 1.0000000000000000 0.0000000000000000
0.0000000000000000 1.0000000000000000 0.0000000000000000
0.0000000000000000 1.0000000000000000 0.0000000000000000
0.0000000000000000 1.0000000000000000 0.0000000000000000
0.0000000000000000 1.0000000000000000 0.0000000000000000
0.0000000000000000 1.0000000000000000 0.0000000000000000
0.0000000000000000 1.0000000000000000 0.0000000000000000
0.0000000000000000 1.0000000000000000 0.0000000000000000
0.0000000000000000 1.0000000000000000 0.0000000000000000
0.0000000000000000 1.0000000000000000 0.0000000000000000
0.0000000000000000 1.0000000000000000 0.0000000000000000
0.0000000000000000 1.0000000000000000 0.0000000000000000
0.0000000000000000 1.0000000000000000 0.0000000000000000
0.0000000000000000 1.0000000000000000 0.0000000000000000
0.0000000000000000 1.0000000000000000 0.0000000000000000
0.0000000000000000 1.0000000000000000 0.0000000000000000
0.0000000000000000 1.0000000000000000 0.0000000000000000
0.0000000000000000 1.0000000000000000 0.0000000000000000
0.0000000000000000 1.0000000000000000 0.0000000000000000
0.0000000000000000 1.0000000000000000 0.0000000000000000
0.0000000000000000 1.0000000000000000 0.0000000000000000
0.0000000000000000 1.0000000000000000 0.0000000000000000
0.0000000000000000 1.0000000000000000 0.0000000000000000
0.0000000000000000 1.0000000000000000 0.0000000000000000
0.0000000000000000 1.0000000000000000 0.0000000000000000
0.0000000000000000 1.0000000000000000 0.0000000000000000
0.0000000000000000 1.0000000000000000 0.0000000000000000
0.0000000000000000 1.0000000000000000 0.0000000000000000
0.0000000000000000 1.0000000000000000 0.0000000000000000
0.0000000000000000 1.0000000000000000 0.0000000000000000
0.0000000000000000 1.0000000000000000 0.0000000000000000
0.0000000000000000 1.0000000000000000 0.0000000000000000
0.0000000000000000 1.0000000000000000 0.0000000000000000
0.0000000000000000 1.0000000000000000 0.0000000000000000
0.0000000000000000 1.0000000000000000 0.0000000000000000
0.0000000000000000 1.0000000000000000 0.0000000000000000
0.0000000000000000 1.0000000000000000 0.0000000000000000
0.0000000000000000 1.0000000000000000 0.0000000000000000
0.0000000000000000 1.0000000000000000 0.0000000000000000
0.0000000000000000 1.0000000000000000 0.0000000000000000
0.0000000000000000 1.0000000000000000 0.0000000000000000
0.0000000000000000 1.0000000000000000 0.0000000000000000
0.0000000000000000 1.0000000000000000 0.0000000000000000
0.0000000000000000 1.0000000000000000 0.0000000000000000
0.0000000000000000 1.0000000000000000 0.0000000000000000
0.0000000000000000 1.0000000000000000 0.0000000000000000
0.0000000000000000 1.0000000000000000 0.0000000000000000
0.0000000000000000 1.0000000000000000 0.0000000000000000
0.0000000000000000 1.0000000000000000 0.0000000000000000
0.0000000000000000 1.0000000000000000 0.0000000000000000
0.0000000000000000 1.0000000000000000 0.0000000000000000
0.0000000000000000 1.0000000000000000 0.0000000000000000
0.0000000000000000 1.0000000000000000 0.0000000000000000
0.0000000000000000 1.0000000000000000 0.0000000000000000
0.0000000000000000 1.0000000000000000 0.0000000000000000
0.0000000000000000 1.0000000000000000 0.0000000000000000
0.0000000000000000 1.0000000000000000 0.0000000000000000
0.0000000000000000 1.0000000000000000 0.0000000000000000
0.0000000000000000 1.0000000000000000 0.0000000000000000
0.0000000000000000 1.0000000000000000 0.0000000000000000
0.0000000000000000 1.0000000000000000 0.0000000000000000
0.0000000000000000 1.0000000000000000 0.0000000000000000
0.0000000000000000 1.0000000000000000 0.0000000000000000
0.0000000000000000 1.0000000000000000 0.0000000000000000
0.0000000000000000 1.0000000000000000 0.0000000000000000
0.0000000000000000 1.0000000000000000 0.0000000000000000
0.0000000000000000 1.0000000000000000 0.0000000000000000
0.0000000000000000 1.0000000000000000 0.0000000000000000
0.0000000000000000 1.0000000000000000 0.0000000000000000
0.0000000000000000 1.0000000000000000 0.0000000000000000
0.0000000000000000 1.0000000000000000 0.0000000000000000
0.0000000000000000 1.0000000000000000 0.0000000000000000
0.0000000000000000 1.0000000000000000 0.0000000000000000
0.0000000000000000 1.0000000000000000 0.0000000000000000
0.0000000000000000 1.0000000000000000 0.0000000000000000
0.0000000000000000 1.0000000000000000 0.0000000000000000
0.0000000000000000 1.0000000000000000 0.0000000000000000
0.0000000000000000 1.0000000000000000 0.0000000000000000
0.0000000000000000 1.0000000000000000 0.0000000000000000
0.0000000000000000 1.0000000000000000 0.0000000000000000
0.0000000000000000 1.0000000000000000 0.0000000000000000
0.0000000000000000 1.0000000000000000 0.0000000000000000
0.0000000000000000 1.0000000000000000 0.0000000000000000
0.0000000000000000 1.0000000000000000 0.0000000000000000
0.0000000000000000 1.0000000000000000 0.0000000000000000
0.0000000000000000 1.0000000000000000 0.0000000000000000
0.0000000000000000 1.0000000000000000 0.0000000000000000
0.0000000000000000 1.0000000000000000 0.0000000000000000
0.0000000000000000 1.0000000000000000 0.0000000000000000
0.0000000000000000 1.0000000000000000 0.0000000000000000
0.0000000000000000 1.0000000000000000 0.0000000000000000
0.0000000000000000 1.0000000000000000 0.0000000000000000
0.0000000000000000 1.0000000000000000 0.0000000000000000
0.0000000000000000 1.0000000000000000 0.0000000000000000
0.0000000000000000 1.0000000000000000 0.0000000000000000
0.0000000000000000 1.0000000000000000 0.0000000000000000
0.0000000000000000 1.0000000000000000 0.0000000000000000
0.0000000000000000 1.0000000000000000 0.0000000000000000
0.0000000000000000 1.0000000000000000 0.0000000000000000
0.0000000000000000 1.0000000000000000 0.0000000000000000
0.0000000000000000 1.0000000000000000 0.0000000000000000
0.0000000000000000 1.0000000000000000 0.0000000000000000
0.0000000000000000 1.0000000000000000 0.0000000000000000
0.0000000000000000 1.0000000000000000 0.0000000000000000
0.0000000000000000 1.0000000000000000 0.0000000000000000
0.0000000000000000 1.0000000000000000 0.0000000000000000
0.0000000000000000 1.0000000000000000 0.0000000000000000
0.0000000000000000 1.0000000000000000 0.0000000000000000
0.0000000000000000 1.0000000000000000 0.0000000000000000
0.0000000000000000 1.0000000000000000 0.0000000000000000
0.0000000000000000 1.0000000000000000 0.0000000000000000
0.0000000000000000 1.0000000000000000 0.0000000000000000
0.0000000000000000 1.0000000000000000 0.0000000000000000
0.0000000000000000 1.0000000000000000 0.0000000000000000
0.0000000000000000 1.0000000000000000 0.0000000000000000
0.0000000000000000 1.0000000000000000 0.0000000000000000
0.0000000000000000 1.0000000000000000 0.0000000000000000
0.0000000000000000 1.0000000000000000 0.0000000000000000
0.0000000000000000 1.0000000000000000 0.0000000000000000
0.0000000000000000 1.0000000000000000 0.0000000000000000
0.0000000000000000 1.0000000000000000 0.0000000000000000
0.0000000000000000 1.0000000000000000 0.0000000000000000
0.0000000000000000 1.0000000000000000 0.0000000000000000
0.0000000000000000 1.0000000000000000 0.0000000000000000
0.0000000000000000 1.0000000000000000 0.0000000000000000
0.0000000000000000 1.0000000000000000 0.0000000000000000
0.0000000000000000 1.0000000000000000 0.0000000000000000
0.0000000000000000 1.0000000000000000 0.0000000000000000
0.0000000000000000 1.0000000000000000 0.0000000000000000
0.0000000000000000 1.0000000000000000 0.0000000000000000
0.0000000000000000 1.0000000000000000 0.0000000000000000
0.0000000000000000 1.0000000000000000 0.0000000000000000
0.0000000000000000 1.0000000000000000 0.0000000000000000
0.0000000000000000 1.0000000000000000 0.0000000000000000
0.0000000000000000 1.0000000000000000 0.0000000000000000
0.0000000000000000 1.0000000000000000 0.0000000000000000
0.0000000000000000 1.0000000000000000 0.0000000000000000
0.0000000000000000 1.0000000000000000 0.0000000000000000
0.0000000000000000 1.0000000000000000 0.0000000000000000
0.0000000000000000 1.0000000000000000 0.0000000000000000
0.0000000000000000 1.0000000000000000 0.0000000000000000
0.0000000000000000 1.0000000000000000 0.0000000000000000
0.0000000000000000 1.0000000000000000 0.0000000000000000
0.0000000000000000 1.0000000000000000 0.0000000000000000
0.0000000000000000 1.0000000000000000 0.0000000000000000
0.0000000000000000 1.0000000000000000 0.0000000000000000
0.0000000000000000 1.0000000000000000 0.0000000000000000
0.0000000000000000 1.0000000000000000 0.0000000000000000
0.0000000000000000 1.0000000000000000 0.0000000000000000
0.0000000000000000 1.0000000000000000 0.0000000000000000
0.0000000000000000 1.0000000000000000 0.0000000000000000
0.0000000000000000 1.0000000000000000 0.0000000000000000
0.0000000000000000 1.0000000000000000 0.0000000000000000
0.0000000000000000 1.0000000000000000 0.0000000000000000
0.0000000000000000 1.0000000000000000 0.0000000000000000
0.0000000000000000 1.0000000000000000 0.0000000000000000
0.0000000000000000 1.0000000000000000 0.0000000000000000
0.0000000000000000 1.0000000000000000 0.0000000000000000
0.0000000000000000 1.0000000000000000 0.0000000000000000
0.0000000000000000 1.0000000000000000 0.0000000000000000
0.0000000000000000 1.0000000000000000 0.0000000000000000
0.0000000000000000 1.0000000000000000 0.0000000000000000
0.0000000000000000 1.0000000000000000 0.0000000000000000
0.0000000000000000 1.0000000000000000 0.0000000000000000
0.0000000000000000 1.0000000000000000 0.0000000000000000
0.0000000000000000 1.0000000000000000 0.0000000000000000
0.0000000000000000 1.0000000000000000 0.0000000000000000
0.0000000000000000 1.0000000000000000 0.0000000000000000
0.0000000000000000 1.0000000000000000 0.0000000000000000
0.0000000000000000 1.0000000000000000 0.0000000000000000
0.0000000000000000 1.0000000000000000 0.0000000000000000
0.0000000000000000 1.0000000000000000 0.0000000000000000
0.0000000000000000 1.0000000000000000 0.0000000000000000
0.0000000000000000 1.0000000000000000 0.0000000000000000
0.0000000000000000 1.0000000000000000 0.0000000000000000
0.0000000000000000 1.0000000000000000 0.0000000000000000
0.0000000000000000 1.0000000000000000 0.0000000000000000
0.0000000000000000 1.0000000000000000 0.0000000000000000
0.0000000000000000 1.0000000000000000 0.0000000000000000
0.0000000000000000 1.0000000000000000 0.0000000000000000
0.0000000000000000 1.0000000000000000 0.0000000000000000
0.0000000000000000 1.0000000000000000 0.0000000000000000
0.0000000000000000 1.0000000000000000 0.0000000000000000
0.0000000000000000 1.0000000000000000 0.0000000000000000
0.0000000000000000 1.0000000000000000 0.0000000000000000
0.0000000000000000 1.0000000000000000 0.0000000000000000
0.0000000000000000 1.0000000000000000 0.0000000000000000
0.0000000000000000 1.0000000000000000 0.0000000000000000
0.0000000000000000 1.0000000000000000 0.0000000000000000
0.0000000000000000 1.0000000000000000 0.0000000000000000
0.0000000000000000 1.0000000000000000 0.0000000000000000
0.0000000000000000 1.0000000000000000 0.0000000000000000
0.0000000000000000 1.0000000000000000 0.0000000000000000
0.0000000000000000 1.0000000000000000 0.0000000000000000
0.0000000000000000 1.0000000000000000 0.0000000000000000
0.0000000000000000 1.0000000000000000 0.0000000000000000
0.0000000000000000 1.0000000000000000 0.0000000000000000
0.0000000000000000 1.0000000000000000 0.0000000000000000
0.0000000000000000 1.0000000000000000 0.0000000000000000
0.0000000000000000 1.0000000000000000 0.0000000000000000
0.0000000000000000 1.0000000000000000 0.0000000000000000
0.0000000000000000 1.0000000000000000 0.0000000000000000
0.0000000000000000 1.0000000000000000 0.0000000000000000
0.0000000000000000 1.0000000000000000 0.0000000000000000
0.0000000000000000 1.0000000000000000 0.0000000000000000
0.0000000000000000 1.0000000000000000 0.0000000000000000
0.0000000000000000 1.0000000000000000 0.0000000000000000
0.0000000000000000 1.0000000000000000 0.0000000000000000
0.0000000000000000 1.0000000000000000 0.0000000000000000
0.0000000000000000 1.0000000000000000 0.0000000000000000
0.0000000000000000 1.0000000000000000 0.0000000000000000
0.0000000000000000 1.0000000000000000 0.0000000000000000
0.0000000000000000 1.0000000000000000 0.0000000000000000
0.0000000000000000 1.0000000000000000 0.0000000000000000
0.0000000000000000 1.0000000000000000 0.0000000000000000
0.0000000000000000 1.0000000000000000 0.0000000000000000
0.0000000000000000 1.0000000000000000 0.0000000000000000
0.0000000000000000 1.0000000000000000 0.0000000000000000
0.0000000000000000 1.0000000000000000 0.0000000000000000
0.0000000000000000 1.0000000000000000 0.0000000000000000
0.0000000000000000 1.0000000000000000 0.0000000000000000
0.0000000000000000 1.0000000000000000 0.0000000000000000
0.0000000000000000 1.0000000000000000 0.0000000000000000
0.0000000000000000 1.0000000000000000 0.0000000000000000
0.0000000000000000 1.0000000000000000 0.0000000000000000
0.0000000000000000 1.0000000000000000 0.0000000000000000
0.0000000000000000 1.0000000000000000 0.0000000000000000
0.0000000000000000 1.0000000000000000 0.0000000000000000
0.0000000000000000 1.0000000000000000 0.0000000000000000
0.0000000000000000 1.0000000000000000 0.0000000000000000
0.0000000000000000 1.0000000000000000 0.0000000000000000
0.0000000000000000 1.0000000000000000 0.0000000000000000
0.0000000000000000 1.0000000000000000 0.0000000000000000
0.0000000000000000 1.0000000000000000 0.0000000000000000
0.0000000000000000 1.0000000000000000 0.0000000000000000
0.0000000000000000 1.0000000000000000 0.0000000000000000
0.0000000000000000 1.0000000000000000 0.0000000000000000
0.0000000000000000 1.0000000000000000 0.0000000000000000
0.0000000000000000 1.0000000000000000 0.0000000000000000
0.0000000000000000 1.0000000000000000 0.0000000000000000
0.0000000000000000 1.0000000000000000 0.0000000000000000
0.0000000000000000 1.0000000000000000 0.0000000000000000
0.0000000000000000 1.0000000000000000 0.0000000000000000
0.0000000000000000 1.0000000000000000 0.0000000000000000
0.0000000000000000 1.0000000000000000 0.0000000000000000
0.0000000000000000 1.0000000000000000 0.0000000000000000
0.0000000000000000 1.0000000000000000 0.0000000000000000
0.0000000000000000 1.0000000000000000 0.0000000000000000
0.0000000000000000 1.0000000000000000 0.0000000000000000
0.0000000000000000 1.0000000000000000 0.0000000000000000
0.0000000000000000 1.0000000000000000 0.0000000000000000
0.0000000000000000 1.0000000000000000 0.0000000000000000
0.0000000000000000 1.0000000000000000 0.0000000000000000
0.0000000000000000 1.0000000000000000 0.0000000000000000
0.0000000000000000 1.0000000000000000 0.0000000000000000
0.0000000000000000 1.0000000000000000 0.0000000000000000
0.0000000000000000 1.0000000000000000 0.0000000000000000
0.0000000000000000 1.0000000000000000 0.0000000000000000
0.0000000000000000 1.0000000000000000 0.0000000000000000
0.0000000000000000 1.0000000000000000 0.0000000000000000
0.0000000000000000 1.0000000000000000 0.0000000000000000
0.0000000000000000 1.0000000000000000 0.0000000000000000
0.0000000000000000 1.0000000000000000 0.0000000000000000
0.0000000000000000 1.0000000000000000 0.0000000000000000
0.0000000000000000 1.0000000000000000 0.0000000000000000
0.0000000000000000 1.0000000000000000 0.0000000000000000
0.0000000000000000 1.0000000000000000 0.0000000000000000
0.0000000000000000 1.0000000000000000 0.0000000000000000
0.0000000000000000 1.0000000000000000 0.0000000000000000
0.0000000000000000 1.0000000000000000 0.0000000000000000
0.0000000000000000 1.0000000000000000 0.0000000000000000
0.0000000000000000 1.0000000000000000 0.0000000000000000
0.0000000000000000 1.0000000000000000 0.0000000000000000
0.0000000000000000 1.0000000000000000 0.0000000000000000
0.0000000000000000 1.0000000000000000 0.0000000000000000
0.0000000000000000 1.0000000000000000 0.0000000000000000
0.0000000000000000 1.0000000000000000 0.0000000000000000
0.0000000000000000 1.0000000000000000 0.0000000000000000
0.0000000000000000 1.0000000000000000 0.0000000000000000
0.0000000000000000 1.0000000000000000 0.0000000000000000
0.0000000000000000 1.0000000000000000 0.0000000000000000
0.0000000000000000 1.0000000000000000 0.0000000000000000
0.0000000000000000 1.0000000000000000 0.0000000000000000
0.0000000000000000 1.0000000000000000 0.0000000000000000
0.0000000000000000 1.0000000000000000 0.0000000000000000
0.0000000000000000 1.0000000000000000 0.0000000000000000
0.0000000000000000 1.0000000000000000 0.0000000000000000
0.0000000000000000 1.0000000000000000 0.0000000000000000
0.0000000000000000 1.0000000000000000 0.0000000000000000
0.0000000000000000 1.0000000000000000 0.0000000000000000
0.0000000000000000 1.0000000000000000 0.0000000000000000
0.0000000000000000 1.0000000000000000 0.0000000000000000
0.0000000000000000 1.0000000000000000 0.0000000000000000
0.0000000000000000 1.0000000000000000 0.0000000000000000
0.0000000000000000 1.0000000000000000 0.0000000000000000
0.0000000000000000 1.0000000000000000 0.0000000000000000
0.0000000000000000 1.0000000000000000 0.0000000000000000
0.0000000000000000 1.0000000000000000 0.0000000000000000
0.0000000000000000 1.0000000000000000 0.0000000000000000
0.0000000000000000 1.0000000000000000 0.0000000000000000
0.0000000000000000 1.0000000000000000 0.0000000000000000
0.0000000000000000 1.0000000000000000 0.0000000000000000
0.0000000000000000 1.0000000000000000 0.0000000000000000
0.0000000000000000 1.0000000000000000 0.0000000000000000
0.0000000000000000 1.0000000000000000 0.0000000000000000
0.0000000000000000 1.0000000000000000 0.0000000000000000
0.0000000000000000 1.0000000000000000 0.0000000000000000
0.0000000000000000 1.0000000000000000 0.0000000000000000
0.0000000000000000 1.0000000000000000 0.0000000000000000
0.0000000000000000 1.0000000000000000 0.0000000000000000
0.0000000000000000 1.0000000000000000 0.0000000000000000
0.0000000000000000 1.0000000000000000 0.0000000000000000
0.0000000000000000 1.0000000000000000 0.0000000000000000
0.0000000000000000 1.0000000000000000 0.0000000000000000
0.0000000000000000 1.0000000000000000 0.0000000000000000
0.0000000000000000 1.0000000000000000 0.0000000000000000
0.0000000000000000 1.0000000000000000 0.0000000000000000
0.0000000000000000 1.0000000000000000 0.0000000000000000
0.0000000000000000 1.0000000000000000 0.0000000000000000
0.0000000000000000 1.0000000000000000 0.0000000000000000
0.0000000000000000 1.0000000000000000 0.0000000000000000
0.0000000000000000 1.0000000000000000 0.0000000000000000
0.0000000000000000 1.0000000000000000 0.0000000000000000
0.0000000000000000 1.0000000000000000 0.0000000000000000
0.0000000000000000 1.0000000000000000 0.0000000000000000
0.0000000000000000 1.0000000000000000 0.0000000000000000
0.0000000000000000 1.0000000000000000 0.0000000000000000
0.0000000000000000 1.0000000000000000 0.0000000000000000
0.0000000000000000 1.0000000000000000 0.0000000000000000
0.0000000000000000 1.0000000000000000 0.0000000000000000
0.0000000000000000 1.0000000000000000 0.0000000000000000
0.0000000000000000 1.0000000000000000 0.0000000000000000
0.0000000000000000 1.0000000000000000 0.0000000000000000
0.0000000000000000 1.0000000000000000 0.0000000000000000
0.0000000000000000 1.0000000000000000 0.0000000000000000
0.0000000000000000 1.0000000000000000 0.0000000000000000
0.0000000000000000 1.0000000000000000 0.0000000000000000
0.0000000000000000 1.0000000000000000 0.0000000000000000
0.0000000000000000 1.0000000000000000 0.0000000000000000
0.0000000000000000 1.0000000000000000 0.0000000000000000
0.0000000000000000 1.0000000000000000 0.0000000000000000
0.0000000000000000 1.0000000000000000 0.0000000000000000
0.0000000000000000 1.0000000000000000 0.0000000000000000
0.0000000000000000 1.0000000000000000 0.0000000000000000
0.0000000000000000 1.0000000000000000 0.0000000000000000
0.0000000000000000 1.0000000000000000 0.0000000000000000
0.0000000000000000 1.0000000000000000 0.0000000000000000
0.0000000000000000 1.0000000000000000 0.0000000000000000
0.0000000000000000 1.0000000000000000 0.0000000000000000
0.0000000000000000 1.0000000000000000 0.0000000000000000
0.0000000000000000 1.0000000000000000 0.0000000000000000
0.0000000000000000 1.0000000000000000 0.0000000000000000
0.0000000000000000 1.0000000000000000 0.0000000000000000
0.0000000000000000 1.0000000000000000 0.0000000000000000
0.0000000000000000 1.0000000000000000 0.0000000000000000
0.0000000000000000 1.0000000000000000 0.0000000000000000
0.0000000000000000 1.0000000000000000 0.0000000000000000
0.0000000000000000 1.0000000000000000 0.0000000000000000
0.0000000000000000 1.0000000000000000 0.0000000000000000
0.0000000000000000 1.0000000000000000 0.0000000000000000
0.0000000000000000 1.0000000000000000 0.0000000000000000
0.0000000000000000 1.0000000000000000 0.0000000000000000
0.0000000000000000 1.0000000000000000 0.0000000000000000
0.0000000000000000 1.0000000000000000 0.0000000000000000
0.0000000000000000 1.0000000000000000 0.0000000000000000
0.0000000000000000 1.0000000000000000 0.0000000000000000
0.0000000000000000 1.0000000000000000 0.0000000000000000
0.0000000000000000 1.0000000000000000 0.0000000000000000
0.0000000000000000 1.0000000000000000 0.0000000000000000
0.0000000000000000 1.0000000000000000 0.0000000000000000
0.0000000000000000 1.0000000000000000 0.0000000000000000
0.0000000000000000 1.0000000000000000 0.0000000000000000
0.0000000000000000 1.0000000000000000 0.0000000000000000
0.0000000000000000 1.0000000000000000 0.0000000000000000
0.0000000000000000 1.0000000000000000 0.0000000000000000
0.0000000000000000 1.0000000000000000 0.0000000000000000
0.0000000000000000 1.0000000000000000 0.0000000000000000
0.0000000000000000 1.0000000000000000 0.0000000000000000
0.0000000000000000 1.0000000000000000 0.0000000000000000
0.0000000000000000 1.0000000000000000 0.0000000000000000
0.0000000000000000 1.0000000000000000 0.0000000000000000
0.0000000000000000 1.0000000000000000 0.0000000000000000
0.0000000000000000 1.0000000000000000 0.0000000000000000
0.0000000000000000 1.0000000000000000 0.0000000000000000
0.0000000000000000 1.0000000000000000 0.0000000000000000
0.0000000000000000 1.0000000000000000 0.0000000000000000
0.0000000000000000 1.0000000000000000 0.0000000000000000
0.0000000000000000 1.0000000000000000 0.0000000000000000
0.0000000000000000 1.0000000000000000 0.0000000000000000
0.0000000000000000 1.0000000000000000 0.0000000000000000
0.0000000000000000 1.0000000000000000 0.0000000000000000
0.0000000000000000 1.0000000000000000 0.0000000000000000
0.0000000000000000 1.0000000000000000 0.0000000000000000
0.0000000000000000 1.0000000000000000 0.0000000000000000
0.0000000000000000 1.0000000000000000 0.0000000000000000
0.0000000000000000 1.0000000000000000 0.0000000000000000
0.0000000000000000 1.0000000000000000 0.0000000000000000
0.0000000000000000 1.0000000000000000 0.0000000000000000
0.0000000000000000 1.0000000000000000 0.0000000000000000
0.0000000000000000 1.0000000000000000 0.0000000000000000
0.0000000000000000 1.0000000000000000 0.0000000000000000
0.0000000000000000 1.0000000000000000 0.0000000000000000
0.0000000000000000 1.0000000000000000 0.0000000000000000
0.0000000000000000 1.0000000000000000 0.0000000000000000
0.0000000000000000 1.0000000000000000 0.0000000000000000
0.0000000000000000 1.0000000000000000 0.0000000000000000
0.0000000000000000 1.0000000000000000 0.0000000000000000
0.0000000000000000 1.0000000000000000 0.0000000000000000
0.0000000000000000 1.0000000000000000 0.0000000000000000
0.0000000000000000 1.0000000000000000 0.0000000000000000
0.0000000000000000 1.0000000000000000 0.0000000000000000
0.0000000000000000 1.0000000000000000 0.0000000000000000
0.0000000000000000 1.0000000000000000 0.0000000000000000
0.0000000000000000 1.0000000000000000 0.0000000000000000
0.0000000000000000 1.0000000000000000 0.0000000000000000
0.0000000000000000 1.0000000000000000 0.0000000000000000
0.0000000000000000 1.0000000000000000 0.0000000000000000
0.0000000000000000 1.0000000000000000 0.0000000000000000
0.0000000000000000 1.0000000000000000 0.0000000000000000
0.0000000000000000 1.0000000000000000 0.0000000000000000
0.0000000000000000 1.0000000000000000 0.0000000000000000
0.0000000000000000 1.0000000000000000 0.0000000000000000
0.0000000000000000 1.0000000000000000 0.0000000000000000
0.0000000000000000 1.0000000000000000 0.0000000000000000
0.0000000000000000 1.0000000000000000 0.0000000000000000
0.0000000000000000 1.0000000000000000 0.0000000000000000
0.0000000000000000 1.0000000000000000 0.0000000000000000
0.0000000000000000 1.0000000000000000 0.0000000000000000
0.0000000000000000 1.0000000000000000 0.0000000000000000
0.0000000000000000 1.0000000000000000 0.0000000000000000
0.0000000000000000 1.0000000000000000 0.0000000000000000
0.0000000000000000 1.0000000000000000 0.0000000000000000
0.0000000000000000 1.0000000000000000 0.0000000000000000
0.0000000000000000 1.0000000000000000 0.0000000000000000
0.0000000000000000 1.0000000000000000 0.0000000000000000
0.0000000000000000 1.0000000000000000 0.0000000000000000
0.0000000000000000 1.0000000000000000 0.0000000000000000
0.0000000000000000 1.0000000000000000 0.0000000000000000
0.0000000000000000 1.0000000000000000 0.0000000000000000
0.0000000000000000 1.0000000000000000 0.0000000000000000
0.0000000000000000 1.0000000000000000 0.0000000000000000
0.0000000000000000 1.0000000000000000 0.0000000000000000
0.0000000000000000 1.0000000000000000 0.0000000000000000
0.0000000000000000 1.0000000000000000 0.0000000000000000
0.0000000000000000 1.0000000000000000 0.0000000000000000
0.0000000000000000 1.0000000000000000 0.0000000000000000
0.0000000000000000 1.0000000000000000 0.0000000000000000
0.0000000000000000 1.0000000000000000 0.0000000000000000
0.0000000000000000 1.0000000000000000 0.0000000000000000
0.0000000000000000 1.0000000000000000 0.0000000000000000
0.0000000000000000 1.0000000000000000 0.0000000000000000
0.0000000000000000 1.0000000000000000 0.0000000000000000
0.0000000000000000 1.0000000000000000 0.0000000000000000
0.0000000000000000 1.0000000000000000 0.0000000000000000
0.0000000000000000 1.0000000000000000 0.0000000000000000
0.0000000000000000 1.0000000000000000 0.0000000000000000
0.0000000000000000 1.0000000000000000 0.0000000000000000
0.0000000000000000 1.0000000000000000 0.0000000000000000
0.0000000000000000 1.0000000000000000 0.0000000000000000
0.0000000000000000 1.0000000000000000 0.0000000000000000
0.0000000000000000 1.0000000000000000 0.0000000000000000
0.0000000000000000 1.0000000000000000 0.0000000000000000
0.0000000000000000 1.0000000000000000 0.0000000000000000
0.0000000000000000 1.0000000000000000 0.0000000000000000
0.0000000000000000 1.0000000000000000 0.0000000000000000
0.0000000000000000 1.0000000000000000 0.0000000000000000
0.0000000000000000 1.0000000000000000 0.0000000000000000
0.0000000000000000 1.0000000000000000 0.0000000000000000
0.0000000000000000 1.0000000000000000 0.0000000000000000
0.0000000000000000 1.0000000000000000 0.0000000000000000
0.0000000000000000 1.0000000000000000 0.0000000000000000
0.0000000000000000 1.0000000000000000 0.0000000000000000
0.0000000000000000 1.0000000000000000 0.0000000000000000
0.0000000000000000 1.0000000000000000 0.0000000000000000
0.0000000000000000 1.0000000000000000 0.0000000000000000
0.0000000000000000 1.0000000000000000 0.0000000000000000
0.0000000000000000 1.0000000000000000 0.0000000000000000
0.0000000000000000 1.0000000000000000 0.0000000000000000
0.0000000000000000 1.0000000000000000 0.0000000000000000
0.0000000000000000 1.0000000000000000 0.0000000000000000
0.0000000000000000 1.0000000000000000 0.0000000000000000
0.0000000000000000 1.0000000000000000 0.0000000000000000
0.0000000000000000 1.0000000000000000 0.0000000000000000
0.0000000000000000 1.0000000000000000 0.0000000000000000
0.0000000000000000 1.0000000000000000 0.0000000000000000
0.0000000000000000 1.0000000000000000 0.0000000000000000
0.0000000000000000 1.0000000000000000 0.0000000000000000
0.0000000000000000 1.0000000000000000 0.0000000000000000
0.0000000000000000 1.0000000000000000 0.0000000000000000
0.0000000000000000 1.0000000000000000 0.0000000000000000
0.0000000000000000 1.0000000000000000 0.0000000000000000
0.0000000000000000 1.0000000000000000 0.0000000000000000
0.0000000000000000 1.0000000000000000 0.0000000000000000
0.0000000000000000 1.0000000000000000 0.0000000000000000
0.0000000000000000 1.0000000000000000 0.0000000000000000
0.0000000000000000 1.0000000000000000 0.0000000000000000
0.0000000000000000 1.0000000000000000 0.0000000000000000
0.0000000000000000 1.0000000000000000 0.0000000000000000
0.0000000000000000 1.0000000000000000 0.0000000000000000
0.0000000000000000 1.0000000000000000 0.0000000000000000
0.0000000000000000 1.0000000000000000 0.0000000000000000
0.0000000000000000 1.0000000000000000 0.0000000000000000
0.0000000000000000 1.0000000000000000 0.0000000000000000
0.0000000000000000 1.0000000000000000 0.0000000000000000
0.0000000000000000 1.0000000000000000 0.0000000000000000
0.0000000000000000 1.0000000000000000 0.0000000000000000
0.0000000000000000 1.0000000000000000 0.0000000000000000
0.0000000000000000 1.0000000000000000 0.0000000000000000
0.0000000000000000 1.0000000000000000 0.0000000000000000
0.0000000000000000 1.0000000000000000 0.0000000000000000
0.0000000000000000 1.0000000000000000 0.0000000000000000
0.0000000000000000 1.0000000000000000 0.0000000000000000
0.0000000000000000 1.0000000000000000 0.0000000000000000
0.0000000000000000 1.0000000000000000 0.0000000000000000
0.0000000000000000 1.0000000000000000 0.0000000000000000
0.0000000000000000 1.0000000000000000 0.0000000000000000
0.0000000000000000 1.0000000000000000 0.0000000000000000
0.0000000000000000 1.0000000000000000 0.0000000000000000
0.0000000000000000 1.0000000000000000 0.0000000000000000
0.0000000000000000 1.0000000000000000 0.0000000000000000
0.0000000000000000 1.0000000000000000 0.0000000000000000
0.0000000000000000 1.0000000000000000 0.0000000000000000
0.0000000000000000 1.0000000000000000 0.0000000000000000
0.0000000000000000 1.0000000000000000 0.0000000000000000
0.0000000000000000 1.0000000000000000 0.0000000000000000
0.0000000000000000 1.0000000000000000 0.0000000000000000
0.0000000000000000 1.0000000000000000 0.0000000000000000
0.0000000000000000 1.0000000000000000 0.0000000000000000
0.0000000000000000 1.0000000000000000 0.0000000000000000
0.0000000000000000 1.0000000000000000 0.0000000000000000
0.0000000000000000 1.0000000000000000 0.0000000000000000
0.0000000000000000 1.0000000000000000 0.0000000000000000
0.0000000000000000 1.0000000000000000 0.0000000000000000
0.0000000000000000 1.0000000000000000 0.0000000000000000
0.0000000000000000 1.0000000000000000 0.0000000000000000
0.0000000000000000 1.0000000000000000 0.0000000000000000
0.0000000000000000 1.0000000000000000 0.0000000000000000
0.0000000000000000 1.0000000000000000 0.0000000000000000
0.0000000000000000 1.0000000000000000 0.0000000000000000
0.0000000000000000 1.0000000000000000 0.0000000000000000
0.0000000000000000 1.0000000000000000 0.0000000000000000
0.0000000000000000 1.0000000000000000 0.0000000000000000
0.0000000000000000 1.0000000000000000 0.0000000000000000
0.0000000000000000 1.0000000000000000 0.0000000000000000
0.0000000000000000 1.0000000000000000 0.0000000000000000
0.0000000000000000 1.0000000000000000 0.0000000000000000
0.0000000000000000 1.0000000000000000 0.0000000000000000
0.0000000000000000 1.0000000000000000 0.0000000000000000
0.0000000000000000 1.0000000000000000 0.0000000000000000
0.0000000000000000 1.0000000000000000 0.0000000000000000
0.0000000000000000 1.0000000000000000 0.0000000000000000
0.0000000000000000 1.0000000000000000 0.0000000000000000
0.0000000000000000 1.0000000000000000 0.0000000000000000
0.0000000000000000 1.0000000000000000 0.0000000000000000
0.0000000000000000 1.0000000000000000 0.0000000000000000
0.0000000000000000 1.0000000000000000 0.0000000000000000
0.0000000000000000 1.0000000000000000 0.0000000000000000
0.0000000000000000 1.0000000000000000 0.0000000000000000
0.0000000000000000 1.0000000000000000 0.0000000000000000
0.0000000000000000 1.0000000000000000 0.0000000000000000
0.0000000000000000 1.0000000000000000 0.0000000000000000
0.0000000000000000 1.0000000000000000 0.0000000000000000
0.0000000000000000 1.0000000000000000 0.0000000000000000
0.0000000000000000 1.0000000000000000 0.0000000000000000
0.0000000000000000 1.0000000000000000 0.0000000000000000
0.0000000000000000 1.0000000000000000 0.0000000000000000
0.0000000000000000 1.0000000000000000 0.0000000000000000
0.0000000000000000 1.0000000000000000 0.0000000000000000
0.0000000000000000 1.0000000000000000 0.0000000000000000
0.0000000000000000 1.0000000000000000 0.0000000000000000
0.0000000000000000 1.0000000000000000 0.0000000000000000
0.0000000000000000 1.0000000000000000 0.0000000000000000
0.0000000000000000 1.0000000000000000 0.0000000000000000
0.0000000000000000 1.0000000000000000 0.0000000000000000
0.0000000000000000 1.0000000000000000 0.0000000000000000
0.0000000000000000 1.0000000000000000 0.0000000000000000
0.0000000000000000 1.0000000000000000 0.0000000000000000
0.0000000000000000 1.0000000000000000 0.0000000000000000
0.0000000000000000 1.0000000000000000 0.0000000000000000
0.0000000000000000 1.0000000000000000 0.0000000000000000
0.0000000000000000 1.0000000000000000 0.0000000000000000
0.0000000000000000 1.0000000000000000 0.0000000000000000
0.0000000000000000 1.0000000000000000 0.0000000000000000
0.0000000000000000 1.0000000000000000 0.0000000000000000
0.0000000000000000 1.0000000000000000 0.0000000000000000
0.0000000000000000 1.0000000000000000 0.0000000000000000
0.0000000000000000 1.0000000000000000 0.0000000000000000
0.0000000000000000 1.0000000000000000 0.0000000000000000
0.0000000000000000 1.0000000000000000 0.0000000000000000
0.0000000000000000 1.0000000000000000 0.0000000000000000
0.0000000000000000 1.0000000000000000 0.0000000000000000
0.0000000000000000 1.0000000000000000 0.0000000000000000
0.0000000000000000 1.0000000000000000 0.0000000000000000
0.0000000000000000 1.0000000000000000 0.0000000000000000
0.0000000000000000 1.0000000000000000 0.0000000000000000
0.0000000000000000 1.0000000000000000 0.0000000000000000
0.0000000000000000 1.0000000000000000 0.0000000000000000
0.0000000000000000 1.0000000000000000 0.0000000000000000
0.0000000000000000 1.0000000000000000 0.0000000000000000
0.0000000000000000 1.0000000000000000 0.0000000000000000
0.0000000000000000 1.0000000000000000 0.0000000000000000
0.0000000000000000 1.0000000000000000 0.0000000000000000
0.0000000000000000 1.0000000000000000 0.0000000000000000
0.0000000000000000 1.0000000000000000 0.0000000000000000
0.0000000000000000 1.0000000000000000 0.0000000000000000
0.0000000000000000 1.0000000000000000 0.0000000000000000
0.0000000000000000 1.0000000000000000 0.0000000000000000
0.0000000000000000 1.0000000000000000 0.0000000000000000
0.0000000000000000 1.0000000000000000 0.0000000000000000
0.0000000000000000 1.0000000000000000 0.0000000000000000
0.0000000000000000 1.0000000000000000 0.0000000000000000
0.0000000000000000 1.0000000000000000 0.0000000000000000
0.0000000000000000 1.0000000000000000 0.0000000000000000
0.0000000000000000 1.0000000000000000 0.0000000000000000
0.0000000000000000 1.0000000000000000 0.0000000000000000
0.0000000000000000 1.0000000000000000 0.0000000000000000
0.0000000000000000 1.0000000000000000 0.0000000000000000
0.0000000000000000 1.0000000000000000 0.0000000000000000
0.0000000000000000 1.0000000000000000 0.0000000000000000
0.0000000000000000 1.0000000000000000 0.0000000000000000
0.0000000000000000 1.0000000000000000 0.0000000000000000
0.0000000000000000 1.0000000000000000 0.0000000000000000
0.0000000000000000 1.0000000000000000 0.0000000000000000
0.0000000000000000 1.0000000000000000 0.0000000000000000
0.0000000000000000 1.0000000000000000 0.0000000000000000
0.0000000000000000 1.0000000000000000 0.0000000000000000
0.0000000000000000 1.0000000000000000 0.0000000000000000
0.0000000000000000 1.0000000000000000 0.0000000000000000
0.0000000000000000 1.0000000000000000 0.0000000000000000
0.0000000000000000 1.0000000000000000 0.0000000000000000
0.0000000000000000 1.0000000000000000 0.0000000000000000
0.0000000000000000 1.0000000000000000 0.0000000000000000
0.0000000000000000 1.0000000000000000 0.0000000000000000
0.0000000000000000 1.0000000000000000 0.0000000000000000
0.0000000000000000 1.0000000000000000 0.0000000000000000
0.0000000000000000 1.0000000000000000 0.0000000000000000
0.0000000000000000 1.0000000000000000 0.0000000000000000
0.0000000000000000 1.0000000000000000 0.0000000000000000
0.0000000000000000 1.0000000000000000 0.0000000000000000
0.0000000000000000 1.0000000000000000 0.0000000000000000
0.0000000000000000 1.0000000000000000 0.0000000000000000
0.0000000000000000 1.0000000000000000 0.0000000000000000
0.0000000000000000 1.0000000000000000 0.0000000000000000
0.0000000000000000 1.0000000000000000 0.0000000000000000
0.0000000000000000 1.0000000000000000 0.0000000000000000
0.0000000000000000 1.0000000000000000 0.0000000000000000
0.0000000000000000 1.0000000000000000 0.0000000000000000
0.0000000000000000 1.0000000000000000 0.0000000000000000
0.0000000000000000 1.0000000000000000 0.0000000000000000
0.0000000000000000 1.0000000000000000 0.0000000000000000
0.0000000000000000 1.0000000000000000 0.0000000000000000
0.0000000000000000 1.0000000000000000 0.0000000000000000
0.0000000000000000 1.0000000000000000 0.0000000000000000
0.0000000000000000 1.0000000000000000 0.0000000000000000
0.0000000000000000 1.0000000000000000 0.0000000000000000
0.0000000000000000 1.0000000000000000 0.0000000000000000
0.0000000000000000 1.0000000000000000 0.0000000000000000
0.0000000000000000 1.0000000000000000 0.0000000000000000
0.0000000000000000 1.0000000000000000 0.0000000000000000
0.0000000000000000 1.0000000000000000 0.0000000000000000
0.0000000000000000 1.0000000000000000 0.0000000000000000
0.0000000000000000 1.0000000000000000 0.0000000000000000
0.0000000000000000 1.0000000000000000 0.0000000000000000
0.0000000000000000 1.0000000000000000 0.0000000000000000
0.0000000000000000 1.0000000000000000 0.0000000000000000
0.0000000000000000 1.0000000000000000 0.0000000000000000
0.0000000000000000 1.0000000000000000 0.0000000000000000
0.0000000000000000 1.0000000000000000 0.0000000000000000
0.0000000000000000 1.0000000000000000 0.0000000000000000
0.0000000000000000 1.0000000000000000 0.0000000000000000
0.0000000000000000 1.0000000000000000 0.0000000000000000
0.0000000000000000 1.0000000000000000 0.0000000000000000
0.0000000000000000 1.0000000000000000 0.0000000000000000
0.0000000000000000 1.0000000000000000 0.0000000000000000
0.0000000000000000 1.0000000000000000 0.0000000000000000
0.0000000000000000 1.0000000000000000 0.0000000000000000
0.0000000000000000 1.0000000000000000 0.0000000000000000
0.0000000000000000 1.0000000000000000 0.0000000000000000
0.0000000000000000 1.0000000000000000 0.0000000000000000
0.0000000000000000 1.0000000000000000 0.0000000000000000
0.0000000000000000 1.0000000000000000 0.0000000000000000
0.0000000000000000 1.0000000000000000 0.0000000000000000
0.0000000000000000 1.0000000000000000 0.0000000000000000
0.0000000000000000 1.0000000000000000 0.0000000000000000
0.0000000000000000 1.0000000000000000 0.0000000000000000
0.0000000000000000 1.0000000000000000 0.0000000000000000
0.0000000000000000 1.0000000000000000 0.0000000000000000
0.0000000000000000 1.0000000000000000 0.0000000000000000
0.0000000000000000 1.0000000000000000 0.0000000000000000
0.0000000000000000 1.0000000000000000 0.0000000000000000
0.0000000000000000 1.0000000000000000 0.0000000000000000
0.0000000000000000 1.0000000000000000 0.0000000000000000
0.0000000000000000 1.0000000000000000 0.0000000000000000
0.0000000000000000 1.0000000000000000 0.0000000000000000
0.0000000000000000 1.0000000000000000 0.0000000000000000
0.0000000000000000 1.0000000000000000 0.0000000000000000
0.0000000000000000 1.0000000000000000 0.0000000000000000
0.0000000000000000 1.0000000000000000 0.0000000000000000
0.0000000000000000 1.0000000000000000 0.0000000000000000
0.0000000000000000 1.0000000000000000 0.0000000000000000
0.0000000000000000 1.0000000000000000 0.0000000000000000
0.0000000000000000 1.0000000000000000 0.0000000000000000
0.0000000000000000 1.0000000000000000 0.0000000000000000
0.0000000000000000 1.0000000000000000 0.0000000000000000
0.0000000000000000 1.0000000000000000 0.0000000000000000
0.0000000000000000 1.0000000000000000 0.0000000000000000
0.0000000000000000 1.0000000000000000 0.0000000000000000
0.0000000000000000 1.0000000000000000 0.0000000000000000
0.0000000000000000 1.0000000000000000 0.0000000000000000
0.0000000000000000 1.0000000000000000 0.0000000000000000
0.0000000000000000 1.0000000000000000 0.0000000000000000
0.0000000000000000 1.0000000000000000 0.0000000000000000
0.0000000000000000 1.0000000000000000 0.0000000000000000
0.0000000000000000 1.0000000000000000 0.0000000000000000
0.0000000000000000 1.0000000000000000 0.0000000000000000
0.0000000000000000 1.0000000000000000 0.0000000000000000
0.0000000000000000 1.0000000000000000 0.0000000000000000
0.0000000000000000 1.0000000000000000 0.0000000000000000
0.0000000000000000 1.0000000000000000 0.0000000000000000
0.0000000000000000 1.0000000000000000 0.0000000000000000
0.0000000000000000 1.0000000000000000 0.0000000000000000
0.0000000000000000 1.0000000000000000 0.0000000000000000
0.0000000000000000 1.0000000000000000 0.0000000000000000
0.0000000000000000 1.0000000000000000 0.0000000000000000
0.0000000000000000 1.0000000000000000 0.0000000000000000
0.0000000000000000 1.0000000000000000 0.0000000000000000
0.0000000000000000 1.0000000000000000 0.0000000000000000
0.0000000000000000 1.0000000000000000 0.0000000000000000
0.0000000000000000 1.0000000000000000 0.0000000000000000
0.0000000000000000 1.0000000000000000 0.0000000000000000
0.0000000000000000 1.0000000000000000 0.0000000000000000
0.0000000000000000 1.0000000000000000 0.0000000000000000
0.0000000000000000 1.0000000000000000 0.0000000000000000
0.0000000000000000 1.0000000000000000 0.0000000000000000
0.0000000000000000 1.0000000000000000 0.0000000000000000
0.0000000000000000 1.0000000000000000 0.0000000000000000
0.0000000000000000 1.0000000000000000 0.0000000000000000
0.0000000000000000 1.0000000000000000 0.0000000000000000
0.0000000000000000 1.0000000000000000 0.0000000000000000
0.0000000000000000 1.0000000000000000 0.0000000000000000
0.0000000000000000 1.0000000000000000 0.0000000000000000
0.0000000000000000 1.0000000000000000 0.0000000000000000
0.0000000000000000 1.0000000000000000 0.0000000000000000
0.0000000000000000 1.0000000000000000 0.0000000000000000
0.0000000000000000 1.0000000000000000 0.0000000000000000
0.0000000000000000 1.0000000000000000 0.0000000000000000
0.0000000000000000 1.0000000000000000 0.0000000000000000
0.0000000000000000 1.0000000000000000 0.0000000000000000
0.0000000000000000 1.0000000000000000 0.0000000000000000
0.0000000000000000 1.0000000000000000 0.0000000000000000
0.0000000000000000 1.0000000000000000 0.0000000000000000
0.0000000000000000 1.0000000000000000 0.0000000000000000
0.0000000000000000 1.0000000000000000 0.0000000000000000
0.0000000000000000 1.0000000000000000 0.0000000000000000
0.0000000000000000 1.0000000000000000 0.0000000000000000
0.0000000000000000 1.0000000000000000 0.0000000000000000
0.0000000000000000 1.0000000000000000 0.0000000000000000
0.0000000000000000 1.0000000000000000 0.0000000000000000
0.0000000000000000 1.0000000000000000 0.0000000000000000
0.0000000000000000 1.0000000000000000 0.0000000000000000
0.0000000000000000 1.0000000000000000 0.0000000000000000
0.0000000000000000 1.0000000000000000 0.0000000000000000
0.0000000000000000 1.0000000000000000 0.0000000000000000
0.0000000000000000 1.0000000000000000 0.0000000000000000
0.0000000000000000 1.0000000000000000 0.0000000000000000
0.0000000000000000 1.0000000000000000 0.0000000000000000
0.0000000000000000 1.0000000000000000 0.0000000000000000
0.0000000000000000 1.0000000000000000 0.0000000000000000
0.0000000000000000 1.0000000000000000 0.0000000000000000
0.0000000000000000 1.0000000000000000 0.0000000000000000
0.0000000000000000 1.0000000000000000 0.0000000000000000
0.0000000000000000 1.0000000000000000 0.0000000000000000
0.0000000000000000 1.0000000000000000 0.0000000000000000
0.0000000000000000 1.0000000000000000 0.0000000000000000
0.0000000000000000 1.0000000000000000 0.0000000000000000
0.0000000000000000 1.0000000000000000 0.0000000000000000
0.0000000000000000 1.0000000000000000 0.0000000000000000
0.0000000000000000 1.0000000000000000 0.0000000000000000
0.0000000000000000 1.0000000000000000 0.0000000000000000
0.0000000000000000 1.0000000000000000 0.0000000000000000
0.0000000000000000 1.0000000000000000 0.0000000000000000
0.0000000000000000 1.0000000000000000 0.0000000000000000
0.0000000000000000 1.0000000000000000 0.0000000000000000
0.0000000000000000 1.0000000000000000 0.0000000000000000
0.0000000000000000 1.0000000000000000 0.0000000000000000
0.0000000000000000 1.0000000000000000 0.0000000000000000
0.0000000000000000 1.0000000000000000 0.0000000000000000
0.0000000000000000 1.0000000000000000 0.0000000000000000
0.0000000000000000 1.0000000000000000 0.0000000000000000
0.0000000000000000 1.0000000000000000 0.0000000000000000
0.0000000000000000 1.0000000000000000 0.0000000000000000
0.0000000000000000 1.0000000000000000 0.0000000000000000
0.0000000000000000 1.0000000000000000 0.0000000000000000
0.0000000000000000 1.0000000000000000 0.0000000000000000
0.0000000000000000 1.0000000000000000 0.0000000000000000
0.0000000000000000 1.0000000000000000 0.0000000000000000
0.0000000000000000 1.0000000000000000 0.0000000000000000
0.0000000000000000 1.0000000000000000 0.0000000000000000
0.0000000000000000 1.0000000000000000 0.0000000000000000
0.0000000000000000 1.0000000000000000 0.0000000000000000
0.0000000000000000 1.0000000000000000 0.0000000000000000
0.0000000000000000 1.0000000000000000 0.0000000000000000
0.0000000000000000 1.0000000000000000 0.0000000000000000
0.0000000000000000 1.0000000000000000 0.0000000000000000
0.0000000000000000 1.0000000000000000 0.0000000000000000
0.0000000000000000 1.0000000000000000 0.0000000000000000
0.0000000000000000 1.0000000000000000 0.0000000000000000
0.0000000000000000 1.0000000000000000 0.0000000000000000
0.0000000000000000 1.0000000000000000 0.0000000000000000
0.0000000000000000 1.0000000000000000 0.0000000000000000
0.0000000000000000 1.0000000000000000 0.0000000000000000
0.0000000000000000 1.0000000000000000 0.0000000000000000
0.0000000000000000 1.0000000000000000 0.0000000000000000
0.0000000000000000 1.0000000000000000 0.0000000000000000
0.0000000000000000 1.0000000000000000 0.0000000000000000
0.0000000000000000 1.0000000000000000 0.0000000000000000
0.0000000000000000 1.0000000000000000 0.0000000000000000
0.0000000000000000 1.0000000000000000 0.0000000000000000
0.0000000000000000 1.0000000000000000 0.0000000000000000
0.0000000000000000 1.0000000000000000 0.0000000000000000
0.0000000000000000 1.0000000000000000 0.0000000000000000
0.0000000000000000 1.0000000000000000 0.0000000000000000
0.0000000000000000 1.0000000000000000 0.0000000000000000
0.0000000000000000 1.0000000000000000 0.0000000000000000
0.0000000000000000 1.0000000000000000 0.0000000000000000
0.0000000000000000 1.0000000000000000 0.0000000000000000
0.0000000000000000 1.0000000000000000 0.0000000000000000
0.0000000000000000 1.0000000000000000 0.0000000000000000
0.0000000000000000 1.0000000000000000 0.0000000000000000
0.0000000000000000 1.0000000000000000 0.0000000000000000
0.0000000000000000 1.0000000000000000 0.0000000000000000
0.0000000000000000 1.0000000000000000 0.0000000000000000
0.0000000000000000 1.0000000000000000 0.0000000000000000
0.0000000000000000 1.0000000000000000 0.0000000000000000
0.0000000000000000 1.0000000000000000 0.0000000000000000
0.0000000000000000 1.0000000000000000 0.0000000000000000
0.0000000000000000 1.0000000000000000 0.0000000000000000
0.0000000000000000 1.0000000000000000 0.0000000000000000
0.0000000000000000 1.0000000000000000 0.0000000000000000
0.0000000000000000 1.0000000000000000 0.0000000000000000
0.0000000000000000 1.0000000000000000 0.0000000000000000
0.0000000000000000 1.0000000000000000 0.0000000000000000
0.0000000000000000 1.0000000000000000 0.0000000000000000
0.0000000000000000 1.0000000000000000 0.0000000000000000
0.0000000000000000 1.0000000000000000 0.0000000000000000
0.0000000000000000 1.0000000000000000 0.0000000000000000
0.0000000000000000 1.0000000000000000 0.0000000000000000
0.0000000000000000 1.0000000000000000 0.0000000000000000
0.0000000000000000 1.0000000000000000 0.0000000000000000
0.0000000000000000 1.0000000000000000 0.0000000000000000
0.0000000000000000 1.0000000000000000 0.0000000000000000
0.0000000000000000 1.0000000000000000 0.0000000000000000
0.0000000000000000 1.0000000000000000 0.0000000000000000
0.0000000000000000 1.0000000000000000 0.0000000000000000
0.0000000000000000 1.0000000000000000 0.0000000000000000
0.0000000000000000 1.0000000000000000 0.0000000000000000
0.0000000000000000 1.0000000000000000 0.0000000000000000
0.0000000000000000 1.0000000000000000 0.0000000000000000
0.0000000000000000 1.0000000000000000 0.0000000000000000
0.0000000000000000 1.0000000000000000 0.0000000000000000
0.0000000000000000 1.0000000000000000 0.0000000000000000
0.0000000000000000 1.0000000000000000 0.0000000000000000
0.0000000000000000 1.0000000000000000 0.0000000000000000
0.0000000000000000 1.0000000000000000 0.0000000000000000
0.0000000000000000 1.0000000000000000 0.0000000000000000
0.0000000000000000 1.0000000000000000 0.0000000000000000
0.0000000000000000 1.0000000000000000 0.0000000000000000
0.0000000000000000 1.0000000000000000 0.0000000000000000
0.0000000000000000 1.0000000000000000 0.0000000000000000
0.0000000000000000 1.0000000000000000 0.0000000000000000
0.0000000000000000 1.0000000000000000 0.0000000000000000
0.0000000000000000 1.0000000000000000 0.0000000000000000
0.0000000000000000 1.0000000000000000 0.0000000000000000
0.0000000000000000 1.0000000000000000 0.0000000000000000
0.0000000000000000 1.0000000000000000 0.0000000000000000
0.0000000000000000 1.0000000000000000 0.0000000000000000
0.0000000000000000 1.0000000000000000 0.0000000000000000
0.0000000000000000 1.0000000000000000 0.0000000000000000
0.0000000000000000 1.0000000000000000 0.0000000000000000
0.0000000000000000 1.0000000000000000 0.0000000000000000
0.0000000000000000 1.0000000000000000 0.0000000000000000
0.0000000000000000 1.0000000000000000 0.0000000000000000
0.0000000000000000 1.0000000000000000 0.0000000000000000
0.0000000000000000 1.0000000000000000 0.0000000000000000
0.0000000000000000 1.0000000000000000 0.0000000000000000
0.0000000000000000 1.0000000000000000 0.0000000000000000
0.0000000000000000 1.0000000000000000 0.0000000000000000
0.0000000000000000 1.0000000000000000 0.0000000000000000
0.0000000000000000 1.0000000000000000 0.0000000000000000
0.0000000000000000 1.0000000000000000 0.0000000000000000
0.0000000000000000 1.0000000000000000 0.0000000000000000
0.0000000000000000 1.0000000000000000 0.0000000000000000
0.0000000000000000 1.0000000000000000 0.0000000000000000
0.0000000000000000 1.0000000000000000 0.0000000000000000
0.0000000000000000 1.0000000000000000 0.0000000000000000
0.0000000000000000 1.0000000000000000 0.0000000000000000
0.0000000000000000 1.0000000000000000 0.0000000000000000
0.0000000000000000 1.0000000000000000 0.0000000000000000
0.0000000000000000 1.0000000000000000 0.0000000000000000
0.0000000000000000 1.0000000000000000 0.0000000000000000
0.0000000000000000 1.0000000000000000 0.0000000000000000
0.0000000000000000 1.0000000000000000 0.0000000000000000
0.0000000000000000 1.0000000000000000 0.0000000000000000
0.0000000000000000 1.0000000000000000 0.0000000000000000
0.0000000000000000 1.0000000000000000 0.0000000000000000
0.0000000000000000 1.0000000000000000 0.0000000000000000
0.0000000000000000 1.0000000000000000 0.0000000000000000
0.0000000000000000 1.0000000000000000 0.0000000000000000
0.0000000000000000 1.0000000000000000 0.0000000000000000
0.0000000000000000 1.0000000000000000 0.0000000000000000
0.0000000000000000 1.0000000000000000 0.0000000000000000
0.0000000000000000 1.0000000000000000 0.0000000000000000
0.0000000000000000 1.0000000000000000 0.0000000000000000
0.0000000000000000 1.0000000000000000 0.0000000000000000
0.0000000000000000 1.0000000000000000 0.0000000000000000
0.0000000000000000 1.0000000000000000 0.0000000000000000
0.0000000000000000 1.0000000000000000 0.0000000000000000
0.0000000000000000 1.0000000000000000 0.0000000000000000
0.0000000000000000 1.0000000000000000 0.0000000000000000
0.0000000000000000 1.0000000000000000 0.0000000000000000
0.0000000000000000 1.0000000000000000 0.0000000000000000
0.0000000000000000 1.0000000000000000 0.0000000000000000
0.0000000000000000 1.0000000000000000 0.0000000000000000
0.0000000000000000 1.0000000000000000 0.0000000000000000
0.0000000000000000 1.0000000000000000 0.0000000000000000
0.0000000000000000 1.0000000000000000 0.0000000000000000
0.0000000000000000 1.0000000000000000 0.0000000000000000
0.0000000000000000 1.0000000000000000 0.0000000000000000
0.0000000000000000 1.0000000000000000 0.0000000000000000
0.0000000000000000 1.0000000000000000 0.0000000000000000
0.0000000000000000 1.0000000000000000 0.0000000000000000
0.0000000000000000 1.0000000000000000 0.0000000000000000
0.0000000000000000 1.0000000000000000 0.0000000000000000
0.0000000000000000 1.0000000000000000 0.0000000000000000
0.0000000000000000 1.0000000000000000 0.0000000000000000
0.0000000000000000 1.0000000000000000 0.0000000000000000
0.0000000000000000 1.0000000000000000 0.0000000000000000
0.0000000000000000 1.0000000000000000 0.0000000000000000
0.0000000000000000 1.0000000000000000 0.0000000000000000
0.0000000000000000 1.0000000000000000 0.0000000000000000
0.0000000000000000 1.0000000000000000 0.0000000000000000
0.0000000000000000 1.0000000000000000 0.0000000000000000
0.0000000000000000 1.0000000000000000 0.0000000000000000
0.0000000000000000 1.0000000000000000 0.0000000000000000
0.0000000000000000 1.0000000000000000 0.0000000000000000
0.0000000000000000 1.0000000000000000 0.0000000000000000
0.0000000000000000 1.0000000000000000 0.0000000000000000
0.0000000000000000 1.0000000000000000 0.0000000000000000
0.0000000000000000 1.0000000000000000 0.0000000000000000
0.0000000000000000 1.0000000000000000 0.0000000000000000
0.0000000000000000 1.0000000000000000 0.0000000000000000
0.0000000000000000 1.0000000000000000 0.0000000000000000
0.0000000000000000 1.0000000000000000 0.0000000000000000
0.0000000000000000 1.0000000000000000 0.0000000000000000
0.0000000000000000 1.0000000000000000 0.0000000000000000
0.0000000000000000 1.0000000000000000 0.0000000000000000
0.0000000000000000 1.0000000000000000 0.0000000000000000
0.0000000000000000 1.0000000000000000 0.0000000000000000
0.0000000000000000 1.0000000000000000 0.0000000000000000
0.0000000000000000 1.0000000000000000 0.0000000000000000
0.0000000000000000 1.0000000000000000 0.0000000000000000
0.0000000000000000 1.0000000000000000 0.0000000000000000
0.0000000000000000 1.0000000000000000 0.0000000000000000
0.0000000000000000 1.0000000000000000 0.0000000000000000
0.0000000000000000 1.0000000000000000 0.0000000000000000
0.0000000000000000 1.0000000000000000 0.0000000000000000
0.0000000000000000 1.0000000000000000 0.0000000000000000
0.0000000000000000 1.0000000000000000 0.0000000000000000
0.0000000000000000 1.0000000000000000 0.0000000000000000
0.0000000000000000 1.0000000000000000 0.0000000000000000
0.0000000000000000 1.0000000000000000 0.0000000000000000
0.0000000000000000 1.0000000000000000 0.0000000000000000
0.0000000000000000 1.0000000000000000 0.0000000000000000
0.0000000000000000 1.0000000000000000 0.0000000000000000
0.0000000000000000 1.0000000000000000 0.0000000000000000
0.0000000000000000 1.0000000000000000 0.0000000000000000
0.0000000000000000 1.0000000000000000 0.0000000000000000
0.0000000000000000 1.0000000000000000 0.0000000000000000
0.0000000000000000 1.0000000000000000 0.0000000000000000
0.0000000000000000 1.0000000000000000 0.0000000000000000
0.0000000000000000 1.0000000000000000 0.0000000000000000
0.0000000000000000 1.0000000000000000 0.0000000000000000
0.0000000000000000 1.0000000000000000 0.0000000000000000
0.0000000000000000 1.0000000000000000 0.0000000000000000
0.0000000000000000 1.0000000000000000 0.0000000000000000
0.0000000000000000 1.0000000000000000 0.0000000000000000
0.0000000000000000 1.0000000000000000 0.0000000000000000
0.0000000000000000 1.0000000000000000 0.0000000000000000
0.0000000000000000 1.0000000000000000 0.0000000000000000
0.0000000000000000 1.0000000000000000 0.0000000000000000
0.0000000000000000 1.0000000000000000 0.0000000000000000
0.0000000000000000 1.0000000000000000 0.0000000000000000
0.0000000000000000 1.0000000000000000 0.0000000000000000
0.0000000000000000 1.0000000000000000 0.0000000000000000
0.0000000000000000 1.0000000000000000 0.0000000000000000
0.0000000000000000 1.0000000000000000 0.0000000000000000
0.0000000000000000 1.0000000000000000 0.0000000000000000
0.0000000000000000 1.0000000000000000 0.0000000000000000
0.0000000000000000 1.0000000000000000 0.0000000000000000
0.0000000000000000 1.0000000000000000 0.0000000000000000
0.0000000000000000 1.0000000000000000 0.0000000000000000
0.0000000000000000 1.0000000000000000 0.0000000000000000
0.0000000000000000 1.0000000000000000 0.0000000000000000
0.0000000000000000 1.0000000000000000 0.0000000000000000
0.0000000000000000 1.0000000000000000 0.0000000000000000
0.0000000000000000 1.0000000000000000 0.0000000000000000
0.0000000000000000 1.0000000000000000 0.0000000000000000
0.0000000000000000 1.0000000000000000 0.0000000000000000
0.0000000000000000 1.0000000000000000 0.0000000000000000
0.0000000000000000 1.0000000000000000 0.0000000000000000
0.0000000000000000 1.0000000000000000 0.0000000000000000
0.0000000000000000 1.0000000000000000 0.0000000000000000
0.0000000000000000 1.0000000000000000 0.0000000000000000
0.0000000000000000 1.0000000000000000 0.0000000000000000
0.0000000000000000 1.0000000000000000 0.0000000000000000
0.0000000000000000 1.0000000000000000 0.0000000000000000
0.0000000000000000 1.0000000000000000 0.0000000000000000
0.0000000000000000 1.0000000000000000 0.0000000000000000
0.0000000000000000 1.0000000000000000 0.0000000000000000
0.0000000000000000 1.0000000000000000 0.0000000000000000
0.0000000000000000 1.0000000000000000 0.0000000000000000
0.0000000000000000 1.0000000000000000 0.0000000000000000
0.0000000000000000 1.0000000000000000 0.0000000000000000
0.0000000000000000 1.0000000000000000 0.0000000000000000
0.0000000000000000 1.0000000000000000 0.0000000000000000
0.0000000000000000 1.0000000000000000 0.0000000000000000
0.0000000000000000 1.0000000000000000 0.0000000000000000
0.0000000000000000 1.0000000000000000 0.0000000000000000
0.0000000000000000 1.0000000000000000 0.0000000000000000
0.0000000000000000 1.0000000000000000 0.0000000000000000
0.0000000000000000 1.0000000000000000 0.0000000000000000
0.0000000000000000 1.0000000000000000 0.0000000000000000
0.0000000000000000 1.0000000000000000 0.0000000000000000
0.0000000000000000 1.0000000000000000 0.0000000000000000
0.0000000000000000 1.0000000000000000 0.0000000000000000
0.0000000000000000 1.0000000000000000 0.0000000000000000
0.0000000000000000 1.0000000000000000 0.0000000000000000
0.0000000000000000 1.0000000000000000 0.0000000000000000
0.0000000000000000 1.0000000000000000 0.0000000000000000
0.0000000000000000 1.0000000000000000 0.0000000000000000
0.0000000000000000 1.0000000000000000 0.0000000000000000
0.0000000000000000 1.0000000000000000 0.0000000000000000
0.0000000000000000 1.0000000000000000 0.0000000000000000
0.0000000000000000 1.0000000000000000 0.0000000000000000
0.0000000000000000 1.0000000000000000 0.0000000000000000
0.0000000000000000 1.0000000000000000 0.0000000000000000
0.0000000000000000 1.0000000000000000 0.0000000000000000
0.0000000000000000 1.0000000000000000 0.0000000000000000
0.0000000000000000 1.0000000000000000 0.0000000000000000
0.0000000000000000 1.0000000000000000 0.0000000000000000
0.0000000000000000 1.0000000000000000 0.0000000000000000
0.0000000000000000 1.0000000000000000 0.0000000000000000
0.0000000000000000 1.0000000000000000 0.0000000000000000
0.0000000000000000 1.0000000000000000 0.0000000000000000
0.0000000000000000 1.0000000000000000 0.0000000000000000
0.0000000000000000 1.0000000000000000 0.0000000000000000
0.0000000000000000 1.0000000000000000 0.0000000000000000
0.0000000000000000 1.0000000000000000 0.0000000000000000
0.0000000000000000 1.0000000000000000 0.0000000000000000
0.0000000000000000 1.0000000000000000 0.0000000000000000
0.0000000000000000 1.0000000000000000 0.0000000000000000
0.0000000000000000 1.0000000000000000 0.0000000000000000
0.0000000000000000 1.0000000000000000 0.0000000000000000
0.0000000000000000 1.0000000000000000 0.0000000000000000
0.0000000000000000 1.0000000000000000 0.0000000000000000
0.0000000000000000 1.0000000000000000 0.0000000000000000
0.0000000000000000 1.0000000000000000 0.0000000000000000
0.0000000000000000 1.0000000000000000 0.0000000000000000
0.0000000000000000 1.0000000000000000 0.0000000000000000
0.0000000000000000 1.0000000000000000 0.0000000000000000
0.0000000000000000 1.0000000000000000 0.0000000000000000
0.0000000000000000 1.0000000000000000 0.0000000000000000
0.0000000000000000 1.0000000000000000 0.0000000000000000
0.0000000000000000 1.0000000000000000 0.0000000000000000
0.0000000000000000 1.0000000000000000 0.0000000000000000
0.0000000000000000 1.0000000000000000 0.0000000000000000
0.0000000000000000 1.0000000000000000 0.0000000000000000
0.0000000000000000 1.0000000000000000 0.0000000000000000
0.0000000000000000 1.0000000000000000 0.0000000000000000
0.0000000000000000 1.0000000000000000 0.0000000000000000
0.0000000000000000 1.0000000000000000 0.0000000000000000
0.0000000000000000 1.0000000000000000 0.0000000000000000
0.0000000000000000 1.0000000000000000 0.0000000000000000
0.0000000000000000 1.0000000000000000 0.0000000000000000
0.0000000000000000 1.0000000000000000 0.0000000000000000
0.0000000000000000 1.0000000000000000 0.0000000000000000
0.0000000000000000 1.0000000000000000 0.0000000000000000
0.0000000000000000 1.0000000000000000 0.0000000000000000
0.0000000000000000 1.0000000000000000 0.0000000000000000
0.0000000000000000 1.0000000000000000 0.0000000000000000
0.0000000000000000 1.0000000000000000 0.0000000000000000
0.0000000000000000 1.0000000000000000 0.0000000000000000
0.0000000000000000 1.0000000000000000 0.0000000000000000
0.0000000000000000 1.0000000000000000 0.0000000000000000
0.0000000000000000 1.0000000000000000 0.0000000000000000
0.0000000000000000 1.0000000000000000 0.0000000000000000
0.0000000000000000 1.0000000000000000 0.0000000000000000
0.0000000000000000 1.0000000000000000 0.0000000000000000
0.0000000000000000 1.0000000000000000 0.0000000000000000
0.0000000000000000 1.0000000000000000 0.0000000000000000
0.0000000000000000 1.0000000000000000 0.0000000000000000
0.0000000000000000 1.0000000000000000 0.0000000000000000
0.0000000000000000 1.0000000000000000 0.0000000000000000
0.0000000000000000 1.0000000000000000 0.0000000000000000
0.0000000000000000 1.0000000000000000 0.0000000000000000
0.0000000000000000 1.0000000000000000 0.0000000000000000
0.0000000000000000 1.0000000000000000 0.0000000000000000
0.0000000000000000 1.0000000000000000 0.0000000000000000
0.0000000000000000 1.0000000000000000 0.0000000000000000
0.0000000000000000 1.0000000000000000 0.0000000000000000
0.0000000000000000 1.0000000000000000 0.0000000000000000
0.0000000000000000 1.0000000000000000 0.0000000000000000
0.0000000000000000 1.0000000000000000 0.0000000000000000
0.0000000000000000 1.0000000000000000 0.0000000000000000
0.0000000000000000 1.0000000000000000 0.0000000000000000
0.0000000000000000 1.0000000000000000 0.0000000000000000
0.0000000000000000 1.0000000000000000 0.0000000000000000
0.0000000000000000 1.0000000000000000 0.0000000000000000
0.0000000000000000 1.0000000000000000 0.0000000000000000
0.0000000000000000 1.0000000000000000 0.0000000000000000
0.0000000000000000 1.0000000000000000 0.0000000000000000
0.0000000000000000 1.0000000000000000 0.0000000000000000
0.0000000000000000 1.0000000000000000 0.0000000000000000
0.0000000000000000 1.0000000000000000 0.0000000000000000
0.0000000000000000 1.0000000000000000 0.0000000000000000
0.0000000000000000 1.0000000000000000 0.0000000000000000
0.0000000000000000 1.0000000000000000 0.0000000000000000
0.0000000000000000 1.0000000000000000 0.0000000000000000
0.0000000000000000 1.0000000000000000 0.0000000000000000
0.0000000000000000 1.0000000000000000 0.0000000000000000
0.0000000000000000 1.0000000000000000 0.0000000000000000
0.0000000000000000 1.0000000000000000 0.0000000000000000
0.0000000000000000 1.0000000000000000 0.0000000000000000
0.0000000000000000 1.0000000000000000 0.0000000000000000
0.0000000000000000 1.0000000000000000 0.0000000000000000
0.0000000000000000 1.0000000000000000 0.0000000000000000
0.0000000000000000 1.0000000000000000 0.0000000000000000
0.0000000000000000 1.0000000000000000 0.0000000000000000
0.0000000000000000 1.0000000000000000 0.0000000000000000
0.0000000000000000 1.0000000000000000 0.0000000000000000
0.0000000000000000 1.0000000000000000 0.0000000000000000
0.0000000000000000 1.0000000000000000 0.0000000000000000
0.0000000000000000 1.0000000000000000 0.0000000000000000
0.0000000000000000 1.0000000000000000 0.0000000000000000
0.0000000000000000 1.0000000000000000 0.0000000000000000
0.0000000000000000 1.0000000000000000 0.0000000000000000
0.0000000000000000 1.0000000000000000 0.0000000000000000
0.0000000000000000 1.0000000000000000 0.0000000000000000
0.0000000000000000 1.0000000000000000 0.0000000000000000
0.0000000000000000 1.0000000000000000 0.0000000000000000
0.0000000000000000 1.0000000000000000 0.0000000000000000
0.0000000000000000 1.0000000000000000 0.0000000000000000
0.0000000000000000 1.0000000000000000 0.0000000000000000
0.0000000000000000 1.0000000000000000 0.0000000000000000
0.0000000000000000 1.0000000000000000 0.0000000000000000
0.0000000000000000 1.0000000000000000 0.0000000000000000
0.0000000000000000 1.0000000000000000 0.0000000000000000
0.0000000000000000 1.0000000000000000 0.0000000000000000
0.0000000000000000 1.0000000000000000 0.0000000000000000
0.0000000000000000 1.0000000000000000 0.0000000000000000
0.0000000000000000 1.0000000000000000 0.0000000000000000
0.0000000000000000 1.0000000000000000 0.0000000000000000
0.0000000000000000 1.0000000000000000 0.0000000000000000
0.0000000000000000 1.0000000000000000 0.0000000000000000
0.0000000000000000 1.0000000000000000 0.0000000000000000
0.0000000000000000 1.0000000000000000 0.0000000000000000
0.0000000000000000 1.0000000000000000 0.0000000000000000
0.0000000000000000 1.0000000000000000 0.0000000000000000
0.0000000000000000 1.0000000000000000 0.0000000000000000
0.0000000000000000 1.0000000000000000 0.0000000000000000
0.0000000000000000 1.0000000000000000 0.0000000000000000
0.0000000000000000 1.0000000000000000 0.0000000000000000
0.0000000000000000 1.0000000000000000 0.0000000000000000
0.0000000000000000 1.0000000000000000 0.0000000000000000
0.0000000000000000 1.0000000000000000 0.0000000000000000
0.0000000000000000 1.0000000000000000 0.0000000000000000
0.0000000000000000 1.0000000000000000 0.0000000000000000
0.0000000000000000 1.0000000000000000 0.0000000000000000
0.0000000000000000 1.0000000000000000 0.0000000000000000
0.0000000000000000 1.0000000000000000 0.0000000000000000
0.0000000000000000 1.0000000000000000 0.0000000000000000
0.0000000000000000 1.0000000000000000 0.0000000000000000
0.0000000000000000 1.0000000000000000 0.0000000000000000
0.0000000000000000 1.0000000000000000 0.0000000000000000
0.0000000000000000 1.0000000000000000 0.0000000000000000
0.0000000000000000 1.0000000000000000 0.0000000000000000
0.0000000000000000 1.0000000000000000 0.0000000000000000
0.0000000000000000 1.0000000000000000 0.0000000000000000
0.0000000000000000 1.0000000000000000 0.0000000000000000
0.0000000000000000 1.0000000000000000 0.0000000000000000
0.0000000000000000 1.0000000000000000 0.0000000000000000
0.0000000000000000 1.0000000000000000 0.0000000000000000
0.0000000000000000 1.0000000000000000 0.0000000000000000
0.0000000000000000 1.0000000000000000 0.0000000000000000
0.0000000000000000 1.0000000000000000 0.0000000000000000
0.0000000000000000 1.0000000000000000 0.0000000000000000
0.0000000000000000 1.0000000000000000 0.0000000000000000
0.0000000000000000 1.0000000000000000 0.0000000000000000
0.0000000000000000 1.0000000000000000 0.0000000000000000
0.0000000000000000 1.0000000000000000 0.0000000000000000
0.0000000000000000 1.0000000000000000 0.0000000000000000
0.0000000000000000 1.0000000000000000 0.0000000000000000
0.0000000000000000 1.0000000000000000 0.0000000000000000
0.0000000000000000 1.0000000000000000 0.0000000000000000
0.0000000000000000 1.0000000000000000 0.0000000000000000
0.0000000000000000 1.0000000000000000 0.0000000000000000
0.0000000000000000 1.0000000000000000 0.0000000000000000
0.0000000000000000 1.0000000000000000 0.0000000000000000
0.0000000000000000 1.0000000000000000 0.0000000000000000
0.0000000000000000 1.0000000000000000 0.0000000000000000
0.0000000000000000 1.0000000000000000 0.0000000000000000
0.0000000000000000 1.0000000000000000 0.0000000000000000
0.0000000000000000 1.0000000000000000 0.0000000000000000
0.0000000000000000 1.0000000000000000 0.0000000000000000
0.0000000000000000 1.0000000000000000 0.0000000000000000
0.0000000000000000 1.0000000000000000 0.0000000000000000
0.0000000000000000 1.0000000000000000 0.0000000000000000
0.0000000000000000 1.0000000000000000 0.0000000000000000
0.0000000000000000 1.0000000000000000 0.0000000000000000
0.0000000000000000 1.0000000000000000 0.0000000000000000
0.0000000000000000 1.0000000000000000 0.0000000000000000
0.0000000000000000 1.0000000000000000 0.0000000000000000
0.0000000000000000 1.0000000000000000 0.0000000000000000
0.0000000000000000 1.0000000000000000 0.0000000000000000
0.0000000000000000 1.0000000000000000 0.0000000000000000
0.0000000000000000 1.0000000000000000 0.0000000000000000
0.0000000000000000 1.0000000000000000 0.0000000000000000
0.0000000000000000 1.0000000000000000 0.0000000000000000
0.0000000000000000 1.0000000000000000 0.0000000000000000
0.0000000000000000 1.0000000000000000 0.0000000000000000
0.0000000000000000 1.0000000000000000 0.0000000000000000
0.0000000000000000 1.0000000000000000 0.0000000000000000
0.0000000000000000 1.0000000000000000 0.0000000000000000
0.0000000000000000 1.0000000000000000 0.0000000000000000
0.0000000000000000 1.0000000000000000 0.0000000000000000
0.0000000000000000 1.0000000000000000 0.0000000000000000
0.0000000000000000 1.0000000000000000 0.0000000000000000
0.0000000000000000 1.0000000000000000 0.0000000000000000
0.0000000000000000 1.0000000000000000 0.0000000000000000
0.0000000000000000 1.0000000000000000 0.0000000000000000
0.0000000000000000 1.0000000000000000 0.0000000000000000
0.0000000000000000 1.0000000000000000 0.0000000000000000
0.0000000000000000 1.0000000000000000 0.0000000000000000
0.0000000000000000 1.0000000000000000 0.0000000000000000
0.0000000000000000 1.0000000000000000 0.0000000000000000
0.0000000000000000 1.0000000000000000 0.0000000000000000
0.0000000000000000 1.0000000000000000 0.0000000000000000
0.0000000000000000 1.0000000000000000 0.0000000000000000
0.0000000000000000 1.0000000000000000 0.0000000000000000
0.0000000000000000 1.0000000000000000 0.0000000000000000
0.0000000000000000 1.0000000000000000 0.0000000000000000
0.0000000000000000 1.0000000000000000 0.0000000000000000
0.0000000000000000 1.0000000000000000 0.0000000000000000
0.0000000000000000 1.0000000000000000 0.0000000000000000
0.0000000000000000 1.0000000000000000 0.0000000000000000
0.0000000000000000 1.0000000000000000 0.0000000000000000
0.0000000000000000 1.0000000000000000 0.0000000000000000
0.0000000000000000 1.0000000000000000 0.0000000000000000
0.0000000000000000 1.0000000000000000 0.0000000000000000
0.0000000000000000 1.0000000000000000 0.0000000000000000
0.0000000000000000 1.0000000000000000 0.0000000000000000
0.0000000000000000 1.0000000000000000 0.0000000000000000
0.0000000000000000 1.0000000000000000 0.0000000000000000
0.0000000000000000 1.0000000000000000 0.0000000000000000
0.0000000000000000 1.0000000000000000 0.0000000000000000
0.0000000000000000 1.0000000000000000 0.0000000000000000
0.0000000000000000 1.0000000000000000 0.0000000000000000
0.0000000000000000 1.0000000000000000 0.0000000000000000
0.0000000000000000 1.0000000000000000 0.0000000000000000
0.0000000000000000 1.0000000000000000 0.0000000000000000
0.0000000000000000 1.0000000000000000 0.0000000000000000
0.0000000000000000 1.0000000000000000 0.0000000000000000
0.0000000000000000 1.0000000000000000 0.0000000000000000
0.0000000000000000 1.0000000000000000 0.0000000000000000
0.0000000000000000 1.0000000000000000 0.0000000000000000
0.0000000000000000 1.0000000000000000 0.0000000000000000
0.0000000000000000 1.0000000000000000 0.0000000000000000
0.0000000000000000 1.0000000000000000 0.0000000000000000
0.0000000000000000 1.0000000000000000 0.0000000000000000
0.0000000000000000 1.0000000000000000 0.0000000000000000
0.0000000000000000 1.0000000000000000 0.0000000000000000
0.0000000000000000 1.0000000000000000 0.0000000000000000
0.0000000000000000 1.0000000000000000 0.0000000000000000
0.0000000000000000 1.0000000000000000 0.0000000000000000
0.0000000000000000 1.0000000000000000 0.0000000000000000
0.0000000000000000 1.0000000000000000 0.0000000000000000
0.0000000000000000 1.0000000000000000 0.0000000000000000
0.0000000000000000 1.0000000000000000 0.0000000000000000
0.0000000000000000 1.0000000000000000 0.0000000000000000
0.0000000000000000 1.0000000000000000 0.0000000000000000
0.0000000000000000 1.0000000000000000 0.0000000000000000
0.0000000000000000 1.0000000000000000 0.0000000000000000
0.0000000000000000 1.0000000000000000 0.0000000000000000
0.0000000000000000 1.0000000000000000 0.0000000000000000
0.0000000000000000 1.0000000000000000 0.0000000000000000
0.0000000000000000 1.0000000000000000 0.0000000000000000
0.0000000000000000 1.0000000000000000 0.0000000000000000
0.0000000000000000 1.0000000000000000 0.0000000000000000
0.0000000000000000 1.0000000000000000 0.0000000000000000
0.0000000000000000 1.0000000000000000 0.0000000000000000
0.0000000000000000 1.0000000000000000 0.0000000000000000
0.0000000000000000 1.0000000000000000 0.0000000000000000
0.0000000000000000 1.0000000000000000 0.0000000000000000
0.0000000000000000 1.0000000000000000 0.0000000000000000
0.0000000000000000 1.0000000000000000 0.0000000000000000
0.0000000000000000 1.0000000000000000 0.0000000000000000
0.0000000000000000 1.0000000000000000 0.0000000000000000
0.0000000000000000 1.0000000000000000 0.0000000000000000
0.0000000000000000 1.0000000000000000 0.0000000000000000
0.0000000000000000 1.0000000000000000 0.0000000000000000
0.0000000000000000 1.0000000000000000 0.0000000000000000
0.0000000000000000 1.0000000000000000 0.0000000000000000
0.0000000000000000 1.0000000000000000 0.0000000000000000
0.0000000000000000 1.0000000000000000 0.0000000000000000
0.0000000000000000 1.0000000000000000 0.0000000000000000
0.0000000000000000 1.0000000000000000 0.0000000000000000
0.0000000000000000 1.0000000000000000 0.0000000000000000
0.0000000000000000 1.0000000000000000 0.0000000000000000
0.0000000000000000 1.0000000000000000 0.0000000000000000
0.0000000000000000 1.0000000000000000 0.0000000000000000
0.0000000000000000 1.0000000000000000 0.0000000000000000
0.0000000000000000 1.0000000000000000 0.0000000000000000
0.0000000000000000 1.0000000000000000 0.0000000000000000
0.0000000000000000 1.0000000000000000 0.0000000000000000
0.0000000000000000 1.0000000000000000 0.0000000000000000
0.0000000000000000 1.0000000000000000 0.0000000000000000
0.0000000000000000 1.0000000000000000 0.0000000000000000
0.0000000000000000 1.0000000000000000 0.0000000000000000
0.0000000000000000 1.0000000000000000 0.0000000000000000
0.0000000000000000 1.0000000000000000 0.0000000000000000
0.0000000000000000 1.0000000000000000 0.0000000000000000
0.0000000000000000 1.0000000000000000 0.0000000000000000
0.0000000000000000 1.0000000000000000 0.0000000000000000
0.0000000000000000 1.0000000000000000 0.0000000000000000
0.0000000000000000 1.0000000000000000 0.0000000000000000
0.0000000000000000 1.0000000000000000 0.0000000000000000
0.0000000000000000 1.0000000000000000 0.0000000000000000
0.0000000000000000 1.0000000000000000 0.0000000000000000
0.0000000000000000 1.0000000000000000 0.0000000000000000
0.0000000000000000 1.0000000000000000 0.0000000000000000
0.0000000000000000 1.0000000000000000 0.0000000000000000
0.0000000000000000 1.0000000000000000 0.0000000000000000
0.0000000000000000 1.0000000000000000 0.0000000000000000
0.0000000000000000 1.0000000000000000 0.0000000000000000
0.0000000000000000 1.0000000000000000 0.0000000000000000
0.0000000000000000 1.0000000000000000 0.0000000000000000
0.0000000000000000 1.0000000000000000 0.0000000000000000
0.0000000000000000 1.0000000000000000 0.0000000000000000
0.0000000000000000 1.0000000000000000 0.0000000000000000
0.0000000000000000 1.0000000000000000 0.0000000000000000
0.0000000000000000 1.0000000000000000 0.0000000000000000
0.0000000000000000 1.0000000000000000 0.0000000000000000
0.0000000000000000 1.0000000000000000 0.0000000000000000
0.0000000000000000 1.0000000000000000 0.0000000000000000
0.0000000000000000 1.0000000000000000 0.0000000000000000
0.0000000000000000 1.0000000000000000 0.0000000000000000
0.0000000000000000 1.0000000000000000 0.0000000000000000
0.0000000000000000 1.0000000000000000 0.0000000000000000
0.0000000000000000 1.0000000000000000 0.0000000000000000
0.0000000000000000 1.0000000000000000 0.0000000000000000
0.0000000000000000 1.0000000000000000 0.0000000000000000
0.0000000000000000 1.0000000000000000 0.0000000000000000
0.0000000000000000 1.0000000000000000 0.0000000000000000
0.0000000000000000 1.0000000000000000 0.0000000000000000
0.0000000000000000 1.0000000000000000 0.0000000000000000
0.0000000000000000 1.0000000000000000 0.0000000000000000
0.0000000000000000 1.0000000000000000 0.0000000000000000
0.0000000000000000 1.0000000000000000 0.0000000000000000
0.0000000000000000 1.0000000000000000 0.0000000000000000
0.0000000000000000 1.0000000000000000 0.0000000000000000
0.0000000000000000 1.0000000000000000 0.0000000000000000
0.0000000000000000 1.0000000000000000 0.0000000000000000
0.0000000000000000 1.0000000000000000 0.0000000000000000
0.0000000000000000 1.0000000000000000 0.0000000000000000
0.0000000000000000 1.0000000000000000 0.0000000000000000
0.0000000000000000 1.0000000000000000 0.0000000000000000
0.0000000000000000 1.0000000000000000 0.0000000000000000
0.0000000000000000 1.0000000000000000 0.0000000000000000
0.0000000000000000 1.0000000000000000 0.0000000000000000
0.0000000000000000 1.0000000000000000 0.0000000000000000
0.0000000000000000 1.0000000000000000 0.0000000000000000
0.0000000000000000 1.0000000000000000 0.0000000000000000
0.0000000000000000 1.0000000000000000 0.0000000000000000
0.0000000000000000 1.0000000000000000 0.0000000000000000
0.0000000000000000 1.0000000000000000 0.0000000000000000
0.0000000000000000 1.0000000000000000 0.0000000000000000
0.0000000000000000 1.0000000000000000 0.0000000000000000
0.0000000000000000 1.0000000000000000 0.0000000000000000
0.0000000000000000 1.0000000000000000 0.0000000000000000
0.0000000000000000 1.0000000000000000 0.0000000000000000
0.0000000000000000 1.0000000000000000 0.0000000000000000
0.0000000000000000 1.0000000000000000 0.0000000000000000
0.0000000000000000 1.0000000000000000 0.0000000000000000
0.0000000000000000 1.0000000000000000 0.0000000000000000
0.0000000000000000 1.0000000000000000 0.0000000000000000
0.0000000000000000 1.0000000000000000 0.0000000000000000
0.0000000000000000 1.0000000000000000 0.0000000000000000
0.0000000000000000 1.0000000000000000 0.0000000000000000
0.0000000000000000 1.0000000000000000 0.0000000000000000
0.0000000000000000 1.0000000000000000 0.0000000000000000
0.0000000000000000 1.0000000000000000 0.0000000000000000
0.0000000000000000 1.0000000000000000 0.0000000000000000
0.0000000000000000 1.0000000000000000 0.0000000000000000
0.0000000000000000 1.0000000000000000 0.0000000000000000
0.0000000000000000 1.0000000000000000 0.0000000000000000
0.0000000000000000 1.0000000000000000 0.0000000000000000
0.0000000000000000 1.0000000000000000 0.0000000000000000
0.0000000000000000 1.0000000000000000 0.0000000000000000
0.0000000000000000 1.0000000000000000 0.0000000000000000
0.0000000000000000 1.0000000000000000 0.0000000000000000
0.0000000000000000 1.0000000000000000 0.0000000000000000
0.0000000000000000 1.0000000000000000 0.0000000000000000
0.0000000000000000 1.0000000000000000 0.0000000000000000
0.0000000000000000 1.0000000000000000 0.0000000000000000
0.0000000000000000 1.0000000000000000 0.0000000000000000
0.0000000000000000 1.0000000000000000 0.0000000000000000
0.0000000000000000 1.0000000000000000 0.0000000000000000
0.0000000000000000 1.0000000000000000 0.0000000000000000
0.0000000000000000 1.0000000000000000 0.0000000000000000
0.0000000000000000 1.0000000000000000 0.0000000000000000
0.0000000000000000 1.0000000000000000 0.0000000000000000
0.0000000000000000 1.0000000000000000 0.0000000000000000
0.0000000000000000 1.0000000000000000 0.0000000000000000
0.0000000000000000 1.0000000000000000 0.0000000000000000
0.0000000000000000 1.0000000000000000 0.0000000000000000
0.0000000000000000 1.0000000000000000 0.0000000000000000
0.0000000000000000 1.0000000000000000 0.0000000000000000
0.0000000000000000 1.0000000000000000 0.0000000000000000
0.0000000000000000 1.0000000000000000 0.0000000000000000
0.0000000000000000 1.0000000000000000 0.0000000000000000
0.0000000000000000 1.0000000000000000 0.0000000000000000
0.0000000000000000 1.0000000000000000 0.0000000000000000
0.0000000000000000 1.0000000000000000 0.0000000000000000
0.0000000000000000 1.0000000000000000 0.0000000000000000
0.0000000000000000 1.0000000000000000 0.0000000000000000
0.0000000000000000 1.0000000000000000 0.0000000000000000
0.0000000000000000 1.0000000000000000 0.0000000000000000
0.0000000000000000 1.0000000000000000 0.0000000000000000
0.0000000000000000 1.0000000000000000 0.0000000000000000
0.0000000000000000 1.0000000000000000 0.0000000000000000
0.0000000000000000 1.0000000000000000 0.0000000000000000
0.0000000000000000 1.0000000000000000 0.0000000000000000
0.0000000000000000 1.0000000000000000 0.0000000000000000
0.0000000000000000 1.0000000000000000 0.0000000000000000
0.0000000000000000 1.0000000000000000 0.0000000000000000
0.0000000000000000 1.0000000000000000 0.0000000000000000
0.0000000000000000 1.0000000000000000 0.0000000000000000
0.0000000000000000 1.0000000000000000 0.0000000000000000
0.0000000000000000 1.0000000000000000 0.0000000000000000
0.0000000000000000 1.0000000000000000 0.0000000000000000
0.0000000000000000 1.0000000000000000 0.0000000000000000
0.0000000000000000 1.0000000000000000 0.0000000000000000
0.0000000000000000 1.0000000000000000 0.0000000000000000
0.0000000000000000 1.0000000000000000 0.0000000000000000
0.0000000000000000 1.0000000000000000 0.0000000000000000
0.0000000000000000 1.0000000000000000 0.0000000000000000
0.0000000000000000 1.0000000000000000 0.0000000000000000
0.0000000000000000 1.0000000000000000 0.0000000000000000
0.0000000000000000 1.0000000000000000 0.0000000000000000
0.0000000000000000 1.0000000000000000 0.0000000000000000
0.0000000000000000 1.0000000000000000 0.0000000000000000
0.0000000000000000 1.0000000000000000 0.0000000000000000
0.0000000000000000 1.0000000000000000 0.0000000000000000
0.0000000000000000 1.0000000000000000 0.0000000000000000
0.0000000000000000 1.0000000000000000 0.0000000000000000
0.0000000000000000 1.0000000000000000 0.0000000000000000
0.0000000000000000 1.0000000000000000 0.0000000000000000
0.0000000000000000 1.0000000000000000 0.0000000000000000
0.0000000000000000 1.0000000000000000 0.0000000000000000
0.0000000000000000 1.0000000000000000 0.0000000000000000
0.0000000000000000 1.0000000000000000 0.0000000000000000
0.0000000000000000 1.0000000000000000 0.0000000000000000
0.0000000000000000 1.0000000000000000 0.0000000000000000
0.0000000000000000 1.0000000000000000 0.0000000000000000
0.0000000000000000 1.0000000000000000 0.0000000000000000
0.0000000000000000 1.0000000000000000 0.0000000000000000
0.0000000000000000 1.0000000000000000 0.0000000000000000
0.0000000000000000 1.0000000000000000 0.0000000000000000
0.0000000000000000 1.0000000000000000 0.0000000000000000
0.0000000000000000 1.0000000000000000 0.0000000000000000
0.0000000000000000 1.0000000000000000 0.0000000000000000
0.0000000000000000 1.0000000000000000 0.0000000000000000
0.0000000000000000 1.0000000000000000 0.0000000000000000
0.0000000000000000 1.0000000000000000 0.0000000000000000
0.0000000000000000 1.0000000000000000 0.0000000000000000
0.0000000000000000 1.0000000000000000 0.0000000000000000
0.0000000000000000 1.0000000000000000 0.0000000000000000
0.0000000000000000 1.0000000000000000 0.0000000000000000
0.0000000000000000 1.0000000000000000 0.0000000000000000
0.0000000000000000 1.0000000000000000 0.0000000000000000
0.0000000000000000 1.0000000000000000 0.0000000000000000
0.0000000000000000 1.0000000000000000 0.0000000000000000
0.0000000000000000 1.0000000000000000 0.0000000000000000
0.0000000000000000 1.0000000000000000 0.0000000000000000
0.0000000000000000 1.0000000000000000 0.0000000000000000
0.0000000000000000 1.0000000000000000 0.0000000000000000
0.0000000000000000 1.0000000000000000 0.0000000000000000
0.0000000000000000 1.0000000000000000 0.0000000000000000
0.0000000000000000 1.0000000000000000 0.0000000000000000
0.0000000000000000 1.0000000000000000 0.0000000000000000
0.0000000000000000 1.0000000000000000 0.0000000000000000
0.0000000000000000 1.0000000000000000 0.0000000000000000
0.0000000000000000 1.0000000000000000 0.0000000000000000
0.0000000000000000 1.0000000000000000 0.0000000000000000
0.0000000000000000 1.0000000000000000 0.0000000000000000
0.0000000000000000 1.0000000000000000 0.0000000000000000
0.0000000000000000 1.0000000000000000 0.0000000000000000
0.0000000000000000 1.0000000000000000 0.0000000000000000
0.0000000000000000 1.0000000000000000 0.0000000000000000
0.0000000000000000 1.0000000000000000 0.0000000000000000
0.0000000000000000 1.0000000000000000 0.0000000000000000
0.0000000000000000 1.0000000000000000 0.0000000000000000
0.0000000000000000 1.0000000000000000 0.0000000000000000
0.0000000000000000 1.0000000000000000 0.0000000000000000
0.0000000000000000 1.0000000000000000 0.0000000000000000
0.0000000000000000 1.0000000000000000 0.0000000000000000
0.0000000000000000 1.0000000000000000 0.0000000000000000
0.0000000000000000 1.0000000000000000 0.0000000000000000
0.0000000000000000 1.0000000000000000 0.0000000000000000
0.0000000000000000 1.0000000000000000 0.0000000000000000
0.0000000000000000 1.0000000000000000 0.0000000000000000
0.0000000000000000 1.0000000000000000 0.0000000000000000
0.0000000000000000 1.0000000000000000 0.0000000000000000
0.0000000000000000 1.0000000000000000 0.0000000000000000
0.0000000000000000 1.0000000000000000 0.0000000000000000
0.0000000000000000 1.0000000000000000 0.0000000000000000
0.0000000000000000 1.0000000000000000 0.0000000000000000
0.0000000000000000 1.0000000000000000 0.0000000000000000
0.0000000000000000 1.0000000000000000 0.0000000000000000
0.0000000000000000 1.0000000000000000 0.0000000000000000
0.0000000000000000 1.0000000000000000 0.0000000000000000
0.0000000000000000 1.0000000000000000 0.0000000000000000
0.0000000000000000 1.0000000000000000 0.0000000000000000
0.0000000000000000 1.0000000000000000 0.0000000000000000
0.0000000000000000 1.0000000000000000 0.0000000000000000
0.0000000000000000 1.0000000000000000 0.0000000000000000
0.0000000000000000 1.0000000000000000 0.0000000000000000
0.0000000000000000 1.0000000000000000 0.0000000000000000
0.0000000000000000 1.0000000000000000 0.0000000000000000
0.0000000000000000 1.0000000000000000 0.0000000000000000
0.0000000000000000 1.0000000000000000 0.0000000000000000
0.0000000000000000 1.0000000000000000 0.0000000000000000
0.0000000000000000 1.0000000000000000 0.0000000000000000
0.0000000000000000 1.0000000000000000 0.0000000000000000
0.0000000000000000 1.0000000000000000 0.0000000000000000
0.0000000000000000 1.0000000000000000 0.0000000000000000
0.0000000000000000 1.0000000000000000 0.0000000000000000
0.0000000000000000 1.0000000000000000 0.0000000000000000
0.0000000000000000 1.0000000000000000 0.0000000000000000
0.0000000000000000 1.0000000000000000 0.0000000000000000
0.0000000000000000 1.0000000000000000 0.0000000000000000
0.0000000000000000 1.0000000000000000 0.0000000000000000
0.0000000000000000 1.0000000000000000 0.0000000000000000
0.0000000000000000 1.0000000000000000 0.0000000000000000
0.0000000000000000 1.0000000000000000 0.0000000000000000
0.0000000000000000 1.0000000000000000 0.0000000000000000
0.0000000000000000 1.0000000000000000 0.0000000000000000
0.0000000000000000 1.0000000000000000 0.0000000000000000
0.0000000000000000 1.0000000000000000 0.0000000000000000
0.0000000000000000 1.0000000000000000 0.0000000000000000
0.0000000000000000 1.0000000000000000 0.0000000000000000
0.0000000000000000 1.0000000000000000 0.0000000000000000
0.0000000000000000 1.0000000000000000 0.0000000000000000
0.0000000000000000 1.0000000000000000 0.0000000000000000
0.0000000000000000 1.0000000000000000 0.0000000000000000
0.0000000000000000 1.0000000000000000 0.0000000000000000
0.0000000000000000 1.0000000000000000 0.0000000000000000
0.0000000000000000 1.0000000000000000 0.0000000000000000
0.0000000000000000 1.0000000000000000 0.0000000000000000
0.0000000000000000 1.0000000000000000 0.0000000000000000
0.0000000000000000 1.0000000000000000 0.0000000000000000
0.0000000000000000 1.0000000000000000 0.0000000000000000
0.0000000000000000 1.0000000000000000 0.0000000000000000
0.0000000000000000 1.0000000000000000 0.0000000000000000
0.0000000000000000 1.0000000000000000 0.0000000000000000
0.0000000000000000 1.0000000000000000 0.0000000000000000
0.0000000000000000 1.0000000000000000 0.0000000000000000
0.0000000000000000 1.0000000000000000 0.0000000000000000
0.0000000000000000 1.0000000000000000 0.0000000000000000
0.0000000000000000 1.0000000000000000 0.0000000000000000
0.0000000000000000 1.0000000000000000 0.0000000000000000
0.0000000000000000 1.0000000000000000 0.0000000000000000
0.0000000000000000 1.0000000000000000 0.0000000000000000
0.0000000000000000 1.0000000000000000 0.0000000000000000
0.0000000000000000 1.0000000000000000 0.0000000000000000
0.0000000000000000 1.0000000000000000 0.0000000000000000
0.0000000000000000 1.0000000000000000 0.0000000000000000
0.0000000000000000 1.0000000000000000 0.0000000000000000
0.0000000000000000 1.0000000000000000 0.0000000000000000
0.0000000000000000 1.0000000000000000 0.0000000000000000
0.0000000000000000 1.0000000000000000 0.0000000000000000
0.0000000000000000 1.0000000000000000 0.0000000000000000
0.0000000000000000 1.0000000000000000 0.0000000000000000
0.0000000000000000 1.0000000000000000 0.0000000000000000
0.0000000000000000 1.0000000000000000 0.0000000000000000
0.0000000000000000 1.0000000000000000 0.0000000000000000
0.0000000000000000 1.0000000000000000 0.0000000000000000
0.0000000000000000 1.0000000000000000 0.0000000000000000
0.0000000000000000 1.0000000000000000 0.0000000000000000
0.0000000000000000 1.0000000000000000 0.0000000000000000
0.0000000000000000 1.0000000000000000 0.0000000000000000
0.0000000000000000 1.0000000000000000 0.0000000000000000
0.0000000000000000 1.0000000000000000 0.0000000000000000
0.0000000000000000 1.0000000000000000 0.0000000000000000
0.0000000000000000 1.0000000000000000 0.0000000000000000
0.0000000000000000 1.0000000000000000 0.0000000000000000
0.0000000000000000 1.0000000000000000 0.0000000000000000
0.0000000000000000 1.0000000000000000 0.0000000000000000
0.0000000000000000 1.0000000000000000 0.0000000000000000
0.0000000000000000 1.0000000000000000 0.0000000000000000
0.0000000000000000 1.0000000000000000 0.0000000000000000
0.0000000000000000 1.0000000000000000 0.0000000000000000
0.0000000000000000 1.0000000000000000 0.0000000000000000
0.0000000000000000 1.0000000000000000 0.0000000000000000
0.0000000000000000 1.0000000000000000 0.0000000000000000
0.0000000000000000 1.0000000000000000 0.0000000000000000
0.0000000000000000 1.0000000000000000 0.0000000000000000
0.0000000000000000 1.0000000000000000 0.0000000000000000
0.0000000000000000 1.0000000000000000 0.0000000000000000
0.0000000000000000 1.0000000000000000 0.0000000000000000
0.0000000000000000 1.0000000000000000 0.0000000000000000
0.0000000000000000 1.0000000000000000 0.0000000000000000
0.0000000000000000 1.0000000000000000 0.0000000000000000
0.0000000000000000 1.0000000000000000 0.0000000000000000
0.0000000000000000 1.0000000000000000 0.0000000000000000
0.0000000000000000 1.0000000000000000 0.0000000000000000
0.0000000000000000 1.0000000000000000 0.0000000000000000
0.0000000000000000 1.0000000000000000 0.0000000000000000
0.0000000000000000 1.0000000000000000 0.0000000000000000
0.0000000000000000 1.0000000000000000 0.0000000000000000
0.0000000000000000 1.0000000000000000 0.0000000000000000
0.0000000000000000 1.0000000000000000 0.0000000000000000
0.0000000000000000 1.0000000000000000 0.0000000000000000
0.0000000000000000 1.0000000000000000 0.0000000000000000
0.0000000000000000 1.0000000000000000 0.0000000000000000
0.0000000000000000 1.0000000000000000 0.0000000000000000
0.0000000000000000 1.0000000000000000 0.0000000000000000
0.0000000000000000 1.0000000000000000 0.0000000000000000
0.0000000000000000 1.0000000000000000 0.0000000000000000
0.0000000000000000 1.0000000000000000 0.0000000000000000
0.0000000000000000 1.0000000000000000 0.0000000000000000
0.0000000000000000 1.0000000000000000 0.0000000000000000
0.0000000000000000 1.0000000000000000 0.0000000000000000
0.0000000000000000 1.0000000000000000 0.0000000000000000
0.0000000000000000 1.0000000000000000 0.0000000000000000
0.0000000000000000 1.0000000000000000 0.0000000000000000
0.0000000000000000 1.0000000000000000 0.0000000000000000
0.0000000000000000 1.0000000000000000 0.0000000000000000
0.0000000000000000 1.0000000000000000 0.0000000000000000
0.0000000000000000 1.0000000000000000 0.0000000000000000
0.0000000000000000 1.0000000000000000 0.0000000000000000
0.0000000000000000 1.0000000000000000 0.0000000000000000
0.0000000000000000 1.0000000000000000 0.0000000000000000
0.0000000000000000 1.0000000000000000 0.0000000000000000
0.0000000000000000 1.0000000000000000 0.0000000000000000
0.0000000000000000 1.0000000000000000 0.0000000000000000
0.0000000000000000 1.0000000000000000 0.0000000000000000
0.0000000000000000 1.0000000000000000 0.0000000000000000
0.0000000000000000 1.0000000000000000 0.0000000000000000
0.0000000000000000 1.0000000000000000 0.0000000000000000
0.0000000000000000 1.0000000000000000 0.0000000000000000
0.0000000000000000 1.0000000000000000 0.0000000000000000
0.0000000000000000 1.0000000000000000 0.0000000000000000
0.0000000000000000 1.0000000000000000 0.0000000000000000
0.0000000000000000 1.0000000000000000 0.0000000000000000
0.0000000000000000 1.0000000000000000 0.0000000000000000
0.0000000000000000 1.0000000000000000 0.0000000000000000
0.0000000000000000 1.0000000000000000 0.0000000000000000
0.0000000000000000 1.0000000000000000 0.0000000000000000
0.0000000000000000 1.0000000000000000 0.0000000000000000
0.0000000000000000 1.0000000000000000 0.0000000000000000
0.0000000000000000 1.0000000000000000 0.0000000000000000
0.0000000000000000 1.0000000000000000 0.0000000000000000
0.0000000000000000 1.0000000000000000 0.0000000000000000
0.0000000000000000 1.0000000000000000 0.0000000000000000
0.0000000000000000 1.0000000000000000 0.0000000000000000
0.0000000000000000 1.0000000000000000 0.0000000000000000
0.0000000000000000 1.0000000000000000 0.0000000000000000
0.0000000000000000 1.0000000000000000 0.0000000000000000
0.0000000000000000 1.0000000000000000 0.0000000000000000
0.0000000000000000 1.0000000000000000 0.0000000000000000
0.0000000000000000 1.0000000000000000 0.0000000000000000
0.0000000000000000 1.0000000000000000 0.0000000000000000
0.0000000000000000 1.0000000000000000 0.0000000000000000
0.0000000000000000 1.0000000000000000 0.0000000000000000
0.0000000000000000 1.0000000000000000 0.0000000000000000
0.0000000000000000 1.0000000000000000 0.0000000000000000
0.0000000000000000 1.0000000000000000 0.0000000000000000
0.0000000000000000 1.0000000000000000 0.0000000000000000
0.0000000000000000 1.0000000000000000 0.0000000000000000
0.0000000000000000 1.0000000000000000 0.0000000000000000
0.0000000000000000 1.0000000000000000 0.0000000000000000
0.0000000000000000 1.0000000000000000 0.0000000000000000
0.0000000000000000 1.0000000000000000 0.0000000000000000
0.0000000000000000 1.0000000000000000 0.0000000000000000
0.0000000000000000 1.0000000000000000 0.0000000000000000
0.0000000000000000 1.0000000000000000 0.0000000000000000
0.0000000000000000 1.0000000000000000 0.0000000000000000
0.0000000000000000 1.0000000000000000 0.0000000000000000
0.0000000000000000 1.0000000000000000 0.0000000000000000
0.0000000000000000 1.0000000000000000 0.0000000000000000
0.0000000000000000 1.0000000000000000 0.0000000000000000
0.0000000000000000 1.0000000000000000 0.0000000000000000
0.0000000000000000 1.0000000000000000 0.0000000000000000
0.0000000000000000 1.0000000000000000 0.0000000000000000
0.0000000000000000 1.0000000000000000 0.0000000000000000
0.0000000000000000 1.0000000000000000 0.0000000000000000
0.0000000000000000 1.0000000000000000 0.0000000000000000
0.0000000000000000 1.0000000000000000 0.0000000000000000
0.0000000000000000 1.0000000000000000 0.0000000000000000
0.0000000000000000 1.0000000000000000 0.0000000000000000
0.0000000000000000 1.0000000000000000 0.0000000000000000
0.0000000000000000 1.0000000000000000 0.0000000000000000
0.0000000000000000 1.0000000000000000 0.0000000000000000
0.0000000000000000 1.0000000000000000 0.0000000000000000
0.0000000000000000 1.0000000000000000 0.0000000000000000
0.0000000000000000 1.0000000000000000 0.0000000000000000
0.0000000000000000 1.0000000000000000 0.0000000000000000
0.0000000000000000 1.0000000000000000 0.0000000000000000
0.0000000000000000 1.0000000000000000 0.0000000000000000
0.0000000000000000 1.0000000000000000 0.0000000000000000
0.0000000000000000 1.0000000000000000 0.0000000000000000
0.0000000000000000 1.0000000000000000 0.0000000000000000
0.0000000000000000 1.0000000000000000 0.0000000000000000
0.0000000000000000 1.0000000000000000 0.0000000000000000
0.0000000000000000 1.0000000000000000 0.0000000000000000
0.0000000000000000 1.0000000000000000 0.0000000000000000
0.0000000000000000 1.0000000000000000 0.0000000000000000
0.0000000000000000 1.0000000000000000 0.0000000000000000
0.0000000000000000 1.0000000000000000 0.0000000000000000
0.0000000000000000 1.0000000000000000 0.0000000000000000
0.0000000000000000 1.0000000000000000 0.0000000000000000
0.0000000000000000 1.0000000000000000 0.0000000000000000
0.0000000000000000 1.0000000000000000 0.0000000000000000
0.0000000000000000 1.0000000000000000 0.0000000000000000
0.0000000000000000 1.0000000000000000 0.0000000000000000
0.0000000000000000 1.0000000000000000 0.0000000000000000
0.0000000000000000 1.0000000000000000 0.0000000000000000
0.0000000000000000 1.0000000000000000 0.0000000000000000
0.0000000000000000 1.0000000000000000 0.0000000000000000
0.0000000000000000 1.0000000000000000 0.0000000000000000
0.0000000000000000 1.0000000000000000 0.0000000000000000
0.0000000000000000 1.0000000000000000 0.0000000000000000
0.0000000000000000 1.0000000000000000 0.0000000000000000
0.0000000000000000 1.0000000000000000 0.0000000000000000
0.0000000000000000 1.0000000000000000 0.0000000000000000
0.0000000000000000 1.0000000000000000 0.0000000000000000
0.0000000000000000 1.0000000000000000 0.0000000000000000
0.0000000000000000 1.0000000000000000 0.0000000000000000
0.0000000000000000 1.0000000000000000 0.0000000000000000
0.0000000000000000 1.0000000000000000 0.0000000000000000
0.0000000000000000 1.0000000000000000 0.0000000000000000
0.0000000000000000 1.0000000000000000 0.0000000000000000
0.0000000000000000 1.0000000000000000 0.0000000000000000
0.0000000000000000 1.0000000000000000 0.0000000000000000
0.0000000000000000 1.0000000000000000 0.0000000000000000
0.0000000000000000 1.0000000000000000 0.0000000000000000
0.0000000000000000 1.0000000000000000 0.0000000000000000
0.0000000000000000 1.0000000000000000 0.0000000000000000
0.0000000000000000 1.0000000000000000 0.0000000000000000
0.0000000000000000 1.0000000000000000 0.0000000000000000
0.0000000000000000 1.0000000000000000 0.0000000000000000
0.0000000000000000 1.0000000000000000 0.0000000000000000
0.0000000000000000 1.0000000000000000 0.0000000000000000
0.0000000000000000 1.0000000000000000 0.0000000000000000
0.0000000000000000 1.0000000000000000 0.0000000000000000
0.0000000000000000 1.0000000000000000 0.0000000000000000
0.0000000000000000 1.0000000000000000 0.0000000000000000
0.0000000000000000 1.0000000000000000 0.0000000000000000
0.0000000000000000 1.0000000000000000 0.0000000000000000
0.0000000000000000 1.0000000000000000 0.0000000000000000
0.0000000000000000 1.0000000000000000 0.0000000000000000
0.0000000000000000 1.0000000000000000 0.0000000000000000
0.0000000000000000 1.0000000000000000 0.0000000000000000
0.0000000000000000 1.0000000000000000 0.0000000000000000
0.0000000000000000 1.0000000000000000 0.0000000000000000
0.0000000000000000 1.0000000000000000 0.0000000000000000
0.0000000000000000 1.0000000000000000 0.0000000000000000
0.0000000000000000 1.0000000000000000 0.0000000000000000
0.0000000000000000 1.0000000000000000 0.0000000000000000
0.0000000000000000 1.0000000000000000 0.0000000000000000
0.0000000000000000 1.0000000000000000 0.0000000000000000
0.0000000000000000 1.0000000000000000 0.0000000000000000
0.0000000000000000 1.0000000000000000 0.0000000000000000
0.0000000000000000 1.0000000000000000 0.0000000000000000
0.0000000000000000 1.0000000000000000 0.0000000000000000
0.0000000000000000 1.0000000000000000 0.0000000000000000
0.0000000000000000 1.0000000000000000 0.0000000000000000
0.0000000000000000 1.0000000000000000 0.0000000000000000
0.0000000000000000 1.0000000000000000 0.0000000000000000
0.0000000000000000 1.0000000000000000 0.0000000000000000
0.0000000000000000 1.0000000000000000 0.0000000000000000
0.0000000000000000 1.0000000000000000 0.0000000000000000
0.0000000000000000 1.0000000000000000 0.0000000000000000
0.0000000000000000 1.0000000000000000 0.0000000000000000
0.0000000000000000 1.0000000000000000 0.0000000000000000
0.0000000000000000 1.0000000000000000 0.0000000000000000
0.0000000000000000 1.0000000000000000 0.0000000000000000
0.0000000000000000 1.0000000000000000 0.0000000000000000
0.0000000000000000 1.0000000000000000 0.0000000000000000
0.0000000000000000 1.0000000000000000 0.0000000000000000
0.0000000000000000 1.0000000000000000 0.0000000000000000
0.0000000000000000 1.0000000000000000 0.0000000000000000
0.0000000000000000 1.0000000000000000 0.0000000000000000
0.0000000000000000 1.0000000000000000 0.0000000000000000
0.0000000000000000 1.0000000000000000 0.0000000000000000
0.0000000000000000 1.0000000000000000 0.0000000000000000
0.0000000000000000 1.0000000000000000 0.0000000000000000
0.0000000000000000 1.0000000000000000 0.0000000000000000
0.0000000000000000 1.0000000000000000 0.0000000000000000
0.0000000000000000 1.0000000000000000 0.0000000000000000
0.0000000000000000 1.0000000000000000 0.0000000000000000
0.0000000000000000 1.0000000000000000 0.0000000000000000
0.0000000000000000 1.0000000000000000 0.0000000000000000
0.0000000000000000 1.0000000000000000 0.0000000000000000
0.0000000000000000 1.0000000000000000 0.0000000000000000
0.0000000000000000 1.0000000000000000 0.0000000000000000
0.0000000000000000 1.0000000000000000 0.0000000000000000
0.0000000000000000 1.0000000000000000 0.0000000000000000
0.0000000000000000 1.0000000000000000 0.0000000000000000
0.0000000000000000 1.0000000000000000 0.0000000000000000
0.0000000000000000 1.0000000000000000 0.0000000000000000
0.0000000000000000 1.0000000000000000 0.0000000000000000
0.0000000000000000 1.0000000000000000 0.0000000000000000
0.0000000000000000 1.0000000000000000 0.0000000000000000
0.0000000000000000 1.0000000000000000 0.0000000000000000
0.0000000000000000 1.0000000000000000 0.0000000000000000
0.0000000000000000 1.0000000000000000 0.0000000000000000
0.0000000000000000 1.0000000000000000 0.0000000000000000
0.0000000000000000 1.0000000000000000 0.0000000000000000
0.0000000000000000 1.0000000000000000 0.0000000000000000
0.0000000000000000 1.0000000000000000 0.0000000000000000
0.0000000000000000 1.0000000000000000 0.0000000000000000
0.0000000000000000 1.0000000000000000 0.0000000000000000
0.0000000000000000 1.0000000000000000 0.0000000000000000
0.0000000000000000 1.0000000000000000 0.0000000000000000
0.0000000000000000 1.0000000000000000 0.0000000000000000
0.0000000000000000 1.0000000000000000 0.0000000000000000
0.0000000000000000 1.0000000000000000 0.0000000000000000
0.0000000000000000 1.0000000000000000 0.0000000000000000
0.0000000000000000 1.0000000000000000 0.0000000000000000
0.0000000000000000 1.0000000000000000 0.0000000000000000
0.0000000000000000 1.0000000000000000 0.0000000000000000
0.0000000000000000 1.0000000000000000 0.0000000000000000
0.0000000000000000 1.0000000000000000 0.0000000000000000
0.0000000000000000 1.0000000000000000 0.0000000000000000
0.0000000000000000 1.0000000000000000 0.0000000000000000
0.0000000000000000 1.0000000000000000 0.0000000000000000
0.0000000000000000 1.0000000000000000 0.0000000000000000
0.0000000000000000 1.0000000000000000 0.0000000000000000
0.0000000000000000 1.0000000000000000 0.0000000000000000
0.0000000000000000 1.0000000000000000 0.0000000000000000
0.0000000000000000 1.0000000000000000 0.0000000000000000
0.0000000000000000 1.0000000000000000 0.0000000000000000
0.0000000000000000 1.0000000000000000 0.0000000000000000
0.0000000000000000 1.0000000000000000 0.0000000000000000
0.0000000000000000 1.0000000000000000 0.0000000000000000
0.0000000000000000 1.0000000000000000 0.0000000000000000
0.0000000000000000 1.0000000000000000 0.0000000000000000
0.0000000000000000 1.0000000000000000 0.0000000000000000
0.0000000000000000 1.0000000000000000 0.0000000000000000
0.0000000000000000 1.0000000000000000 0.0000000000000000
0.0000000000000000 1.0000000000000000 0.0000000000000000
0.0000000000000000 1.0000000000000000 0.0000000000000000
0.0000000000000000 1.0000000000000000 0.0000000000000000
0.0000000000000000 1.0000000000000000 0.0000000000000000
0.0000000000000000 1.0000000000000000 0.0000000000000000
0.0000000000000000 1.0000000000000000 0.0000000000000000
0.0000000000000000 1.0000000000000000 0.0000000000000000
0.0000000000000000 1.0000000000000000 0.0000000000000000
0.0000000000000000 1.0000000000000000 0.0000000000000000
0.0000000000000000 1.0000000000000000 0.0000000000000000
0.0000000000000000 1.0000000000000000 0.0000000000000000
0.0000000000000000 1.0000000000000000 0.0000000000000000
0.0000000000000000 1.0000000000000000 0.0000000000000000
0.0000000000000000 1.0000000000000000 0.0000000000000000
0.0000000000000000 1.0000000000000000 0.0000000000000000
0.0000000000000000 1.0000000000000000 0.0000000000000000
0.0000000000000000 1.0000000000000000 0.0000000000000000
0.0000000000000000 1.0000000000000000 0.0000000000000000
0.0000000000000000 1.0000000000000000 0.0000000000000000
0.0000000000000000 1.0000000000000000 0.0000000000000000
0.0000000000000000 1.0000000000000000 0.0000000000000000
0.0000000000000000 1.0000000000000000 0.0000000000000000
0.0000000000000000 1.0000000000000000 0.0000000000000000
0.0000000000000000 1.0000000000000000 0.0000000000000000
0.0000000000000000 1.0000000000000000 0.0000000000000000
0.0000000000000000 1.0000000000000000 0.0000000000000000
0.0000000000000000 1.0000000000000000 0.0000000000000000
0.0000000000000000 1.0000000000000000 0.0000000000000000
0.0000000000000000 1.0000000000000000 0.0000000000000000
0.0000000000000000 1.0000000000000000 0.0000000000000000
0.0000000000000000 1.0000000000000000 0.0000000000000000
0.0000000000000000 1.0000000000000000 0.0000000000000000
0.0000000000000000 1.0000000000000000 0.0000000000000000
0.0000000000000000 1.0000000000000000 0.0000000000000000
0.0000000000000000 1.0000000000000000 0.0000000000000000
0.0000000000000000 1.0000000000000000 0.0000000000000000
0.0000000000000000 1.0000000000000000 0.0000000000000000
0.0000000000000000 1.0000000000000000 0.0000000000000000
0.0000000000000000 1.0000000000000000 0.0000000000000000
0.0000000000000000 1.0000000000000000 0.0000000000000000
0.0000000000000000 1.0000000000000000 0.0000000000000000
0.0000000000000000 1.0000000000000000 0.0000000000000000
0.0000000000000000 1.0000000000000000 0.0000000000000000
0.0000000000000000 1.0000000000000000 0.0000000000000000
0.0000000000000000 1.0000000000000000 0.0000000000000000
0.0000000000000000 1.0000000000000000 0.0000000000000000
0.0000000000000000 1.0000000000000000 0.0000000000000000
0.0000000000000000 1.0000000000000000 0.0000000000000000
0.0000000000000000 1.0000000000000000 0.0000000000000000
0.0000000000000000 1.0000000000000000 0.0000000000000000
0.0000000000000000 1.0000000000000000 0.0000000000000000
0.0000000000000000 1.0000000000000000 0.0000000000000000
0.0000000000000000 1.0000000000000000 0.0000000000000000
0.0000000000000000 1.0000000000000000 0.0000000000000000
0.0000000000000000 1.0000000000000000 0.0000000000000000
0.0000000000000000 1.0000000000000000 0.0000000000000000
0.0000000000000000 1.0000000000000000 0.0000000000000000
0.0000000000000000 1.0000000000000000 0.0000000000000000
0.0000000000000000 1.0000000000000000 0.0000000000000000
0.0000000000000000 1.0000000000000000 0.0000000000000000
0.0000000000000000 1.0000000000000000 0.0000000000000000
0.0000000000000000 1.0000000000000000 0.0000000000000000
0.0000000000000000 1.0000000000000000 0.0000000000000000
0.0000000000000000 1.0000000000000000 0.0000000000000000
0.0000000000000000 1.0000000000000000 0.0000000000000000
0.0000000000000000 1.0000000000000000 0.0000000000000000
0.0000000000000000 1.0000000000000000 0.0000000000000000
0.0000000000000000 1.0000000000000000 0.0000000000000000
0.0000000000000000 1.0000000000000000 0.0000000000000000
0.0000000000000000 1.0000000000000000 0.0000000000000000
0.0000000000000000 1.0000000000000000 0.0000000000000000
0.0000000000000000 1.0000000000000000 0.0000000000000000
0.0000000000000000 1.0000000000000000 0.0000000000000000
0.0000000000000000 1.0000000000000000 0.0000000000000000
0.0000000000000000 1.0000000000000000 0.0000000000000000
0.0000000000000000 1.0000000000000000 0.0000000000000000
0.0000000000000000 1.0000000000000000 0.0000000000000000
0.0000000000000000 1.0000000000000000 0.0000000000000000
0.0000000000000000 1.0000000000000000 0.0000000000000000
0.0000000000000000 1.0000000000000000 0.0000000000000000
0.0000000000000000 1.0000000000000000 0.0000000000000000
0.0000000000000000 1.0000000000000000 0.0000000000000000
0.0000000000000000 1.0000000000000000 0.0000000000000000
0.0000000000000000 1.0000000000000000 0.0000000000000000
0.0000000000000000 1.0000000000000000 0.0000000000000000
0.0000000000000000 1.0000000000000000 0.0000000000000000
0.0000000000000000 1.0000000000000000 0.0000000000000000
0.0000000000000000 1.0000000000000000 0.0000000000000000
0.0000000000000000 1.0000000000000000 0.0000000000000000
0.0000000000000000 1.0000000000000000 0.0000000000000000
0.0000000000000000 1.0000000000000000 0.0000000000000000
0.0000000000000000 1.0000000000000000 0.0000000000000000
0.0000000000000000 1.0000000000000000 0.0000000000000000
0.0000000000000000 1.0000000000000000 0.0000000000000000
0.0000000000000000 1.0000000000000000 0.0000000000000000
0.0000000000000000 1.0000000000000000 0.0000000000000000
0.0000000000000000 1.0000000000000000 0.0000000000000000
0.0000000000000000 1.0000000000000000 0.0000000000000000
0.0000000000000000 1.0000000000000000 0.0000000000000000
0.0000000000000000 1.0000000000000000 0.0000000000000000
0.0000000000000000 1.0000000000000000 0.0000000000000000
0.0000000000000000 1.0000000000000000 0.0000000000000000
0.0000000000000000 1.0000000000000000 0.0000000000000000
0.0000000000000000 1.0000000000000000 0.0000000000000000
0.0000000000000000 1.0000000000000000 0.0000000000000000
0.0000000000000000 1.0000000000000000 0.0000000000000000
0.0000000000000000 1.0000000000000000 0.0000000000000000
0.0000000000000000 1.0000000000000000 0.0000000000000000
0.0000000000000000 1.0000000000000000 0.0000000000000000
0.0000000000000000 1.0000000000000000 0.0000000000000000
0.0000000000000000 1.0000000000000000 0.0000000000000000
0.0000000000000000 1.0000000000000000 0.0000000000000000
0.0000000000000000 1.0000000000000000 0.0000000000000000
0.0000000000000000 1.0000000000000000 0.0000000000000000
0.0000000000000000 1.0000000000000000 0.0000000000000000
0.0000000000000000 1.0000000000000000 0.0000000000000000
0.0000000000000000 1.0000000000000000 0.0000000000000000
0.0000000000000000 1.0000000000000000 0.0000000000000000
0.0000000000000000 1.0000000000000000 0.0000000000000000
0.0000000000000000 1.0000000000000000 0.0000000000000000
0.0000000000000000 1.0000000000000000 0.0000000000000000
0.0000000000000000 1.0000000000000000 0.0000000000000000
0.0000000000000000 1.0000000000000000 0.0000000000000000
0.0000000000000000 1.0000000000000000 0.0000000000000000
0.0000000000000000 1.0000000000000000 0.0000000000000000
0.0000000000000000 1.0000000000000000 0.0000000000000000
0.0000000000000000 1.0000000000000000 0.0000000000000000
0.0000000000000000 1.0000000000000000 0.0000000000000000
0.0000000000000000 1.0000000000000000 0.0000000000000000
0.0000000000000000 1.0000000000000000 0.0000000000000000
0.0000000000000000 1.0000000000000000 0.0000000000000000
0.0000000000000000 1.0000000000000000 0.0000000000000000
0.0000000000000000 1.0000000000000000 0.0000000000000000
0.0000000000000000 1.0000000000000000 0.0000000000000000
0.0000000000000000 1.0000000000000000 0.0000000000000000
0.0000000000000000 1.0000000000000000 0.0000000000000000
0.0000000000000000 1.0000000000000000 0.0000000000000000
0.0000000000000000 1.0000000000000000 0.0000000000000000
0.0000000000000000 1.0000000000000000 0.0000000000000000
0.0000000000000000 1.0000000000000000 0.0000000000000000
0.0000000000000000 1.0000000000000000 0.0000000000000000
0.0000000000000000 1.0000000000000000 0.0000000000000000
0.0000000000000000 1.0000000000000000 0.0000000000000000
0.0000000000000000 1.0000000000000000 0.0000000000000000
0.0000000000000000 1.0000000000000000 0.0000000000000000
0.0000000000000000 1.0000000000000000 0.0000000000000000
0.0000000000000000 1.0000000000000000 0.0000000000000000
0.0000000000000000 1.0000000000000000 0.0000000000000000
0.0000000000000000 1.0000000000000000 0.0000000000000000
0.0000000000000000 1.0000000000000000 0.0000000000000000
0.0000000000000000 1.0000000000000000 0.0000000000000000
0.0000000000000000 1.0000000000000000 0.0000000000000000
0.0000000000000000 1.0000000000000000 0.0000000000000000
0.0000000000000000 1.0000000000000000 0.0000000000000000
0.0000000000000000 1.0000000000000000 0.0000000000000000
0.0000000000000000 1.0000000000000000 0.0000000000000000
0.0000000000000000 1.0000000000000000 0.0000000000000000
0.0000000000000000 1.0000000000000000 0.0000000000000000
0.0000000000000000 1.0000000000000000 0.0000000000000000
0.0000000000000000 1.0000000000000000 0.0000000000000000
0.0000000000000000 1.0000000000000000 0.0000000000000000
0.0000000000000000 1.0000000000000000 0.0000000000000000
0.0000000000000000 1.0000000000000000 0.0000000000000000
0.0000000000000000 1.0000000000000000 0.0000000000000000
0.0000000000000000 1.0000000000000000 0.0000000000000000
0.0000000000000000 1.0000000000000000 0.0000000000000000
0.0000000000000000 1.0000000000000000 0.0000000000000000
0.0000000000000000 1.0000000000000000 0.0000000000000000
0.0000000000000000 1.0000000000000000 0.0000000000000000
0.0000000000000000 1.0000000000000000 0.0000000000000000
0.0000000000000000 1.0000000000000000 0.0000000000000000
0.0000000000000000 1.0000000000000000 0.0000000000000000
0.0000000000000000 1.0000000000000000 0.0000000000000000
0.0000000000000000 1.0000000000000000 0.0000000000000000
0.0000000000000000 1.0000000000000000 0.0000000000000000
0.0000000000000000 1.0000000000000000 0.0000000000000000
0.0000000000000000 1.0000000000000000 0.0000000000000000
0.0000000000000000 1.0000000000000000 0.0000000000000000
0.0000000000000000 1.0000000000000000 0.0000000000000000
0.0000000000000000 1.0000000000000000 0.0000000000000000
0.0000000000000000 1.0000000000000000 0.0000000000000000
0.0000000000000000 1.0000000000000000 0.0000000000000000
0.0000000000000000 1.0000000000000000 0.0000000000000000
0.0000000000000000 1.0000000000000000 0.0000000000000000
0.0000000000000000 1.0000000000000000 0.0000000000000000
0.0000000000000000 1.0000000000000000 0.0000000000000000
0.0000000000000000 1.0000000000000000 0.0000000000000000
0.0000000000000000 1.0000000000000000 0.0000000000000000
0.0000000000000000 1.0000000000000000 0.0000000000000000
0.0000000000000000 1.0000000000000000 0.0000000000000000
0.0000000000000000 1.0000000000000000 0.0000000000000000
0.0000000000000000 1.0000000000000000 0.0000000000000000
0.0000000000000000 1.0000000000000000 0.0000000000000000
0.0000000000000000 1.0000000000000000 0.0000000000000000
0.0000000000000000 1.0000000000000000 0.0000000000000000
0.0000000000000000 1.0000000000000000 0.0000000000000000
0.0000000000000000 1.0000000000000000 0.0000000000000000
0.0000000000000000 1.0000000000000000 0.0000000000000000
0.0000000000000000 1.0000000000000000 0.0000000000000000
0.0000000000000000 1.0000000000000000 0.0000000000000000
0.0000000000000000 1.0000000000000000 0.0000000000000000
0.0000000000000000 1.0000000000000000 0.0000000000000000
0.0000000000000000 1.0000000000000000 0.0000000000000000
0.0000000000000000 1.0000000000000000 0.0000000000000000
0.0000000000000000 1.0000000000000000 0.0000000000000000
0.0000000000000000 1.0000000000000000 0.0000000000000000
0.0000000000000000 1.0000000000000000 0.0000000000000000
0.0000000000000000 1.0000000000000000 0.0000000000000000
0.0000000000000000 1.0000000000000000 0.0000000000000000
0.0000000000000000 1.0000000000000000 0.0000000000000000
0.0000000000000000 1.0000000000000000 0.0000000000000000
0.0000000000000000 1.0000000000000000 0.0000000000000000
0.0000000000000000 1.0000000000000000 0.0000000000000000
0.0000000000000000 1.0000000000000000 0.0000000000000000
0.0000000000000000 1.0000000000000000 0.0000000000000000
0.0000000000000000 1.0000000000000000 0.0000000000000000
0.0000000000000000 1.0000000000000000 0.0000000000000000
0.0000000000000000 1.0000000000000000 0.0000000000000000
0.0000000000000000 1.0000000000000000 0.0000000000000000
0.0000000000000000 1.0000000000000000 0.0000000000000000
0.0000000000000000 1.0000000000000000 0.0000000000000000
0.0000000000000000 1.0000000000000000 0.0000000000000000
0.0000000000000000 1.0000000000000000 0.0000000000000000
0.0000000000000000 1.0000000000000000 0.0000000000000000
0.0000000000000000 1.0000000000000000 0.0000000000000000
0.0000000000000000 1.0000000000000000 0.0000000000000000
0.0000000000000000 1.0000000000000000 0.0000000000000000
0.0000000000000000 1.0000000000000000 0.0000000000000000
0.0000000000000000 1.0000000000000000 0.0000000000000000
0.0000000000000000 1.0000000000000000 0.0000000000000000
0.0000000000000000 1.0000000000000000 0.0000000000000000
0.0000000000000000 1.0000000000000000 0.0000000000000000
0.0000000000000000 1.0000000000000000 0.0000000000000000
0.0000000000000000 1.0000000000000000 0.0000000000000000
0.0000000000000000 1.0000000000000000 0.0000000000000000
0.0000000000000000 1.0000000000000000 0.0000000000000000
0.0000000000000000 1.0000000000000000 0.0000000000000000
0.0000000000000000 1.0000000000000000 0.0000000000000000
0.0000000000000000 1.0000000000000000 0.0000000000000000
0.0000000000000000 1.0000000000000000 0.0000000000000000
0.0000000000000000 1.0000000000000000 0.0000000000000000
0.0000000000000000 1.0000000000000000 0.0000000000000000
0.0000000000000000 1.0000000000000000 0.0000000000000000
0.0000000000000000 1.0000000000000000 0.0000000000000000
0.0000000000000000 1.0000000000000000 0.0000000000000000
0.0000000000000000 1.0000000000000000 0.0000000000000000
0.0000000000000000 1.0000000000000000 0.0000000000000000
0.0000000000000000 1.0000000000000000 0.0000000000000000
0.0000000000000000 1.0000000000000000 0.0000000000000000
0.0000000000000000 1.0000000000000000 0.0000000000000000
0.0000000000000000 1.0000000000000000 0.0000000000000000
0.0000000000000000 1.0000000000000000 0.0000000000000000
0.0000000000000000 1.0000000000000000 0.0000000000000000
0.0000000000000000 1.0000000000000000 0.0000000000000000
0.0000000000000000 1.0000000000000000 0.0000000000000000
0.0000000000000000 1.0000000000000000 0.0000000000000000
0.0000000000000000 1.0000000000000000 0.0000000000000000
0.0000000000000000 1.0000000000000000 0.0000000000000000
0.0000000000000000 1.0000000000000000 0.0000000000000000
0.0000000000000000 1.0000000000000000 0.0000000000000000
0.0000000000000000 1.0000000000000000 0.0000000000000000
0.0000000000000000 1.0000000000000000 0.0000000000000000
0.0000000000000000 1.0000000000000000 0.0000000000000000
0.0000000000000000 1.0000000000000000 0.0000000000000000
0.0000000000000000 1.0000000000000000 0.0000000000000000
0.0000000000000000 1.0000000000000000 0.0000000000000000
0.0000000000000000 1.0000000000000000 0.0000000000000000
0.0000000000000000 1.0000000000000000 0.0000000000000000
0.0000000000000000 1.0000000000000000 0.0000000000000000
0.0000000000000000 1.0000000000000000 0.0000000000000000
0.0000000000000000 1.0000000000000000 0.0000000000000000
0.0000000000000000 1.0000000000000000 0.0000000000000000
0.0000000000000000 1.0000000000000000 0.0000000000000000
0.0000000000000000 1.0000000000000000 0.0000000000000000
0.0000000000000000 1.0000000000000000 0.0000000000000000
0.0000000000000000 1.0000000000000000 0.0000000000000000
0.0000000000000000 1.0000000000000000 0.0000000000000000
0.0000000000000000 1.0000000000000000 0.0000000000000000
0.0000000000000000 1.0000000000000000 0.0000000000000000
0.0000000000000000 1.0000000000000000 0.0000000000000000
0.0000000000000000 1.0000000000000000 0.0000000000000000
0.0000000000000000 1.0000000000000000 0.0000000000000000
0.0000000000000000 1.0000000000000000 0.0000000000000000
0.0000000000000000 1.0000000000000000 0.0000000000000000
0.0000000000000000 1.0000000000000000 0.0000000000000000
0.0000000000000000 1.0000000000000000 0.0000000000000000
0.0000000000000000 1.0000000000000000 0.0000000000000000
0.0000000000000000 1.0000000000000000 0.0000000000000000
0.0000000000000000 1.0000000000000000 0.0000000000000000
0.0000000000000000 1.0000000000000000 0.0000000000000000
0.0000000000000000 1.0000000000000000 0.0000000000000000
0.0000000000000000 1.0000000000000000 0.0000000000000000
0.0000000000000000 1.0000000000000000 0.0000000000000000
0.0000000000000000 1.0000000000000000 0.0000000000000000
0.0000000000000000 1.0000000000000000 0.0000000000000000
0.0000000000000000 1.0000000000000000 0.0000000000000000
0.0000000000000000 1.0000000000000000 0.0000000000000000
0.0000000000000000 1.0000000000000000 0.0000000000000000
0.0000000000000000 1.0000000000000000 0.0000000000000000
0.0000000000000000 1.0000000000000000 0.0000000000000000
0.0000000000000000 1.0000000000000000 0.0000000000000000
0.0000000000000000 1.0000000000000000 0.0000000000000000
0.0000000000000000 1.0000000000000000 0.0000000000000000
0.0000000000000000 1.0000000000000000 0.0000000000000000
0.0000000000000000 1.0000000000000000 0.0000000000000000
0.0000000000000000 1.0000000000000000 0.0000000000000000
0.0000000000000000 1.0000000000000000 0.0000000000000000
0.0000000000000000 1.0000000000000000 0.0000000000000000
0.0000000000000000 1.0000000000000000 0.0000000000000000
0.0000000000000000 1.0000000000000000 0.0000000000000000
0.0000000000000000 1.0000000000000000 0.0000000000000000
0.0000000000000000 1.0000000000000000 0.0000000000000000
0.0000000000000000 1.0000000000000000 0.0000000000000000
0.0000000000000000 1.0000000000000000 0.0000000000000000
0.0000000000000000 1.0000000000000000 0.0000000000000000
0.0000000000000000 1.0000000000000000 0.0000000000000000
0.0000000000000000 1.0000000000000000 0.0000000000000000
0.0000000000000000 1.0000000000000000 0.0000000000000000
0.0000000000000000 1.0000000000000000 0.0000000000000000
0.0000000000000000 1.0000000000000000 0.0000000000000000
0.0000000000000000 1.0000000000000000 0.0000000000000000
0.0000000000000000 1.0000000000000000 0.0000000000000000
0.0000000000000000 1.0000000000000000 0.0000000000000000
0.0000000000000000 1.0000000000000000 0.0000000000000000
0.0000000000000000 1.0000000000000000 0.0000000000000000
0.0000000000000000 1.0000000000000000 0.0000000000000000
0.0000000000000000 1.0000000000000000 0.0000000000000000
0.0000000000000000 1.0000000000000000 0.0000000000000000
0.0000000000000000 1.0000000000000000 0.0000000000000000
0.0000000000000000 1.0000000000000000 0.0000000000000000
0.0000000000000000 1.0000000000000000 0.0000000000000000
0.0000000000000000 1.0000000000000000 0.0000000000000000
0.0000000000000000 1.0000000000000000 0.0000000000000000
0.0000000000000000 1.0000000000000000 0.0000000000000000
0.0000000000000000 1.0000000000000000 0.0000000000000000
0.0000000000000000 1.0000000000000000 0.0000000000000000
0.0000000000000000 1.0000000000000000 0.0000000000000000
0.0000000000000000 1.0000000000000000 0.0000000000000000
0.0000000000000000 1.0000000000000000 0.0000000000000000
0.0000000000000000 1.0000000000000000 0.0000000000000000
0.0000000000000000 1.0000000000000000 0.0000000000000000
0.0000000000000000 1.0000000000000000 0.0000000000000000
0.0000000000000000 1.0000000000000000 0.0000000000000000
0.0000000000000000 1.0000000000000000 0.0000000000000000
0.0000000000000000 1.0000000000000000 0.0000000000000000
0.0000000000000000 1.0000000000000000 0.0000000000000000
0.0000000000000000 1.0000000000000000 0.0000000000000000
0.0000000000000000 1.0000000000000000 0.0000000000000000
0.0000000000000000 1.0000000000000000 0.0000000000000000
0.0000000000000000 1.0000000000000000 0.0000000000000000
0.0000000000000000 1.0000000000000000 0.0000000000000000
0.0000000000000000 1.0000000000000000 0.0000000000000000
0.0000000000000000 1.0000000000000000 0.0000000000000000
0.0000000000000000 1.0000000000000000 0.0000000000000000
0.0000000000000000 1.0000000000000000 0.0000000000000000
0.0000000000000000 1.0000000000000000 0.0000000000000000
0.0000000000000000 1.0000000000000000 0.0000000000000000
0.0000000000000000 1.0000000000000000 0.0000000000000000
0.0000000000000000 1.0000000000000000 0.0000000000000000
0.0000000000000000 1.0000000000000000 0.0000000000000000
0.0000000000000000 1.0000000000000000 0.0000000000000000
0.0000000000000000 1.0000000000000000 0.0000000000000000
0.0000000000000000 1.0000000000000000 0.0000000000000000
0.0000000000000000 1.0000000000000000 0.0000000000000000
0.0000000000000000 1.0000000000000000 0.0000000000000000
0.0000000000000000 1.0000000000000000 0.0000000000000000
0.0000000000000000 1.0000000000000000 0.0000000000000000
0.0000000000000000 1.0000000000000000 0.0000000000000000
0.0000000000000000 1.0000000000000000 0.0000000000000000
0.0000000000000000 1.0000000000000000 0.0000000000000000
0.0000000000000000 1.0000000000000000 0.0000000000000000
0.0000000000000000 1.0000000000000000 0.0000000000000000
0.0000000000000000 1.0000000000000000 0.0000000000000000
0.0000000000000000 1.0000000000000000 0.0000000000000000
0.0000000000000000 1.0000000000000000 0.0000000000000000
0.0000000000000000 1.0000000000000000 0.0000000000000000
0.0000000000000000 1.0000000000000000 0.0000000000000000
0.0000000000000000 1.0000000000000000 0.0000000000000000
0.0000000000000000 1.0000000000000000 0.0000000000000000
0.0000000000000000 1.0000000000000000 0.0000000000000000
0.0000000000000000 1.0000000000000000 0.0000000000000000
0.0000000000000000 1.0000000000000000 0.0000000000000000
0.0000000000000000 1.0000000000000000 0.0000000000000000
0.0000000000000000 1.0000000000000000 0.0000000000000000
0.0000000000000000 1.0000000000000000 0.0000000000000000
0.0000000000000000 1.0000000000000000 0.0000000000000000
0.0000000000000000 1.0000000000000000 0.0000000000000000
0.0000000000000000 1.0000000000000000 0.0000000000000000
0.0000000000000000 1.0000000000000000 0.0000000000000000
0.0000000000000000 1.0000000000000000 0.0000000000000000
0.0000000000000000 1.0000000000000000 0.0000000000000000
0.0000000000000000 1.0000000000000000 0.0000000000000000
0.0000000000000000 1.0000000000000000 0.0000000000000000
0.0000000000000000 1.0000000000000000 0.0000000000000000
0.0000000000000000 1.0000000000000000 0.0000000000000000
0.0000000000000000 1.0000000000000000 0.0000000000000000
0.0000000000000000 1.0000000000000000 0.0000000000000000
0.0000000000000000 1.0000000000000000 0.0000000000000000
0.0000000000000000 1.0000000000000000 0.0000000000000000
0.0000000000000000 1.0000000000000000 0.0000000000000000
0.0000000000000000 1.0000000000000000 0.0000000000000000
0.0000000000000000 1.0000000000000000 0.0000000000000000
0.0000000000000000 1.0000000000000000 0.0000000000000000
0.0000000000000000 1.0000000000000000 0.0000000000000000
0.0000000000000000 1.0000000000000000 0.0000000000000000
0.0000000000000000 1.0000000000000000 0.0000000000000000
0.0000000000000000 1.0000000000000000 0.0000000000000000
0.0000000000000000 1.0000000000000000 0.0000000000000000
0.0000000000000000 1.0000000000000000 0.0000000000000000
0.0000000000000000 1.0000000000000000 0.0000000000000000
0.0000000000000000 1.0000000000000000 0.0000000000000000
0.0000000000000000 1.0000000000000000 0.0000000000000000
0.0000000000000000 1.0000000000000000 0.0000000000000000
0.0000000000000000 1.0000000000000000 0.0000000000000000
0.0000000000000000 1.0000000000000000 0.0000000000000000
0.0000000000000000 1.0000000000000000 0.0000000000000000
0.0000000000000000 1.0000000000000000 0.0000000000000000
0.0000000000000000 1.0000000000000000 0.0000000000000000
0.0000000000000000 1.0000000000000000 0.0000000000000000
0.0000000000000000 1.0000000000000000 0.0000000000000000
0.0000000000000000 1.0000000000000000 0.0000000000000000
0.0000000000000000 1.0000000000000000 0.0000000000000000
0.0000000000000000 1.0000000000000000 0.0000000000000000
0.0000000000000000 1.0000000000000000 0.0000000000000000
0.0000000000000000 1.0000000000000000 0.0000000000000000
0.0000000000000000 1.0000000000000000 0.0000000000000000
0.0000000000000000 1.0000000000000000 0.0000000000000000
0.0000000000000000 1.0000000000000000 0.0000000000000000
0.0000000000000000 1.0000000000000000 0.0000000000000000
0.0000000000000000 1.0000000000000000 0.0000000000000000
0.0000000000000000 1.0000000000000000 0.0000000000000000
0.0000000000000000 1.0000000000000000 0.0000000000000000
0.0000000000000000 1.0000000000000000 0.0000000000000000
0.0000000000000000 1.0000000000000000 0.0000000000000000
0.0000000000000000 1.0000000000000000 0.0000000000000000
0.0000000000000000 1.0000000000000000 0.0000000000000000
0.0000000000000000 1.0000000000000000 0.0000000000000000
0.0000000000000000 1.0000000000000000 0.0000000000000000
0.0000000000000000 1.0000000000000000 0.0000000000000000
0.0000000000000000 1.0000000000000000 0.0000000000000000
0.0000000000000000 1.0000000000000000 0.0000000000000000
0.0000000000000000 1.0000000000000000 0.0000000000000000
0.0000000000000000 1.0000000000000000 0.0000000000000000
0.0000000000000000 1.0000000000000000 0.0000000000000000
0.0000000000000000 1.0000000000000000 0.0000000000000000
0.0000000000000000 1.0000000000000000 0.0000000000000000
0.0000000000000000 1.0000000000000000 0.0000000000000000
0.0000000000000000 1.0000000000000000 0.0000000000000000
0.0000000000000000 1.0000000000000000 0.0000000000000000
0.0000000000000000 1.0000000000000000 0.0000000000000000
0.0000000000000000 1.0000000000000000 0.0000000000000000
0.0000000000000000 1.0000000000000000 0.0000000000000000
0.0000000000000000 1.0000000000000000 0.0000000000000000
0.0000000000000000 1.0000000000000000 0.0000000000000000
0.0000000000000000 1.0000000000000000 0.0000000000000000
0.0000000000000000 1.0000000000000000 0.0000000000000000
0.0000000000000000 1.0000000000000000 0.0000000000000000
0.0000000000000000 1.0000000000000000 0.0000000000000000
0.0000000000000000 1.0000000000000000 0.0000000000000000
0.0000000000000000 1.0000000000000000 0.0000000000000000
0.0000000000000000 1.0000000000000000 0.0000000000000000
0.0000000000000000 1.0000000000000000 0.0000000000000000
0.0000000000000000 1.0000000000000000 0.0000000000000000
0.0000000000000000 1.0000000000000000 0.0000000000000000
0.0000000000000000 1.0000000000000000 0.0000000000000000
0.0000000000000000 1.0000000000000000 0.0000000000000000
0.0000000000000000 1.0000000000000000 0.0000000000000000
0.0000000000000000 1.0000000000000000 0.0000000000000000
0.0000000000000000 1.0000000000000000 0.0000000000000000
0.0000000000000000 1.0000000000000000 0.0000000000000000
0.0000000000000000 1.0000000000000000 0.0000000000000000
0.0000000000000000 1.0000000000000000 0.0000000000000000
0.0000000000000000 1.0000000000000000 0.0000000000000000
0.0000000000000000 1.0000000000000000 0.0000000000000000
0.0000000000000000 1.0000000000000000 0.0000000000000000
0.0000000000000000 1.0000000000000000 0.0000000000000000
0.0000000000000000 1.0000000000000000 0.0000000000000000
0.0000000000000000 1.0000000000000000 0.0000000000000000
0.0000000000000000 1.0000000000000000 0.0000000000000000
0.0000000000000000 1.0000000000000000 0.0000000000000000
0.0000000000000000 1.0000000000000000 0.0000000000000000
0.0000000000000000 1.0000000000000000 0.0000000000000000
0.0000000000000000 1.0000000000000000 0.0000000000000000
0.0000000000000000 1.0000000000000000 0.0000000000000000
0.0000000000000000 1.0000000000000000 0.0000000000000000
0.0000000000000000 1.0000000000000000 0.0000000000000000
0.0000000000000000 1.0000000000000000 0.0000000000000000
0.0000000000000000 1.0000000000000000 0.0000000000000000
0.0000000000000000 1.0000000000000000 0.0000000000000000
0.0000000000000000 1.0000000000000000 0.0000000000000000
0.0000000000000000 1.0000000000000000 0.0000000000000000
0.0000000000000000 1.0000000000000000 0.0000000000000000
0.0000000000000000 1.0000000000000000 0.0000000000000000
0.0000000000000000 1.0000000000000000 0.0000000000000000
0.0000000000000000 1.0000000000000000 0.0000000000000000
0.0000000000000000 1.0000000000000000 0.0000000000000000
0.0000000000000000 1.0000000000000000 0.0000000000000000
0.0000000000000000 1.0000000000000000 0.0000000000000000
0.0000000000000000 1.0000000000000000 0.0000000000000000
0.0000000000000000 1.0000000000000000 0.0000000000000000
0.0000000000000000 1.0000000000000000 0.0000000000000000
0.0000000000000000 1.0000000000000000 0.0000000000000000
0.0000000000000000 1.0000000000000000 0.0000000000000000
0.0000000000000000 1.0000000000000000 0.0000000000000000
0.0000000000000000 1.0000000000000000 0.0000000000000000
0.0000000000000000 1.0000000000000000 0.0000000000000000
0.0000000000000000 1.0000000000000000 0.0000000000000000
0.0000000000000000 1.0000000000000000 0.0000000000000000
0.0000000000000000 1.0000000000000000 0.0000000000000000
0.0000000000000000 1.0000000000000000 0.0000000000000000
0.0000000000000000 1.0000000000000000 0.0000000000000000
0.0000000000000000 1.0000000000000000 0.0000000000000000
0.0000000000000000 1.0000000000000000 0.0000000000000000
0.0000000000000000 1.0000000000000000 0.0000000000000000
0.0000000000000000 1.0000000000000000 0.0000000000000000
0.0000000000000000 1.0000000000000000 0.0000000000000000
0.0000000000000000 1.0000000000000000 0.0000000000000000
0.0000000000000000 1.0000000000000000 0.0000000000000000
0.0000000000000000 1.0000000000000000 0.0000000000000000
0.0000000000000000 1.0000000000000000 0.0000000000000000
0.0000000000000000 1.0000000000000000 0.0000000000000000
0.0000000000000000 1.0000000000000000 0.0000000000000000
0.0000000000000000 1.0000000000000000 0.0000000000000000
0.0000000000000000 1.0000000000000000 0.0000000000000000
0.0000000000000000 1.0000000000000000 0.0000000000000000
0.0000000000000000 1.0000000000000000 0.0000000000000000
0.0000000000000000 1.0000000000000000 0.0000000000000000
0.0000000000000000 1.0000000000000000 0.0000000000000000
0.0000000000000000 1.0000000000000000 0.0000000000000000
0.0000000000000000 1.0000000000000000 0.0000000000000000
0.0000000000000000 1.0000000000000000 0.0000000000000000
0.0000000000000000 1.0000000000000000 0.0000000000000000
0.0000000000000000 1.0000000000000000 0.0000000000000000
0.0000000000000000 1.0000000000000000 0.0000000000000000
0.0000000000000000 1.0000000000000000 0.0000000000000000
0.0000000000000000 1.0000000000000000 0.0000000000000000
0.0000000000000000 1.0000000000000000 0.0000000000000000
0.0000000000000000 1.0000000000000000 0.0000000000000000
0.0000000000000000 1.0000000000000000 0.0000000000000000
0.0000000000000000 1.0000000000000000 0.0000000000000000
0.0000000000000000 1.0000000000000000 0.0000000000000000
0.0000000000000000 1.0000000000000000 0.0000000000000000
0.0000000000000000 1.0000000000000000 0.0000000000000000
0.0000000000000000 1.0000000000000000 0.0000000000000000
0.0000000000000000 1.0000000000000000 0.0000000000000000
0.0000000000000000 1.0000000000000000 0.0000000000000000
0.0000000000000000 1.0000000000000000 0.0000000000000000
0.0000000000000000 1.0000000000000000 0.0000000000000000
0.0000000000000000 1.0000000000000000 0.0000000000000000
0.0000000000000000 1.0000000000000000 0.0000000000000000
0.0000000000000000 1.0000000000000000 0.0000000000000000
0.0000000000000000 1.0000000000000000 0.0000000000000000
0.0000000000000000 1.0000000000000000 0.0000000000000000
0.0000000000000000 1.0000000000000000 0.0000000000000000
0.0000000000000000 1.0000000000000000 0.0000000000000000
0.0000000000000000 1.0000000000000000 0.0000000000000000
0.0000000000000000 1.0000000000000000 0.0000000000000000
0.0000000000000000 1.0000000000000000 0.0000000000000000
0.0000000000000000 1.0000000000000000 0.0000000000000000
0.0000000000000000 1.0000000000000000 0.0000000000000000
0.0000000000000000 1.0000000000000000 0.0000000000000000
0.0000000000000000 1.0000000000000000 0.0000000000000000
0.0000000000000000 1.0000000000000000 0.0000000000000000
0.0000000000000000 1.0000000000000000 0.0000000000000000
0.0000000000000000 1.0000000000000000 0.0000000000000000
0.0000000000000000 1.0000000000000000 0.0000000000000000
0.0000000000000000 1.0000000000000000 0.0000000000000000
0.0000000000000000 1.0000000000000000 0.0000000000000000
0.0000000000000000 1.0000000000000000 0.0000000000000000
0.0000000000000000 1.0000000000000000 0.0000000000000000
0.0000000000000000 1.0000000000000000 0.0000000000000000
0.0000000000000000 1.0000000000000000 0.0000000000000000
0.0000000000000000 1.0000000000000000 0.0000000000000000
0.0000000000000000 1.0000000000000000 0.0000000000000000
0.0000000000000000 1.0000000000000000 0.0000000000000000
0.0000000000000000 1.0000000000000000 0.0000000000000000
0.0000000000000000 1.0000000000000000 0.0000000000000000
0.0000000000000000 1.0000000000000000 0.0000000000000000
0.0000000000000000 1.0000000000000000 0.0000000000000000
0.0000000000000000 1.0000000000000000 0.0000000000000000
0.0000000000000000 1.0000000000000000 0.0000000000000000
0.0000000000000000 1.0000000000000000 0.0000000000000000
0.0000000000000000 1.0000000000000000 0.0000000000000000
0.0000000000000000 1.0000000000000000 0.0000000000000000
0.0000000000000000 1.0000000000000000 0.0000000000000000
0.0000000000000000 1.0000000000000000 0.0000000000000000
0.0000000000000000 1.0000000000000000 0.0000000000000000
0.0000000000000000 1.0000000000000000 0.0000000000000000
0.0000000000000000 1.0000000000000000 0.0000000000000000
0.0000000000000000 1.0000000000000000 0.0000000000000000
0.0000000000000000 1.0000000000000000 0.0000000000000000
0.0000000000000000 1.0000000000000000 0.0000000000000000
0.0000000000000000 1.0000000000000000 0.0000000000000000
0.0000000000000000 1.0000000000000000 0.0000000000000000
0.0000000000000000 1.0000000000000000 0.0000000000000000
0.0000000000000000 1.0000000000000000 0.0000000000000000
0.0000000000000000 1.0000000000000000 0.0000000000000000
0.0000000000000000 1.0000000000000000 0.0000000000000000
0.0000000000000000 1.0000000000000000 0.0000000000000000
0.0000000000000000 1.0000000000000000 0.0000000000000000
0.0000000000000000 1.0000000000000000 0.0000000000000000
0.0000000000000000 1.0000000000000000 0.0000000000000000
0.0000000000000000 1.0000000000000000 0.0000000000000000
0.0000000000000000 1.0000000000000000 0.0000000000000000
0.0000000000000000 1.0000000000000000 0.0000000000000000
0.0000000000000000 1.0000000000000000 0.0000000000000000
0.0000000000000000 1.0000000000000000 0.0000000000000000
0.0000000000000000 1.0000000000000000 0.0000000000000000
0.0000000000000000 1.0000000000000000 0.0000000000000000
0.0000000000000000 1.0000000000000000 0.0000000000000000
0.0000000000000000 1.0000000000000000 0.0000000000000000
0.0000000000000000 1.0000000000000000 0.0000000000000000
0.0000000000000000 1.0000000000000000 0.0000000000000000
0.0000000000000000 1.0000000000000000 0.0000000000000000
0.0000000000000000 1.0000000000000000 0.0000000000000000
0.0000000000000000 1.0000000000000000 0.0000000000000000
0.0000000000000000 1.0000000000000000 0.0000000000000000
0.0000000000000000 1.0000000000000000 0.0000000000000000
0.0000000000000000 1.0000000000000000 0.0000000000000000
0.0000000000000000 1.0000000000000000 0.0000000000000000
0.0000000000000000 1.0000000000000000 0.0000000000000000
0.0000000000000000 1.0000000000000000 0.0000000000000000
0.0000000000000000 1.0000000000000000 0.0000000000000000
0.0000000000000000 1.0000000000000000 0.0000000000000000
0.0000000000000000 1.0000000000000000 0.0000000000000000
0.0000000000000000 1.0000000000000000 0.0000000000000000
0.0000000000000000 1.0000000000000000 0.0000000000000000
0.0000000000000000 1.0000000000000000 0.0000000000000000
0.0000000000000000 1.0000000000000000 0.0000000000000000
0.0000000000000000 1.0000000000000000 0.0000000000000000
0.0000000000000000 1.0000000000000000 0.0000000000000000
0.0000000000000000 1.0000000000000000 0.0000000000000000
0.0000000000000000 1.0000000000000000 0.0000000000000000
0.0000000000000000 1.0000000000000000 0.0000000000000000
0.0000000000000000 1.0000000000000000 0.0000000000000000
0.0000000000000000 1.0000000000000000 0.0000000000000000
0.0000000000000000 1.0000000000000000 0.0000000000000000
0.0000000000000000 1.0000000000000000 0.0000000000000000
0.0000000000000000 1.0000000000000000 0.0000000000000000
0.0000000000000000 1.0000000000000000 0.0000000000000000
0.0000000000000000 1.0000000000000000 0.0000000000000000
0.0000000000000000 1.0000000000000000 0.0000000000000000
0.0000000000000000 1.0000000000000000 0.0000000000000000
0.0000000000000000 1.0000000000000000 0.0000000000000000
0.0000000000000000 1.0000000000000000 0.0000000000000000
0.0000000000000000 1.0000000000000000 0.0000000000000000
0.0000000000000000 1.0000000000000000 0.0000000000000000
0.0000000000000000 1.0000000000000000 0.0000000000000000
0.0000000000000000 1.0000000000000000 0.0000000000000000
0.0000000000000000 1.0000000000000000 0.0000000000000000
0.0000000000000000 1.0000000000000000 0.0000000000000000
0.0000000000000000 1.0000000000000000 0.0000000000000000
0.0000000000000000 1.0000000000000000 0.0000000000000000
0.0000000000000000 1.0000000000000000 0.0000000000000000
0.0000000000000000 1.0000000000000000 0.0000000000000000
0.0000000000000000 1.0000000000000000 0.0000000000000000
0.0000000000000000 1.0000000000000000 0.0000000000000000
0.0000000000000000 1.0000000000000000 0.0000000000000000
0.0000000000000000 1.0000000000000000 0.0000000000000000
0.0000000000000000 1.0000000000000000 0.0000000000000000
0.0000000000000000 1.0000000000000000 0.0000000000000000
0.0000000000000000 1.0000000000000000 0.0000000000000000
0.0000000000000000 1.0000000000000000 0.0000000000000000
0.0000000000000000 1.0000000000000000 0.0000000000000000
0.0000000000000000 1.0000000000000000 0.0000000000000000
0.0000000000000000 1.0000000000000000 0.0000000000000000
0.0000000000000000 1.0000000000000000 0.0000000000000000
0.0000000000000000 1.0000000000000000 0.0000000000000000
0.0000000000000000 1.0000000000000000 0.0000000000000000
0.0000000000000000 1.0000000000000000 0.0000000000000000
0.0000000000000000 1.0000000000000000 0.0000000000000000
0.0000000000000000 1.0000000000000000 0.0000000000000000
0.0000000000000000 1.0000000000000000 0.0000000000000000
0.0000000000000000 1.0000000000000000 0.0000000000000000
0.0000000000000000 1.0000000000000000 0.0000000000000000
0.0000000000000000 1.0000000000000000 0.0000000000000000
0.0000000000000000 1.0000000000000000 0.0000000000000000
0.0000000000000000 1.0000000000000000 0.0000000000000000
0.0000000000000000 1.0000000000000000 0.0000000000000000
0.0000000000000000 1.0000000000000000 0.0000000000000000
0.0000000000000000 1.0000000000000000 0.0000000000000000
0.0000000000000000 1.0000000000000000 0.0000000000000000
0.0000000000000000 1.0000000000000000 0.0000000000000000
0.0000000000000000 1.0000000000000000 0.0000000000000000
0.0000000000000000 1.0000000000000000 0.0000000000000000
0.0000000000000000 1.0000000000000000 0.0000000000000000
0.0000000000000000 1.0000000000000000 0.0000000000000000
0.0000000000000000 1.0000000000000000 0.0000000000000000
0.0000000000000000 1.0000000000000000 0.0000000000000000
0.0000000000000000 1.0000000000000000 0.0000000000000000
0.0000000000000000 1.0000000000000000 0.0000000000000000
0.0000000000000000 1.0000000000000000 0.0000000000000000
0.0000000000000000 1.0000000000000000 0.0000000000000000
0.0000000000000000 1.0000000000000000 0.0000000000000000
0.0000000000000000 1.0000000000000000 0.0000000000000000
0.0000000000000000 1.0000000000000000 0.0000000000000000
0.0000000000000000 1.0000000000000000 0.0000000000000000
0.0000000000000000 1.0000000000000000 0.0000000000000000
0.0000000000000000 1.0000000000000000 0.0000000000000000
0.0000000000000000 1.0000000000000000 0.0000000000000000
0.0000000000000000 1.0000000000000000 0.0000000000000000
0.0000000000000000 1.0000000000000000 0.0000000000000000
0.0000000000000000 1.0000000000000000 0.0000000000000000
0.0000000000000000 1.0000000000000000 0.0000000000000000
0.0000000000000000 1.0000000000000000 0.0000000000000000
0.0000000000000000 1.0000000000000000 0.0000000000000000
0.0000000000000000 1.0000000000000000 0.0000000000000000
0.0000000000000000 1.0000000000000000 0.0000000000000000
0.0000000000000000 1.0000000000000000 0.0000000000000000
0.0000000000000000 1.0000000000000000 0.0000000000000000
0.0000000000000000 1.0000000000000000 0.0000000000000000
0.0000000000000000 1.0000000000000000 0.0000000000000000
0.0000000000000000 1.0000000000000000 0.0000000000000000
0.0000000000000000 1.0000000000000000 0.0000000000000000
0.0000000000000000 1.0000000000000000 0.0000000000000000
0.0000000000000000 1.0000000000000000 0.0000000000000000
0.0000000000000000 1.0000000000000000 0.0000000000000000
0.0000000000000000 1.0000000000000000 0.0000000000000000
0.0000000000000000 1.0000000000000000 0.0000000000000000
0.0000000000000000 1.0000000000000000 0.0000000000000000
0.0000000000000000 1.0000000000000000 0.0000000000000000
0.0000000000000000 1.0000000000000000 0.0000000000000000
0.0000000000000000 1.0000000000000000 0.0000000000000000
0.0000000000000000 1.0000000000000000 0.0000000000000000
0.0000000000000000 1.0000000000000000 0.0000000000000000
0.0000000000000000 1.0000000000000000 0.0000000000000000
0.0000000000000000 1.0000000000000000 0.0000000000000000
0.0000000000000000 1.0000000000000000 0.0000000000000000
0.0000000000000000 1.0000000000000000 0.0000000000000000
0.0000000000000000 1.0000000000000000 0.0000000000000000
0.0000000000000000 1.0000000000000000 0.0000000000000000
0.0000000000000000 1.0000000000000000 0.0000000000000000
0.0000000000000000 1.0000000000000000 0.0000000000000000
0.0000000000000000 1.0000000000000000 0.0000000000000000
0.0000000000000000 1.0000000000000000 0.0000000000000000
0.0000000000000000 1.0000000000000000 0.0000000000000000
0.0000000000000000 1.0000000000000000 0.0000000000000000
0.0000000000000000 1.0000000000000000 0.0000000000000000
0.0000000000000000 1.0000000000000000 0.0000000000000000
0.0000000000000000 1.0000000000000000 0.0000000000000000
0.0000000000000000 1.0000000000000000 0.0000000000000000
0.0000000000000000 1.0000000000000000 0.0000000000000000
0.0000000000000000 1.0000000000000000 0.0000000000000000
0.0000000000000000 1.0000000000000000 0.0000000000000000
0.0000000000000000 1.0000000000000000 0.0000000000000000
0.0000000000000000 1.0000000000000000 0.0000000000000000
0.0000000000000000 1.0000000000000000 0.0000000000000000
0.0000000000000000 1.0000000000000000 0.0000000000000000
0.0000000000000000 1.0000000000000000 0.0000000000000000
0.0000000000000000 1.0000000000000000 0.0000000000000000
0.0000000000000000 1.0000000000000000 0.0000000000000000
0.0000000000000000 1.0000000000000000 0.0000000000000000
0.0000000000000000 1.0000000000000000 0.0000000000000000
0.0000000000000000 1.0000000000000000 0.0000000000000000
0.0000000000000000 1.0000000000000000 0.0000000000000000
0.0000000000000000 1.0000000000000000 0.0000000000000000
0.0000000000000000 1.0000000000000000 0.0000000000000000
0.0000000000000000 1.0000000000000000 0.0000000000000000
0.0000000000000000 1.0000000000000000 0.0000000000000000
0.0000000000000000 1.0000000000000000 0.0000000000000000
0.0000000000000000 1.0000000000000000 0.0000000000000000
0.0000000000000000 1.0000000000000000 0.0000000000000000
0.0000000000000000 1.0000000000000000 0.0000000000000000
0.0000000000000000 1.0000000000000000 0.0000000000000000
0.0000000000000000 1.0000000000000000 0.0000000000000000
0.0000000000000000 1.0000000000000000 0.0000000000000000
0.0000000000000000 1.0000000000000000 0.0000000000000000
0.0000000000000000 1.0000000000000000 0.0000000000000000
0.0000000000000000 1.0000000000000000 0.0000000000000000
0.0000000000000000 1.0000000000000000 0.0000000000000000
0.0000000000000000 1.0000000000000000 0.0000000000000000
0.0000000000000000 1.0000000000000000 0.0000000000000000
0.0000000000000000 1.0000000000000000 0.0000000000000000
0.0000000000000000 1.0000000000000000 0.0000000000000000
0.0000000000000000 1.0000000000000000 0.0000000000000000
0.0000000000000000 1.0000000000000000 0.0000000000000000
0.0000000000000000 1.0000000000000000 0.0000000000000000
0.0000000000000000 1.0000000000000000 0.0000000000000000
0.0000000000000000 1.0000000000000000 0.0000000000000000
0.0000000000000000 1.0000000000000000 0.0000000000000000
0.0000000000000000 1.0000000000000000 0.0000000000000000
0.0000000000000000 1.0000000000000000 0.0000000000000000
0.0000000000000000 1.0000000000000000 0.0000000000000000
0.0000000000000000 1.0000000000000000 0.0000000000000000
0.0000000000000000 1.0000000000000000 0.0000000000000000
0.0000000000000000 1.0000000000000000 0.0000000000000000
0.0000000000000000 1.0000000000000000 0.0000000000000000
0.0000000000000000 1.0000000000000000 0.0000000000000000
0.0000000000000000 1.0000000000000000 0.0000000000000000
0.0000000000000000 1.0000000000000000 0.0000000000000000
0.0000000000000000 1.0000000000000000 0.0000000000000000
0.0000000000000000 1.0000000000000000 0.0000000000000000
0.0000000000000000 1.0000000000000000 0.0000000000000000
0.0000000000000000 1.0000000000000000 0.0000000000000000
0.0000000000000000 1.0000000000000000 0.0000000000000000
0.0000000000000000 1.0000000000000000 0.0000000000000000
0.0000000000000000 1.0000000000000000 0.0000000000000000
0.0000000000000000 1.0000000000000000 0.0000000000000000
0.0000000000000000 1.0000000000000000 0.0000000000000000
0.0000000000000000 1.0000000000000000 0.0000000000000000
0.0000000000000000 1.0000000000000000 0.0000000000000000
0.0000000000000000 1.0000000000000000 0.0000000000000000
0.0000000000000000 1.0000000000000000 0.0000000000000000
0.0000000000000000 1.0000000000000000 0.0000000000000000
0.0000000000000000 1.0000000000000000 0.0000000000000000
0.0000000000000000 1.0000000000000000 0.0000000000000000
0.0000000000000000 1.0000000000000000 0.0000000000000000
0.0000000000000000 1.0000000000000000 0.0000000000000000
0.0000000000000000 1.0000000000000000 0.0000000000000000
0.0000000000000000 1.0000000000000000 0.0000000000000000
0.0000000000000000 1.0000000000000000 0.0000000000000000
0.0000000000000000 1.0000000000000000 0.0000000000000000
0.0000000000000000 1.0000000000000000 0.0000000000000000
0.0000000000000000 1.0000000000000000 0.0000000000000000
0.0000000000000000 1.0000000000000000 0.0000000000000000
0.0000000000000000 1.0000000000000000 0.0000000000000000
0.0000000000000000 1.0000000000000000 0.0000000000000000
0.0000000000000000 1.0000000000000000 0.0000000000000000
0.0000000000000000 1.0000000000000000 0.0000000000000000
0.0000000000000000 1.0000000000000000 0.0000000000000000
0.0000000000000000 1.0000000000000000 0.0000000000000000
0.0000000000000000 1.0000000000000000 0.0000000000000000
0.0000000000000000 1.0000000000000000 0.0000000000000000
0.0000000000000000 1.0000000000000000 0.0000000000000000
0.0000000000000000 1.0000000000000000 0.0000000000000000
0.0000000000000000 1.0000000000000000 0.0000000000000000
0.0000000000000000 1.0000000000000000 0.0000000000000000
0.0000000000000000 1.0000000000000000 0.0000000000000000
0.0000000000000000 1.0000000000000000 0.0000000000000000
0.0000000000000000 1.0000000000000000 0.0000000000000000
0.0000000000000000 1.0000000000000000 0.0000000000000000
0.0000000000000000 1.0000000000000000 0.0000000000000000
0.0000000000000000 1.0000000000000000 0.0000000000000000
0.0000000000000000 1.0000000000000000 0.0000000000000000
0.0000000000000000 1.0000000000000000 0.0000000000000000
0.0000000000000000 1.0000000000000000 0.0000000000000000
0.0000000000000000 1.0000000000000000 0.0000000000000000
0.0000000000000000 1.0000000000000000 0.0000000000000000
0.0000000000000000 1.0000000000000000 0.0000000000000000
0.0000000000000000 1.0000000000000000 0.0000000000000000
0.0000000000000000 1.0000000000000000 0.0000000000000000
0.0000000000000000 1.0000000000000000 0.0000000000000000
0.0000000000000000 1.0000000000000000 0.0000000000000000
0.0000000000000000 1.0000000000000000 0.0000000000000000
0.0000000000000000 1.0000000000000000 0.0000000000000000
0.0000000000000000 1.0000000000000000 0.0000000000000000
0.0000000000000000 1.0000000000000000 0.0000000000000000
0.0000000000000000 1.0000000000000000 0.0000000000000000
0.0000000000000000 1.0000000000000000 0.0000000000000000
0.0000000000000000 1.0000000000000000 0.0000000000000000
0.0000000000000000 1.0000000000000000 0.0000000000000000
0.0000000000000000 1.0000000000000000 0.0000000000000000
0.0000000000000000 1.0000000000000000 0.0000000000000000
0.0000000000000000 1.0000000000000000 0.0000000000000000
0.0000000000000000 1.0000000000000000 0.0000000000000000
0.0000000000000000 1.0000000000000000 0.0000000000000000
0.0000000000000000 1.0000000000000000 0.0000000000000000
0.0000000000000000 1.0000000000000000 0.0000000000000000
0.0000000000000000 1.0000000000000000 0.0000000000000000
0.0000000000000000 1.0000000000000000 0.0000000000000000
0.0000000000000000 1.0000000000000000 0.0000000000000000
0.0000000000000000 1.0000000000000000 0.0000000000000000
0.0000000000000000 1.0000000000000000 0.0000000000000000
0.0000000000000000 1.0000000000000000 0.0000000000000000
0.0000000000000000 1.0000000000000000 0.0000000000000000
0.0000000000000000 1.0000000000000000 0.0000000000000000
0.0000000000000000 1.0000000000000000 0.0000000000000000
0.0000000000000000 1.0000000000000000 0.0000000000000000
0.0000000000000000 1.0000000000000000 0.0000000000000000
0.0000000000000000 1.0000000000000000 0.0000000000000000
0.0000000000000000 1.0000000000000000 0.0000000000000000
0.0000000000000000 1.0000000000000000 0.0000000000000000
0.0000000000000000 1.0000000000000000 0.0000000000000000
0.0000000000000000 1.0000000000000000 0.0000000000000000
0.0000000000000000 1.0000000000000000 0.0000000000000000
0.0000000000000000 1.0000000000000000 0.0000000000000000
0.0000000000000000 1.0000000000000000 0.0000000000000000
0.0000000000000000 1.0000000000000000 0.0000000000000000
0.0000000000000000 1.0000000000000000 0.0000000000000000
0.0000000000000000 1.0000000000000000 0.0000000000000000
0.0000000000000000 1.0000000000000000 0.0000000000000000
0.0000000000000000 1.0000000000000000 0.0000000000000000
0.0000000000000000 1.0000000000000000 0.0000000000000000
0.0000000000000000 1.0000000000000000 0.0000000000000000
0.0000000000000000 1.0000000000000000 0.0000000000000000
0.0000000000000000 1.0000000000000000 0.0000000000000000
0.0000000000000000 1.0000000000000000 0.0000000000000000
0.0000000000000000 1.0000000000000000 0.0000000000000000
0.0000000000000000 1.0000000000000000 0.0000000000000000
0.0000000000000000 1.0000000000000000 0.0000000000000000
0.0000000000000000 1.0000000000000000 0.0000000000000000
0.0000000000000000 1.0000000000000000 0.0000000000000000
0.0000000000000000 1.0000000000000000 0.0000000000000000
0.0000000000000000 1.0000000000000000 0.0000000000000000
0.0000000000000000 1.0000000000000000 0.0000000000000000
0.0000000000000000 1.0000000000000000 0.0000000000000000
0.0000000000000000 1.0000000000000000 0.0000000000000000
0.0000000000000000 1.0000000000000000 0.0000000000000000
0.0000000000000000 1.0000000000000000 0.0000000000000000
0.0000000000000000 1.0000000000000000 0.0000000000000000
0.0000000000000000 1.0000000000000000 0.0000000000000000
0.0000000000000000 1.0000000000000000 0.0000000000000000
0.0000000000000000 1.0000000000000000 0.0000000000000000
0.0000000000000000 1.0000000000000000 0.0000000000000000
0.0000000000000000 1.0000000000000000 0.0000000000000000
0.0000000000000000 1.0000000000000000 0.0000000000000000
0.0000000000000000 1.0000000000000000 0.0000000000000000
0.0000000000000000 1.0000000000000000 0.0000000000000000
0.0000000000000000 1.0000000000000000 0.0000000000000000
0.0000000000000000 1.0000000000000000 0.0000000000000000
0.0000000000000000 1.0000000000000000 0.0000000000000000
0.0000000000000000 1.0000000000000000 0.0000000000000000
0.0000000000000000 1.0000000000000000 0.0000000000000000
0.0000000000000000 1.0000000000000000 0.0000000000000000
0.0000000000000000 1.0000000000000000 0.0000000000000000
0.0000000000000000 1.0000000000000000 0.0000000000000000
0.0000000000000000 1.0000000000000000 0.0000000000000000
0.0000000000000000 1.0000000000000000 0.0000000000000000
0.0000000000000000 1.0000000000000000 0.0000000000000000
0.0000000000000000 1.0000000000000000 0.0000000000000000
0.0000000000000000 1.0000000000000000 0.0000000000000000
0.0000000000000000 1.0000000000000000 0.0000000000000000
0.0000000000000000 1.0000000000000000 0.0000000000000000
0.0000000000000000 1.0000000000000000 0.0000000000000000
0.0000000000000000 1.0000000000000000 0.0000000000000000
0.0000000000000000 1.0000000000000000 0.0000000000000000
0.0000000000000000 1.0000000000000000 0.0000000000000000
0.0000000000000000 1.0000000000000000 0.0000000000000000
0.0000000000000000 1.0000000000000000 0.0000000000000000
0.0000000000000000 1.0000000000000000 0.0000000000000000
0.0000000000000000 1.0000000000000000 0.0000000000000000
0.0000000000000000 1.0000000000000000 0.0000000000000000
0.0000000000000000 1.0000000000000000 0.0000000000000000
0.0000000000000000 1.0000000000000000 0.0000000000000000
0.0000000000000000 1.0000000000000000 0.0000000000000000
0.0000000000000000 1.0000000000000000 0.0000000000000000
0.0000000000000000 1.0000000000000000 0.0000000000000000
0.0000000000000000 1.0000000000000000 0.0000000000000000
0.0000000000000000 1.0000000000000000 0.0000000000000000
0.0000000000000000 1.0000000000000000 0.0000000000000000
0.0000000000000000 1.0000000000000000 0.0000000000000000
0.0000000000000000 1.0000000000000000 0.0000000000000000
0.0000000000000000 1.0000000000000000 0.0000000000000000
0.0000000000000000 1.0000000000000000 0.0000000000000000
0.0000000000000000 1.0000000000000000 0.0000000000000000
0.0000000000000000 1.0000000000000000 0.0000000000000000
0.0000000000000000 1.0000000000000000 0.0000000000000000
0.0000000000000000 1.0000000000000000 0.0000000000000000
0.0000000000000000 1.0000000000000000 0.0000000000000000
0.0000000000000000 1.0000000000000000 0.0000000000000000
0.0000000000000000 1.0000000000000000 0.0000000000000000
0.0000000000000000 1.0000000000000000 0.0000000000000000
0.0000000000000000 1.0000000000000000 0.0000000000000000
0.0000000000000000 1.0000000000000000 0.0000000000000000
0.0000000000000000 1.0000000000000000 0.0000000000000000
0.0000000000000000 1.0000000000000000 0.0000000000000000
0.0000000000000000 1.0000000000000000 0.0000000000000000
0.0000000000000000 1.0000000000000000 0.0000000000000000
0.0000000000000000 1.0000000000000000 0.0000000000000000
0.0000000000000000 1.0000000000000000 0.0000000000000000
0.0000000000000000 1.0000000000000000 0.0000000000000000
0.0000000000000000 1.0000000000000000 0.0000000000000000
0.0000000000000000 1.0000000000000000 0.0000000000000000
0.0000000000000000 1.0000000000000000 0.0000000000000000
0.0000000000000000 1.0000000000000000 0.0000000000000000
0.0000000000000000 1.0000000000000000 0.0000000000000000
0.0000000000000000 1.0000000000000000 0.0000000000000000
0.0000000000000000 1.0000000000000000 0.0000000000000000
0.0000000000000000 1.0000000000000000 0.0000000000000000
0.0000000000000000 1.0000000000000000 0.0000000000000000
0.0000000000000000 1.0000000000000000 0.0000000000000000
0.0000000000000000 1.0000000000000000 0.0000000000000000
0.0000000000000000 1.0000000000000000 0.0000000000000000
0.0000000000000000 1.0000000000000000 0.0000000000000000
0.0000000000000000 1.0000000000000000 0.0000000000000000
0.0000000000000000 1.0000000000000000 0.0000000000000000
0.0000000000000000 1.0000000000000000 0.0000000000000000
0.0000000000000000 1.0000000000000000 0.0000000000000000
0.0000000000000000 1.0000000000000000 0.0000000000000000
0.0000000000000000 1.0000000000000000 0.0000000000000000
0.0000000000000000 1.0000000000000000 0.0000000000000000
0.0000000000000000 1.0000000000000000 0.0000000000000000
0.0000000000000000 1.0000000000000000 0.0000000000000000
0.0000000000000000 1.0000000000000000 0.0000000000000000
0.0000000000000000 1.0000000000000000 0.0000000000000000
0.0000000000000000 1.0000000000000000 0.0000000000000000
0.0000000000000000 1.0000000000000000 0.0000000000000000
0.0000000000000000 1.0000000000000000 0.0000000000000000
0.0000000000000000 1.0000000000000000 0.0000000000000000
0.0000000000000000 1.0000000000000000 0.0000000000000000
0.0000000000000000 1.0000000000000000 0.0000000000000000
0.0000000000000000 1.0000000000000000 0.0000000000000000
0.0000000000000000 1.0000000000000000 0.0000000000000000
0.0000000000000000 1.0000000000000000 0.0000000000000000
0.0000000000000000 1.0000000000000000 0.0000000000000000
0.0000000000000000 1.0000000000000000 0.0000000000000000
0.0000000000000000 1.0000000000000000 0.0000000000000000
0.0000000000000000 1.0000000000000000 0.0000000000000000
0.0000000000000000 1.0000000000000000 0.0000000000000000
0.0000000000000000 1.0000000000000000 0.0000000000000000
0.0000000000000000 1.0000000000000000 0.0000000000000000
0.0000000000000000 1.0000000000000000 0.0000000000000000
0.0000000000000000 1.0000000000000000 0.0000000000000000
0.0000000000000000 1.0000000000000000 0.0000000000000000
0.0000000000000000 1.0000000000000000 0.0000000000000000
0.0000000000000000 1.0000000000000000 0.0000000000000000
0.0000000000000000 1.0000000000000000 0.0000000000000000
0.0000000000000000 1.0000000000000000 0.0000000000000000
0.0000000000000000 1.0000000000000000 0.0000000000000000
0.0000000000000000 1.0000000000000000 0.0000000000000000
0.0000000000000000 1.0000000000000000 0.0000000000000000
0.0000000000000000 1.0000000000000000 0.0000000000000000
0.0000000000000000 1.0000000000000000 0.0000000000000000
0.0000000000000000 1.0000000000000000 0.0000000000000000
0.0000000000000000 1.0000000000000000 0.0000000000000000
0.0000000000000000 1.0000000000000000 0.0000000000000000
0.0000000000000000 1.0000000000000000 0.0000000000000000
0.0000000000000000 1.0000000000000000 0.0000000000000000
0.0000000000000000 1.0000000000000000 0.0000000000000000
0.0000000000000000 1.0000000000000000 0.0000000000000000
0.0000000000000000 1.0000000000000000 0.0000000000000000
0.0000000000000000 1.0000000000000000 0.0000000000000000
0.0000000000000000 1.0000000000000000 0.0000000000000000
0.0000000000000000 1.0000000000000000 0.0000000000000000
0.0000000000000000 1.0000000000000000 0.0000000000000000
0.0000000000000000 1.0000000000000000 0.0000000000000000
0.0000000000000000 1.0000000000000000 0.0000000000000000
0.0000000000000000 1.0000000000000000 0.0000000000000000
0.0000000000000000 1.0000000000000000 0.0000000000000000
0.0000000000000000 1.0000000000000000 0.0000000000000000
0.0000000000000000 1.0000000000000000 0.0000000000000000
0.0000000000000000 1.0000000000000000 0.0000000000000000
0.0000000000000000 1.0000000000000000 0.0000000000000000
0.0000000000000000 1.0000000000000000 0.0000000000000000
0.0000000000000000 1.0000000000000000 0.0000000000000000
0.0000000000000000 1.0000000000000000 0.0000000000000000
0.0000000000000000 1.0000000000000000 0.0000000000000000
0.0000000000000000 1.0000000000000000 0.0000000000000000
0.0000000000000000 1.0000000000000000 0.0000000000000000
0.0000000000000000 1.0000000000000000 0.0000000000000000
0.0000000000000000 1.0000000000000000 0.0000000000000000
0.0000000000000000 1.0000000000000000 0.0000000000000000
0.0000000000000000 1.0000000000000000 0.0000000000000000
0.0000000000000000 1.0000000000000000 0.0000000000000000
0.0000000000000000 1.0000000000000000 0.0000000000000000
0.0000000000000000 1.0000000000000000 0.0000000000000000
0.0000000000000000 1.0000000000000000 0.0000000000000000
0.0000000000000000 1.0000000000000000 0.0000000000000000
0.0000000000000000 1.0000000000000000 0.0000000000000000
0.0000000000000000 1.0000000000000000 0.0000000000000000
0.0000000000000000 1.0000000000000000 0.0000000000000000
0.0000000000000000 1.0000000000000000 0.0000000000000000
0.0000000000000000 1.0000000000000000 0.0000000000000000
0.0000000000000000 1.0000000000000000 0.0000000000000000
0.0000000000000000 1.0000000000000000 0.0000000000000000
0.0000000000000000 1.0000000000000000 0.0000000000000000
0.0000000000000000 1.0000000000000000 0.0000000000000000
0.0000000000000000 1.0000000000000000 0.0000000000000000
0.0000000000000000 1.0000000000000000 0.0000000000000000
0.0000000000000000 1.0000000000000000 0.0000000000000000
0.0000000000000000 1.0000000000000000 0.0000000000000000
0.0000000000000000 1.0000000000000000 0.0000000000000000
0.0000000000000000 1.0000000000000000 0.0000000000000000
0.0000000000000000 1.0000000000000000 0.0000000000000000
0.0000000000000000 1.0000000000000000 0.0000000000000000
0.0000000000000000 1.0000000000000000 0.0000000000000000
0.0000000000000000 1.0000000000000000 0.0000000000000000
0.0000000000000000 1.0000000000000000 0.0000000000000000
0.0000000000000000 1.0000000000000000 0.0000000000000000
0.0000000000000000 1.0000000000000000 0.0000000000000000
0.0000000000000000 1.0000000000000000 0.0000000000000000
0.0000000000000000 1.0000000000000000 0.0000000000000000
0.0000000000000000 1.0000000000000000 0.0000000000000000
0.0000000000000000 1.0000000000000000 0.0000000000000000
0.0000000000000000 1.0000000000000000 0.0000000000000000
0.0000000000000000 1.0000000000000000 0.0000000000000000
0.0000000000000000 1.0000000000000000 0.0000000000000000
0.0000000000000000 1.0000000000000000 0.0000000000000000
0.0000000000000000 1.0000000000000000 0.0000000000000000
0.0000000000000000 1.0000000000000000 0.0000000000000000
0.0000000000000000 1.0000000000000000 0.0000000000000000
0.0000000000000000 1.0000000000000000 0.0000000000000000
0.0000000000000000 1.0000000000000000 0.0000000000000000
0.0000000000000000 1.0000000000000000 0.0000000000000000
0.0000000000000000 1.0000000000000000 0.0000000000000000
0.0000000000000000 1.0000000000000000 0.0000000000000000
0.0000000000000000 1.0000000000000000 0.0000000000000000
0.0000000000000000 1.0000000000000000 0.0000000000000000
0.0000000000000000 1.0000000000000000 0.0000000000000000
0.0000000000000000 1.0000000000000000 0.0000000000000000
0.0000000000000000 1.0000000000000000 0.0000000000000000
0.0000000000000000 1.0000000000000000 0.0000000000000000
0.0000000000000000 1.0000000000000000 0.0000000000000000
0.0000000000000000 1.0000000000000000 0.0000000000000000
0.0000000000000000 1.0000000000000000 0.0000000000000000
0.0000000000000000 1.0000000000000000 0.0000000000000000
0.0000000000000000 1.0000000000000000 0.0000000000000000
0.0000000000000000 1.0000000000000000 0.0000000000000000
0.0000000000000000 1.0000000000000000 0.0000000000000000
0.0000000000000000 1.0000000000000000 0.0000000000000000
0.0000000000000000 1.0000000000000000 0.0000000000000000
0.0000000000000000 1.0000000000000000 0.0000000000000000
0.0000000000000000 1.0000000000000000 0.0000000000000000
0.0000000000000000 1.0000000000000000 0.0000000000000000
0.0000000000000000 1.0000000000000000 0.0000000000000000
0.0000000000000000 1.0000000000000000 0.0000000000000000
0.0000000000000000 1.0000000000000000 0.0000000000000000
0.0000000000000000 1.0000000000000000 0.0000000000000000
0.0000000000000000 1.0000000000000000 0.0000000000000000
0.0000000000000000 1.0000000000000000 0.0000000000000000
0.0000000000000000 1.0000000000000000 0.0000000000000000
0.0000000000000000 1.0000000000000000 0.0000000000000000
0.0000000000000000 1.0000000000000000 0.0000000000000000
0.0000000000000000 1.0000000000000000 0.0000000000000000
0.0000000000000000 1.0000000000000000 0.0000000000000000
0.0000000000000000 1.0000000000000000 0.0000000000000000
0.0000000000000000 1.0000000000000000 0.0000000000000000
0.0000000000000000 1.0000000000000000 0.0000000000000000
0.0000000000000000 1.0000000000000000 0.0000000000000000
0.0000000000000000 1.0000000000000000 0.0000000000000000
0.0000000000000000 1.0000000000000000 0.0000000000000000
0.0000000000000000 1.0000000000000000 0.0000000000000000
0.0000000000000000 1.0000000000000000 0.0000000000000000
0.0000000000000000 1.0000000000000000 0.0000000000000000
0.0000000000000000 1.0000000000000000 0.0000000000000000
0.0000000000000000 1.0000000000000000 0.0000000000000000
0.0000000000000000 1.0000000000000000 0.0000000000000000
0.0000000000000000 1.0000000000000000 0.0000000000000000
0.0000000000000000 1.0000000000000000 0.0000000000000000
0.0000000000000000 1.0000000000000000 0.0000000000000000
0.0000000000000000 1.0000000000000000 0.0000000000000000
0.0000000000000000 1.0000000000000000 0.0000000000000000
0.0000000000000000 1.0000000000000000 0.0000000000000000
0.0000000000000000 1.0000000000000000 0.0000000000000000
0.0000000000000000 1.0000000000000000 0.0000000000000000
0.0000000000000000 1.0000000000000000 0.0000000000000000
0.0000000000000000 1.0000000000000000 0.0000000000000000
0.0000000000000000 1.0000000000000000 0.0000000000000000
0.0000000000000000 1.0000000000000000 0.0000000000000000
0.0000000000000000 1.0000000000000000 0.0000000000000000
0.0000000000000000 1.0000000000000000 0.0000000000000000
0.0000000000000000 1.0000000000000000 0.0000000000000000
0.0000000000000000 1.0000000000000000 0.0000000000000000
0.0000000000000000 1.0000000000000000 0.0000000000000000
0.0000000000000000 1.0000000000000000 0.0000000000000000
0.0000000000000000 1.0000000000000000 0.0000000000000000
0.0000000000000000 1.0000000000000000 0.0000000000000000
0.0000000000000000 1.0000000000000000 0.0000000000000000
0.0000000000000000 1.0000000000000000 0.0000000000000000
0.0000000000000000 1.0000000000000000 0.0000000000000000
0.0000000000000000 1.0000000000000000 0.0000000000000000
0.0000000000000000 1.0000000000000000 0.0000000000000000
0.0000000000000000 1.0000000000000000 0.0000000000000000
0.0000000000000000 1.0000000000000000 0.0000000000000000
0.0000000000000000 1.0000000000000000 0.0000000000000000
0.0000000000000000 1.0000000000000000 0.0000000000000000
0.0000000000000000 1.0000000000000000 0.0000000000000000
0.0000000000000000 1.0000000000000000 0.0000000000000000
0.0000000000000000 1.0000000000000000 0.0000000000000000
0.0000000000000000 1.0000000000000000 0.0000000000000000
0.0000000000000000 1.0000000000000000 0.0000000000000000
0.0000000000000000 1.0000000000000000 0.0000000000000000
0.0000000000000000 1.0000000000000000 0.0000000000000000
0.0000000000000000 1.0000000000000000 0.0000000000000000
0.0000000000000000 1.0000000000000000 0.0000000000000000
0.0000000000000000 1.0000000000000000 0.0000000000000000
0.0000000000000000 1.0000000000000000 0.0000000000000000
0.0000000000000000 1.0000000000000000 0.0000000000000000
0.0000000000000000 1.0000000000000000 0.0000000000000000
0.0000000000000000 1.0000000000000000 0.0000000000000000
0.0000000000000000 1.0000000000000000 0.0000000000000000
0.0000000000000000 1.0000000000000000 0.0000000000000000
0.0000000000000000 1.0000000000000000 0.0000000000000000
0.0000000000000000 1.0000000000000000 0.0000000000000000
0.0000000000000000 1.0000000000000000 0.0000000000000000
0.0000000000000000 1.0000000000000000 0.0000000000000000
0.0000000000000000 1.0000000000000000 0.0000000000000000
0.0000000000000000 1.0000000000000000 0.0000000000000000
0.0000000000000000 1.0000000000000000 0.0000000000000000
0.0000000000000000 1.0000000000000000 0.0000000000000000
0.0000000000000000 1.0000000000000000 0.0000000000000000
0.0000000000000000 1.0000000000000000 0.0000000000000000
0.0000000000000000 1.0000000000000000 0.0000000000000000
0.0000000000000000 1.0000000000000000 0.0000000000000000
0.0000000000000000 1.0000000000000000 0.0000000000000000
0.0000000000000000 1.0000000000000000 0.0000000000000000
0.0000000000000000 1.0000000000000000 0.0000000000000000
0.0000000000000000 1.0000000000000000 0.0000000000000000
0.0000000000000000 1.0000000000000000 0.0000000000000000
0.0000000000000000 1.0000000000000000 0.0000000000000000
0.0000000000000000 1.0000000000000000 0.0000000000000000
0.0000000000000000 1.0000000000000000 0.0000000000000000
0.0000000000000000 1.0000000000000000 0.0000000000000000
0.0000000000000000 1.0000000000000000 0.0000000000000000
0.0000000000000000 1.0000000000000000 0.0000000000000000
0.0000000000000000 1.0000000000000000 0.0000000000000000
0.0000000000000000 1.0000000000000000 0.0000000000000000
0.0000000000000000 1.0000000000000000 0.0000000000000000
0.0000000000000000 1.0000000000000000 0.0000000000000000
0.0000000000000000 1.0000000000000000 0.0000000000000000
0.0000000000000000 1.0000000000000000 0.0000000000000000
0.0000000000000000 1.0000000000000000 0.0000000000000000
0.0000000000000000 1.0000000000000000 0.0000000000000000
0.0000000000000000 1.0000000000000000 0.0000000000000000
0.0000000000000000 1.0000000000000000 0.0000000000000000
0.0000000000000000 1.0000000000000000 0.0000000000000000
0.0000000000000000 1.0000000000000000 0.0000000000000000
0.0000000000000000 1.0000000000000000 0.0000000000000000
0.0000000000000000 1.0000000000000000 0.0000000000000000
0.0000000000000000 1.0000000000000000 0.0000000000000000
0.0000000000000000 1.0000000000000000 0.0000000000000000
0.0000000000000000 1.0000000000000000 0.0000000000000000
0.0000000000000000 1.0000000000000000 0.0000000000000000
0.0000000000000000 1.0000000000000000 0.0000000000000000
0.0000000000000000 1.0000000000000000 0.0000000000000000
0.0000000000000000 1.0000000000000000 0.0000000000000000
0.0000000000000000 1.0000000000000000 0.0000000000000000
0.0000000000000000 1.0000000000000000 0.0000000000000000
0.0000000000000000 1.0000000000000000 0.0000000000000000
0.0000000000000000 1.0000000000000000 0.0000000000000000
0.0000000000000000 1.0000000000000000 0.0000000000000000
0.0000000000000000 1.0000000000000000 0.0000000000000000
0.0000000000000000 1.0000000000000000 0.0000000000000000
0.0000000000000000 1.0000000000000000 0.0000000000000000
0.0000000000000000 1.0000000000000000 0.0000000000000000
0.0000000000000000 1.0000000000000000 0.0000000000000000
0.0000000000000000 1.0000000000000000 0.0000000000000000
0.0000000000000000 1.0000000000000000 0.0000000000000000
0.0000000000000000 1.0000000000000000 0.0000000000000000
0.0000000000000000 1.0000000000000000 0.0000000000000000
0.0000000000000000 1.0000000000000000 0.0000000000000000
0.0000000000000000 1.0000000000000000 0.0000000000000000
0.0000000000000000 1.0000000000000000 0.0000000000000000
0.0000000000000000 1.0000000000000000 0.0000000000000000
0.0000000000000000 1.0000000000000000 0.0000000000000000
0.0000000000000000 1.0000000000000000 0.0000000000000000
0.0000000000000000 1.0000000000000000 0.0000000000000000
0.0000000000000000 1.0000000000000000 0.0000000000000000
0.0000000000000000 1.0000000000000000 0.0000000000000000
0.0000000000000000 1.0000000000000000 0.0000000000000000
0.0000000000000000 1.0000000000000000 0.0000000000000000
0.0000000000000000 1.0000000000000000 0.0000000000000000
0.0000000000000000 1.0000000000000000 0.0000000000000000
0.0000000000000000 1.0000000000000000 0.0000000000000000
0.0000000000000000 1.0000000000000000 0.0000000000000000
0.0000000000000000 1.0000000000000000 0.0000000000000000
0.0000000000000000 1.0000000000000000 0.0000000000000000
0.0000000000000000 1.0000000000000000 0.0000000000000000
0.0000000000000000 1.0000000000000000 0.0000000000000000
0.0000000000000000 1.0000000000000000 0.0000000000000000
0.0000000000000000 1.0000000000000000 0.0000000000000000
0.0000000000000000 1.0000000000000000 0.0000000000000000
0.0000000000000000 1.0000000000000000 0.0000000000000000
0.0000000000000000 1.0000000000000000 0.0000000000000000
0.0000000000000000 1.0000000000000000 0.0000000000000000
0.0000000000000000 1.0000000000000000 0.0000000000000000
0.0000000000000000 1.0000000000000000 0.0000000000000000
0.0000000000000000 1.0000000000000000 0.0000000000000000
0.0000000000000000 1.0000000000000000 0.0000000000000000
0.0000000000000000 1.0000000000000000 0.0000000000000000
0.0000000000000000 1.0000000000000000 0.0000000000000000
0.0000000000000000 1.0000000000000000 0.0000000000000000
0.0000000000000000 1.0000000000000000 0.0000000000000000
0.0000000000000000 1.0000000000000000 0.0000000000000000
0.0000000000000000 1.0000000000000000 0.0000000000000000
0.0000000000000000 1.0000000000000000 0.0000000000000000
0.0000000000000000 1.0000000000000000 0.0000000000000000
0.0000000000000000 1.0000000000000000 0.0000000000000000
0.0000000000000000 1.0000000000000000 0.0000000000000000
0.0000000000000000 1.0000000000000000 0.0000000000000000
0.0000000000000000 1.0000000000000000 0.0000000000000000
0.0000000000000000 1.0000000000000000 0.0000000000000000
0.0000000000000000 1.0000000000000000 0.0000000000000000
0.0000000000000000 1.0000000000000000 0.0000000000000000
0.0000000000000000 1.0000000000000000 0.0000000000000000
0.0000000000000000 1.0000000000000000 0.0000000000000000
0.0000000000000000 1.0000000000000000 0.0000000000000000
0.0000000000000000 1.0000000000000000 0.0000000000000000
0.0000000000000000 1.0000000000000000 0.0000000000000000
0.0000000000000000 1.0000000000000000 0.0000000000000000
0.0000000000000000 1.0000000000000000 0.0000000000000000
0.0000000000000000 1.0000000000000000 0.0000000000000000
0.0000000000000000 1.0000000000000000 0.0000000000000000
0.0000000000000000 1.0000000000000000 0.0000000000000000
0.0000000000000000 1.0000000000000000 0.0000000000000000
0.0000000000000000 1.0000000000000000 0.0000000000000000
0.0000000000000000 1.0000000000000000 0.0000000000000000
0.0000000000000000 1.0000000000000000 0.0000000000000000
0.0000000000000000 1.0000000000000000 0.0000000000000000
0.0000000000000000 1.0000000000000000 0.0000000000000000
0.0000000000000000 1.0000000000000000 0.0000000000000000
0.0000000000000000 1.0000000000000000 0.0000000000000000
0.0000000000000000 1.0000000000000000 0.0000000000000000
0.0000000000000000 1.0000000000000000 0.0000000000000000
0.0000000000000000 1.0000000000000000 0.0000000000000000
0.0000000000000000 1.0000000000000000 0.0000000000000000
0.0000000000000000 1.0000000000000000 0.0000000000000000
0.0000000000000000 1.0000000000000000 0.0000000000000000
0.0000000000000000 1.0000000000000000 0.0000000000000000
0.0000000000000000 1.0000000000000000 0.0000000000000000
0.0000000000000000 1.0000000000000000 0.0000000000000000
0.0000000000000000 1.0000000000000000 0.0000000000000000
0.0000000000000000 1.0000000000000000 0.0000000000000000
0.0000000000000000 1.0000000000000000 0.0000000000000000
0.0000000000000000 1.0000000000000000 0.0000000000000000
0.0000000000000000 1.0000000000000000 0.0000000000000000
0.0000000000000000 1.0000000000000000 0.0000000000000000
0.0000000000000000 1.0000000000000000 0.0000000000000000
0.0000000000000000 1.0000000000000000 0.0000000000000000
0.0000000000000000 1.0000000000000000 0.0000000000000000
0.0000000000000000 1.0000000000000000 0.0000000000000000
0.0000000000000000 1.0000000000000000 0.0000000000000000
0.0000000000000000 1.0000000000000000 0.0000000000000000
0.0000000000000000 1.0000000000000000 0.0000000000000000
0.0000000000000000 1.0000000000000000 0.0000000000000000
0.0000000000000000 1.0000000000000000 0.0000000000000000
0.0000000000000000 1.0000000000000000 0.0000000000000000
0.0000000000000000 1.0000000000000000 0.0000000000000000
0.0000000000000000 1.0000000000000000 0.0000000000000000
0.0000000000000000 1.0000000000000000 0.0000000000000000
0.0000000000000000 1.0000000000000000 0.0000000000000000
0.0000000000000000 1.0000000000000000 0.0000000000000000
0.0000000000000000 1.0000000000000000 0.0000000000000000
0.0000000000000000 1.0000000000000000 0.0000000000000000
0.0000000000000000 1.0000000000000000 0.0000000000000000
0.0000000000000000 1.0000000000000000 0.0000000000000000
0.0000000000000000 1.0000000000000000 0.0000000000000000
0.0000000000000000 1.0000000000000000 0.0000000000000000
0.0000000000000000 1.0000000000000000 0.0000000000000000
0.0000000000000000 1.0000000000000000 0.0000000000000000
0.0000000000000000 1.0000000000000000 0.0000000000000000
0.0000000000000000 1.0000000000000000 0.0000000000000000
0.0000000000000000 1.0000000000000000 0.0000000000000000
0.0000000000000000 1.0000000000000000 0.0000000000000000
0.0000000000000000 1.0000000000000000 0.0000000000000000
0.0000000000000000 1.0000000000000000 0.0000000000000000
0.0000000000000000 1.0000000000000000 0.0000000000000000
0.0000000000000000 1.0000000000000000 0.0000000000000000
0.0000000000000000 1.0000000000000000 0.0000000000000000
0.0000000000000000 1.0000000000000000 0.0000000000000000
0.0000000000000000 1.0000000000000000 0.0000000000000000
0.0000000000000000 1.0000000000000000 0.0000000000000000
0.0000000000000000 1.0000000000000000 0.0000000000000000
0.0000000000000000 1.0000000000000000 0.0000000000000000
0.0000000000000000 1.0000000000000000 0.0000000000000000
0.0000000000000000 1.0000000000000000 0.0000000000000000
0.0000000000000000 1.0000000000000000 0.0000000000000000
0.0000000000000000 1.0000000000000000 0.0000000000000000
0.0000000000000000 1.0000000000000000 0.0000000000000000
0.0000000000000000 1.0000000000000000 0.0000000000000000
0.0000000000000000 1.0000000000000000 0.0000000000000000
0.0000000000000000 1.0000000000000000 0.0000000000000000
0.0000000000000000 1.0000000000000000 0.0000000000000000
0.0000000000000000 1.0000000000000000 0.0000000000000000
0.0000000000000000 1.0000000000000000 0.0000000000000000
0.0000000000000000 1.0000000000000000 0.0000000000000000
0.0000000000000000 1.0000000000000000 0.0000000000000000
0.0000000000000000 1.0000000000000000 0.0000000000000000
0.0000000000000000 1.0000000000000000 0.0000000000000000
0.0000000000000000 1.0000000000000000 0.0000000000000000
0.0000000000000000 1.0000000000000000 0.0000000000000000
0.0000000000000000 1.0000000000000000 0.0000000000000000
0.0000000000000000 1.0000000000000000 0.0000000000000000
0.0000000000000000 1.0000000000000000 0.0000000000000000
0.0000000000000000 1.0000000000000000 0.0000000000000000
0.0000000000000000 1.0000000000000000 0.0000000000000000
0.0000000000000000 1.0000000000000000 0.0000000000000000
0.0000000000000000 1.0000000000000000 0.0000000000000000
0.0000000000000000 1.0000000000000000 0.0000000000000000
0.0000000000000000 1.0000000000000000 0.0000000000000000
0.0000000000000000 1.0000000000000000 0.0000000000000000
0.0000000000000000 1.0000000000000000 0.0000000000000000
0.0000000000000000 1.0000000000000000 0.0000000000000000
0.0000000000000000 1.0000000000000000 0.0000000000000000
0.0000000000000000 1.0000000000000000 0.0000000000000000
0.0000000000000000 1.0000000000000000 0.0000000000000000
0.0000000000000000 1.0000000000000000 0.0000000000000000
0.0000000000000000 1.0000000000000000 0.0000000000000000
0.0000000000000000 1.0000000000000000 0.0000000000000000
0.0000000000000000 1.0000000000000000 0.0000000000000000
0.0000000000000000 1.0000000000000000 0.0000000000000000
0.0000000000000000 1.0000000000000000 0.0000000000000000
0.0000000000000000 1.0000000000000000 0.0000000000000000
0.0000000000000000 1.0000000000000000 0.0000000000000000
0.0000000000000000 1.0000000000000000 0.0000000000000000
0.0000000000000000 1.0000000000000000 0.0000000000000000
0.0000000000000000 1.0000000000000000 0.0000000000000000
0.0000000000000000 1.0000000000000000 0.0000000000000000
0.0000000000000000 1.0000000000000000 0.0000000000000000
0.0000000000000000 1.0000000000000000 0.0000000000000000
0.0000000000000000 1.0000000000000000 0.0000000000000000
0.0000000000000000 1.0000000000000000 0.0000000000000000
0.0000000000000000 1.0000000000000000 0.0000000000000000
0.0000000000000000 1.0000000000000000 0.0000000000000000
0.0000000000000000 1.0000000000000000 0.0000000000000000
0.0000000000000000 1.0000000000000000 0.0000000000000000
0.0000000000000000 1.0000000000000000 0.0000000000000000
0.0000000000000000 1.0000000000000000 0.0000000000000000
0.0000000000000000 1.0000000000000000 0.0000000000000000
0.0000000000000000 1.0000000000000000 0.0000000000000000
0.0000000000000000 1.0000000000000000 0.0000000000000000
0.0000000000000000 1.0000000000000000 0.0000000000000000
0.0000000000000000 1.0000000000000000 0.0000000000000000
0.0000000000000000 1.0000000000000000 0.0000000000000000
0.0000000000000000 1.0000000000000000 0.0000000000000000
0.0000000000000000 1.0000000000000000 0.0000000000000000
0.0000000000000000 1.0000000000000000 0.0000000000000000
0.0000000000000000 1.0000000000000000 0.0000000000000000
0.0000000000000000 1.0000000000000000 0.0000000000000000
0.0000000000000000 1.0000000000000000 0.0000000000000000
0.0000000000000000 1.0000000000000000 0.0000000000000000
0.0000000000000000 1.0000000000000000 0.0000000000000000
0.0000000000000000 1.0000000000000000 0.0000000000000000
0.0000000000000000 1.0000000000000000 0.0000000000000000
0.0000000000000000 1.0000000000000000 0.0000000000000000
0.0000000000000000 1.0000000000000000 0.0000000000000000
0.0000000000000000 1.0000000000000000 0.0000000000000000
0.0000000000000000 1.0000000000000000 0.0000000000000000
0.0000000000000000 1.0000000000000000 0.0000000000000000
0.0000000000000000 1.0000000000000000 0.0000000000000000
0.0000000000000000 1.0000000000000000 0.0000000000000000
0.0000000000000000 1.0000000000000000 0.0000000000000000
0.0000000000000000 1.0000000000000000 0.0000000000000000
0.0000000000000000 1.0000000000000000 0.0000000000000000
0.0000000000000000 1.0000000000000000 0.0000000000000000
0.0000000000000000 1.0000000000000000 0.0000000000000000
0.0000000000000000 1.0000000000000000 0.0000000000000000
0.0000000000000000 1.0000000000000000 0.0000000000000000
0.0000000000000000 1.0000000000000000 0.0000000000000000
0.0000000000000000 1.0000000000000000 0.0000000000000000
0.0000000000000000 1.0000000000000000 0.0000000000000000
0.0000000000000000 1.0000000000000000 0.0000000000000000
0.0000000000000000 1.0000000000000000 0.0000000000000000
0.0000000000000000 1.0000000000000000 0.0000000000000000
0.0000000000000000 1.0000000000000000 0.0000000000000000
0.0000000000000000 1.0000000000000000 0.0000000000000000
0.0000000000000000 1.0000000000000000 0.0000000000000000
0.0000000000000000 1.0000000000000000 0.0000000000000000
0.0000000000000000 1.0000000000000000 0.0000000000000000
0.0000000000000000 1.0000000000000000 0.0000000000000000
0.0000000000000000 1.0000000000000000 0.0000000000000000
0.0000000000000000 1.0000000000000000 0.0000000000000000
0.0000000000000000 1.0000000000000000 0.0000000000000000
0.0000000000000000 1.0000000000000000 0.0000000000000000
0.0000000000000000 1.0000000000000000 0.0000000000000000
0.0000000000000000 1.0000000000000000 0.0000000000000000
0.0000000000000000 1.0000000000000000 0.0000000000000000
0.0000000000000000 1.0000000000000000 0.0000000000000000
0.0000000000000000 1.0000000000000000 0.0000000000000000
0.0000000000000000 1.0000000000000000 0.0000000000000000
0.0000000000000000 1.0000000000000000 0.0000000000000000
0.0000000000000000 1.0000000000000000 0.0000000000000000
0.0000000000000000 1.0000000000000000 0.0000000000000000
0.0000000000000000 1.0000000000000000 0.0000000000000000
0.0000000000000000 1.0000000000000000 0.0000000000000000
0.0000000000000000 1.0000000000000000 0.0000000000000000
0.0000000000000000 1.0000000000000000 0.0000000000000000
0.0000000000000000 1.0000000000000000 0.0000000000000000
0.0000000000000000 1.0000000000000000 0.0000000000000000
0.0000000000000000 1.0000000000000000 0.0000000000000000
0.0000000000000000 1.0000000000000000 0.0000000000000000
0.0000000000000000 1.0000000000000000 0.0000000000000000
0.0000000000000000 1.0000000000000000 0.0000000000000000
0.0000000000000000 1.0000000000000000 0.0000000000000000
0.0000000000000000 1.0000000000000000 0.0000000000000000
0.0000000000000000 1.0000000000000000 0.0000000000000000
0.0000000000000000 1.0000000000000000 0.0000000000000000
0.0000000000000000 1.0000000000000000 0.0000000000000000
0.0000000000000000 1.0000000000000000 0.0000000000000000
0.0000000000000000 1.0000000000000000 0.0000000000000000
0.0000000000000000 1.0000000000000000 0.0000000000000000
0.0000000000000000 1.0000000000000000 0.0000000000000000
0.0000000000000000 1.0000000000000000 0.0000000000000000
0.0000000000000000 1.0000000000000000 0.0000000000000000
0.0000000000000000 1.0000000000000000 0.0000000000000000
0.0000000000000000 1.0000000000000000 0.0000000000000000
0.0000000000000000 1.0000000000000000 0.0000000000000000
0.0000000000000000 1.0000000000000000 0.0000000000000000
0.0000000000000000 1.0000000000000000 0.0000000000000000
0.0000000000000000 1.0000000000000000 0.0000000000000000
0.0000000000000000 1.0000000000000000 0.0000000000000000
0.0000000000000000 1.0000000000000000 0.0000000000000000
0.0000000000000000 1.0000000000000000 0.0000000000000000
0.0000000000000000 1.0000000000000000 0.0000000000000000
0.0000000000000000 1.0000000000000000 0.0000000000000000
0.0000000000000000 1.0000000000000000 0.0000000000000000
0.0000000000000000 1.0000000000000000 0.0000000000000000
0.0000000000000000 1.0000000000000000 0.0000000000000000
0.0000000000000000 1.0000000000000000 0.0000000000000000
0.0000000000000000 1.0000000000000000 0.0000000000000000
0.0000000000000000 1.0000000000000000 0.0000000000000000
0.0000000000000000 1.0000000000000000 0.0000000000000000
0.0000000000000000 1.0000000000000000 0.0000000000000000
0.0000000000000000 1.0000000000000000 0.0000000000000000
0.0000000000000000 1.0000000000000000 0.0000000000000000
0.0000000000000000 1.0000000000000000 0.0000000000000000
0.0000000000000000 1.0000000000000000 0.0000000000000000
0.0000000000000000 1.0000000000000000 0.0000000000000000
0.0000000000000000 1.0000000000000000 0.0000000000000000
0.0000000000000000 1.0000000000000000 0.0000000000000000
0.0000000000000000 1.0000000000000000 0.0000000000000000
0.0000000000000000 1.0000000000000000 0.0000000000000000
0.0000000000000000 1.0000000000000000 0.0000000000000000
0.0000000000000000 1.0000000000000000 0.0000000000000000
0.0000000000000000 1.0000000000000000 0.0000000000000000
0.0000000000000000 1.0000000000000000 0.0000000000000000
0.0000000000000000 1.0000000000000000 0.0000000000000000
0.0000000000000000 1.0000000000000000 0.0000000000000000
0.0000000000000000 1.0000000000000000 0.0000000000000000
0.0000000000000000 1.0000000000000000 0.0000000000000000
0.0000000000000000 1.0000000000000000 0.0000000000000000
0.0000000000000000 1.0000000000000000 0.0000000000000000
0.0000000000000000 1.0000000000000000 0.0000000000000000
0.0000000000000000 1.0000000000000000 0.0000000000000000
0.0000000000000000 1.0000000000000000 0.0000000000000000
0.0000000000000000 1.0000000000000000 0.0000000000000000
0.0000000000000000 1.0000000000000000 0.0000000000000000
0.0000000000000000 1.0000000000000000 0.0000000000000000
0.0000000000000000 1.0000000000000000 0.0000000000000000
0.0000000000000000 1.0000000000000000 0.0000000000000000
0.0000000000000000 1.0000000000000000 0.0000000000000000
0.0000000000000000 1.0000000000000000 0.0000000000000000
0.0000000000000000 1.0000000000000000 0.0000000000000000
0.0000000000000000 1.0000000000000000 0.0000000000000000
0.0000000000000000 1.0000000000000000 0.0000000000000000
0.0000000000000000 1.0000000000000000 0.0000000000000000
0.0000000000000000 1.0000000000000000 0.0000000000000000
0.0000000000000000 1.0000000000000000 0.0000000000000000
0.0000000000000000 1.0000000000000000 0.0000000000000000
0.0000000000000000 1.0000000000000000 0.0000000000000000
0.0000000000000000 1.0000000000000000 0.0000000000000000
0.0000000000000000 1.0000000000000000 0.0000000000000000
0.0000000000000000 1.0000000000000000 0.0000000000000000
0.0000000000000000 1.0000000000000000 0.0000000000000000
0.0000000000000000 1.0000000000000000 0.0000000000000000
0.0000000000000000 1.0000000000000000 0.0000000000000000
0.0000000000000000 1.0000000000000000 0.0000000000000000
0.0000000000000000 1.0000000000000000 0.0000000000000000
0.0000000000000000 1.0000000000000000 0.0000000000000000
0.0000000000000000 1.0000000000000000 0.0000000000000000
0.0000000000000000 1.0000000000000000 0.0000000000000000
0.0000000000000000 1.0000000000000000 0.0000000000000000
0.0000000000000000 1.0000000000000000 0.0000000000000000
0.0000000000000000 1.0000000000000000 0.0000000000000000
0.0000000000000000 1.0000000000000000 0.0000000000000000
0.0000000000000000 1.0000000000000000 0.0000000000000000
0.0000000000000000 1.0000000000000000 0.0000000000000000
0.0000000000000000 1.0000000000000000 0.0000000000000000
0.0000000000000000 1.0000000000000000 0.0000000000000000
0.0000000000000000 1.0000000000000000 0.0000000000000000
0.0000000000000000 1.0000000000000000 0.0000000000000000
0.0000000000000000 1.0000000000000000 0.0000000000000000
0.0000000000000000 1.0000000000000000 0.0000000000000000
0.0000000000000000 1.0000000000000000 0.0000000000000000
0.0000000000000000 1.0000000000000000 0.0000000000000000
0.0000000000000000 1.0000000000000000 0.0000000000000000
0.0000000000000000 1.0000000000000000 0.0000000000000000
0.0000000000000000 1.0000000000000000 0.0000000000000000
0.0000000000000000 1.0000000000000000 0.0000000000000000
0.0000000000000000 1.0000000000000000 0.0000000000000000
0.0000000000000000 1.0000000000000000 0.0000000000000000
0.0000000000000000 1.0000000000000000 0.0000000000000000
0.0000000000000000 1.0000000000000000 0.0000000000000000
0.0000000000000000 1.0000000000000000 0.0000000000000000
0.0000000000000000 1.0000000000000000 0.0000000000000000
0.0000000000000000 1.0000000000000000 0.0000000000000000
0.0000000000000000 1.0000000000000000 0.0000000000000000
0.0000000000000000 1.0000000000000000 0.0000000000000000
0.0000000000000000 1.0000000000000000 0.0000000000000000
0.0000000000000000 1.0000000000000000 0.0000000000000000
0.0000000000000000 1.0000000000000000 0.0000000000000000
0.0000000000000000 1.0000000000000000 0.0000000000000000
0.0000000000000000 1.0000000000000000 0.0000000000000000
0.0000000000000000 1.0000000000000000 0.0000000000000000
0.0000000000000000 1.0000000000000000 0.0000000000000000
0.0000000000000000 1.0000000000000000 0.0000000000000000
0.0000000000000000 1.0000000000000000 0.0000000000000000
0.0000000000000000 1.0000000000000000 0.0000000000000000
0.0000000000000000 1.0000000000000000 0.0000000000000000
0.0000000000000000 1.0000000000000000 0.0000000000000000
0.0000000000000000 1.0000000000000000 0.0000000000000000
0.0000000000000000 1.0000000000000000 0.0000000000000000
0.0000000000000000 1.0000000000000000 0.0000000000000000
0.0000000000000000 1.0000000000000000 0.0000000000000000
0.0000000000000000 1.0000000000000000 0.0000000000000000
0.0000000000000000 1.0000000000000000 0.0000000000000000
0.0000000000000000 1.0000000000000000 0.0000000000000000
0.0000000000000000 1.0000000000000000 0.0000000000000000
0.0000000000000000 1.0000000000000000 0.0000000000000000
0.0000000000000000 1.0000000000000000 0.0000000000000000
0.0000000000000000 1.0000000000000000 0.0000000000000000
0.0000000000000000 1.0000000000000000 0.0000000000000000
0.0000000000000000 1.0000000000000000 0.0000000000000000
0.0000000000000000 1.0000000000000000 0.0000000000000000
0.0000000000000000 1.0000000000000000 0.0000000000000000
0.0000000000000000 1.0000000000000000 0.0000000000000000
0.0000000000000000 1.0000000000000000 0.0000000000000000
0.0000000000000000 1.0000000000000000 0.0000000000000000
0.0000000000000000 1.0000000000000000 0.0000000000000000
0.0000000000000000 1.0000000000000000 0.0000000000000000
0.0000000000000000 1.0000000000000000 0.0000000000000000
0.0000000000000000 1.0000000000000000 0.0000000000000000
0.0000000000000000 1.0000000000000000 0.0000000000000000
0.0000000000000000 1.0000000000000000 0.0000000000000000
0.0000000000000000 1.0000000000000000 0.0000000000000000
0.0000000000000000 1.0000000000000000 0.0000000000000000
0.0000000000000000 1.0000000000000000 0.0000000000000000
0.0000000000000000 1.0000000000000000 0.0000000000000000
0.0000000000000000 1.0000000000000000 0.0000000000000000
0.0000000000000000 1.0000000000000000 0.0000000000000000
0.0000000000000000 1.0000000000000000 0.0000000000000000
0.0000000000000000 1.0000000000000000 0.0000000000000000
0.0000000000000000 1.0000000000000000 0.0000000000000000
0.0000000000000000 1.0000000000000000 0.0000000000000000
0.0000000000000000 1.0000000000000000 0.0000000000000000
0.0000000000000000 1.0000000000000000 0.0000000000000000
0.0000000000000000 1.0000000000000000 0.0000000000000000
0.0000000000000000 1.0000000000000000 0.0000000000000000
0.0000000000000000 1.0000000000000000 0.0000000000000000
0.0000000000000000 1.0000000000000000 0.0000000000000000
0.0000000000000000 1.0000000000000000 0.0000000000000000
0.0000000000000000 1.0000000000000000 0.0000000000000000
0.0000000000000000 1.0000000000000000 0.0000000000000000
0.0000000000000000 1.0000000000000000 0.0000000000000000
0.0000000000000000 1.0000000000000000 0.0000000000000000
0.0000000000000000 1.0000000000000000 0.0000000000000000
0.0000000000000000 1.0000000000000000 0.0000000000000000
0.0000000000000000 1.0000000000000000 0.0000000000000000
0.0000000000000000 1.0000000000000000 0.0000000000000000
0.0000000000000000 1.0000000000000000 0.0000000000000000
0.0000000000000000 1.0000000000000000 0.0000000000000000
0.0000000000000000 1.0000000000000000 0.0000000000000000
0.0000000000000000 1.0000000000000000 0.0000000000000000
0.0000000000000000 1.0000000000000000 0.0000000000000000
0.0000000000000000 1.0000000000000000 0.0000000000000000
0.0000000000000000 1.0000000000000000 0.0000000000000000
0.0000000000000000 1.0000000000000000 0.0000000000000000
0.0000000000000000 1.0000000000000000 0.0000000000000000
0.0000000000000000 1.0000000000000000 0.0000000000000000
0.0000000000000000 1.0000000000000000 0.0000000000000000
0.0000000000000000 1.0000000000000000 0.0000000000000000
0.0000000000000000 1.0000000000000000 0.0000000000000000
0.0000000000000000 1.0000000000000000 0.0000000000000000
0.0000000000000000 1.0000000000000000 0.0000000000000000
0.0000000000000000 1.0000000000000000 0.0000000000000000
0.0000000000000000 1.0000000000000000 0.0000000000000000
0.0000000000000000 1.0000000000000000 0.0000000000000000
0.0000000000000000 1.0000000000000000 0.0000000000000000
0.0000000000000000 1.0000000000000000 0.0000000000000000
0.0000000000000000 1.0000000000000000 0.0000000000000000
0.0000000000000000 1.0000000000000000 0.0000000000000000
0.0000000000000000 1.0000000000000000 0.0000000000000000
0.0000000000000000 1.0000000000000000 0.0000000000000000
0.0000000000000000 1.0000000000000000 0.0000000000000000
0.0000000000000000 1.0000000000000000 0.0000000000000000
0.0000000000000000 1.0000000000000000 0.0000000000000000
0.0000000000000000 1.0000000000000000 0.0000000000000000
0.0000000000000000 1.0000000000000000 0.0000000000000000
0.0000000000000000 1.0000000000000000 0.0000000000000000
0.0000000000000000 1.0000000000000000 0.0000000000000000
0.0000000000000000 1.0000000000000000 0.0000000000000000
0.0000000000000000 1.0000000000000000 0.0000000000000000
0.0000000000000000 1.0000000000000000 0.0000000000000000
0.0000000000000000 1.0000000000000000 0.0000000000000000
0.0000000000000000 1.0000000000000000 0.0000000000000000
0.0000000000000000 1.0000000000000000 0.0000000000000000
0.0000000000000000 1.0000000000000000 0.0000000000000000
0.0000000000000000 1.0000000000000000 0.0000000000000000
0.0000000000000000 1.0000000000000000 0.0000000000000000
0.0000000000000000 1.0000000000000000 0.0000000000000000
0.0000000000000000 1.0000000000000000 0.0000000000000000
0.0000000000000000 1.0000000000000000 0.0000000000000000
0.0000000000000000 1.0000000000000000 0.0000000000000000
0.0000000000000000 1.0000000000000000 0.0000000000000000
0.0000000000000000 1.0000000000000000 0.0000000000000000
0.0000000000000000 1.0000000000000000 0.0000000000000000
0.0000000000000000 1.0000000000000000 0.0000000000000000
0.0000000000000000 1.0000000000000000 0.0000000000000000
0.0000000000000000 1.0000000000000000 0.0000000000000000
0.0000000000000000 1.0000000000000000 0.0000000000000000
0.0000000000000000 1.0000000000000000 0.0000000000000000
0.0000000000000000 1.0000000000000000 0.0000000000000000
0.0000000000000000 1.0000000000000000 0.0000000000000000
0.0000000000000000 1.0000000000000000 0.0000000000000000
0.0000000000000000 1.0000000000000000 0.0000000000000000
0.0000000000000000 1.0000000000000000 0.0000000000000000
0.0000000000000000 1.0000000000000000 0.0000000000000000
0.0000000000000000 1.0000000000000000 0.0000000000000000
0.0000000000000000 1.0000000000000000 0.0000000000000000
0.0000000000000000 1.0000000000000000 0.0000000000000000
0.0000000000000000 1.0000000000000000 0.0000000000000000
0.0000000000000000 1.0000000000000000 0.0000000000000000
0.0000000000000000 1.0000000000000000 0.0000000000000000
0.0000000000000000 1.0000000000000000 0.0000000000000000
0.0000000000000000 1.0000000000000000 0.0000000000000000
0.0000000000000000 1.0000000000000000 0.0000000000000000
0.0000000000000000 1.0000000000000000 0.0000000000000000
0.0000000000000000 1.0000000000000000 0.0000000000000000
0.0000000000000000 1.0000000000000000 0.0000000000000000
0.0000000000000000 1.0000000000000000 0.0000000000000000
0.0000000000000000 1.0000000000000000 0.0000000000000000
0.0000000000000000 1.0000000000000000 0.0000000000000000
0.0000000000000000 1.0000000000000000 0.0000000000000000
0.0000000000000000 1.0000000000000000 0.0000000000000000
0.0000000000000000 1.0000000000000000 0.0000000000000000
0.0000000000000000 1.0000000000000000 0.0000000000000000
0.0000000000000000 1.0000000000000000 0.0000000000000000
0.0000000000000000 1.0000000000000000 0.0000000000000000
0.0000000000000000 1.0000000000000000 0.0000000000000000
0.0000000000000000 1.0000000000000000 0.0000000000000000
0.0000000000000000 1.0000000000000000 0.0000000000000000
0.0000000000000000 1.0000000000000000 0.0000000000000000
0.0000000000000000 1.0000000000000000 0.0000000000000000
0.0000000000000000 1.0000000000000000 0.0000000000000000
0.0000000000000000 1.0000000000000000 0.0000000000000000
0.0000000000000000 1.0000000000000000 0.0000000000000000
0.0000000000000000 1.0000000000000000 0.0000000000000000
0.0000000000000000 1.0000000000000000 0.0000000000000000
0.0000000000000000 1.0000000000000000 0.0000000000000000
0.0000000000000000 1.0000000000000000 0.0000000000000000
0.0000000000000000 1.0000000000000000 0.0000000000000000
0.0000000000000000 1.0000000000000000 0.0000000000000000
0.0000000000000000 1.0000000000000000 0.0000000000000000
0.0000000000000000 1.0000000000000000 0.0000000000000000
0.0000000000000000 1.0000000000000000 0.0000000000000000
0.0000000000000000 1.0000000000000000 0.0000000000000000
0.0000000000000000 1.0000000000000000 0.0000000000000000
0.0000000000000000 1.0000000000000000 0.0000000000000000
0.0000000000000000 1.0000000000000000 0.0000000000000000
0.0000000000000000 1.0000000000000000 0.0000000000000000
0.0000000000000000 1.0000000000000000 0.0000000000000000
0.0000000000000000 1.0000000000000000 0.0000000000000000
0.0000000000000000 1.0000000000000000 0.0000000000000000
0.0000000000000000 1.0000000000000000 0.0000000000000000
0.0000000000000000 1.0000000000000000 0.0000000000000000
0.0000000000000000 1.0000000000000000 0.0000000000000000
0.0000000000000000 1.0000000000000000 0.0000000000000000
0.0000000000000000 1.0000000000000000 0.0000000000000000
0.0000000000000000 1.0000000000000000 0.0000000000000000
0.0000000000000000 1.0000000000000000 0.0000000000000000
0.0000000000000000 1.0000000000000000 0.0000000000000000
0.0000000000000000 1.0000000000000000 0.0000000000000000
0.0000000000000000 1.0000000000000000 0.0000000000000000
0.0000000000000000 1.0000000000000000 0.0000000000000000
0.0000000000000000 1.0000000000000000 0.0000000000000000
0.0000000000000000 1.0000000000000000 0.0000000000000000
0.0000000000000000 1.0000000000000000 0.0000000000000000
0.0000000000000000 1.0000000000000000 0.0000000000000000
0.0000000000000000 1.0000000000000000 0.0000000000000000
0.0000000000000000 1.0000000000000000 0.0000000000000000
0.0000000000000000 1.0000000000000000 0.0000000000000000
0.0000000000000000 1.0000000000000000 0.0000000000000000
0.0000000000000000 1.0000000000000000 0.0000000000000000
0.0000000000000000 1.0000000000000000 0.0000000000000000
0.0000000000000000 1.0000000000000000 0.0000000000000000
0.0000000000000000 1.0000000000000000 0.0000000000000000
0.0000000000000000 1.0000000000000000 0.0000000000000000
0.0000000000000000 1.0000000000000000 0.0000000000000000
0.0000000000000000 1.0000000000000000 0.0000000000000000
0.0000000000000000 1.0000000000000000 0.0000000000000000
0.0000000000000000 1.0000000000000000 0.0000000000000000
0.0000000000000000 1.0000000000000000 0.0000000000000000
0.0000000000000000 1.0000000000000000 0.0000000000000000
0.0000000000000000 1.0000000000000000 0.0000000000000000
0.0000000000000000 1.0000000000000000 0.0000000000000000
0.0000000000000000 1.0000000000000000 0.0000000000000000
0.0000000000000000 1.0000000000000000 0.0000000000000000
0.0000000000000000 1.0000000000000000 0.0000000000000000
0.0000000000000000 1.0000000000000000 0.0000000000000000
0.0000000000000000 1.0000000000000000 0.0000000000000000
0.0000000000000000 1.0000000000000000 0.0000000000000000
0.0000000000000000 1.0000000000000000 0.0000000000000000
0.0000000000000000 1.0000000000000000 0.0000000000000000
0.0000000000000000 1.0000000000000000 0.0000000000000000
0.0000000000000000 1.0000000000000000 0.0000000000000000
0.0000000000000000 1.0000000000000000 0.0000000000000000
0.0000000000000000 1.0000000000000000 0.0000000000000000
0.0000000000000000 1.0000000000000000 0.0000000000000000
0.0000000000000000 1.0000000000000000 0.0000000000000000
0.0000000000000000 1.0000000000000000 0.0000000000000000
0.0000000000000000 1.0000000000000000 0.0000000000000000
0.0000000000000000 1.0000000000000000 0.0000000000000000
0.0000000000000000 1.0000000000000000 0.0000000000000000
0.0000000000000000 1.0000000000000000 0.0000000000000000
0.0000000000000000 1.0000000000000000 0.0000000000000000
0.0000000000000000 1.0000000000000000 0.0000000000000000
0.0000000000000000 1.0000000000000000 0.0000000000000000
0.0000000000000000 1.0000000000000000 0.0000000000000000
0.0000000000000000 1.0000000000000000 0.0000000000000000
0.0000000000000000 1.0000000000000000 0.0000000000000000
0.0000000000000000 1.0000000000000000 0.0000000000000000
0.0000000000000000 1.0000000000000000 0.0000000000000000
0.0000000000000000 1.0000000000000000 0.0000000000000000
0.0000000000000000 1.0000000000000000 0.0000000000000000
0.0000000000000000 1.0000000000000000 0.0000000000000000
0.0000000000000000 1.0000000000000000 0.0000000000000000
0.0000000000000000 1.0000000000000000 0.0000000000000000
0.0000000000000000 1.0000000000000000 0.0000000000000000
0.0000000000000000 1.0000000000000000 0.0000000000000000
0.0000000000000000 1.0000000000000000 0.0000000000000000
0.0000000000000000 1.0000000000000000 0.0000000000000000
0.0000000000000000 1.0000000000000000 0.0000000000000000
0.0000000000000000 1.0000000000000000 0.0000000000000000
0.0000000000000000 1.0000000000000000 0.0000000000000000
0.0000000000000000 1.0000000000000000 0.0000000000000000
0.0000000000000000 1.0000000000000000 0.0000000000000000
0.0000000000000000 1.0000000000000000 0.0000000000000000
0.0000000000000000 1.0000000000000000 0.0000000000000000
0.0000000000000000 1.0000000000000000 0.0000000000000000
0.0000000000000000 1.0000000000000000 0.0000000000000000
0.0000000000000000 1.0000000000000000 0.0000000000000000
0.0000000000000000 1.0000000000000000 0.0000000000000000
0.0000000000000000 1.0000000000000000 0.0000000000000000
0.0000000000000000 1.0000000000000000 0.0000000000000000
0.0000000000000000 1.0000000000000000 0.0000000000000000
0.0000000000000000 1.0000000000000000 0.0000000000000000
0.0000000000000000 1.0000000000000000 0.0000000000000000
0.0000000000000000 1.0000000000000000 0.0000000000000000
0.0000000000000000 1.0000000000000000 0.0000000000000000
0.0000000000000000 1.0000000000000000 0.0000000000000000
0.0000000000000000 1.0000000000000000 0.0000000000000000
0.0000000000000000 1.0000000000000000 0.0000000000000000
0.0000000000000000 1.0000000000000000 0.0000000000000000
0.0000000000000000 1.0000000000000000 0.0000000000000000
0.0000000000000000 1.0000000000000000 0.0000000000000000
0.0000000000000000 1.0000000000000000 0.0000000000000000
0.0000000000000000 1.0000000000000000 0.0000000000000000
0.0000000000000000 1.0000000000000000 0.0000000000000000
0.0000000000000000 1.0000000000000000 0.0000000000000000
0.0000000000000000 1.0000000000000000 0.0000000000000000
0.0000000000000000 1.0000000000000000 0.0000000000000000
0.0000000000000000 1.0000000000000000 0.0000000000000000
0.0000000000000000 1.0000000000000000 0.0000000000000000
0.0000000000000000 1.0000000000000000 0.0000000000000000
0.0000000000000000 1.0000000000000000 0.0000000000000000
0.0000000000000000 1.0000000000000000 0.0000000000000000
0.0000000000000000 1.0000000000000000 0.0000000000000000
0.0000000000000000 1.0000000000000000 0.0000000000000000
0.0000000000000000 1.0000000000000000 0.0000000000000000
0.0000000000000000 1.0000000000000000 0.0000000000000000
0.0000000000000000 1.0000000000000000 0.0000000000000000
0.0000000000000000 1.0000000000000000 0.0000000000000000
0.0000000000000000 1.0000000000000000 0.0000000000000000
0.0000000000000000 1.0000000000000000 0.0000000000000000
0.0000000000000000 1.0000000000000000 0.0000000000000000
0.0000000000000000 1.0000000000000000 0.0000000000000000
0.0000000000000000 1.0000000000000000 0.0000000000000000
0.0000000000000000 1.0000000000000000 0.0000000000000000
0.0000000000000000 1.0000000000000000 0.0000000000000000
0.0000000000000000 1.0000000000000000 0.0000000000000000
0.0000000000000000 1.0000000000000000 0.0000000000000000
0.0000000000000000 1.0000000000000000 0.0000000000000000
0.0000000000000000 1.0000000000000000 0.0000000000000000
0.0000000000000000 1.0000000000000000 0.0000000000000000
0.0000000000000000 1.0000000000000000 0.0000000000000000
0.0000000000000000 1.0000000000000000 0.0000000000000000
0.0000000000000000 1.0000000000000000 0.0000000000000000
0.0000000000000000 1.0000000000000000 0.0000000000000000
0.0000000000000000 1.0000000000000000 0.0000000000000000
0.0000000000000000 1.0000000000000000 0.0000000000000000
0.0000000000000000 1.0000000000000000 0.0000000000000000
0.0000000000000000 1.0000000000000000 0.0000000000000000
0.0000000000000000 1.0000000000000000 0.0000000000000000
0.0000000000000000 1.0000000000000000 0.0000000000000000
0.0000000000000000 1.0000000000000000 0.0000000000000000
0.0000000000000000 1.0000000000000000 0.0000000000000000
0.0000000000000000 1.0000000000000000 0.0000000000000000
0.0000000000000000 1.0000000000000000 0.0000000000000000
0.0000000000000000 1.0000000000000000 0.0000000000000000
0.0000000000000000 1.0000000000000000 0.0000000000000000
0.0000000000000000 1.0000000000000000 0.0000000000000000
0.0000000000000000 1.0000000000000000 0.0000000000000000
0.0000000000000000 1.0000000000000000 0.0000000000000000
0.0000000000000000 1.0000000000000000 0.0000000000000000
0.0000000000000000 1.0000000000000000 0.0000000000000000
0.0000000000000000 1.0000000000000000 0.0000000000000000
0.0000000000000000 1.0000000000000000 0.0000000000000000
0.0000000000000000 1.0000000000000000 0.0000000000000000
0.0000000000000000 1.0000000000000000 0.0000000000000000
0.0000000000000000 1.0000000000000000 0.0000000000000000
0.0000000000000000 1.0000000000000000 0.0000000000000000
0.0000000000000000 1.0000000000000000 0.0000000000000000
0.0000000000000000 1.0000000000000000 0.0000000000000000
0.0000000000000000 1.0000000000000000 0.0000000000000000
0.0000000000000000 1.0000000000000000 0.0000000000000000
0.0000000000000000 1.0000000000000000 0.0000000000000000
0.0000000000000000 1.0000000000000000 0.0000000000000000
0.0000000000000000 1.0000000000000000 0.0000000000000000
0.0000000000000000 1.0000000000000000 0.0000000000000000
0.0000000000000000 1.0000000000000000 0.0000000000000000
0.0000000000000000 1.0000000000000000 0.0000000000000000
0.0000000000000000 1.0000000000000000 0.0000000000000000
0.0000000000000000 1.0000000000000000 0.0000000000000000
0.0000000000000000 1.0000000000000000 0.0000000000000000
0.0000000000000000 1.0000000000000000 0.0000000000000000
0.0000000000000000 1.0000000000000000 0.0000000000000000
0.0000000000000000 1.0000000000000000 0.0000000000000000
0.0000000000000000 1.0000000000000000 0.0000000000000000
0.0000000000000000 1.0000000000000000 0.0000000000000000
0.0000000000000000 1.0000000000000000 0.0000000000000000
0.0000000000000000 1.0000000000000000 0.0000000000000000
0.0000000000000000 1.0000000000000000 0.0000000000000000
0.0000000000000000 1.0000000000000000 0.0000000000000000
0.0000000000000000 1.0000000000000000 0.0000000000000000
0.0000000000000000 1.0000000000000000 0.0000000000000000
0.0000000000000000 1.0000000000000000 0.0000000000000000
0.0000000000000000 1.0000000000000000 0.0000000000000000
0.0000000000000000 1.0000000000000000 0.0000000000000000

SCALARS f:fiber_s double 3
LOOKUP_TABLE default
1.0000000000000000 0.0000000000000000 0.0000000000000000
1.0000000000000000 0.0000000000000000 0.0000000000000000
1.0000000000000000 0.0000000000000000 0.0000000000000000
1.0000000000000000 0.0000000000000000 0.0000000000000000
1.0000000000000000 0.0000000000000000 0.0000000000000000
1.0000000000000000 0.0000000000000000 0.0000000000000000
1.0000000000000000 0.0000000000000000 0.0000000000000000
1.0000000000000000 0.0000000000000000 0.0000000000000000
1.0000000000000000 0.0000000000000000 0.0000000000000000
1.0000000000000000 0.0000000000000000 0.0000000000000000
1.0000000000000000 0.0000000000000000 0.0000000000000000
1.0000000000000000 0.0000000000000000 0.0000000000000000
1.0000000000000000 0.0000000000000000 0.0000000000000000
1.0000000000000000 0.0000000000000000 0.0000000000000000
1.0000000000000000 0.0000000000000000 0.0000000000000000
1.0000000000000000 0.0000000000000000 0.0000000000000000
1.0000000000000000 0.0000000000000000 0.0000000000000000
1.0000000000000000 0.0000000000000000 0.0000000000000000
1.0000000000000000 0.0000000000000000 0.0000000000000000
1.0000000000000000 0.0000000000000000 0.0000000000000000
1.0000000000000000 0.0000000000000000 0.0000000000000000
1.0000000000000000 0.0000000000000000 0.0000000000000000
1.0000000000000000 0.0000000000000000 0.0000000000000000
1.0000000000000000 0.0000000000000000 0.0000000000000000
1.0000000000000000 0.0000000000000000 0.0000000000000000
1.0000000000000000 0.0000000000000000 0.0000000000000000
1.0000000000000000 0.0000000000000000 0.0000000000000000
1.0000000000000000 0.0000000000000000 0.0000000000000000
1.0000000000000000 0.0000000000000000 0.0000000000000000
1.0000000000000000 0.0000000000000000 0.0000000000000000
1.0000000000000000 0.0000000000000000 0.0000000000000000
1.0000000000000000 0.0000000000000000 0.0000000000000000
1.0000000000000000 0.0000000000000000 0.0000000000000000
1.0000000000000000 0.0000000000000000 0.0000000000000000
1.0000000000000000 0.0000000000000000 0.0000000000000000
1.0000000000000000 0.0000000000000000 0.0000000000000000
1.0000000000000000 0.0000000000000000 0.0000000000000000
1.0000000000000000 0.0000000000000000 0.0000000000000000
1.0000000000000000 0.0000000000000000 0.0000000000000000
1.0000000000000000 0.0000000000000000 0.0000000000000000
1.0000000000000000 0.0000000000000000 0.0000000000000000
1.0000000000000000 0.0000000000000000 0.0000000000000000
1.0000000000000000 0.0000000000000000 0.0000000000000000
1.0000000000000000 0.0000000000000000 0.0000000000000000
1.0000000000000000 0.0000000000000000 0.0000000000000000
1.0000000000000000 0.0000000000000000 0.0000000000000000
1.0000000000000000 0.0000000000000000 0.0000000000000000
1.0000000000000000 0.0000000000000000 0.0000000000000000
1.0000000000000000 0.0000000000000000 0.0000000000000000
1.0000000000000000 0.0000000000000000 0.0000000000000000
1.0000000000000000 0.0000000000000000 0.0000000000000000
1.0000000000000000 0.0000000000000000 0.0000000000000000
1.0000000000000000 0.0000000000000000 0.0000000000000000
1.0000000000000000 0.0000000000000000 0.0000000000000000
1.0000000000000000 0.0000000000000000 0.0000000000000000
1.0000000000000000 0.0000000000000000 0.0000000000000000
1.0000000000000000 0.0000000000000000 0.0000000000000000
1.0000000000000000 0.0000000000000000 0.0000000000000000
1.0000000000000000 0.0000000000000000 0.0000000000000000
1.0000000000000000 0.0000000000000000 0.0000000000000000
1.0000000000000000 0.0000000000000000 0.0000000000000000
1.0000000000000000 0.0000000000000000 0.0000000000000000
1.0000000000000000 0.0000000000000000 0.0000000000000000
1.0000000000000000 0.0000000000000000 0.0000000000000000
1.0000000000000000 0.0000000000000000 0.0000000000000000
1.0000000000000000 0.0000000000000000 0.0000000000000000
1.0000000000000000 0.0000000000000000 0.0000000000000000
1.0000000000000000 0.0000000000000000 0.0000000000000000
1.0000000000000000 0.0000000000000000 0.0000000000000000
1.0000000000000000 0.0000000000000000 0.0000000000000000
1.0000000000000000 0.0000000000000000 0.0000000000000000
1.0000000000000000 0.0000000000000000 0.0000000000000000
1.0000000000000000 0.0000000000000000 0.0000000000000000
1.0000000000000000 0.0000000000000000 0.0000000000000000
1.0000000000000000 0.0000000000000000 0.0000000000000000
1.0000000000000000 0.0000000000000000 0.0000000000000000
1.0000000000000000 0.0000000000000000 0.0000000000000000
1.0000000000000000 0.0000000000000000 0.0000000000000000
1.0000000000000000 0.0000000000000000 0.0000000000000000
1.0000000000000000 0.0000000000000000 0.0000000000000000
1.0000000000000000 0.0000000000000000 0.0000000000000000
1.0000000000000000 0.0000000000000000 0.0000000000000000
1.0000000000000000 0.0000000000000000 0.0000000000000000
1.0000000000000000 0.0000000000000000 0.0000000000000000
1.0000000000000000 0.0000000000000000 0.0000000000000000
1.0000000000000000 0.0000000000000000 0.0000000000000000
1.0000000000000000 0.0000000000000000 0.0000000000000000
1.0000000000000000 0.0000000000000000 0.0000000000000000
1.0000000000000000 0.0000000000000000 0.0000000000000000
1.0000000000000000 0.0000000000000000 0.0000000000000000
1.0000000000000000 0.0000000000000000 0.0000000000000000
1.0000000000000000 0.0000000000000000 0.0000000000000000
1.0000000000000000 0.0000000000000000 0.0000000000000000
1.0000000000000000 0.0000000000000000 0.0000000000000000
1.0000000000000000 0.0000000000000000 0.0000000000000000
1.0000000000000000 0.0000000000000000 0.0000000000000000
1.0000000000000000 0.0000000000000000 0.0000000000000000
1.0000000000000000 0.0000000000000000 0.0000000000000000
1.0000000000000000 0.0000000000000000 0.0000000000000000
1.0000000000000000 0.0000000000000000 0.0000000000000000
1.0000000000000000 0.0000000000000000 0.0000000000000000
1.0000000000000000 0.0000000000000000 0.0000000000000000
1.0000000000000000 0.0000000000000000 0.0000000000000000
1.0000000000000000 0.0000000000000000 0.0000000000000000
1.0000000000000000 0.0000000000000000 0.0000000000000000
1.0000000000000000 0.0000000000000000 0.0000000000000000
1.0000000000000000 0.0000000000000000 0.0000000000000000
1.0000000000000000 0.0000000000000000 0.0000000000000000
1.0000000000000000 0.0000000000000000 0.0000000000000000
1.0000000000000000 0.0000000000000000 0.0000000000000000
1.0000000000000000 0.0000000000000000 0.0000000000000000
1.0000000000000000 0.0000000000000000 0.0000000000000000
1.0000000000000000 0.0000000000000000 0.0000000000000000
1.0000000000000000 0.0000000000000000 0.0000000000000000
1.0000000000000000 0.0000000000000000 0.0000000000000000
1.0000000000000000 0.0000000000000000 0.0000000000000000
1.0000000000000000 0.0000000000000000 0.0000000000000000
1.0000000000000000 0.0000000000000000 0.0000000000000000
1.0000000000000000 0.0000000000000000 0.0000000000000000
1.0000000000000000 0.0000000000000000 0.0000000000000000
1.0000000000000000 0.0000000000000000 0.0000000000000000
1.0000000000000000 0.0000000000000000 0.0000000000000000
1.0000000000000000 0.0000000000000000 0.0000000000000000
1.0000000000000000 0.0000000000000000 0.0000000000000000
1.0000000000000000 0.0000000000000000 0.0000000000000000
1.0000000000000000 0.0000000000000000 0.0000000000000000
1.0000000000000000 0.0000000000000000 0.0000000000000000
1.0000000000000000 0.0000000000000000 0.0000000000000000
1.0000000000000000 0.0000000000000000 0.0000000000000000
1.0000000000000000 0.0000000000000000 0.0000000000000000
1.0000000000000000 0.0000000000000000 0.0000000000000000
1.0000000000000000 0.0000000000000000 0.0000000000000000
1.0000000000000000 0.0000000000000000 0.0000000000000000
1.0000000000000000 0.0000000000000000 0.0000000000000000
1.0000000000000000 0.0000000000000000 0.0000000000000000
1.0000000000000000 0.0000000000000000 0.0000000000000000
1.0000000000000000 0.0000000000000000 0.0000000000000000
1.0000000000000000 0.0000000000000000 0.0000000000000000
1.0000000000000000 0.0000000000000000 0.0000000000000000
1.0000000000000000 0.0000000000000000 0.0000000000000000
1.0000000000000000 0.0000000000000000 0.0000000000000000
1.0000000000000000 0.0000000000000000 0.0000000000000000
1.0000000000000000 0.0000000000000000 0.0000000000000000
1.0000000000000000 0.0000000000000000 0.0000000000000000
1.0000000000000000 0.0000000000000000 0.0000000000000000
1.0000000000000000 0.0000000000000000 0.0000000000000000
1.0000000000000000 0.0000000000000000 0.0000000000000000
1.0000000000000000 0.0000000000000000 0.0000000000000000
1.0000000000000000 0.0000000000000000 0.0000000000000000
1.0000000000000000 0.0000000000000000 0.0000000000000000
1.0000000000000000 0.0000000000000000 0.0000000000000000
1.0000000000000000 0.0000000000000000 0.0000000000000000
1.0000000000000000 0.0000000000000000 0.0000000000000000
1.0000000000000000 0.0000000000000000 0.0000000000000000
1.0000000000000000 0.0000000000000000 0.0000000000000000
1.0000000000000000 0.0000000000000000 0.0000000000000000
1.0000000000000000 0.0000000000000000 0.0000000000000000
1.0000000000000000 0.0000000000000000 0.0000000000000000
1.0000000000000000 0.0000000000000000 0.0000000000000000
1.0000000000000000 0.0000000000000000 0.0000000000000000
1.0000000000000000 0.0000000000000000 0.0000000000000000
1.0000000000000000 0.0000000000000000 0.0000000000000000
1.0000000000000000 0.0000000000000000 0.0000000000000000
1.0000000000000000 0.0000000000000000 0.0000000000000000
1.0000000000000000 0.0000000000000000 0.0000000000000000
1.0000000000000000 0.0000000000000000 0.0000000000000000
1.0000000000000000 0.0000000000000000 0.0000000000000000
1.0000000000000000 0.0000000000000000 0.0000000000000000
1.0000000000000000 0.0000000000000000 0.0000000000000000
1.0000000000000000 0.0000000000000000 0.0000000000000000
1.0000000000000000 0.0000000000000000 0.0000000000000000
1.0000000000000000 0.0000000000000000 0.0000000000000000
1.0000000000000000 0.0000000000000000 0.0000000000000000
1.0000000000000000 0.0000000000000000 0.0000000000000000
1.0000000000000000 0.0000000000000000 0.0000000000000000
1.0000000000000000 0.0000000000000000 0.0000000000000000
1.0000000000000000 0.0000000000000000 0.0000000000000000
1.0000000000000000 0.0000000000000000 0.0000000000000000
1.0000000000000000 0.0000000000000000 0.0000000000000000
1.0000000000000000 0.0000000000000000 0.0000000000000000
1.0000000000000000 0.0000000000000000 0.0000000000000000
1.0000000000000000 0.0000000000000000 0.0000000000000000
1.0000000000000000 0.0000000000000000 0.0000000000000000
1.0000000000000000 0.0000000000000000 0.0000000000000000
1.0000000000000000 0.0000000000000000 0.0000000000000000
1.0000000000000000 0.0000000000000000 0.0000000000000000
1.0000000000000000 0.0000000000000000 0.0000000000000000
1.0000000000000000 0.0000000000000000 0.0000000000000000
1.0000000000000000 0.0000000000000000 0.0000000000000000
1.0000000000000000 0.0000000000000000 0.0000000000000000
1.0000000000000000 0.0000000000000000 0.0000000000000000
1.0000000000000000 0.0000000000000000 0.0000000000000000
1.0000000000000000 0.0000000000000000 0.0000000000000000
1.0000000000000000 0.0000000000000000 0.0000000000000000
1.0000000000000000 0.0000000000000000 0.0000000000000000
1.0000000000000000 0.0000000000000000 0.0000000000000000
1.0000000000000000 0.0000000000000000 0.0000000000000000
1.0000000000000000 0.0000000000000000 0.0000000000000000
1.0000000000000000 0.0000000000000000 0.0000000000000000
1.0000000000000000 0.0000000000000000 0.0000000000000000
1.0000000000000000 0.0000000000000000 0.0000000000000000
1.0000000000000000 0.0000000000000000 0.0000000000000000
1.0000000000000000 0.0000000000000000 0.0000000000000000
1.0000000000000000 0.0000000000000000 0.0000000000000000
1.0000000000000000 0.0000000000000000 0.0000000000000000
1.0000000000000000 0.0000000000000000 0.0000000000000000
1.0000000000000000 0.0000000000000000 0.0000000000000000
1.0000000000000000 0.0000000000000000 0.0000000000000000
1.0000000000000000 0.0000000000000000 0.0000000000000000
1.0000000000000000 0.0000000000000000 0.0000000000000000
1.0000000000000000 0.0000000000000000 0.0000000000000000
1.0000000000000000 0.0000000000000000 0.0000000000000000
1.0000000000000000 0.0000000000000000 0.0000000000000000
1.0000000000000000 0.0000000000000000 0.0000000000000000
1.0000000000000000 0.0000000000000000 0.0000000000000000
1.0000000000000000 0.0000000000000000 0.0000000000000000
1.0000000000000000 0.0000000000000000 0.0000000000000000
1.0000000000000000 0.0000000000000000 0.0000000000000000
1.0000000000000000 0.0000000000000000 0.0000000000000000
1.0000000000000000 0.0000000000000000 0.0000000000000000
1.0000000000000000 0.0000000000000000 0.0000000000000000
1.0000000000000000 0.0000000000000000 0.0000000000000000
1.0000000000000000 0.0000000000000000 0.0000000000000000
1.0000000000000000 0.0000000000000000 0.0000000000000000
1.0000000000000000 0.0000000000000000 0.0000000000000000
1.0000000000000000 0.0000000000000000 0.0000000000000000
1.0000000000000000 0.0000000000000000 0.0000000000000000
1.0000000000000000 0.0000000000000000 0.0000000000000000
1.0000000000000000 0.0000000000000000 0.0000000000000000
1.0000000000000000 0.0000000000000000 0.0000000000000000
1.0000000000000000 0.0000000000000000 0.0000000000000000
1.0000000000000000 0.0000000000000000 0.0000000000000000
1.0000000000000000 0.0000000000000000 0.0000000000000000
1.0000000000000000 0.0000000000000000 0.0000000000000000
1.0000000000000000 0.0000000000000000 0.0000000000000000
1.0000000000000000 0.0000000000000000 0.0000000000000000
1.0000000000000000 0.0000000000000000 0.0000000000000000
1.0000000000000000 0.0000000000000000 0.0000000000000000
1.0000000000000000 0.0000000000000000 0.0000000000000000
1.0000000000000000 0.0000000000000000 0.0000000000000000
1.0000000000000000 0.0000000000000000 0.0000000000000000
1.0000000000000000 0.0000000000000000 0.0000000000000000
1.0000000000000000 0.0000000000000000 0.0000000000000000
1.0000000000000000 0.0000000000000000 0.0000000000000000
1.0000000000000000 0.0000000000000000 0.0000000000000000
1.0000000000000000 0.0000000000000000 0.0000000000000000
1.0000000000000000 0.0000000000000000 0.0000000000000000
1.0000000000000000 0.0000000000000000 0.0000000000000000
1.0000000000000000 0.0000000000000000 0.0000000000000000
1.0000000000000000 0.0000000000000000 0.0000000000000000
1.0000000000000000 0.0000000000000000 0.0000000000000000
1.0000000000000000 0.0000000000000000 0.0000000000000000
1.0000000000000000 0.0000000000000000 0.0000000000000000
1.0000000000000000 0.0000000000000000 0.0000000000000000
1.0000000000000000 0.0000000000000000 0.0000000000000000
1.0000000000000000 0.0000000000000000 0.0000000000000000
1.0000000000000000 0.0000000000000000 0.0000000000000000
1.0000000000000000 0.0000000000000000 0.0000000000000000
1.0000000000000000 0.0000000000000000 0.0000000000000000
1.0000000000000000 0.0000000000000000 0.0000000000000000
1.0000000000000000 0.0000000000000000 0.0000000000000000
1.0000000000000000 0.0000000000000000 0.0000000000000000
1.0000000000000000 0.0000000000000000 0.0000000000000000
1.0000000000000000 0.0000000000000000 0.0000000000000000
1.0000000000000000 0.0000000000000000 0.0000000000000000
1.0000000000000000 0.0000000000000000 0.0000000000000000
1.0000000000000000 0.0000000000000000 0.0000000000000000
1.0000000000000000 0.0000000000000000 0.0000000000000000
1.0000000000000000 0.0000000000000000 0.0000000000000000
1.0000000000000000 0.0000000000000000 0.0000000000000000
1.0000000000000000 0.0000000000000000 0.0000000000000000
1.0000000000000000 0.0000000000000000 0.0000000000000000
1.0000000000000000 0.0000000000000000 0.0000000000000000
1.0000000000000000 0.0000000000000000 0.0000000000000000
1.0000000000000000 0.0000000000000000 0.0000000000000000
1.0000000000000000 0.0000000000000000 0.0000000000000000
1.0000000000000000 0.0000000000000000 0.0000000000000000
1.0000000000000000 0.0000000000000000 0.0000000000000000
1.0000000000000000 0.0000000000000000 0.0000000000000000
1.0000000000000000 0.0000000000000000 0.0000000000000000
1.0000000000000000 0.0000000000000000 0.0000000000000000
1.0000000000000000 0.0000000000000000 0.0000000000000000
1.0000000000000000 0.0000000000000000 0.0000000000000000
1.0000000000000000 0.0000000000000000 0.0000000000000000
1.0000000000000000 0.0000000000000000 0.0000000000000000
1.0000000000000000 0.0000000000000000 0.0000000000000000
1.0000000000000000 0.0000000000000000 0.0000000000000000
1.0000000000000000 0.0000000000000000 0.0000000000000000
1.0000000000000000 0.0000000000000000 0.0000000000000000
1.0000000000000000 0.0000000000000000 0.0000000000000000
1.0000000000000000 0.0000000000000000 0.0000000000000000
1.0000000000000000 0.0000000000000000 0.0000000000000000
1.0000000000000000 0.0000000000000000 0.0000000000000000
1.0000000000000000 0.0000000000000000 0.0000000000000000
1.0000000000000000 0.0000000000000000 0.0000000000000000
1.0000000000000000 0.0000000000000000 0.0000000000000000
1.0000000000000000 0.0000000000000000 0.0000000000000000
1.0000000000000000 0.0000000000000000 0.0000000000000000
1.0000000000000000 0.0000000000000000 0.0000000000000000
1.0000000000000000 0.0000000000000000 0.0000000000000000
1.0000000000000000 0.0000000000000000 0.0000000000000000
1.0000000000000000 0.0000000000000000 0.0000000000000000
1.0000000000000000 0.0000000000000000 0.0000000000000000
1.0000000000000000 0.0000000000000000 0.0000000000000000
1.0000000000000000 0.0000000000000000 0.0000000000000000
1.0000000000000000 0.0000000000000000 0.0000000000000000
1.0000000000000000 0.0000000000000000 0.0000000000000000
1.0000000000000000 0.0000000000000000 0.0000000000000000
1.0000000000000000 0.0000000000000000 0.0000000000000000
1.0000000000000000 0.0000000000000000 0.0000000000000000
1.0000000000000000 0.0000000000000000 0.0000000000000000
1.0000000000000000 0.0000000000000000 0.0000000000000000
1.0000000000000000 0.0000000000000000 0.0000000000000000
1.0000000000000000 0.0000000000000000 0.0000000000000000
1.0000000000000000 0.0000000000000000 0.0000000000000000
1.0000000000000000 0.0000000000000000 0.0000000000000000
1.0000000000000000 0.0000000000000000 0.0000000000000000
1.0000000000000000 0.0000000000000000 0.0000000000000000
1.0000000000000000 0.0000000000000000 0.0000000000000000
1.0000000000000000 0.0000000000000000 0.0000000000000000
1.0000000000000000 0.0000000000000000 0.0000000000000000
1.0000000000000000 0.0000000000000000 0.0000000000000000
1.0000000000000000 0.0000000000000000 0.0000000000000000
1.0000000000000000 0.0000000000000000 0.0000000000000000
1.0000000000000000 0.0000000000000000 0.0000000000000000
1.0000000000000000 0.0000000000000000 0.0000000000000000
1.0000000000000000 0.0000000000000000 0.0000000000000000
1.0000000000000000 0.0000000000000000 0.0000000000000000
1.0000000000000000 0.0000000000000000 0.0000000000000000
1.0000000000000000 0.0000000000000000 0.0000000000000000
1.0000000000000000 0.0000000000000000 0.0000000000000000
1.0000000000000000 0.0000000000000000 0.0000000000000000
1.0000000000000000 0.0000000000000000 0.0000000000000000
1.0000000000000000 0.0000000000000000 0.0000000000000000
1.0000000000000000 0.0000000000000000 0.0000000000000000
1.0000000000000000 0.0000000000000000 0.0000000000000000
1.0000000000000000 0.0000000000000000 0.0000000000000000
1.0000000000000000 0.0000000000000000 0.0000000000000000
1.0000000000000000 0.0000000000000000 0.0000000000000000
1.0000000000000000 0.0000000000000000 0.0000000000000000
1.0000000000000000 0.0000000000000000 0.0000000000000000
1.0000000000000000 0.0000000000000000 0.0000000000000000
1.0000000000000000 0.0000000000000000 0.0000000000000000
1.0000000000000000 0.0000000000000000 0.0000000000000000
1.0000000000000000 0.0000000000000000 0.0000000000000000
1.0000000000000000 0.0000000000000000 0.0000000000000000
1.0000000000000000 0.0000000000000000 0.0000000000000000
1.0000000000000000 0.0000000000000000 0.0000000000000000
1.0000000000000000 0.0000000000000000 0.0000000000000000
1.0000000000000000 0.0000000000000000 0.0000000000000000
1.0000000000000000 0.0000000000000000 0.0000000000000000
1.0000000000000000 0.0000000000000000 0.0000000000000000
1.0000000000000000 0.0000000000000000 0.0000000000000000
1.0000000000000000 0.0000000000000000 0.0000000000000000
1.0000000000000000 0.0000000000000000 0.0000000000000000
1.0000000000000000 0.0000000000000000 0.0000000000000000
1.0000000000000000 0.0000000000000000 0.0000000000000000
1.0000000000000000 0.0000000000000000 0.0000000000000000
1.0000000000000000 0.0000000000000000 0.0000000000000000
1.0000000000000000 0.0000000000000000 0.0000000000000000
1.0000000000000000 0.0000000000000000 0.0000000000000000
1.0000000000000000 0.0000000000000000 0.0000000000000000
1.0000000000000000 0.0000000000000000 0.0000000000000000
1.0000000000000000 0.0000000000000000 0.0000000000000000
1.0000000000000000 0.0000000000000000 0.0000000000000000
1.0000000000000000 0.0000000000000000 0.0000000000000000
1.0000000000000000 0.0000000000000000 0.0000000000000000
1.0000000000000000 0.0000000000000000 0.0000000000000000
1.0000000000000000 0.0000000000000000 0.0000000000000000
1.0000000000000000 0.0000000000000000 0.0000000000000000
1.0000000000000000 0.0000000000000000 0.0000000000000000
1.0000000000000000 0.0000000000000000 0.0000000000000000
1.0000000000000000 0.0000000000000000 0.0000000000000000
1.0000000000000000 0.0000000000000000 0.0000000000000000
1.0000000000000000 0.0000000000000000 0.0000000000000000
1.0000000000000000 0.0000000000000000 0.0000000000000000
1.0000000000000000 0.0000000000000000 0.0000000000000000
1.0000000000000000 0.0000000000000000 0.0000000000000000
1.0000000000000000 0.0000000000000000 0.0000000000000000
1.0000000000000000 0.0000000000000000 0.0000000000000000
1.0000000000000000 0.0000000000000000 0.0000000000000000
1.0000000000000000 0.0000000000000000 0.0000000000000000
1.0000000000000000 0.0000000000000000 0.0000000000000000
1.0000000000000000 0.0000000000000000 0.0000000000000000
1.0000000000000000 0.0000000000000000 0.0000000000000000
1.0000000000000000 0.0000000000000000 0.0000000000000000
1.0000000000000000 0.0000000000000000 0.0000000000000000
1.0000000000000000 0.0000000000000000 0.0000000000000000
1.0000000000000000 0.0000000000000000 0.0000000000000000
1.0000000000000000 0.0000000000000000 0.0000000000000000
1.0000000000000000 0.0000000000000000 0.0000000000000000
1.0000000000000000 0.0000000000000000 0.0000000000000000
1.0000000000000000 0.0000000000000000 0.0000000000000000
1.0000000000000000 0.0000000000000000 0.0000000000000000
1.0000000000000000 0.0000000000000000 0.0000000000000000
1.0000000000000000 0.0000000000000000 0.0000000000000000
1.0000000000000000 0.0000000000000000 0.0000000000000000
1.0000000000000000 0.0000000000000000 0.0000000000000000
1.0000000000000000 0.0000000000000000 0.0000000000000000
1.0000000000000000 0.0000000000000000 0.0000000000000000
1.0000000000000000 0.0000000000000000 0.0000000000000000
1.0000000000000000 0.0000000000000000 0.0000000000000000
1.0000000000000000 0.0000000000000000 0.0000000000000000
1.0000000000000000 0.0000000000000000 0.0000000000000000
1.0000000000000000 0.0000000000000000 0.0000000000000000
1.0000000000000000 0.0000000000000000 0.0000000000000000
1.0000000000000000 0.0000000000000000 0.0000000000000000
1.0000000000000000 0.0000000000000000 0.0000000000000000
1.0000000000000000 0.0000000000000000 0.0000000000000000
1.0000000000000000 0.0000000000000000 0.0000000000000000
1.0000000000000000 0.0000000000000000 0.0000000000000000
1.0000000000000000 0.0000000000000000 0.0000000000000000
1.0000000000000000 0.0000000000000000 0.0000000000000000
1.0000000000000000 0.0000000000000000 0.0000000000000000
1.0000000000000000 0.0000000000000000 0.0000000000000000
1.0000000000000000 0.0000000000000000 0.0000000000000000
1.0000000000000000 0.0000000000000000 0.0000000000000000
1.0000000000000000 0.0000000000000000 0.0000000000000000
1.0000000000000000 0.0000000000000000 0.0000000000000000
1.0000000000000000 0.0000000000000000 0.0000000000000000
1.0000000000000000 0.0000000000000000 0.0000000000000000
1.0000000000000000 0.0000000000000000 0.0000000000000000
1.0000000000000000 0.0000000000000000 0.0000000000000000
1.0000000000000000 0.0000000000000000 0.0000000000000000
1.0000000000000000 0.0000000000000000 0.0000000000000000
1.0000000000000000 0.0000000000000000 0.0000000000000000
1.0000000000000000 0.0000000000000000 0.0000000000000000
1.0000000000000000 0.0000000000000000 0.0000000000000000
1.0000000000000000 0.0000000000000000 0.0000000000000000
1.0000000000000000 0.0000000000000000 0.0000000000000000
1.0000000000000000 0.0000000000000000 0.0000000000000000
1.0000000000000000 0.0000000000000000 0.0000000000000000
1.0000000000000000 0.0000000000000000 0.0000000000000000
1.0000000000000000 0.0000000000000000 0.0000000000000000
1.0000000000000000 0.0000000000000000 0.0000000000000000
1.0000000000000000 0.0000000000000000 0.0000000000000000
1.0000000000000000 0.0000000000000000 0.0000000000000000
1.0000000000000000 0.0000000000000000 0.0000000000000000
1.0000000000000000 0.0000000000000000 0.0000000000000000
1.0000000000000000 0.0000000000000000 0.0000000000000000
1.0000000000000000 0.0000000000000000 0.0000000000000000
1.0000000000000000 0.0000000000000000 0.0000000000000000
1.0000000000000000 0.0000000000000000 0.0000000000000000
1.0000000000000000 0.0000000000000000 0.0000000000000000
1.0000000000000000 0.0000000000000000 0.0000000000000000
1.0000000000000000 0.0000000000000000 0.0000000000000000
1.0000000000000000 0.0000000000000000 0.0000000000000000
1.0000000000000000 0.0000000000000000 0.0000000000000000
1.0000000000000000 0.0000000000000000 0.0000000000000000
1.0000000000000000 0.0000000000000000 0.0000000000000000
1.0000000000000000 0.0000000000000000 0.0000000000000000
1.0000000000000000 0.0000000000000000 0.0000000000000000
1.0000000000000000 0.0000000000000000 0.0000000000000000
1.0000000000000000 0.0000000000000000 0.0000000000000000
1.0000000000000000 0.0000000000000000 0.0000000000000000
1.0000000000000000 0.0000000000000000 0.0000000000000000
1.0000000000000000 0.0000000000000000 0.0000000000000000
1.0000000000000000 0.0000000000000000 0.0000000000000000
1.0000000000000000 0.0000000000000000 0.0000000000000000
1.0000000000000000 0.0000000000000000 0.0000000000000000
1.0000000000000000 0.0000000000000000 0.0000000000000000
1.0000000000000000 0.0000000000000000 0.0000000000000000
1.0000000000000000 0.0000000000000000 0.0000000000000000
1.0000000000000000 0.0000000000000000 0.0000000000000000
1.0000000000000000 0.0000000000000000 0.0000000000000000
1.0000000000000000 0.0000000000000000 0.0000000000000000
1.0000000000000000 0.0000000000000000 0.0000000000000000
1.0000000000000000 0.0000000000000000 0.0000000000000000
1.0000000000000000 0.0000000000000000 0.0000000000000000
1.0000000000000000 0.0000000000000000 0.0000000000000000
1.0000000000000000 0.0000000000000000 0.0000000000000000
1.0000000000000000 0.0000000000000000 0.0000000000000000
1.0000000000000000 0.0000000000000000 0.0000000000000000
1.0000000000000000 0.0000000000000000 0.0000000000000000
1.0000000000000000 0.0000000000000000 0.0000000000000000
1.0000000000000000 0.0000000000000000 0.0000000000000000
1.0000000000000000 0.0000000000000000 0.0000000000000000
1.0000000000000000 0.0000000000000000 0.0000000000000000
1.0000000000000000 0.0000000000000000 0.0000000000000000
1.0000000000000000 0.0000000000000000 0.0000000000000000
1.0000000000000000 0.0000000000000000 0.0000000000000000
1.0000000000000000 0.0000000000000000 0.0000000000000000
1.0000000000000000 0.0000000000000000 0.0000000000000000
1.0000000000000000 0.0000000000000000 0.0000000000000000
1.0000000000000000 0.0000000000000000 0.0000000000000000
1.0000000000000000 0.0000000000000000 0.0000000000000000
1.0000000000000000 0.0000000000000000 0.0000000000000000
1.0000000000000000 0.0000000000000000 0.0000000000000000
1.0000000000000000 0.0000000000000000 0.0000000000000000
1.0000000000000000 0.0000000000000000 0.0000000000000000
1.0000000000000000 0.0000000000000000 0.0000000000000000
1.0000000000000000 0.0000000000000000 0.0000000000000000
1.0000000000000000 0.0000000000000000 0.0000000000000000
1.0000000000000000 0.0000000000000000 0.0000000000000000
1.0000000000000000 0.0000000000000000 0.0000000000000000
1.0000000000000000 0.0000000000000000 0.0000000000000000
1.0000000000000000 0.0000000000000000 0.0000000000000000
1.0000000000000000 0.0000000000000000 0.0000000000000000
1.0000000000000000 0.0000000000000000 0.0000000000000000
1.0000000000000000 0.0000000000000000 0.0000000000000000
1.0000000000000000 0.0000000000000000 0.0000000000000000
1.0000000000000000 0.0000000000000000 0.0000000000000000
1.0000000000000000 0.0000000000000000 0.0000000000000000
1.0000000000000000 0.0000000000000000 0.0000000000000000
1.0000000000000000 0.0000000000000000 0.0000000000000000
1.0000000000000000 0.0000000000000000 0.0000000000000000
1.0000000000000000 0.0000000000000000 0.0000000000000000
1.0000000000000000 0.0000000000000000 0.0000000000000000
1.0000000000000000 0.0000000000000000 0.0000000000000000
1.0000000000000000 0.0000000000000000 0.0000000000000000
1.0000000000000000 0.0000000000000000 0.0000000000000000
1.0000000000000000 0.0000000000000000 0.0000000000000000
1.0000000000000000 0.0000000000000000 0.0000000000000000
1.0000000000000000 0.0000000000000000 0.0000000000000000
1.0000000000000000 0.0000000000000000 0.0000000000000000
1.0000000000000000 0.0000000000000000 0.0000000000000000
1.0000000000000000 0.0000000000000000 0.0000000000000000
1.0000000000000000 0.0000000000000000 0.0000000000000000
1.0000000000000000 0.0000000000000000 0.0000000000000000
1.0000000000000000 0.0000000000000000 0.0000000000000000
1.0000000000000000 0.0000000000000000 0.0000000000000000
1.0000000000000000 0.0000000000000000 0.0000000000000000
1.0000000000000000 0.0000000000000000 0.0000000000000000
1.0000000000000000 0.0000000000000000 0.0000000000000000
1.0000000000000000 0.0000000000000000 0.0000000000000000
1.0000000000000000 0.0000000000000000 0.0000000000000000
1.0000000000000000 0.0000000000000000 0.0000000000000000
1.0000000000000000 0.0000000000000000 0.0000000000000000
1.0000000000000000 0.0000000000000000 0.0000000000000000
1.0000000000000000 0.0000000000000000 0.0000000000000000
1.0000000000000000 0.0000000000000000 0.0000000000000000
1.0000000000000000 0.0000000000000000 0.0000000000000000
1.0000000000000000 0.0000000000000000 0.0000000000000000
1.0000000000000000 0.0000000000000000 0.0000000000000000
1.0000000000000000 0.0000000000000000 0.0000000000000000
1.0000000000000000 0.0000000000000000 0.0000000000000000
1.0000000000000000 0.0000000000000000 0.0000000000000000
1.0000000000000000 0.0000000000000000 0.0000000000000000
1.0000000000000000 0.0000000000000000 0.0000000000000000
1.0000000000000000 0.0000000000000000 0.0000000000000000
1.0000000000000000 0.0000000000000000 0.0000000000000000
1.0000000000000000 0.0000000000000000 0.0000000000000000
1.0000000000000000 0.0000000000000000 0.0000000000000000
1.0000000000000000 0.0000000000000000 0.0000000000000000
1.0000000000000000 0.0000000000000000 0.0000000000000000
1.0000000000000000 0.0000000000000000 0.0000000000000000
1.0000000000000000 0.0000000000000000 0.0000000000000000
1.0000000000000000 0.0000000000000000 0.0000000000000000
1.0000000000000000 0.0000000000000000 0.0000000000000000
1.0000000000000000 0.0000000000000000 0.0000000000000000
1.0000000000000000 0.0000000000000000 0.0000000000000000
1.0000000000000000 0.0000000000000000 0.0000000000000000
1.0000000000000000 0.0000000000000000 0.0000000000000000
1.0000000000000000 0.0000000000000000 0.0000000000000000
1.0000000000000000 0.0000000000000000 0.0000000000000000
1.0000000000000000 0.0000000000000000 0.0000000000000000
1.0000000000000000 0.0000000000000000 0.0000000000000000
1.0000000000000000 0.0000000000000000 0.0000000000000000
1.0000000000000000 0.0000000000000000 0.0000000000000000
1.0000000000000000 0.0000000000000000 0.0000000000000000
1.0000000000000000 0.0000000000000000 0.0000000000000000
1.0000000000000000 0.0000000000000000 0.0000000000000000
1.0000000000000000 0.0000000000000000 0.0000000000000000
1.0000000000000000 0.0000000000000000 0.0000000000000000
1.0000000000000000 0.0000000000000000 0.0000000000000000
1.0000000000000000 0.0000000000000000 0.0000000000000000
1.0000000000000000 0.0000000000000000 0.0000000000000000
1.0000000000000000 0.0000000000000000 0.0000000000000000
1.0000000000000000 0.0000000000000000 0.0000000000000000
1.0000000000000000 0.0000000000000000 0.0000000000000000
1.0000000000000000 0.0000000000000000 0.0000000000000000
1.0000000000000000 0.0000000000000000 0.0000000000000000
1.0000000000000000 0.0000000000000000 0.0000000000000000
1.0000000000000000 0.0000000000000000 0.0000000000000000
1.0000000000000000 0.0000000000000000 0.0000000000000000
1.0000000000000000 0.0000000000000000 0.0000000000000000
1.0000000000000000 0.0000000000000000 0.0000000000000000
1.0000000000000000 0.0000000000000000 0.0000000000000000
1.0000000000000000 0.0000000000000000 0.0000000000000000
1.0000000000000000 0.0000000000000000 0.0000000000000000
1.0000000000000000 0.0000000000000000 0.0000000000000000
1.0000000000000000 0.0000000000000000 0.0000000000000000
1.0000000000000000 0.0000000000000000 0.0000000000000000
1.0000000000000000 0.0000000000000000 0.0000000000000000
1.0000000000000000 0.0000000000000000 0.0000000000000000
1.0000000000000000 0.0000000000000000 0.0000000000000000
1.0000000000000000 0.0000000000000000 0.0000000000000000
1.0000000000000000 0.0000000000000000 0.0000000000000000
1.0000000000000000 0.0000000000000000 0.0000000000000000
1.0000000000000000 0.0000000000000000 0.0000000000000000
1.0000000000000000 0.0000000000000000 0.0000000000000000
1.0000000000000000 0.0000000000000000 0.0000000000000000
1.0000000000000000 0.0000000000000000 0.0000000000000000
1.0000000000000000 0.0000000000000000 0.0000000000000000
1.0000000000000000 0.0000000000000000 0.0000000000000000
1.0000000000000000 0.0000000000000000 0.0000000000000000
1.0000000000000000 0.0000000000000000 0.0000000000000000
1.0000000000000000 0.0000000000000000 0.0000000000000000
1.0000000000000000 0.0000000000000000 0.0000000000000000
1.0000000000000000 0.0000000000000000 0.0000000000000000
1.0000000000000000 0.0000000000000000 0.0000000000000000
1.0000000000000000 0.0000000000000000 0.0000000000000000
1.0000000000000000 0.0000000000000000 0.0000000000000000
1.0000000000000000 0.0000000000000000 0.0000000000000000
1.0000000000000000 0.0000000000000000 0.0000000000000000
1.0000000000000000 0.0000000000000000 0.0000000000000000
1.0000000000000000 0.0000000000000000 0.0000000000000000
1.0000000000000000 0.0000000000000000 0.0000000000000000
1.0000000000000000 0.0000000000000000 0.0000000000000000
1.0000000000000000 0.0000000000000000 0.0000000000000000
1.0000000000000000 0.0000000000000000 0.0000000000000000
1.0000000000000000 0.0000000000000000 0.0000000000000000
1.0000000000000000 0.0000000000000000 0.0000000000000000
1.0000000000000000 0.0000000000000000 0.0000000000000000
1.0000000000000000 0.0000000000000000 0.0000000000000000
1.0000000000000000 0.0000000000000000 0.0000000000000000
1.0000000000000000 0.0000000000000000 0.0000000000000000
1.0000000000000000 0.0000000000000000 0.0000000000000000
1.0000000000000000 0.0000000000000000 0.0000000000000000
1.0000000000000000 0.0000000000000000 0.0000000000000000
1.0000000000000000 0.0000000000000000 0.0000000000000000
1.0000000000000000 0.0000000000000000 0.0000000000000000
1.0000000000000000 0.0000000000000000 0.0000000000000000
1.0000000000000000 0.0000000000000000 0.0000000000000000
1.0000000000000000 0.0000000000000000 0.0000000000000000
1.0000000000000000 0.0000000000000000 0.0000000000000000
1.0000000000000000 0.0000000000000000 0.0000000000000000
1.0000000000000000 0.0000000000000000 0.0000000000000000
1.0000000000000000 0.0000000000000000 0.0000000000000000
1.0000000000000000 0.0000000000000000 0.0000000000000000
1.0000000000000000 0.0000000000000000 0.0000000000000000
1.0000000000000000 0.0000000000000000 0.0000000000000000
1.0000000000000000 0.0000000000000000 0.0000000000000000
1.0000000000000000 0.0000000000000000 0.0000000000000000
1.0000000000000000 0.0000000000000000 0.0000000000000000
1.0000000000000000 0.0000000000000000 0.0000000000000000
1.0000000000000000 0.0000000000000000 0.0000000000000000
1.0000000000000000 0.0000000000000000 0.0000000000000000
1.0000000000000000 0.0000000000000000 0.0000000000000000
1.0000000000000000 0.0000000000000000 0.0000000000000000
1.0000000000000000 0.0000000000000000 0.0000000000000000
1.0000000000000000 0.0000000000000000 0.0000000000000000
1.0000000000000000 0.0000000000000000 0.0000000000000000
1.0000000000000000 0.0000000000000000 0.0000000000000000
1.0000000000000000 0.0000000000000000 0.0000000000000000
1.0000000000000000 0.0000000000000000 0.0000000000000000
1.0000000000000000 0.0000000000000000 0.0000000000000000
1.0000000000000000 0.0000000000000000 0.0000000000000000
1.0000000000000000 0.0000000000000000 0.0000000000000000
1.0000000000000000 0.0000000000000000 0.0000000000000000
1.0000000000000000 0.0000000000000000 0.0000000000000000
1.0000000000000000 0.0000000000000000 0.0000000000000000
1.0000000000000000 0.0000000000000000 0.0000000000000000
1.0000000000000000 0.0000000000000000 0.0000000000000000
1.0000000000000000 0.0000000000000000 0.0000000000000000
1.0000000000000000 0.0000000000000000 0.0000000000000000
1.0000000000000000 0.0000000000000000 0.0000000000000000
1.0000000000000000 0.0000000000000000 0.0000000000000000
1.0000000000000000 0.0000000000000000 0.0000000000000000
1.0000000000000000 0.0000000000000000 0.0000000000000000
1.0000000000000000 0.0000000000000000 0.0000000000000000
1.0000000000000000 0.0000000000000000 0.0000000000000000
1.0000000000000000 0.0000000000000000 0.0000000000000000
1.0000000000000000 0.0000000000000000 0.0000000000000000
1.0000000000000000 0.0000000000000000 0.0000000000000000
1.0000000000000000 0.0000000000000000 0.0000000000000000
1.0000000000000000 0.0000000000000000 0.0000000000000000
1.0000000000000000 0.0000000000000000 0.0000000000000000
1.0000000000000000 0.0000000000000000 0.0000000000000000
1.0000000000000000 0.0000000000000000 0.0000000000000000
1.0000000000000000 0.0000000000000000 0.0000000000000000
1.0000000000000000 0.0000000000000000 0.0000000000000000
1.0000000000000000 0.0000000000000000 0.0000000000000000
1.0000000000000000 0.0000000000000000 0.0000000000000000
1.0000000000000000 0.0000000000000000 0.0000000000000000
1.0000000000000000 0.0000000000000000 0.0000000000000000
1.0000000000000000 0.0000000000000000 0.0000000000000000
1.0000000000000000 0.0000000000000000 0.0000000000000000
1.0000000000000000 0.0000000000000000 0.0000000000000000
1.0000000000000000 0.0000000000000000 0.0000000000000000
1.0000000000000000 0.0000000000000000 0.0000000000000000
1.0000000000000000 0.0000000000000000 0.0000000000000000
1.0000000000000000 0.0000000000000000 0.0000000000000000
1.0000000000000000 0.0000000000000000 0.0000000000000000
1.0000000000000000 0.0000000000000000 0.0000000000000000
1.0000000000000000 0.0000000000000000 0.0000000000000000
1.0000000000000000 0.0000000000000000 0.0000000000000000
1.0000000000000000 0.0000000000000000 0.0000000000000000
1.0000000000000000 0.0000000000000000 0.0000000000000000
1.0000000000000000 0.0000000000000000 0.0000000000000000
1.0000000000000000 0.0000000000000000 0.0000000000000000
1.0000000000000000 0.0000000000000000 0.0000000000000000
1.0000000000000000 0.0000000000000000 0.0000000000000000
1.0000000000000000 0.0000000000000000 0.0000000000000000
1.0000000000000000 0.0000000000000000 0.0000000000000000
1.0000000000000000 0.0000000000000000 0.0000000000000000
1.0000000000000000 0.0000000000000000 0.0000000000000000
1.0000000000000000 0.0000000000000000 0.0000000000000000
1.0000000000000000 0.0000000000000000 0.0000000000000000
1.0000000000000000 0.0000000000000000 0.0000000000000000
1.0000000000000000 0.0000000000000000 0.0000000000000000
1.0000000000000000 0.0000000000000000 0.0000000000000000
1.0000000000000000 0.0000000000000000 0.0000000000000000
1.0000000000000000 0.0000000000000000 0.0000000000000000
1.0000000000000000 0.0000000000000000 0.0000000000000000
1.0000000000000000 0.0000000000000000 0.0000000000000000
1.0000000000000000 0.0000000000000000 0.0000000000000000
1.0000000000000000 0.0000000000000000 0.0000000000000000
1.0000000000000000 0.0000000000000000 0.0000000000000000
1.0000000000000000 0.0000000000000000 0.0000000000000000
1.0000000000000000 0.0000000000000000 0.0000000000000000
1.0000000000000000 0.0000000000000000 0.0000000000000000
1.0000000000000000 0.0000000000000000 0.0000000000000000
1.0000000000000000 0.0000000000000000 0.0000000000000000
1.0000000000000000 0.0000000000000000 0.0000000000000000
1.0000000000000000 0.0000000000000000 0.0000000000000000
1.0000000000000000 0.0000000000000000 0.0000000000000000
1.0000000000000000 0.0000000000000000 0.0000000000000000
1.0000000000000000 0.0000000000000000 0.0000000000000000
1.0000000000000000 0.0000000000000000 0.0000000000000000
1.0000000000000000 0.0000000000000000 0.0000000000000000
1.0000000000000000 0.0000000000000000 0.0000000000000000
1.0000000000000000 0.0000000000000000 0.0000000000000000
1.0000000000000000 0.0000000000000000 0.0000000000000000
1.0000000000000000 0.0000000000000000 0.0000000000000000
1.0000000000000000 0.0000000000000000 0.0000000000000000
1.0000000000000000 0.0000000000000000 0.0000000000000000
1.0000000000000000 0.0000000000000000 0.0000000000000000
1.0000000000000000 0.0000000000000000 0.0000000000000000
1.0000000000000000 0.0000000000000000 0.0000000000000000
1.0000000000000000 0.0000000000000000 0.0000000000000000
1.0000000000000000 0.0000000000000000 0.0000000000000000
1.0000000000000000 0.0000000000000000 0.0000000000000000
1.0000000000000000 0.0000000000000000 0.0000000000000000
1.0000000000000000 0.0000000000000000 0.0000000000000000
1.0000000000000000 0.0000000000000000 0.0000000000000000
1.0000000000000000 0.0000000000000000 0.0000000000000000
1.0000000000000000 0.0000000000000000 0.0000000000000000
1.0000000000000000 0.0000000000000000 0.0000000000000000
1.0000000000000000 0.0000000000000000 0.0000000000000000
1.0000000000000000 0.0000000000000000 0.0000000000000000
1.0000000000000000 0.0000000000000000 0.0000000000000000
1.0000000000000000 0.0000000000000000 0.0000000000000000
1.0000000000000000 0.0000000000000000 0.0000000000000000
1.0000000000000000 0.0000000000000000 0.0000000000000000
1.0000000000000000 0.0000000000000000 0.0000000000000000
1.0000000000000000 0.0000000000000000 0.0000000000000000
1.0000000000000000 0.0000000000000000 0.0000000000000000
1.0000000000000000 0.0000000000000000 0.0000000000000000
1.0000000000000000 0.0000000000000000 0.0000000000000000
1.0000000000000000 0.0000000000000000 0.0000000000000000
1.0000000000000000 0.0000000000000000 0.0000000000000000
1.0000000000000000 0.0000000000000000 0.0000000000000000
1.0000000000000000 0.0000000000000000 0.0000000000000000
1.0000000000000000 0.0000000000000000 0.0000000000000000
1.0000000000000000 0.0000000000000000 0.0000000000000000
1.0000000000000000 0.0000000000000000 0.0000000000000000
1.0000000000000000 0.0000000000000000 0.0000000000000000
1.0000000000000000 0.0000000000000000 0.0000000000000000
1.0000000000000000 0.0000000000000000 0.0000000000000000
1.0000000000000000 0.0000000000000000 0.0000000000000000
1.0000000000000000 0.0000000000000000 0.0000000000000000
1.0000000000000000 0.0000000000000000 0.0000000000000000
1.0000000000000000 0.0000000000000000 0.0000000000000000
1.0000000000000000 0.0000000000000000 0.0000000000000000
1.0000000000000000 0.0000000000000000 0.0000000000000000
1.0000000000000000 0.0000000000000000 0.0000000000000000
1.0000000000000000 0.0000000000000000 0.0000000000000000
1.0000000000000000 0.0000000000000000 0.0000000000000000
1.0000000000000000 0.0000000000000000 0.0000000000000000
1.0000000000000000 0.0000000000000000 0.0000000000000000
1.0000000000000000 0.0000000000000000 0.0000000000000000
1.0000000000000000 0.0000000000000000 0.0000000000000000
1.0000000000000000 0.0000000000000000 0.0000000000000000
1.0000000000000000 0.0000000000000000 0.0000000000000000
1.0000000000000000 0.0000000000000000 0.0000000000000000
1.0000000000000000 0.0000000000000000 0.0000000000000000
1.0000000000000000 0.0000000000000000 0.0000000000000000
1.0000000000000000 0.0000000000000000 0.0000000000000000
1.0000000000000000 0.0000000000000000 0.0000000000000000
1.0000000000000000 0.0000000000000000 0.0000000000000000
1.0000000000000000 0.0000000000000000 0.0000000000000000
1.0000000000000000 0.0000000000000000 0.0000000000000000
1.0000000000000000 0.0000000000000000 0.0000000000000000
1.0000000000000000 0.0000000000000000 0.0000000000000000
1.0000000000000000 0.0000000000000000 0.0000000000000000
1.0000000000000000 0.0000000000000000 0.0000000000000000
1.0000000000000000 0.0000000000000000 0.0000000000000000
1.0000000000000000 0.0000000000000000 0.0000000000000000
1.0000000000000000 0.0000000000000000 0.0000000000000000
1.0000000000000000 0.0000000000000000 0.0000000000000000
1.0000000000000000 0.0000000000000000 0.0000000000000000
1.0000000000000000 0.0000000000000000 0.0000000000000000
1.0000000000000000 0.0000000000000000 0.0000000000000000
1.0000000000000000 0.0000000000000000 0.0000000000000000
1.0000000000000000 0.0000000000000000 0.0000000000000000
1.0000000000000000 0.0000000000000000 0.0000000000000000
1.0000000000000000 0.0000000000000000 0.0000000000000000
1.0000000000000000 0.0000000000000000 0.0000000000000000
1.0000000000000000 0.0000000000000000 0.0000000000000000
1.0000000000000000 0.0000000000000000 0.0000000000000000
1.0000000000000000 0.0000000000000000 0.0000000000000000
1.0000000000000000 0.0000000000000000 0.0000000000000000
1.0000000000000000 0.0000000000000000 0.0000000000000000
1.0000000000000000 0.0000000000000000 0.0000000000000000
1.0000000000000000 0.0000000000000000 0.0000000000000000
1.0000000000000000 0.0000000000000000 0.0000000000000000
1.0000000000000000 0.0000000000000000 0.0000000000000000
1.0000000000000000 0.0000000000000000 0.0000000000000000
1.0000000000000000 0.0000000000000000 0.0000000000000000
1.0000000000000000 0.0000000000000000 0.0000000000000000
1.0000000000000000 0.0000000000000000 0.0000000000000000
1.0000000000000000 0.0000000000000000 0.0000000000000000
1.0000000000000000 0.0000000000000000 0.0000000000000000
1.0000000000000000 0.0000000000000000 0.0000000000000000
1.0000000000000000 0.0000000000000000 0.0000000000000000
1.0000000000000000 0.0000000000000000 0.0000000000000000
1.0000000000000000 0.0000000000000000 0.0000000000000000
1.0000000000000000 0.0000000000000000 0.0000000000000000
1.0000000000000000 0.0000000000000000 0.0000000000000000
1.0000000000000000 0.0000000000000000 0.0000000000000000
1.0000000000000000 0.0000000000000000 0.0000000000000000
1.0000000000000000 0.0000000000000000 0.0000000000000000
1.0000000000000000 0.0000000000000000 0.0000000000000000
1.0000000000000000 0.0000000000000000 0.0000000000000000
1.0000000000000000 0.0000000000000000 0.0000000000000000
1.0000000000000000 0.0000000000000000 0.0000000000000000
1.0000000000000000 0.0000000000000000 0.0000000000000000
1.0000000000000000 0.0000000000000000 0.0000000000000000
1.0000000000000000 0.0000000000000000 0.0000000000000000
1.0000000000000000 0.0000000000000000 0.0000000000000000
1.0000000000000000 0.0000000000000000 0.0000000000000000
1.0000000000000000 0.0000000000000000 0.0000000000000000
1.0000000000000000 0.0000000000000000 0.0000000000000000
1.0000000000000000 0.0000000000000000 0.0000000000000000
1.0000000000000000 0.0000000000000000 0.0000000000000000
1.0000000000000000 0.0000000000000000 0.0000000000000000
1.0000000000000000 0.0000000000000000 0.0000000000000000
1.0000000000000000 0.0000000000000000 0.0000000000000000
1.0000000000000000 0.0000000000000000 0.0000000000000000
1.0000000000000000 0.0000000000000000 0.0000000000000000
1.0000000000000000 0.0000000000000000 0.0000000000000000
1.0000000000000000 0.0000000000000000 0.0000000000000000
1.0000000000000000 0.0000000000000000 0.0000000000000000
1.0000000000000000 0.0000000000000000 0.0000000000000000
1.0000000000000000 0.0000000000000000 0.0000000000000000
1.0000000000000000 0.0000000000000000 0.0000000000000000
1.0000000000000000 0.0000000000000000 0.0000000000000000
1.0000000000000000 0.0000000000000000 0.0000000000000000
1.0000000000000000 0.0000000000000000 0.0000000000000000
1.0000000000000000 0.0000000000000000 0.0000000000000000
1.0000000000000000 0.0000000000000000 0.0000000000000000
1.0000000000000000 0.0000000000000000 0.0000000000000000
1.0000000000000000 0.0000000000000000 0.0000000000000000
1.0000000000000000 0.0000000000000000 0.0000000000000000
1.0000000000000000 0.0000000000000000 0.0000000000000000
1.0000000000000000 0.0000000000000000 0.0000000000000000
1.0000000000000000 0.0000000000000000 0.0000000000000000
1.0000000000000000 0.0000000000000000 0.0000000000000000
1.0000000000000000 0.0000000000000000 0.0000000000000000
1.0000000000000000 0.0000000000000000 0.0000000000000000
1.0000000000000000 0.0000000000000000 0.0000000000000000
1.0000000000000000 0.0000000000000000 0.0000000000000000
1.0000000000000000 0.0000000000000000 0.0000000000000000
1.0000000000000000 0.0000000000000000 0.0000000000000000
1.0000000000000000 0.0000000000000000 0.0000000000000000
1.0000000000000000 0.0000000000000000 0.0000000000000000
1.0000000000000000 0.0000000000000000 0.0000000000000000
1.0000000000000000 0.0000000000000000 0.0000000000000000
1.0000000000000000 0.0000000000000000 0.0000000000000000
1.0000000000000000 0.0000000000000000 0.0000000000000000
1.0000000000000000 0.0000000000000000 0.0000000000000000
1.0000000000000000 0.0000000000000000 0.0000000000000000
1.0000000000000000 0.0000000000000000 0.0000000000000000
1.0000000000000000 0.0000000000000000 0.0000000000000000
1.0000000000000000 0.0000000000000000 0.0000000000000000
1.0000000000000000 0.0000000000000000 0.0000000000000000
1.0000000000000000 0.0000000000000000 0.0000000000000000
1.0000000000000000 0.0000000000000000 0.0000000000000000
1.0000000000000000 0.0000000000000000 0.0000000000000000
1.0000000000000000 0.0000000000000000 0.0000000000000000
1.0000000000000000 0.0000000000000000 0.0000000000000000
1.0000000000000000 0.0000000000000000 0.0000000000000000
1.0000000000000000 0.0000000000000000 0.0000000000000000
1.0000000000000000 0.0000000000000000 0.0000000000000000
1.0000000000000000 0.0000000000000000 0.0000000000000000
1.0000000000000000 0.0000000000000000 0.0000000000000000
1.0000000000000000 0.0000000000000000 0.0000000000000000
1.0000000000000000 0.0000000000000000 0.0000000000000000
1.0000000000000000 0.0000000000000000 0.0000000000000000
1.0000000000000000 0.0000000000000000 0.0000000000000000
1.0000000000000000 0.0000000000000000 0.0000000000000000
1.0000000000000000 0.0000000000000000 0.0000000000000000
1.0000000000000000 0.0000000000000000 0.0000000000000000
1.0000000000000000 0.0000000000000000 0.0000000000000000
1.0000000000000000 0.0000000000000000 0.0000000000000000
1.0000000000000000 0.0000000000000000 0.0000000000000000
1.0000000000000000 0.0000000000000000 0.0000000000000000
1.0000000000000000 0.0000000000000000 0.0000000000000000
1.0000000000000000 0.0000000000000000 0.0000000000000000
1.0000000000000000 0.0000000000000000 0.0000000000000000
1.0000000000000000 0.0000000000000000 0.0000000000000000
1.0000000000000000 0.0000000000000000 0.0000000000000000
1.0000000000000000 0.0000000000000000 0.0000000000000000
1.0000000000000000 0.0000000000000000 0.0000000000000000
1.0000000000000000 0.0000000000000000 0.0000000000000000
1.0000000000000000 0.0000000000000000 0.0000000000000000
1.0000000000000000 0.0000000000000000 0.0000000000000000
1.0000000000000000 0.0000000000000000 0.0000000000000000
1.0000000000000000 0.0000000000000000 0.0000000000000000
1.0000000000000000 0.0000000000000000 0.0000000000000000
1.0000000000000000 0.0000000000000000 0.0000000000000000
1.0000000000000000 0.0000000000000000 0.0000000000000000
1.0000000000000000 0.0000000000000000 0.0000000000000000
1.0000000000000000 0.0000000000000000 0.0000000000000000
1.0000000000000000 0.0000000000000000 0.0000000000000000
1.0000000000000000 0.0000000000000000 0.0000000000000000
1.0000000000000000 0.0000000000000000 0.0000000000000000
1.0000000000000000 0.0000000000000000 0.0000000000000000
1.0000000000000000 0.0000000000000000 0.0000000000000000
1.0000000000000000 0.0000000000000000 0.0000000000000000
1.0000000000000000 0.0000000000000000 0.0000000000000000
1.0000000000000000 0.0000000000000000 0.0000000000000000
1.0000000000000000 0.0000000000000000 0.0000000000000000
1.0000000000000000 0.0000000000000000 0.0000000000000000
1.0000000000000000 0.0000000000000000 0.0000000000000000
1.0000000000000000 0.0000000000000000 0.0000000000000000
1.0000000000000000 0.0000000000000000 0.0000000000000000
1.0000000000000000 0.0000000000000000 0.0000000000000000
1.0000000000000000 0.0000000000000000 0.0000000000000000
1.0000000000000000 0.0000000000000000 0.0000000000000000
1.0000000000000000 0.0000000000000000 0.0000000000000000
1.0000000000000000 0.0000000000000000 0.0000000000000000
1.0000000000000000 0.0000000000000000 0.0000000000000000
1.0000000000000000 0.0000000000000000 0.0000000000000000
1.0000000000000000 0.0000000000000000 0.0000000000000000
1.0000000000000000 0.0000000000000000 0.0000000000000000
1.0000000000000000 0.0000000000000000 0.0000000000000000
1.0000000000000000 0.0000000000000000 0.0000000000000000
1.0000000000000000 0.0000000000000000 0.0000000000000000
1.0000000000000000 0.0000000000000000 0.0000000000000000
1.0000000000000000 0.0000000000000000 0.0000000000000000
1.0000000000000000 0.0000000000000000 0.0000000000000000
1.0000000000000000 0.0000000000000000 0.0000000000000000
1.0000000000000000 0.0000000000000000 0.0000000000000000
1.0000000000000000 0.0000000000000000 0.0000000000000000
1.0000000000000000 0.0000000000000000 0.0000000000000000
1.0000000000000000 0.0000000000000000 0.0000000000000000
1.0000000000000000 0.0000000000000000 0.0000000000000000
1.0000000000000000 0.0000000000000000 0.0000000000000000
1.0000000000000000 0.0000000000000000 0.0000000000000000
1.0000000000000000 0.0000000000000000 0.0000000000000000
1.0000000000000000 0.0000000000000000 0.0000000000000000
1.0000000000000000 0.0000000000000000 0.0000000000000000
1.0000000000000000 0.0000000000000000 0.0000000000000000
1.0000000000000000 0.0000000000000000 0.0000000000000000
1.0000000000000000 0.0000000000000000 0.0000000000000000
1.0000000000000000 0.0000000000000000 0.0000000000000000
1.0000000000000000 0.0000000000000000 0.0000000000000000
1.0000000000000000 0.0000000000000000 0.0000000000000000
1.0000000000000000 0.0000000000000000 0.0000000000000000
1.0000000000000000 0.0000000000000000 0.0000000000000000
1.0000000000000000 0.0000000000000000 0.0000000000000000
1.0000000000000000 0.0000000000000000 0.0000000000000000
1.0000000000000000 0.0000000000000000 0.0000000000000000
1.0000000000000000 0.0000000000000000 0.0000000000000000
1.0000000000000000 0.0000000000000000 0.0000000000000000
1.0000000000000000 0.0000000000000000 0.0000000000000000
1.0000000000000000 0.0000000000000000 0.0000000000000000
1.0000000000000000 0.0000000000000000 0.0000000000000000
1.0000000000000000 0.0000000000000000 0.0000000000000000
1.0000000000000000 0.0000000000000000 0.0000000000000000
1.0000000000000000 0.0000000000000000 0.0000000000000000
1.0000000000000000 0.0000000000000000 0.0000000000000000
1.0000000000000000 0.0000000000000000 0.0000000000000000
1.0000000000000000 0.0000000000000000 0.0000000000000000
1.0000000000000000 0.0000000000000000 0.0000000000000000
1.0000000000000000 0.0000000000000000 0.0000000000000000
1.0000000000000000 0.0000000000000000 0.0000000000000000
1.0000000000000000 0.0000000000000000 0.0000000000000000
1.0000000000000000 0.0000000000000000 0.0000000000000000
1.0000000000000000 0.0000000000000000 0.0000000000000000
1.0000000000000000 0.0000000000000000 0.0000000000000000
1.0000000000000000 0.0000000000000000 0.0000000000000000
1.0000000000000000 0.0000000000000000 0.0000000000000000
1.0000000000000000 0.0000000000000000 0.0000000000000000
1.0000000000000000 0.0000000000000000 0.0000000000000000
1.0000000000000000 0.0000000000000000 0.0000000000000000
1.0000000000000000 0.0000000000000000 0.0000000000000000
1.0000000000000000 0.0000000000000000 0.0000000000000000
1.0000000000000000 0.0000000000000000 0.0000000000000000
1.0000000000000000 0.0000000000000000 0.0000000000000000
1.0000000000000000 0.0000000000000000 0.0000000000000000
1.0000000000000000 0.0000000000000000 0.0000000000000000
1.0000000000000000 0.0000000000000000 0.0000000000000000
1.0000000000000000 0.0000000000000000 0.0000000000000000
1.0000000000000000 0.0000000000000000 0.0000000000000000
1.0000000000000000 0.0000000000000000 0.0000000000000000
1.0000000000000000 0.0000000000000000 0.0000000000000000
1.0000000000000000 0.0000000000000000 0.0000000000000000
1.0000000000000000 0.0000000000000000 0.0000000000000000
1.0000000000000000 0.0000000000000000 0.0000000000000000
1.0000000000000000 0.0000000000000000 0.0000000000000000
1.0000000000000000 0.0000000000000000 0.0000000000000000
1.0000000000000000 0.0000000000000000 0.0000000000000000
1.0000000000000000 0.0000000000000000 0.0000000000000000
1.0000000000000000 0.0000000000000000 0.0000000000000000
1.0000000000000000 0.0000000000000000 0.0000000000000000
1.0000000000000000 0.0000000000000000 0.0000000000000000
1.0000000000000000 0.0000000000000000 0.0000000000000000
1.0000000000000000 0.0000000000000000 0.0000000000000000
1.0000000000000000 0.0000000000000000 0.0000000000000000
1.0000000000000000 0.0000000000000000 0.0000000000000000
1.0000000000000000 0.0000000000000000 0.0000000000000000
1.0000000000000000 0.0000000000000000 0.0000000000000000
1.0000000000000000 0.0000000000000000 0.0000000000000000
1.0000000000000000 0.0000000000000000 0.0000000000000000
1.0000000000000000 0.0000000000000000 0.0000000000000000
1.0000000000000000 0.0000000000000000 0.0000000000000000
1.0000000000000000 0.0000000000000000 0.0000000000000000
1.0000000000000000 0.0000000000000000 0.0000000000000000
1.0000000000000000 0.0000000000000000 0.0000000000000000
1.0000000000000000 0.0000000000000000 0.0000000000000000
1.0000000000000000 0.0000000000000000 0.0000000000000000
1.0000000000000000 0.0000000000000000 0.0000000000000000
1.0000000000000000 0.0000000000000000 0.0000000000000000
1.0000000000000000 0.0000000000000000 0.0000000000000000
1.0000000000000000 0.0000000000000000 0.0000000000000000
1.0000000000000000 0.0000000000000000 0.0000000000000000
1.0000000000000000 0.0000000000000000 0.0000000000000000
1.0000000000000000 0.0000000000000000 0.0000000000000000
1.0000000000000000 0.0000000000000000 0.0000000000000000
1.0000000000000000 0.0000000000000000 0.0000000000000000
1.0000000000000000 0.0000000000000000 0.0000000000000000
1.0000000000000000 0.0000000000000000 0.0000000000000000
1.0000000000000000 0.0000000000000000 0.0000000000000000
1.0000000000000000 0.0000000000000000 0.0000000000000000
1.0000000000000000 0.0000000000000000 0.0000000000000000
1.0000000000000000 0.0000000000000000 0.0000000000000000
1.0000000000000000 0.0000000000000000 0.0000000000000000
1.0000000000000000 0.0000000000000000 0.0000000000000000
1.0000000000000000 0.0000000000000000 0.0000000000000000
1.0000000000000000 0.0000000000000000 0.0000000000000000
1.0000000000000000 0.0000000000000000 0.0000000000000000
1.0000000000000000 0.0000000000000000 0.0000000000000000
1.0000000000000000 0.0000000000000000 0.0000000000000000
1.0000000000000000 0.0000000000000000 0.0000000000000000
1.0000000000000000 0.0000000000000000 0.0000000000000000
1.0000000000000000 0.0000000000000000 0.0000000000000000
1.0000000000000000 0.0000000000000000 0.0000000000000000
1.0000000000000000 0.0000000000000000 0.0000000000000000
1.0000000000000000 0.0000000000000000 0.0000000000000000
1.0000000000000000 0.0000000000000000 0.0000000000000000
1.0000000000000000 0.0000000000000000 0.0000000000000000
1.0000000000000000 0.0000000000000000 0.0000000000000000
1.0000000000000000 0.0000000000000000 0.0000000000000000
1.0000000000000000 0.0000000000000000 0.0000000000000000
1.0000000000000000 0.0000000000000000 0.0000000000000000
1.0000000000000000 0.0000000000000000 0.0000000000000000
1.0000000000000000 0.0000000000000000 0.0000000000000000
1.0000000000000000 0.0000000000000000 0.0000000000000000
1.0000000000000000 0.0000000000000000 0.0000000000000000
1.0000000000000000 0.0000000000000000 0.0000000000000000
1.0000000000000000 0.0000000000000000 0.0000000000000000
1.0000000000000000 0.0000000000000000 0.0000000000000000
1.0000000000000000 0.0000000000000000 0.0000000000000000
1.0000000000000000 0.0000000000000000 0.0000000000000000
1.0000000000000000 0.0000000000000000 0.0000000000000000
1.0000000000000000 0.0000000000000000 0.0000000000000000
1.0000000000000000 0.0000000000000000 0.0000000000000000
1.0000000000000000 0.0000000000000000 0.0000000000000000
1.0000000000000000 0.0000000000000000 0.0000000000000000
1.0000000000000000 0.0000000000000000 0.0000000000000000
1.0000000000000000 0.0000000000000000 0.0000000000000000
1.0000000000000000 0.0000000000000000 0.0000000000000000
1.0000000000000000 0.0000000000000000 0.0000000000000000
1.0000000000000000 0.0000000000000000 0.0000000000000000
1.0000000000000000 0.0000000000000000 0.0000000000000000
1.0000000000000000 0.0000000000000000 0.0000000000000000
1.0000000000000000 0.0000000000000000 0.0000000000000000
1.0000000000000000 0.0000000000000000 0.0000000000000000
1.0000000000000000 0.0000000000000000 0.0000000000000000
1.0000000000000000 0.0000000000000000 0.0000000000000000
1.0000000000000000 0.0000000000000000 0.0000000000000000
1.0000000000000000 0.0000000000000000 0.0000000000000000
1.0000000000000000 0.0000000000000000 0.0000000000000000
1.0000000000000000 0.0000000000000000 0.0000000000000000
1.0000000000000000 0.0000000000000000 0.0000000000000000
1.0000000000000000 0.0000000000000000 0.0000000000000000
1.0000000000000000 0.0000000000000000 0.0000000000000000
1.0000000000000000 0.0000000000000000 0.0000000000000000
1.0000000000000000 0.0000000000000000 0.0000000000000000
1.0000000000000000 0.0000000000000000 0.0000000000000000
1.0000000000000000 0.0000000000000000 0.0000000000000000
1.0000000000000000 0.0000000000000000 0.0000000000000000
1.0000000000000000 0.0000000000000000 0.0000000000000000
1.0000000000000000 0.0000000000000000 0.0000000000000000
1.0000000000000000 0.0000000000000000 0.0000000000000000
1.0000000000000000 0.0000000000000000 0.0000000000000000
1.0000000000000000 0.0000000000000000 0.0000000000000000
1.0000000000000000 0.0000000000000000 0.0000000000000000
1.0000000000000000 0.0000000000000000 0.0000000000000000
1.0000000000000000 0.0000000000000000 0.0000000000000000
1.0000000000000000 0.0000000000000000 0.0000000000000000
1.0000000000000000 0.0000000000000000 0.0000000000000000
1.0000000000000000 0.0000000000000000 0.0000000000000000
1.0000000000000000 0.0000000000000000 0.0000000000000000
1.0000000000000000 0.0000000000000000 0.0000000000000000
1.0000000000000000 0.0000000000000000 0.0000000000000000
1.0000000000000000 0.0000000000000000 0.0000000000000000
1.0000000000000000 0.0000000000000000 0.0000000000000000
1.0000000000000000 0.0000000000000000 0.0000000000000000
1.0000000000000000 0.0000000000000000 0.0000000000000000
1.0000000000000000 0.0000000000000000 0.0000000000000000
1.0000000000000000 0.0000000000000000 0.0000000000000000
1.0000000000000000 0.0000000000000000 0.0000000000000000
1.0000000000000000 0.0000000000000000 0.0000000000000000
1.0000000000000000 0.0000000000000000 0.0000000000000000
1.0000000000000000 0.0000000000000000 0.0000000000000000
1.0000000000000000 0.0000000000000000 0.0000000000000000
1.0000000000000000 0.0000000000000000 0.0000000000000000
1.0000000000000000 0.0000000000000000 0.0000000000000000
1.0000000000000000 0.0000000000000000 0.0000000000000000
1.0000000000000000 0.0000000000000000 0.0000000000000000
1.0000000000000000 0.0000000000000000 0.0000000000000000
1.0000000000000000 0.0000000000000000 0.0000000000000000
1.0000000000000000 0.0000000000000000 0.0000000000000000
1.0000000000000000 0.0000000000000000 0.0000000000000000
1.0000000000000000 0.0000000000000000 0.0000000000000000
1.0000000000000000 0.0000000000000000 0.0000000000000000
1.0000000000000000 0.0000000000000000 0.0000000000000000
1.0000000000000000 0.0000000000000000 0.0000000000000000
1.0000000000000000 0.0000000000000000 0.0000000000000000
1.0000000000000000 0.0000000000000000 0.0000000000000000
1.0000000000000000 0.0000000000000000 0.0000000000000000
1.0000000000000000 0.0000000000000000 0.0000000000000000
1.0000000000000000 0.0000000000000000 0.0000000000000000
1.0000000000000000 0.0000000000000000 0.0000000000000000
1.0000000000000000 0.0000000000000000 0.0000000000000000
1.0000000000000000 0.0000000000000000 0.0000000000000000
1.0000000000000000 0.0000000000000000 0.0000000000000000
1.0000000000000000 0.0000000000000000 0.0000000000000000
1.0000000000000000 0.0000000000000000 0.0000000000000000
1.0000000000000000 0.0000000000000000 0.0000000000000000
1.0000000000000000 0.0000000000000000 0.0000000000000000
1.0000000000000000 0.0000000000000000 0.0000000000000000
1.0000000000000000 0.0000000000000000 0.0000000000000000
1.0000000000000000 0.0000000000000000 0.0000000000000000
1.0000000000000000 0.0000000000000000 0.0000000000000000
1.0000000000000000 0.0000000000000000 0.0000000000000000
1.0000000000000000 0.0000000000000000 0.0000000000000000
1.0000000000000000 0.0000000000000000 0.0000000000000000
1.0000000000000000 0.0000000000000000 0.0000000000000000
1.0000000000000000 0.0000000000000000 0.0000000000000000
1.0000000000000000 0.0000000000000000 0.0000000000000000
1.0000000000000000 0.0000000000000000 0.0000000000000000
1.0000000000000000 0.0000000000000000 0.0000000000000000
1.0000000000000000 0.0000000000000000 0.0000000000000000
1.0000000000000000 0.0000000000000000 0.0000000000000000
1.0000000000000000 0.0000000000000000 0.0000000000000000
1.0000000000000000 0.0000000000000000 0.0000000000000000
1.0000000000000000 0.0000000000000000 0.0000000000000000
1.0000000000000000 0.0000000000000000 0.0000000000000000
1.0000000000000000 0.0000000000000000 0.0000000000000000
1.0000000000000000 0.0000000000000000 0.0000000000000000
1.0000000000000000 0.0000000000000000 0.0000000000000000
1.0000000000000000 0.0000000000000000 0.0000000000000000
1.0000000000000000 0.0000000000000000 0.0000000000000000
1.0000000000000000 0.0000000000000000 0.0000000000000000
1.0000000000000000 0.0000000000000000 0.0000000000000000
1.0000000000000000 0.0000000000000000 0.0000000000000000
1.0000000000000000 0.0000000000000000 0.0000000000000000
1.0000000000000000 0.0000000000000000 0.0000000000000000
1.0000000000000000 0.0000000000000000 0.0000000000000000
1.0000000000000000 0.0000000000000000 0.0000000000000000
1.0000000000000000 0.0000000000000000 0.0000000000000000
1.0000000000000000 0.0000000000000000 0.0000000000000000
1.0000000000000000 0.0000000000000000 0.0000000000000000
1.0000000000000000 0.0000000000000000 0.0000000000000000
1.0000000000000000 0.0000000000000000 0.0000000000000000
1.0000000000000000 0.0000000000000000 0.0000000000000000
1.0000000000000000 0.0000000000000000 0.0000000000000000
1.0000000000000000 0.0000000000000000 0.0000000000000000
1.0000000000000000 0.0000000000000000 0.0000000000000000
1.0000000000000000 0.0000000000000000 0.0000000000000000
1.0000000000000000 0.0000000000000000 0.0000000000000000
1.0000000000000000 0.0000000000000000 0.0000000000000000
1.0000000000000000 0.0000000000000000 0.0000000000000000
1.0000000000000000 0.0000000000000000 0.0000000000000000
1.0000000000000000 0.0000000000000000 0.0000000000000000
1.0000000000000000 0.0000000000000000 0.0000000000000000
1.0000000000000000 0.0000000000000000 0.0000000000000000
1.0000000000000000 0.0000000000000000 0.0000000000000000
1.0000000000000000 0.0000000000000000 0.0000000000000000
1.0000000000000000 0.0000000000000000 0.0000000000000000
1.0000000000000000 0.0000000000000000 0.0000000000000000
1.0000000000000000 0.0000000000000000 0.0000000000000000
1.0000000000000000 0.0000000000000000 0.0000000000000000
1.0000000000000000 0.0000000000000000 0.0000000000000000
1.0000000000000000 0.0000000000000000 0.0000000000000000
1.0000000000000000 0.0000000000000000 0.0000000000000000
1.0000000000000000 0.0000000000000000 0.0000000000000000
1.0000000000000000 0.0000000000000000 0.0000000000000000
1.0000000000000000 0.0000000000000000 0.0000000000000000
1.0000000000000000 0.0000000000000000 0.0000000000000000
1.0000000000000000 0.0000000000000000 0.0000000000000000
1.0000000000000000 0.0000000000000000 0.0000000000000000
1.0000000000000000 0.0000000000000000 0.0000000000000000
1.0000000000000000 0.0000000000000000 0.0000000000000000
1.0000000000000000 0.0000000000000000 0.0000000000000000
1.0000000000000000 0.0000000000000000 0.0000000000000000
1.0000000000000000 0.0000000000000000 0.0000000000000000
1.0000000000000000 0.0000000000000000 0.0000000000000000
1.0000000000000000 0.0000000000000000 0.0000000000000000
1.0000000000000000 0.0000000000000000 0.0000000000000000
1.0000000000000000 0.0000000000000000 0.0000000000000000
1.0000000000000000 0.0000000000000000 0.0000000000000000
1.0000000000000000 0.0000000000000000 0.0000000000000000
1.0000000000000000 0.0000000000000000 0.0000000000000000
1.0000000000000000 0.0000000000000000 0.0000000000000000
1.0000000000000000 0.0000000000000000 0.0000000000000000
1.0000000000000000 0.0000000000000000 0.0000000000000000
1.0000000000000000 0.0000000000000000 0.0000000000000000
1.0000000000000000 0.0000000000000000 0.0000000000000000
1.0000000000000000 0.0000000000000000 0.0000000000000000
1.0000000000000000 0.0000000000000000 0.0000000000000000
1.0000000000000000 0.0000000000000000 0.0000000000000000
1.0000000000000000 0.0000000000000000 0.0000000000000000
1.0000000000000000 0.0000000000000000 0.0000000000000000
1.0000000000000000 0.0000000000000000 0.0000000000000000
1.0000000000000000 0.0000000000000000 0.0000000000000000
1.0000000000000000 0.0000000000000000 0.0000000000000000
1.0000000000000000 0.0000000000000000 0.0000000000000000
1.0000000000000000 0.0000000000000000 0.0000000000000000
1.0000000000000000 0.0000000000000000 0.0000000000000000
1.0000000000000000 0.0000000000000000 0.0000000000000000
1.0000000000000000 0.0000000000000000 0.0000000000000000
1.0000000000000000 0.0000000000000000 0.0000000000000000
1.0000000000000000 0.0000000000000000 0.0000000000000000
1.0000000000000000 0.0000000000000000 0.0000000000000000
1.0000000000000000 0.0000000000000000 0.0000000000000000
1.0000000000000000 0.0000000000000000 0.0000000000000000
1.0000000000000000 0.0000000000000000 0.0000000000000000
1.0000000000000000 0.0000000000000000 0.0000000000000000
1.0000000000000000 0.0000000000000000 0.0000000000000000
1.0000000000000000 0.0000000000000000 0.0000000000000000
1.0000000000000000 0.0000000000000000 0.0000000000000000
1.0000000000000000 0.0000000000000000 0.0000000000000000
1.0000000000000000 0.0000000000000000 0.0000000000000000
1.0000000000000000 0.0000000000000000 0.0000000000000000
1.0000000000000000 0.0000000000000000 0.0000000000000000
1.0000000000000000 0.0000000000000000 0.0000000000000000
1.0000000000000000 0.0000000000000000 0.0000000000000000
1.0000000000000000 0.0000000000000000 0.0000000000000000
1.0000000000000000 0.0000000000000000 0.0000000000000000
1.0000000000000000 0.0000000000000000 0.0000000000000000
1.0000000000000000 0.0000000000000000 0.0000000000000000
1.0000000000000000 0.0000000000000000 0.0000000000000000
1.0000000000000000 0.0000000000000000 0.0000000000000000
1.0000000000000000 0.0000000000000000 0.0000000000000000
1.0000000000000000 0.0000000000000000 0.0000000000000000
1.0000000000000000 0.0000000000000000 0.0000000000000000
1.0000000000000000 0.0000000000000000 0.0000000000000000
1.0000000000000000 0.0000000000000000 0.0000000000000000
1.0000000000000000 0.0000000000000000 0.0000000000000000
1.0000000000000000 0.0000000000000000 0.0000000000000000
1.0000000000000000 0.0000000000000000 0.0000000000000000
1.0000000000000000 0.0000000000000000 0.0000000000000000
1.0000000000000000 0.0000000000000000 0.0000000000000000
1.0000000000000000 0.0000000000000000 0.0000000000000000
1.0000000000000000 0.0000000000000000 0.0000000000000000
1.0000000000000000 0.0000000000000000 0.0000000000000000
1.0000000000000000 0.0000000000000000 0.0000000000000000
1.0000000000000000 0.0000000000000000 0.0000000000000000
1.0000000000000000 0.0000000000000000 0.0000000000000000
1.0000000000000000 0.0000000000000000 0.0000000000000000
1.0000000000000000 0.0000000000000000 0.0000000000000000
1.0000000000000000 0.0000000000000000 0.0000000000000000
1.0000000000000000 0.0000000000000000 0.0000000000000000
1.0000000000000000 0.0000000000000000 0.0000000000000000
1.0000000000000000 0.0000000000000000 0.0000000000000000
1.0000000000000000 0.0000000000000000 0.0000000000000000
1.0000000000000000 0.0000000000000000 0.0000000000000000
1.0000000000000000 0.0000000000000000 0.0000000000000000
1.0000000000000000 0.0000000000000000 0.0000000000000000
1.0000000000000000 0.0000000000000000 0.0000000000000000
1.0000000000000000 0.0000000000000000 0.0000000000000000
1.0000000000000000 0.0000000000000000 0.0000000000000000
1.0000000000000000 0.0000000000000000 0.0000000000000000
1.0000000000000000 0.0000000000000000 0.0000000000000000
1.0000000000000000 0.0000000000000000 0.0000000000000000
1.0000000000000000 0.0000000000000000 0.0000000000000000
1.0000000000000000 0.0000000000000000 0.0000000000000000
1.0000000000000000 0.0000000000000000 0.0000000000000000
1.0000000000000000 0.0000000000000000 0.0000000000000000
1.0000000000000000 0.0000000000000000 0.0000000000000000
1.0000000000000000 0.0000000000000000 0.0000000000000000
1.0000000000000000 0.0000000000000000 0.0000000000000000
1.0000000000000000 0.0000000000000000 0.0000000000000000
1.0000000000000000 0.0000000000000000 0.0000000000000000
1.0000000000000000 0.0000000000000000 0.0000000000000000
1.0000000000000000 0.0000000000000000 0.0000000000000000
1.0000000000000000 0.0000000000000000 0.0000000000000000
1.0000000000000000 0.0000000000000000 0.0000000000000000
1.0000000000000000 0.0000000000000000 0.0000000000000000
1.0000000000000000 0.0000000000000000 0.0000000000000000
1.0000000000000000 0.0000000000000000 0.0000000000000000
1.0000000000000000 0.0000000000000000 0.0000000000000000
1.0000000000000000 0.0000000000000000 0.0000000000000000
1.0000000000000000 0.0000000000000000 0.0000000000000000
1.0000000000000000 0.0000000000000000 0.0000000000000000
1.0000000000000000 0.0000000000000000 0.0000000000000000
1.0000000000000000 0.0000000000000000 0.0000000000000000
1.0000000000000000 0.0000000000000000 0.0000000000000000
1.0000000000000000 0.0000000000000000 0.0000000000000000
1.0000000000000000 0.0000000000000000 0.0000000000000000
1.0000000000000000 0.0000000000000000 0.0000000000000000
1.0000000000000000 0.0000000000000000 0.0000000000000000
1.0000000000000000 0.0000000000000000 0.0000000000000000
1.0000000000000000 0.0000000000000000 0.0000000000000000
1.0000000000000000 0.0000000000000000 0.0000000000000000
1.0000000000000000 0.0000000000000000 0.0000000000000000
1.0000000000000000 0.0000000000000000 0.0000000000000000
1.0000000000000000 0.0000000000000000 0.0000000000000000
1.0000000000000000 0.0000000000000000 0.0000000000000000
1.0000000000000000 0.0000000000000000 0.0000000000000000
1.0000000000000000 0.0000000000000000 0.0000000000000000
1.0000000000000000 0.0000000000000000 0.0000000000000000
1.0000000000000000 0.0000000000000000 0.0000000000000000
1.0000000000000000 0.0000000000000000 0.0000000000000000
1.0000000000000000 0.0000000000000000 0.0000000000000000
1.0000000000000000 0.0000000000000000 0.0000000000000000
1.0000000000000000 0.0000000000000000 0.0000000000000000
1.0000000000000000 0.0000000000000000 0.0000000000000000
1.0000000000000000 0.0000000000000000 0.0000000000000000
1.0000000000000000 0.0000000000000000 0.0000000000000000
1.0000000000000000 0.0000000000000000 0.0000000000000000
1.0000000000000000 0.0000000000000000 0.0000000000000000
1.0000000000000000 0.0000000000000000 0.0000000000000000
1.0000000000000000 0.0000000000000000 0.0000000000000000
1.0000000000000000 0.0000000000000000 0.0000000000000000
1.0000000000000000 0.0000000000000000 0.0000000000000000
1.0000000000000000 0.0000000000000000 0.0000000000000000
1.0000000000000000 0.0000000000000000 0.0000000000000000
1.0000000000000000 0.0000000000000000 0.0000000000000000
1.0000000000000000 0.0000000000000000 0.0000000000000000
1.0000000000000000 0.0000000000000000 0.0000000000000000
1.0000000000000000 0.0000000000000000 0.0000000000000000
1.0000000000000000 0.0000000000000000 0.0000000000000000
1.0000000000000000 0.0000000000000000 0.0000000000000000
1.0000000000000000 0.0000000000000000 0.0000000000000000
1.0000000000000000 0.0000000000000000 0.0000000000000000
1.0000000000000000 0.0000000000000000 0.0000000000000000
1.0000000000000000 0.0000000000000000 0.0000000000000000
1.0000000000000000 0.0000000000000000 0.0000000000000000
1.0000000000000000 0.0000000000000000 0.0000000000000000
1.0000000000000000 0.0000000000000000 0.0000000000000000
1.0000000000000000 0.0000000000000000 0.0000000000000000
1.0000000000000000 0.0000000000000000 0.0000000000000000
1.0000000000000000 0.0000000000000000 0.0000000000000000
1.0000000000000000 0.0000000000000000 0.0000000000000000
1.0000000000000000 0.0000000000000000 0.0000000000000000
1.0000000000000000 0.0000000000000000 0.0000000000000000
1.0000000000000000 0.0000000000000000 0.0000000000000000
1.0000000000000000 0.0000000000000000 0.0000000000000000
1.0000000000000000 0.0000000000000000 0.0000000000000000
1.0000000000000000 0.0000000000000000 0.0000000000000000
1.0000000000000000 0.0000000000000000 0.0000000000000000
1.0000000000000000 0.0000000000000000 0.0000000000000000
1.0000000000000000 0.0000000000000000 0.0000000000000000
1.0000000000000000 0.0000000000000000 0.0000000000000000
1.0000000000000000 0.0000000000000000 0.0000000000000000
1.0000000000000000 0.0000000000000000 0.0000000000000000
1.0000000000000000 0.0000000000000000 0.0000000000000000
1.0000000000000000 0.0000000000000000 0.0000000000000000
1.0000000000000000 0.0000000000000000 0.0000000000000000
1.0000000000000000 0.0000000000000000 0.0000000000000000
1.0000000000000000 0.0000000000000000 0.0000000000000000
1.0000000000000000 0.0000000000000000 0.0000000000000000
1.0000000000000000 0.0000000000000000 0.0000000000000000
1.0000000000000000 0.0000000000000000 0.0000000000000000
1.0000000000000000 0.0000000000000000 0.0000000000000000
1.0000000000000000 0.0000000000000000 0.0000000000000000
1.0000000000000000 0.0000000000000000 0.0000000000000000
1.0000000000000000 0.0000000000000000 0.0000000000000000
1.0000000000000000 0.0000000000000000 0.0000000000000000
1.0000000000000000 0.0000000000000000 0.0000000000000000
1.0000000000000000 0.0000000000000000 0.0000000000000000
1.0000000000000000 0.0000000000000000 0.0000000000000000
1.0000000000000000 0.0000000000000000 0.0000000000000000
1.0000000000000000 0.0000000000000000 0.0000000000000000
1.0000000000000000 0.0000000000000000 0.0000000000000000
1.0000000000000000 0.0000000000000000 0.0000000000000000
1.0000000000000000 0.0000000000000000 0.0000000000000000
1.0000000000000000 0.0000000000000000 0.0000000000000000
1.0000000000000000 0.0000000000000000 0.0000000000000000
1.0000000000000000 0.0000000000000000 0.0000000000000000
1.0000000000000000 0.0000000000000000 0.0000000000000000
1.0000000000000000 0.0000000000000000 0.0000000000000000
1.0000000000000000 0.0000000000000000 0.0000000000000000
1.0000000000000000 0.0000000000000000 0.0000000000000000
1.0000000000000000 0.0000000000000000 0.0000000000000000
1.0000000000000000 0.0000000000000000 0.0000000000000000
1.0000000000000000 0.0000000000000000 0.0000000000000000
1.0000000000000000 0.0000000000000000 0.0000000000000000
1.0000000000000000 0.0000000000000000 0.0000000000000000
1.0000000000000000 0.0000000000000000 0.0000000000000000
1.0000000000000000 0.0000000000000000 0.0000000000000000
1.0000000000000000 0.0000000000000000 0.0000000000000000
1.0000000000000000 0.0000000000000000 0.0000000000000000
1.0000000000000000 0.0000000000000000 0.0000000000000000
1.0000000000000000 0.0000000000000000 0.0000000000000000
1.0000000000000000 0.0000000000000000 0.0000000000000000
1.0000000000000000 0.0000000000000000 0.0000000000000000
1.0000000000000000 0.0000000000000000 0.0000000000000000
1.0000000000000000 0.0000000000000000 0.0000000000000000
1.0000000000000000 0.0000000000000000 0.0000000000000000
1.0000000000000000 0.0000000000000000 0.0000000000000000
1.0000000000000000 0.0000000000000000 0.0000000000000000
1.0000000000000000 0.0000000000000000 0.0000000000000000
1.0000000000000000 0.0000000000000000 0.0000000000000000
1.0000000000000000 0.0000000000000000 0.0000000000000000
1.0000000000000000 0.0000000000000000 0.0000000000000000
1.0000000000000000 0.0000000000000000 0.0000000000000000
1.0000000000000000 0.0000000000000000 0.0000000000000000
1.0000000000000000 0.0000000000000000 0.0000000000000000
1.0000000000000000 0.0000000000000000 0.0000000000000000
1.0000000000000000 0.0000000000000000 0.0000000000000000
1.0000000000000000 0.0000000000000000 0.0000000000000000
1.0000000000000000 0.0000000000000000 0.0000000000000000
1.0000000000000000 0.0000000000000000 0.0000000000000000
1.0000000000000000 0.0000000000000000 0.0000000000000000
1.0000000000000000 0.0000000000000000 0.0000000000000000
1.0000000000000000 0.0000000000000000 0.0000000000000000
1.0000000000000000 0.0000000000000000 0.0000000000000000
1.0000000000000000 0.0000000000000000 0.0000000000000000
1.0000000000000000 0.0000000000000000 0.0000000000000000
1.0000000000000000 0.0000000000000000 0.0000000000000000
1.0000000000000000 0.0000000000000000 0.0000000000000000
1.0000000000000000 0.0000000000000000 0.0000000000000000
1.0000000000000000 0.0000000000000000 0.0000000000000000
1.0000000000000000 0.0000000000000000 0.0000000000000000
1.0000000000000000 0.0000000000000000 0.0000000000000000
1.0000000000000000 0.0000000000000000 0.0000000000000000
1.0000000000000000 0.0000000000000000 0.0000000000000000
1.0000000000000000 0.0000000000000000 0.0000000000000000
1.0000000000000000 0.0000000000000000 0.0000000000000000
1.0000000000000000 0.0000000000000000 0.0000000000000000
1.0000000000000000 0.0000000000000000 0.0000000000000000
1.0000000000000000 0.0000000000000000 0.0000000000000000
1.0000000000000000 0.0000000000000000 0.0000000000000000
1.0000000000000000 0.0000000000000000 0.0000000000000000
1.0000000000000000 0.0000000000000000 0.0000000000000000
1.0000000000000000 0.0000000000000000 0.0000000000000000
1.0000000000000000 0.0000000000000000 0.0000000000000000
1.0000000000000000 0.0000000000000000 0.0000000000000000
1.0000000000000000 0.0000000000000000 0.0000000000000000
1.0000000000000000 0.0000000000000000 0.0000000000000000
1.0000000000000000 0.0000000000000000 0.0000000000000000
1.0000000000000000 0.0000000000000000 0.0000000000000000
1.0000000000000000 0.0000000000000000 0.0000000000000000
1.0000000000000000 0.0000000000000000 0.0000000000000000
1.0000000000000000 0.0000000000000000 0.0000000000000000
1.0000000000000000 0.0000000000000000 0.0000000000000000
1.0000000000000000 0.0000000000000000 0.0000000000000000
1.0000000000000000 0.0000000000000000 0.0000000000000000
1.0000000000000000 0.0000000000000000 0.0000000000000000
1.0000000000000000 0.0000000000000000 0.0000000000000000
1.0000000000000000 0.0000000000000000 0.0000000000000000
1.0000000000000000 0.0000000000000000 0.0000000000000000
1.0000000000000000 0.0000000000000000 0.0000000000000000
1.0000000000000000 0.0000000000000000 0.0000000000000000
1.0000000000000000 0.0000000000000000 0.0000000000000000
1.0000000000000000 0.0000000000000000 0.0000000000000000
1.0000000000000000 0.0000000000000000 0.0000000000000000
1.0000000000000000 0.0000000000000000 0.0000000000000000
1.0000000000000000 0.0000000000000000 0.0000000000000000
1.0000000000000000 0.0000000000000000 0.0000000000000000
1.0000000000000000 0.0000000000000000 0.0000000000000000
1.0000000000000000 0.0000000000000000 0.0000000000000000
1.0000000000000000 0.0000000000000000 0.0000000000000000
1.0000000000000000 0.0000000000000000 0.0000000000000000
1.0000000000000000 0.0000000000000000 0.0000000000000000
1.0000000000000000 0.0000000000000000 0.0000000000000000
1.0000000000000000 0.0000000000000000 0.0000000000000000
1.0000000000000000 0.0000000000000000 0.0000000000000000
1.0000000000000000 0.0000000000000000 0.0000000000000000
1.0000000000000000 0.0000000000000000 0.0000000000000000
1.0000000000000000 0.0000000000000000 0.0000000000000000
1.0000000000000000 0.0000000000000000 0.0000000000000000
1.0000000000000000 0.0000000000000000 0.0000000000000000
1.0000000000000000 0.0000000000000000 0.0000000000000000
1.0000000000000000 0.0000000000000000 0.0000000000000000
1.0000000000000000 0.0000000000000000 0.0000000000000000
1.0000000000000000 0.0000000000000000 0.0000000000000000
1.0000000000000000 0.0000000000000000 0.0000000000000000
1.0000000000000000 0.0000000000000000 0.0000000000000000
1.0000000000000000 0.0000000000000000 0.0000000000000000
1.0000000000000000 0.0000000000000000 0.0000000000000000
1.0000000000000000 0.0000000000000000 0.0000000000000000
1.0000000000000000 0.0000000000000000 0.0000000000000000
1.0000000000000000 0.0000000000000000 0.0000000000000000
1.0000000000000000 0.0000000000000000 0.0000000000000000
1.0000000000000000 0.0000000000000000 0.0000000000000000
1.0000000000000000 0.0000000000000000 0.0000000000000000
1.0000000000000000 0.0000000000000000 0.0000000000000000
1.0000000000000000 0.0000000000000000 0.0000000000000000
1.0000000000000000 0.0000000000000000 0.0000000000000000
1.0000000000000000 0.0000000000000000 0.0000000000000000
1.0000000000000000 0.0000000000000000 0.0000000000000000
1.0000000000000000 0.0000000000000000 0.0000000000000000
1.0000000000000000 0.0000000000000000 0.0000000000000000
1.0000000000000000 0.0000000000000000 0.0000000000000000
1.0000000000000000 0.0000000000000000 0.0000000000000000
1.0000000000000000 0.0000000000000000 0.0000000000000000
1.0000000000000000 0.0000000000000000 0.0000000000000000
1.0000000000000000 0.0000000000000000 0.0000000000000000
1.0000000000000000 0.0000000000000000 0.0000000000000000
1.0000000000000000 0.0000000000000000 0.0000000000000000
1.0000000000000000 0.0000000000000000 0.0000000000000000
1.0000000000000000 0.0000000000000000 0.0000000000000000
1.0000000000000000 0.0000000000000000 0.0000000000000000
1.0000000000000000 0.0000000000000000 0.0000000000000000
1.0000000000000000 0.0000000000000000 0.0000000000000000
1.0000000000000000 0.0000000000000000 0.0000000000000000
1.0000000000000000 0.0000000000000000 0.0000000000000000
1.0000000000000000 0.0000000000000000 0.0000000000000000
1.0000000000000000 0.0000000000000000 0.0000000000000000
1.0000000000000000 0.0000000000000000 0.0000000000000000
1.0000000000000000 0.0000000000000000 0.0000000000000000
1.0000000000000000 0.0000000000000000 0.0000000000000000
1.0000000000000000 0.0000000000000000 0.0000000000000000
1.0000000000000000 0.0000000000000000 0.0000000000000000
1.0000000000000000 0.0000000000000000 0.0000000000000000
1.0000000000000000 0.0000000000000000 0.0000000000000000
1.0000000000000000 0.0000000000000000 0.0000000000000000
1.0000000000000000 0.0000000000000000 0.0000000000000000
1.0000000000000000 0.0000000000000000 0.0000000000000000
1.0000000000000000 0.0000000000000000 0.0000000000000000
1.0000000000000000 0.0000000000000000 0.0000000000000000
1.0000000000000000 0.0000000000000000 0.0000000000000000
1.0000000000000000 0.0000000000000000 0.0000000000000000
1.0000000000000000 0.0000000000000000 0.0000000000000000
1.0000000000000000 0.0000000000000000 0.0000000000000000
1.0000000000000000 0.0000000000000000 0.0000000000000000
1.0000000000000000 0.0000000000000000 0.0000000000000000
1.0000000000000000 0.0000000000000000 0.0000000000000000
1.0000000000000000 0.0000000000000000 0.0000000000000000
1.0000000000000000 0.0000000000000000 0.0000000000000000
1.0000000000000000 0.0000000000000000 0.0000000000000000
1.0000000000000000 0.0000000000000000 0.0000000000000000
1.0000000000000000 0.0000000000000000 0.0000000000000000
1.0000000000000000 0.0000000000000000 0.0000000000000000
1.0000000000000000 0.0000000000000000 0.0000000000000000
1.0000000000000000 0.0000000000000000 0.0000000000000000
1.0000000000000000 0.0000000000000000 0.0000000000000000
1.0000000000000000 0.0000000000000000 0.0000000000000000
1.0000000000000000 0.0000000000000000 0.0000000000000000
1.0000000000000000 0.0000000000000000 0.0000000000000000
1.0000000000000000 0.0000000000000000 0.0000000000000000
1.0000000000000000 0.0000000000000000 0.0000000000000000
1.0000000000000000 0.0000000000000000 0.0000000000000000
1.0000000000000000 0.0000000000000000 0.0000000000000000
1.0000000000000000 0.0000000000000000 0.0000000000000000
1.0000000000000000 0.0000000000000000 0.0000000000000000
1.0000000000000000 0.0000000000000000 0.0000000000000000
1.0000000000000000 0.0000000000000000 0.0000000000000000
1.0000000000000000 0.0000000000000000 0.0000000000000000
1.0000000000000000 0.0000000000000000 0.0000000000000000
1.0000000000000000 0.0000000000000000 0.0000000000000000
1.0000000000000000 0.0000000000000000 0.0000000000000000
1.0000000000000000 0.0000000000000000 0.0000000000000000
1.0000000000000000 0.0000000000000000 0.0000000000000000
1.0000000000000000 0.0000000000000000 0.0000000000000000
1.0000000000000000 0.0000000000000000 0.0000000000000000
1.0000000000000000 0.0000000000000000 0.0000000000000000
1.0000000000000000 0.0000000000000000 0.0000000000000000
1.0000000000000000 0.0000000000000000 0.0000000000000000
1.0000000000000000 0.0000000000000000 0.0000000000000000
1.0000000000000000 0.0000000000000000 0.0000000000000000
1.0000000000000000 0.0000000000000000 0.0000000000000000
1.0000000000000000 0.0000000000000000 0.0000000000000000
1.0000000000000000 0.0000000000000000 0.0000000000000000
1.0000000000000000 0.0000000000000000 0.0000000000000000
1.0000000000000000 0.0000000000000000 0.0000000000000000
1.0000000000000000 0.0000000000000000 0.0000000000000000
1.0000000000000000 0.0000000000000000 0.0000000000000000
1.0000000000000000 0.0000000000000000 0.0000000000000000
1.0000000000000000 0.0000000000000000 0.0000000000000000
1.0000000000000000 0.0000000000000000 0.0000000000000000
1.0000000000000000 0.0000000000000000 0.0000000000000000
1.0000000000000000 0.0000000000000000 0.0000000000000000
1.0000000000000000 0.0000000000000000 0.0000000000000000
1.0000000000000000 0.0000000000000000 0.0000000000000000
1.0000000000000000 0.0000000000000000 0.0000000000000000
1.0000000000000000 0.0000000000000000 0.0000000000000000
1.0000000000000000 0.0000000000000000 0.0000000000000000
1.0000000000000000 0.0000000000000000 0.0000000000000000
1.0000000000000000 0.0000000000000000 0.0000000000000000
1.0000000000000000 0.0000000000000000 0.0000000000000000
1.0000000000000000 0.0000000000000000 0.0000000000000000
1.0000000000000000 0.0000000000000000 0.0000000000000000
1.0000000000000000 0.0000000000000000 0.0000000000000000
1.0000000000000000 0.0000000000000000 0.0000000000000000
1.0000000000000000 0.0000000000000000 0.0000000000000000
1.0000000000000000 0.0000000000000000 0.0000000000000000
1.0000000000000000 0.0000000000000000 0.0000000000000000
1.0000000000000000 0.0000000000000000 0.0000000000000000
1.0000000000000000 0.0000000000000000 0.0000000000000000
1.0000000000000000 0.0000000000000000 0.0000000000000000
1.0000000000000000 0.0000000000000000 0.0000000000000000
1.0000000000000000 0.0000000000000000 0.0000000000000000
1.0000000000000000 0.0000000000000000 0.0000000000000000
1.0000000000000000 0.0000000000000000 0.0000000000000000
1.0000000000000000 0.0000000000000000 0.0000000000000000
1.0000000000000000 0.0000000000000000 0.0000000000000000
1.0000000000000000 0.0000000000000000 0.0000000000000000
1.0000000000000000 0.0000000000000000 0.0000000000000000
1.0000000000000000 0.0000000000000000 0.0000000000000000
1.0000000000000000 0.0000000000000000 0.0000000000000000
1.0000000000000000 0.0000000000000000 0.0000000000000000
1.0000000000000000 0.0000000000000000 0.0000000000000000
1.0000000000000000 0.0000000000000000 0.0000000000000000
1.0000000000000000 0.0000000000000000 0.0000000000000000
1.0000000000000000 0.0000000000000000 0.0000000000000000
1.0000000000000000 0.0000000000000000 0.0000000000000000
1.0000000000000000 0.0000000000000000 0.0000000000000000
1.0000000000000000 0.0000000000000000 0.0000000000000000
1.0000000000000000 0.0000000000000000 0.0000000000000000
1.0000000000000000 0.0000000000000000 0.0000000000000000
1.0000000000000000 0.0000000000000000 0.0000000000000000
1.0000000000000000 0.0000000000000000 0.0000000000000000
1.0000000000000000 0.0000000000000000 0.0000000000000000
1.0000000000000000 0.0000000000000000 0.0000000000000000
1.0000000000000000 0.0000000000000000 0.0000000000000000
1.0000000000000000 0.0000000000000000 0.0000000000000000
1.0000000000000000 0.0000000000000000 0.0000000000000000
1.0000000000000000 0.0000000000000000 0.0000000000000000
1.0000000000000000 0.0000000000000000 0.0000000000000000
1.0000000000000000 0.0000000000000000 0.0000000000000000
1.0000000000000000 0.0000000000000000 0.0000000000000000
1.0000000000000000 0.0000000000000000 0.0000000000000000
1.0000000000000000 0.0000000000000000 0.0000000000000000
1.0000000000000000 0.0000000000000000 0.0000000000000000
1.0000000000000000 0.0000000000000000 0.0000000000000000
1.0000000000000000 0.0000000000000000 0.0000000000000000
1.0000000000000000 0.0000000000000000 0.0000000000000000
1.0000000000000000 0.0000000000000000 0.0000000000000000
1.0000000000000000 0.0000000000000000 0.0000000000000000
1.0000000000000000 0.0000000000000000 0.0000000000000000
1.0000000000000000 0.0000000000000000 0.0000000000000000
1.0000000000000000 0.0000000000000000 0.0000000000000000
1.0000000000000000 0.0000000000000000 0.0000000000000000
1.0000000000000000 0.0000000000000000 0.0000000000000000
1.0000000000000000 0.0000000000000000 0.0000000000000000
1.0000000000000000 0.0000000000000000 0.0000000000000000
1.0000000000000000 0.0000000000000000 0.0000000000000000
1.0000000000000000 0.0000000000000000 0.0000000000000000
1.0000000000000000 0.0000000000000000 0.0000000000000000
1.0000000000000000 0.0000000000000000 0.0000000000000000
1.0000000000000000 0.0000000000000000 0.0000000000000000
1.0000000000000000 0.0000000000000000 0.0000000000000000
1.0000000000000000 0.0000000000000000 0.0000000000000000
1.0000000000000000 0.0000000000000000 0.0000000000000000
1.0000000000000000 0.0000000000000000 0.0000000000000000
1.0000000000000000 0.0000000000000000 0.0000000000000000
1.0000000000000000 0.0000000000000000 0.0000000000000000
1.0000000000000000 0.0000000000000000 0.0000000000000000
1.0000000000000000 0.0000000000000000 0.0000000000000000
1.0000000000000000 0.0000000000000000 0.0000000000000000
1.0000000000000000 0.0000000000000000 0.0000000000000000
1.0000000000000000 0.0000000000000000 0.0000000000000000
1.0000000000000000 0.0000000000000000 0.0000000000000000
1.0000000000000000 0.0000000000000000 0.0000000000000000
1.0000000000000000 0.0000000000000000 0.0000000000000000
1.0000000000000000 0.0000000000000000 0.0000000000000000
1.0000000000000000 0.0000000000000000 0.0000000000000000
1.0000000000000000 0.0000000000000000 0.0000000000000000
1.0000000000000000 0.0000000000000000 0.0000000000000000
1.0000000000000000 0.0000000000000000 0.0000000000000000
1.0000000000000000 0.0000000000000000 0.0000000000000000
1.0000000000000000 0.0000000000000000 0.0000000000000000
1.0000000000000000 0.0000000000000000 0.0000000000000000
1.0000000000000000 0.0000000000000000 0.0000000000000000
1.0000000000000000 0.0000000000000000 0.0000000000000000
1.0000000000000000 0.0000000000000000 0.0000000000000000
1.0000000000000000 0.0000000000000000 0.0000000000000000
1.0000000000000000 0.0000000000000000 0.0000000000000000
1.0000000000000000 0.0000000000000000 0.0000000000000000
1.0000000000000000 0.0000000000000000 0.0000000000000000
1.0000000000000000 0.0000000000000000 0.0000000000000000
1.0000000000000000 0.0000000000000000 0.0000000000000000
1.0000000000000000 0.0000000000000000 0.0000000000000000
1.0000000000000000 0.0000000000000000 0.0000000000000000
1.0000000000000000 0.0000000000000000 0.0000000000000000
1.0000000000000000 0.0000000000000000 0.0000000000000000
1.0000000000000000 0.0000000000000000 0.0000000000000000
1.0000000000000000 0.0000000000000000 0.0000000000000000
1.0000000000000000 0.0000000000000000 0.0000000000000000
1.0000000000000000 0.0000000000000000 0.0000000000000000
1.0000000000000000 0.0000000000000000 0.0000000000000000
1.0000000000000000 0.0000000000000000 0.0000000000000000
1.0000000000000000 0.0000000000000000 0.0000000000000000
1.0000000000000000 0.0000000000000000 0.0000000000000000
1.0000000000000000 0.0000000000000000 0.0000000000000000
1.0000000000000000 0.0000000000000000 0.0000000000000000
1.0000000000000000 0.0000000000000000 0.0000000000000000
1.0000000000000000 0.0000000000000000 0.0000000000000000
1.0000000000000000 0.0000000000000000 0.0000000000000000
1.0000000000000000 0.0000000000000000 0.0000000000000000
1.0000000000000000 0.0000000000000000 0.0000000000000000
1.0000000000000000 0.0000000000000000 0.0000000000000000
1.0000000000000000 0.0000000000000000 0.0000000000000000
1.0000000000000000 0.0000000000000000 0.0000000000000000
1.0000000000000000 0.0000000000000000 0.0000000000000000
1.0000000000000000 0.0000000000000000 0.0000000000000000
1.0000000000000000 0.0000000000000000 0.0000000000000000
1.0000000000000000 0.0000000000000000 0.0000000000000000
1.0000000000000000 0.0000000000000000 0.0000000000000000
1.0000000000000000 0.0000000000000000 0.0000000000000000
1.0000000000000000 0.0000000000000000 0.0000000000000000
1.0000000000000000 0.0000000000000000 0.0000000000000000
1.0000000000000000 0.0000000000000000 0.0000000000000000
1.0000000000000000 0.0000000000000000 0.0000000000000000
1.0000000000000000 0.0000000000000000 0.0000000000000000
1.0000000000000000 0.0000000000000000 0.0000000000000000
1.0000000000000000 0.0000000000000000 0.0000000000000000
1.0000000000000000 0.0000000000000000 0.0000000000000000
1.0000000000000000 0.0000000000000000 0.0000000000000000
1.0000000000000000 0.0000000000000000 0.0000000000000000
1.0000000000000000 0.0000000000000000 0.0000000000000000
1.0000000000000000 0.0000000000000000 0.0000000000000000
1.0000000000000000 0.0000000000000000 0.0000000000000000
1.0000000000000000 0.0000000000000000 0.0000000000000000
1.0000000000000000 0.0000000000000000 0.0000000000000000
1.0000000000000000 0.0000000000000000 0.0000000000000000
1.0000000000000000 0.0000000000000000 0.0000000000000000
1.0000000000000000 0.0000000000000000 0.0000000000000000
1.0000000000000000 0.0000000000000000 0.0000000000000000
1.0000000000000000 0.0000000000000000 0.0000000000000000
1.0000000000000000 0.0000000000000000 0.0000000000000000
1.0000000000000000 0.0000000000000000 0.0000000000000000
1.0000000000000000 0.0000000000000000 0.0000000000000000
1.0000000000000000 0.0000000000000000 0.0000000000000000
1.0000000000000000 0.0000000000000000 0.0000000000000000
1.0000000000000000 0.0000000000000000 0.0000000000000000
1.0000000000000000 0.0000000000000000 0.0000000000000000
1.0000000000000000 0.0000000000000000 0.0000000000000000
1.0000000000000000 0.0000000000000000 0.0000000000000000
1.0000000000000000 0.0000000000000000 0.0000000000000000
1.0000000000000000 0.0000000000000000 0.0000000000000000
1.0000000000000000 0.0000000000000000 0.0000000000000000
1.0000000000000000 0.0000000000000000 0.0000000000000000
1.0000000000000000 0.0000000000000000 0.0000000000000000
1.0000000000000000 0.0000000000000000 0.0000000000000000
1.0000000000000000 0.0000000000000000 0.0000000000000000
1.0000000000000000 0.0000000000000000 0.0000000000000000
1.0000000000000000 0.0000000000000000 0.0000000000000000
1.0000000000000000 0.0000000000000000 0.0000000000000000
1.0000000000000000 0.0000000000000000 0.0000000000000000
1.0000000000000000 0.0000000000000000 0.0000000000000000
1.0000000000000000 0.0000000000000000 0.0000000000000000
1.0000000000000000 0.0000000000000000 0.0000000000000000
1.0000000000000000 0.0000000000000000 0.0000000000000000
1.0000000000000000 0.0000000000000000 0.0000000000000000
1.0000000000000000 0.0000000000000000 0.0000000000000000
1.0000000000000000 0.0000000000000000 0.0000000000000000
1.0000000000000000 0.0000000000000000 0.0000000000000000
1.0000000000000000 0.0000000000000000 0.0000000000000000
1.0000000000000000 0.0000000000000000 0.0000000000000000
1.0000000000000000 0.0000000000000000 0.0000000000000000
1.0000000000000000 0.0000000000000000 0.0000000000000000
1.0000000000000000 0.0000000000000000 0.0000000000000000
1.0000000000000000 0.0000000000000000 0.0000000000000000
1.0000000000000000 0.0000000000000000 0.0000000000000000
1.0000000000000000 0.0000000000000000 0.0000000000000000
1.0000000000000000 0.0000000000000000 0.0000000000000000
1.0000000000000000 0.0000000000000000 0.0000000000000000
1.0000000000000000 0.0000000000000000 0.0000000000000000
1.0000000000000000 0.0000000000000000 0.0000000000000000
1.0000000000000000 0.0000000000000000 0.0000000000000000
1.0000000000000000 0.0000000000000000 0.0000000000000000
1.0000000000000000 0.0000000000000000 0.0000000000000000
1.0000000000000000 0.0000000000000000 0.0000000000000000
1.0000000000000000 0.0000000000000000 0.0000000000000000
1.0000000000000000 0.0000000000000000 0.0000000000000000
1.0000000000000000 0.0000000000000000 0.0000000000000000
1.0000000000000000 0.0000000000000000 0.0000000000000000
1.0000000000000000 0.0000000000000000 0.0000000000000000
1.0000000000000000 0.0000000000000000 0.0000000000000000
1.0000000000000000 0.0000000000000000 0.0000000000000000
1.0000000000000000 0.0000000000000000 0.0000000000000000
1.0000000000000000 0.0000000000000000 0.0000000000000000
1.0000000000000000 0.0000000000000000 0.0000000000000000
1.0000000000000000 0.0000000000000000 0.0000000000000000
1.0000000000000000 0.0000000000000000 0.0000000000000000
1.0000000000000000 0.0000000000000000 0.0000000000000000
1.0000000000000000 0.0000000000000000 0.0000000000000000
1.0000000000000000 0.0000000000000000 0.0000000000000000
1.0000000000000000 0.0000000000000000 0.0000000000000000
1.0000000000000000 0.0000000000000000 0.0000000000000000
1.0000000000000000 0.0000000000000000 0.0000000000000000
1.0000000000000000 0.0000000000000000 0.0000000000000000
1.0000000000000000 0.0000000000000000 0.0000000000000000
1.0000000000000000 0.0000000000000000 0.0000000000000000
1.0000000000000000 0.0000000000000000 0.0000000000000000
1.0000000000000000 0.0000000000000000 0.0000000000000000
1.0000000000000000 0.0000000000000000 0.0000000000000000
1.0000000000000000 0.0000000000000000 0.0000000000000000
1.0000000000000000 0.0000000000000000 0.0000000000000000
1.0000000000000000 0.0000000000000000 0.0000000000000000
1.0000000000000000 0.0000000000000000 0.0000000000000000
1.0000000000000000 0.0000000000000000 0.0000000000000000
1.0000000000000000 0.0000000000000000 0.0000000000000000
1.0000000000000000 0.0000000000000000 0.0000000000000000
1.0000000000000000 0.0000000000000000 0.0000000000000000
1.0000000000000000 0.0000000000000000 0.0000000000000000
1.0000000000000000 0.0000000000000000 0.0000000000000000
1.0000000000000000 0.0000000000000000 0.0000000000000000
1.0000000000000000 0.0000000000000000 0.0000000000000000
1.0000000000000000 0.0000000000000000 0.0000000000000000
1.0000000000000000 0.0000000000000000 0.0000000000000000
1.0000000000000000 0.0000000000000000 0.0000000000000000
1.0000000000000000 0.0000000000000000 0.0000000000000000
1.0000000000000000 0.0000000000000000 0.0000000000000000
1.0000000000000000 0.0000000000000000 0.0000000000000000
1.0000000000000000 0.0000000000000000 0.0000000000000000
1.0000000000000000 0.0000000000000000 0.0000000000000000
1.0000000000000000 0.0000000000000000 0.0000000000000000
1.0000000000000000 0.0000000000000000 0.0000000000000000
1.0000000000000000 0.0000000000000000 0.0000000000000000
1.0000000000000000 0.0000000000000000 0.0000000000000000
1.0000000000000000 0.0000000000000000 0.0000000000000000
1.0000000000000000 0.0000000000000000 0.0000000000000000
1.0000000000000000 0.0000000000000000 0.0000000000000000
1.0000000000000000 0.0000000000000000 0.0000000000000000
1.0000000000000000 0.0000000000000000 0.0000000000000000
1.0000000000000000 0.0000000000000000 0.0000000000000000
1.0000000000000000 0.0000000000000000 0.0000000000000000
1.0000000000000000 0.0000000000000000 0.0000000000000000
1.0000000000000000 0.0000000000000000 0.0000000000000000
1.0000000000000000 0.0000000000000000 0.0000000000000000
1.0000000000000000 0.0000000000000000 0.0000000000000000
1.0000000000000000 0.0000000000000000 0.0000000000000000
1.0000000000000000 0.0000000000000000 0.0000000000000000
1.0000000000000000 0.0000000000000000 0.0000000000000000
1.0000000000000000 0.0000000000000000 0.0000000000000000
1.0000000000000000 0.0000000000000000 0.0000000000000000
1.0000000000000000 0.0000000000000000 0.0000000000000000
1.0000000000000000 0.0000000000000000 0.0000000000000000
1.0000000000000000 0.0000000000000000 0.0000000000000000
1.0000000000000000 0.0000000000000000 0.0000000000000000
1.0000000000000000 0.0000000000000000 0.0000000000000000
1.0000000000000000 0.0000000000000000 0.0000000000000000
1.0000000000000000 0.0000000000000000 0.0000000000000000
1.0000000000000000 0.0000000000000000 0.0000000000000000
1.0000000000000000 0.0000000000000000 0.0000000000000000
1.0000000000000000 0.0000000000000000 0.0000000000000000
1.0000000000000000 0.0000000000000000 0.0000000000000000
1.0000000000000000 0.0000000000000000 0.0000000000000000
1.0000000000000000 0.0000000000000000 0.0000000000000000
1.0000000000000000 0.0000000000000000 0.0000000000000000
1.0000000000000000 0.0000000000000000 0.0000000000000000
1.0000000000000000 0.0000000000000000 0.0000000000000000
1.0000000000000000 0.0000000000000000 0.0000000000000000
1.0000000000000000 0.0000000000000000 0.0000000000000000
1.0000000000000000 0.0000000000000000 0.0000000000000000
1.0000000000000000 0.0000000000000000 0.0000000000000000
1.0000000000000000 0.0000000000000000 0.0000000000000000
1.0000000000000000 0.0000000000000000 0.0000000000000000
1.0000000000000000 0.0000000000000000 0.0000000000000000
1.0000000000000000 0.0000000000000000 0.0000000000000000
1.0000000000000000 0.0000000000000000 0.0000000000000000
1.0000000000000000 0.0000000000000000 0.0000000000000000
1.0000000000000000 0.0000000000000000 0.0000000000000000
1.0000000000000000 0.0000000000000000 0.0000000000000000
1.0000000000000000 0.0000000000000000 0.0000000000000000
1.0000000000000000 0.0000000000000000 0.0000000000000000
1.0000000000000000 0.0000000000000000 0.0000000000000000
1.0000000000000000 0.0000000000000000 0.0000000000000000
1.0000000000000000 0.0000000000000000 0.0000000000000000
1.0000000000000000 0.0000000000000000 0.0000000000000000
1.0000000000000000 0.0000000000000000 0.0000000000000000
1.0000000000000000 0.0000000000000000 0.0000000000000000
1.0000000000000000 0.0000000000000000 0.0000000000000000
1.0000000000000000 0.0000000000000000 0.0000000000000000
1.0000000000000000 0.0000000000000000 0.0000000000000000
1.0000000000000000 0.0000000000000000 0.0000000000000000
1.0000000000000000 0.0000000000000000 0.0000000000000000
1.0000000000000000 0.0000000000000000 0.0000000000000000
1.0000000000000000 0.0000000000000000 0.0000000000000000
1.0000000000000000 0.0000000000000000 0.0000000000000000
1.0000000000000000 0.0000000000000000 0.0000000000000000
1.0000000000000000 0.0000000000000000 0.0000000000000000
1.0000000000000000 0.0000000000000000 0.0000000000000000
1.0000000000000000 0.0000000000000000 0.0000000000000000
1.0000000000000000 0.0000000000000000 0.0000000000000000
1.0000000000000000 0.0000000000000000 0.0000000000000000
1.0000000000000000 0.0000000000000000 0.0000000000000000
1.0000000000000000 0.0000000000000000 0.0000000000000000
1.0000000000000000 0.0000000000000000 0.0000000000000000
1.0000000000000000 0.0000000000000000 0.0000000000000000
1.0000000000000000 0.0000000000000000 0.0000000000000000
1.0000000000000000 0.0000000000000000 0.0000000000000000
1.0000000000000000 0.0000000000000000 0.0000000000000000
1.0000000000000000 0.0000000000000000 0.0000000000000000
1.0000000000000000 0.0000000000000000 0.0000000000000000
1.0000000000000000 0.0000000000000000 0.0000000000000000
1.0000000000000000 0.0000000000000000 0.0000000000000000
1.0000000000000000 0.0000000000000000 0.0000000000000000
1.0000000000000000 0.0000000000000000 0.0000000000000000
1.0000000000000000 0.0000000000000000 0.0000000000000000
1.0000000000000000 0.0000000000000000 0.0000000000000000
1.0000000000000000 0.0000000000000000 0.0000000000000000
1.0000000000000000 0.0000000000000000 0.0000000000000000
1.0000000000000000 0.0000000000000000 0.0000000000000000
1.0000000000000000 0.0000000000000000 0.0000000000000000
1.0000000000000000 0.0000000000000000 0.0000000000000000
1.0000000000000000 0.0000000000000000 0.0000000000000000
1.0000000000000000 0.0000000000000000 0.0000000000000000
1.0000000000000000 0.0000000000000000 0.0000000000000000
1.0000000000000000 0.0000000000000000 0.0000000000000000
1.0000000000000000 0.0000000000000000 0.0000000000000000
1.0000000000000000 0.0000000000000000 0.0000000000000000
1.0000000000000000 0.0000000000000000 0.0000000000000000
1.0000000000000000 0.0000000000000000 0.0000000000000000
1.0000000000000000 0.0000000000000000 0.0000000000000000
1.0000000000000000 0.0000000000000000 0.0000000000000000
1.0000000000000000 0.0000000000000000 0.0000000000000000
1.0000000000000000 0.0000000000000000 0.0000000000000000
1.0000000000000000 0.0000000000000000 0.0000000000000000
1.0000000000000000 0.0000000000000000 0.0000000000000000
1.0000000000000000 0.0000000000000000 0.0000000000000000
1.0000000000000000 0.0000000000000000 0.0000000000000000
1.0000000000000000 0.0000000000000000 0.0000000000000000
1.0000000000000000 0.0000000000000000 0.0000000000000000
1.0000000000000000 0.0000000000000000 0.0000000000000000
1.0000000000000000 0.0000000000000000 0.0000000000000000
1.0000000000000000 0.0000000000000000 0.0000000000000000
1.0000000000000000 0.0000000000000000 0.0000000000000000
1.0000000000000000 0.0000000000000000 0.0000000000000000
1.0000000000000000 0.0000000000000000 0.0000000000000000
1.0000000000000000 0.0000000000000000 0.0000000000000000
1.0000000000000000 0.0000000000000000 0.0000000000000000
1.0000000000000000 0.0000000000000000 0.0000000000000000
1.0000000000000000 0.0000000000000000 0.0000000000000000
1.0000000000000000 0.0000000000000000 0.0000000000000000
1.0000000000000000 0.0000000000000000 0.0000000000000000
1.0000000000000000 0.0000000000000000 0.0000000000000000
1.0000000000000000 0.0000000000000000 0.0000000000000000
1.0000000000000000 0.0000000000000000 0.0000000000000000
1.0000000000000000 0.0000000000000000 0.0000000000000000
1.0000000000000000 0.0000000000000000 0.0000000000000000
1.0000000000000000 0.0000000000000000 0.0000000000000000
1.0000000000000000 0.0000000000000000 0.0000000000000000
1.0000000000000000 0.0000000000000000 0.0000000000000000
1.0000000000000000 0.0000000000000000 0.0000000000000000
1.0000000000000000 0.0000000000000000 0.0000000000000000
1.0000000000000000 0.0000000000000000 0.0000000000000000
1.0000000000000000 0.0000000000000000 0.0000000000000000
1.0000000000000000 0.0000000000000000 0.0000000000000000
1.0000000000000000 0.0000000000000000 0.0000000000000000
1.0000000000000000 0.0000000000000000 0.0000000000000000
1.0000000000000000 0.0000000000000000 0.0000000000000000
1.0000000000000000 0.0000000000000000 0.0000000000000000
1.0000000000000000 0.0000000000000000 0.0000000000000000
1.0000000000000000 0.0000000000000000 0.0000000000000000
1.0000000000000000 0.0000000000000000 0.0000000000000000
1.0000000000000000 0.0000000000000000 0.0000000000000000
1.0000000000000000 0.0000000000000000 0.0000000000000000
1.0000000000000000 0.0000000000000000 0.0000000000000000
1.0000000000000000 0.0000000000000000 0.0000000000000000
1.0000000000000000 0.0000000000000000 0.0000000000000000
1.0000000000000000 0.0000000000000000 0.0000000000000000
1.0000000000000000 0.0000000000000000 0.0000000000000000
1.0000000000000000 0.0000000000000000 0.0000000000000000
1.0000000000000000 0.0000000000000000 0.0000000000000000
1.0000000000000000 0.0000000000000000 0.0000000000000000
1.0000000000000000 0.0000000000000000 0.0000000000000000
1.0000000000000000 0.0000000000000000 0.0000000000000000
1.0000000000000000 0.0000000000000000 0.0000000000000000
1.0000000000000000 0.0000000000000000 0.0000000000000000
1.0000000000000000 0.0000000000000000 0.0000000000000000
1.0000000000000000 0.0000000000000000 0.0000000000000000
1.0000000000000000 0.0000000000000000 0.0000000000000000
1.0000000000000000 0.0000000000000000 0.0000000000000000
1.0000000000000000 0.0000000000000000 0.0000000000000000
1.0000000000000000 0.0000000000000000 0.0000000000000000
1.0000000000000000 0.0000000000000000 0.0000000000000000
1.0000000000000000 0.0000000000000000 0.0000000000000000
1.0000000000000000 0.0000000000000000 0.0000000000000000
1.0000000000000000 0.0000000000000000 0.0000000000000000
1.0000000000000000 0.0000000000000000 0.0000000000000000
1.0000000000000000 0.0000000000000000 0.0000000000000000
1.0000000000000000 0.0000000000000000 0.0000000000000000
1.0000000000000000 0.0000000000000000 0.0000000000000000
1.0000000000000000 0.0000000000000000 0.0000000000000000
1.0000000000000000 0.0000000000000000 0.0000000000000000
1.0000000000000000 0.0000000000000000 0.0000000000000000
1.0000000000000000 0.0000000000000000 0.0000000000000000
1.0000000000000000 0.0000000000000000 0.0000000000000000
1.0000000000000000 0.0000000000000000 0.0000000000000000
1.0000000000000000 0.0000000000000000 0.0000000000000000
1.0000000000000000 0.0000000000000000 0.0000000000000000
1.0000000000000000 0.0000000000000000 0.0000000000000000
1.0000000000000000 0.0000000000000000 0.0000000000000000
1.0000000000000000 0.0000000000000000 0.0000000000000000
1.0000000000000000 0.0000000000000000 0.0000000000000000
1.0000000000000000 0.0000000000000000 0.0000000000000000
1.0000000000000000 0.0000000000000000 0.0000000000000000
1.0000000000000000 0.0000000000000000 0.0000000000000000
1.0000000000000000 0.0000000000000000 0.0000000000000000
1.0000000000000000 0.0000000000000000 0.0000000000000000
1.0000000000000000 0.0000000000000000 0.0000000000000000
1.0000000000000000 0.0000000000000000 0.0000000000000000
1.0000000000000000 0.0000000000000000 0.0000000000000000
1.0000000000000000 0.0000000000000000 0.0000000000000000
1.0000000000000000 0.0000000000000000 0.0000000000000000
1.0000000000000000 0.0000000000000000 0.0000000000000000
1.0000000000000000 0.0000000000000000 0.0000000000000000
1.0000000000000000 0.0000000000000000 0.0000000000000000
1.0000000000000000 0.0000000000000000 0.0000000000000000
1.0000000000000000 0.0000000000000000 0.0000000000000000
1.0000000000000000 0.0000000000000000 0.0000000000000000
1.0000000000000000 0.0000000000000000 0.0000000000000000
1.0000000000000000 0.0000000000000000 0.0000000000000000
1.0000000000000000 0.0000000000000000 0.0000000000000000
1.0000000000000000 0.0000000000000000 0.0000000000000000
1.0000000000000000 0.0000000000000000 0.0000000000000000
1.0000000000000000 0.0000000000000000 0.0000000000000000
1.0000000000000000 0.0000000000000000 0.0000000000000000
1.0000000000000000 0.0000000000000000 0.0000000000000000
1.0000000000000000 0.0000000000000000 0.0000000000000000
1.0000000000000000 0.0000000000000000 0.0000000000000000
1.0000000000000000 0.0000000000000000 0.0000000000000000
1.0000000000000000 0.0000000000000000 0.0000000000000000
1.0000000000000000 0.0000000000000000 0.0000000000000000
1.0000000000000000 0.0000000000000000 0.0000000000000000
1.0000000000000000 0.0000000000000000 0.0000000000000000
1.0000000000000000 0.0000000000000000 0.0000000000000000
1.0000000000000000 0.0000000000000000 0.0000000000000000
1.0000000000000000 0.0000000000000000 0.0000000000000000
1.0000000000000000 0.0000000000000000 0.0000000000000000
1.0000000000000000 0.0000000000000000 0.0000000000000000
1.0000000000000000 0.0000000000000000 0.0000000000000000
1.0000000000000000 0.0000000000000000 0.0000000000000000
1.0000000000000000 0.0000000000000000 0.0000000000000000
1.0000000000000000 0.0000000000000000 0.0000000000000000
1.0000000000000000 0.0000000000000000 0.0000000000000000
1.0000000000000000 0.0000000000000000 0.0000000000000000
1.0000000000000000 0.0000000000000000 0.0000000000000000
1.0000000000000000 0.0000000000000000 0.0000000000000000
1.0000000000000000 0.0000000000000000 0.0000000000000000
1.0000000000000000 0.0000000000000000 0.0000000000000000
1.0000000000000000 0.0000000000000000 0.0000000000000000
1.0000000000000000 0.0000000000000000 0.0000000000000000
1.0000000000000000 0.0000000000000000 0.0000000000000000
1.0000000000000000 0.0000000000000000 0.0000000000000000
1.0000000000000000 0.0000000000000000 0.0000000000000000
1.0000000000000000 0.0000000000000000 0.0000000000000000
1.0000000000000000 0.0000000000000000 0.0000000000000000
1.0000000000000000 0.0000000000000000 0.0000000000000000
1.0000000000000000 0.0000000000000000 0.0000000000000000
1.0000000000000000 0.0000000000000000 0.0000000000000000
1.0000000000000000 0.0000000000000000 0.0000000000000000
1.0000000000000000 0.0000000000000000 0.0000000000000000
1.0000000000000000 0.0000000000000000 0.0000000000000000
1.0000000000000000 0.0000000000000000 0.0000000000000000
1.0000000000000000 0.0000000000000000 0.0000000000000000
1.0000000000000000 0.0000000000000000 0.0000000000000000
1.0000000000000000 0.0000000000000000 0.0000000000000000
1.0000000000000000 0.0000000000000000 0.0000000000000000
1.0000000000000000 0.0000000000000000 0.0000000000000000
1.0000000000000000 0.0000000000000000 0.0000000000000000
1.0000000000000000 0.0000000000000000 0.0000000000000000
1.0000000000000000 0.0000000000000000 0.0000000000000000
1.0000000000000000 0.0000000000000000 0.0000000000000000
1.0000000000000000 0.0000000000000000 0.0000000000000000
1.0000000000000000 0.0000000000000000 0.0000000000000000
1.0000000000000000 0.0000000000000000 0.0000000000000000
1.0000000000000000 0.0000000000000000 0.0000000000000000
1.0000000000000000 0.0000000000000000 0.0000000000000000
1.0000000000000000 0.0000000000000000 0.0000000000000000
1.0000000000000000 0.0000000000000000 0.0000000000000000
1.0000000000000000 0.0000000000000000 0.0000000000000000
1.0000000000000000 0.0000000000000000 0.0000000000000000
1.0000000000000000 0.0000000000000000 0.0000000000000000
1.0000000000000000 0.0000000000000000 0.0000000000000000
1.0000000000000000 0.0000000000000000 0.0000000000000000
1.0000000000000000 0.0000000000000000 0.0000000000000000
1.0000000000000000 0.0000000000000000 0.0000000000000000
1.0000000000000000 0.0000000000000000 0.0000000000000000
1.0000000000000000 0.0000000000000000 0.0000000000000000
1.0000000000000000 0.0000000000000000 0.0000000000000000
1.0000000000000000 0.0000000000000000 0.0000000000000000
1.0000000000000000 0.0000000000000000 0.0000000000000000
1.0000000000000000 0.0000000000000000 0.0000000000000000
1.0000000000000000 0.0000000000000000 0.0000000000000000
1.0000000000000000 0.0000000000000000 0.0000000000000000
1.0000000000000000 0.0000000000000000 0.0000000000000000
1.0000000000000000 0.0000000000000000 0.0000000000000000
1.0000000000000000 0.0000000000000000 0.0000000000000000
1.0000000000000000 0.0000000000000000 0.0000000000000000
1.0000000000000000 0.0000000000000000 0.0000000000000000
1.0000000000000000 0.0000000000000000 0.0000000000000000
1.0000000000000000 0.0000000000000000 0.0000000000000000
1.0000000000000000 0.0000000000000000 0.0000000000000000
1.0000000000000000 0.0000000000000000 0.0000000000000000
1.0000000000000000 0.0000000000000000 0.0000000000000000
1.0000000000000000 0.0000000000000000 0.0000000000000000
1.0000000000000000 0.0000000000000000 0.0000000000000000
1.0000000000000000 0.0000000000000000 0.0000000000000000
1.0000000000000000 0.0000000000000000 0.0000000000000000
1.0000000000000000 0.0000000000000000 0.0000000000000000
1.0000000000000000 0.0000000000000000 0.0000000000000000
1.0000000000000000 0.0000000000000000 0.0000000000000000
1.0000000000000000 0.0000000000000000 0.0000000000000000
1.0000000000000000 0.0000000000000000 0.0000000000000000
1.0000000000000000 0.0000000000000000 0.0000000000000000
1.0000000000000000 0.0000000000000000 0.0000000000000000
1.0000000000000000 0.0000000000000000 0.0000000000000000
1.0000000000000000 0.0000000000000000 0.0000000000000000
1.0000000000000000 0.0000000000000000 0.0000000000000000
1.0000000000000000 0.0000000000000000 0.0000000000000000
1.0000000000000000 0.0000000000000000 0.0000000000000000
1.0000000000000000 0.0000000000000000 0.0000000000000000
1.0000000000000000 0.0000000000000000 0.0000000000000000
1.0000000000000000 0.0000000000000000 0.0000000000000000
1.0000000000000000 0.0000000000000000 0.0000000000000000
1.0000000000000000 0.0000000000000000 0.0000000000000000
1.0000000000000000 0.0000000000000000 0.0000000000000000
1.0000000000000000 0.0000000000000000 0.0000000000000000
1.0000000000000000 0.0000000000000000 0.0000000000000000
1.0000000000000000 0.0000000000000000 0.0000000000000000
1.0000000000000000 0.0000000000000000 0.0000000000000000
1.0000000000000000 0.0000000000000000 0.0000000000000000
1.0000000000000000 0.0000000000000000 0.0000000000000000
1.0000000000000000 0.0000000000000000 0.0000000000000000
1.0000000000000000 0.0000000000000000 0.0000000000000000
1.0000000000000000 0.0000000000000000 0.0000000000000000
1.0000000000000000 0.0000000000000000 0.0000000000000000
1.0000000000000000 0.0000000000000000 0.0000000000000000
1.0000000000000000 0.0000000000000000 0.0000000000000000
1.0000000000000000 0.0000000000000000 0.0000000000000000
1.0000000000000000 0.0000000000000000 0.0000000000000000
1.0000000000000000 0.0000000000000000 0.0000000000000000
1.0000000000000000 0.0000000000000000 0.0000000000000000
1.0000000000000000 0.0000000000000000 0.0000000000000000
1.0000000000000000 0.0000000000000000 0.0000000000000000
1.0000000000000000 0.0000000000000000 0.0000000000000000
1.0000000000000000 0.0000000000000000 0.0000000000000000
1.0000000000000000 0.0000000000000000 0.0000000000000000
1.0000000000000000 0.0000000000000000 0.0000000000000000
1.0000000000000000 0.0000000000000000 0.0000000000000000
1.0000000000000000 0.0000000000000000 0.0000000000000000
1.0000000000000000 0.0000000000000000 0.0000000000000000
1.0000000000000000 0.0000000000000000 0.0000000000000000
1.0000000000000000 0.0000000000000000 0.0000000000000000
1.0000000000000000 0.0000000000000000 0.0000000000000000
1.0000000000000000 0.0000000000000000 0.0000000000000000
1.0000000000000000 0.0000000000000000 0.0000000000000000
1.0000000000000000 0.0000000000000000 0.0000000000000000
1.0000000000000000 0.0000000000000000 0.0000000000000000
1.0000000000000000 0.0000000000000000 0.0000000000000000
1.0000000000000000 0.0000000000000000 0.0000000000000000
1.0000000000000000 0.0000000000000000 0.0000000000000000
1.0000000000000000 0.0000000000000000 0.0000000000000000
1.0000000000000000 0.0000000000000000 0.0000000000000000
1.0000000000000000 0.0000000000000000 0.0000000000000000
1.0000000000000000 0.0000000000000000 0.0000000000000000
1.0000000000000000 0.0000000000000000 0.0000000000000000
1.0000000000000000 0.0000000000000000 0.0000000000000000
1.0000000000000000 0.0000000000000000 0.0000000000000000
1.0000000000000000 0.0000000000000000 0.0000000000000000
1.0000000000000000 0.0000000000000000 0.0000000000000000
1.0000000000000000 0.0000000000000000 0.0000000000000000
1.0000000000000000 0.0000000000000000 0.0000000000000000
1.0000000000000000 0.0000000000000000 0.0000000000000000
1.0000000000000000 0.0000000000000000 0.0000000000000000
1.0000000000000000 0.0000000000000000 0.0000000000000000
1.0000000000000000 0.0000000000000000 0.0000000000000000
1.0000000000000000 0.0000000000000000 0.0000000000000000
1.0000000000000000 0.0000000000000000 0.0000000000000000
1.0000000000000000 0.0000000000000000 0.0000000000000000
1.0000000000000000 0.0000000000000000 0.0000000000000000
1.0000000000000000 0.0000000000000000 0.0000000000000000
1.0000000000000000 0.0000000000000000 0.0000000000000000
1.0000000000000000 0.0000000000000000 0.0000000000000000
1.0000000000000000 0.0000000000000000 0.0000000000000000
1.0000000000000000 0.0000000000000000 0.0000000000000000
1.0000000000000000 0.0000000000000000 0.0000000000000000
1.0000000000000000 0.0000000000000000 0.0000000000000000
1.0000000000000000 0.0000000000000000 0.0000000000000000
1.0000000000000000 0.0000000000000000 0.0000000000000000
1.0000000000000000 0.0000000000000000 0.0000000000000000
1.0000000000000000 0.0000000000000000 0.0000000000000000
1.0000000000000000 0.0000000000000000 0.0000000000000000
1.0000000000000000 0.0000000000000000 0.0000000000000000
1.0000000000000000 0.0000000000000000 0.0000000000000000
1.0000000000000000 0.0000000000000000 0.0000000000000000
1.0000000000000000 0.0000000000000000 0.0000000000000000
1.0000000000000000 0.0000000000000000 0.0000000000000000
1.0000000000000000 0.0000000000000000 0.0000000000000000
1.0000000000000000 0.0000000000000000 0.0000000000000000
1.0000000000000000 0.0000000000000000 0.0000000000000000
1.0000000000000000 0.0000000000000000 0.0000000000000000
1.0000000000000000 0.0000000000000000 0.0000000000000000
1.0000000000000000 0.0000000000000000 0.0000000000000000
1.0000000000000000 0.0000000000000000 0.0000000000000000
1.0000000000000000 0.0000000000000000 0.0000000000000000
1.0000000000000000 0.0000000000000000 0.0000000000000000
1.0000000000000000 0.0000000000000000 0.0000000000000000
1.0000000000000000 0.0000000000000000 0.0000000000000000
1.0000000000000000 0.0000000000000000 0.0000000000000000
1.0000000000000000 0.0000000000000000 0.0000000000000000
1.0000000000000000 0.0000000000000000 0.0000000000000000
1.0000000000000000 0.0000000000000000 0.0000000000000000
1.0000000000000000 0.0000000000000000 0.0000000000000000
1.0000000000000000 0.0000000000000000 0.0000000000000000
1.0000000000000000 0.0000000000000000 0.0000000000000000
1.0000000000000000 0.0000000000000000 0.0000000000000000
1.0000000000000000 0.0000000000000000 0.0000000000000000
1.0000000000000000 0.0000000000000000 0.0000000000000000
1.0000000000000000 0.0000000000000000 0.0000000000000000
1.0000000000000000 0.0000000000000000 0.0000000000000000
1.0000000000000000 0.0000000000000000 0.0000000000000000
1.0000000000000000 0.0000000000000000 0.0000000000000000
1.0000000000000000 0.0000000000000000 0.0000000000000000
1.0000000000000000 0.0000000000000000 0.0000000000000000
1.0000000000000000 0.0000000000000000 0.0000000000000000
1.0000000000000000 0.0000000000000000 0.0000000000000000
1.0000000000000000 0.0000000000000000 0.0000000000000000
1.0000000000000000 0.0000000000000000 0.0000000000000000
1.0000000000000000 0.0000000000000000 0.0000000000000000
1.0000000000000000 0.0000000000000000 0.0000000000000000
1.0000000000000000 0.0000000000000000 0.0000000000000000
1.0000000000000000 0.0000000000000000 0.0000000000000000
1.0000000000000000 0.0000000000000000 0.0000000000000000
1.0000000000000000 0.0000000000000000 0.0000000000000000
1.0000000000000000 0.0000000000000000 0.0000000000000000
1.0000000000000000 0.0000000000000000 0.0000000000000000
1.0000000000000000 0.0000000000000000 0.0000000000000000
1.0000000000000000 0.0000000000000000 0.0000000000000000
1.0000000000000000 0.0000000000000000 0.0000000000000000
1.0000000000000000 0.0000000000000000 0.0000000000000000
1.0000000000000000 0.0000000000000000 0.0000000000000000
1.0000000000000000 0.0000000000000000 0.0000000000000000
1.0000000000000000 0.0000000000000000 0.0000000000000000
1.0000000000000000 0.0000000000000000 0.0000000000000000
1.0000000000000000 0.0000000000000000 0.0000000000000000
1.0000000000000000 0.0000000000000000 0.0000000000000000
1.0000000000000000 0.0000000000000000 0.0000000000000000
1.0000000000000000 0.0000000000000000 0.0000000000000000
1.0000000000000000 0.0000000000000000 0.0000000000000000
1.0000000000000000 0.0000000000000000 0.0000000000000000
1.0000000000000000 0.0000000000000000 0.0000000000000000
1.0000000000000000 0.0000000000000000 0.0000000000000000
1.0000000000000000 0.0000000000000000 0.0000000000000000
1.0000000000000000 0.0000000000000000 0.0000000000000000
1.0000000000000000 0.0000000000000000 0.0000000000000000
1.0000000000000000 0.0000000000000000 0.0000000000000000
1.0000000000000000 0.0000000000000000 0.0000000000000000
1.0000000000000000 0.0000000000000000 0.0000000000000000
1.0000000000000000 0.0000000000000000 0.0000000000000000
1.0000000000000000 0.0000000000000000 0.0000000000000000
1.0000000000000000 0.0000000000000000 0.0000000000000000
1.0000000000000000 0.0000000000000000 0.0000000000000000
1.0000000000000000 0.0000000000000000 0.0000000000000000
1.0000000000000000 0.0000000000000000 0.0000000000000000
1.0000000000000000 0.0000000000000000 0.0000000000000000
1.0000000000000000 0.0000000000000000 0.0000000000000000
1.0000000000000000 0.0000000000000000 0.0000000000000000
1.0000000000000000 0.0000000000000000 0.0000000000000000
1.0000000000000000 0.0000000000000000 0.0000000000000000
1.0000000000000000 0.0000000000000000 0.0000000000000000
1.0000000000000000 0.0000000000000000 0.0000000000000000
1.0000000000000000 0.0000000000000000 0.0000000000000000
1.0000000000000000 0.0000000000000000 0.0000000000000000
1.0000000000000000 0.0000000000000000 0.0000000000000000
1.0000000000000000 0.0000000000000000 0.0000000000000000
1.0000000000000000 0.0000000000000000 0.0000000000000000
1.0000000000000000 0.0000000000000000 0.0000000000000000
1.0000000000000000 0.0000000000000000 0.0000000000000000
1.0000000000000000 0.0000000000000000 0.0000000000000000
1.0000000000000000 0.0000000000000000 0.0000000000000000
1.0000000000000000 0.0000000000000000 0.0000000000000000
1.0000000000000000 0.0000000000000000 0.0000000000000000
1.0000000000000000 0.0000000000000000 0.0000000000000000
1.0000000000000000 0.0000000000000000 0.0000000000000000
1.0000000000000000 0.0000000000000000 0.0000000000000000
1.0000000000000000 0.0000000000000000 0.0000000000000000
1.0000000000000000 0.0000000000000000 0.0000000000000000
1.0000000000000000 0.0000000000000000 0.0000000000000000
1.0000000000000000 0.0000000000000000 0.0000000000000000
1.0000000000000000 0.0000000000000000 0.0000000000000000
1.0000000000000000 0.0000000000000000 0.0000000000000000
1.0000000000000000 0.0000000000000000 0.0000000000000000
1.0000000000000000 0.0000000000000000 0.0000000000000000
1.0000000000000000 0.0000000000000000 0.0000000000000000
1.0000000000000000 0.0000000000000000 0.0000000000000000
1.0000000000000000 0.0000000000000000 0.0000000000000000
1.0000000000000000 0.0000000000000000 0.0000000000000000
1.0000000000000000 0.0000000000000000 0.0000000000000000
1.0000000000000000 0.0000000000000000 0.0000000000000000
1.0000000000000000 0.0000000000000000 0.0000000000000000
1.0000000000000000 0.0000000000000000 0.0000000000000000
1.0000000000000000 0.0000000000000000 0.0000000000000000
1.0000000000000000 0.0000000000000000 0.0000000000000000
1.0000000000000000 0.0000000000000000 0.0000000000000000
1.0000000000000000 0.0000000000000000 0.0000000000000000
1.0000000000000000 0.0000000000000000 0.0000000000000000
1.0000000000000000 0.0000000000000000 0.0000000000000000
1.0000000000000000 0.0000000000000000 0.0000000000000000
1.0000000000000000 0.0000000000000000 0.0000000000000000
1.0000000000000000 0.0000000000000000 0.0000000000000000
1.0000000000000000 0.0000000000000000 0.0000000000000000
1.0000000000000000 0.0000000000000000 0.0000000000000000
1.0000000000000000 0.0000000000000000 0.0000000000000000
1.0000000000000000 0.0000000000000000 0.0000000000000000
1.0000000000000000 0.0000000000000000 0.0000000000000000
1.0000000000000000 0.0000000000000000 0.0000000000000000
1.0000000000000000 0.0000000000000000 0.0000000000000000
1.0000000000000000 0.0000000000000000 0.0000000000000000
1.0000000000000000 0.0000000000000000 0.0000000000000000
1.0000000000000000 0.0000000000000000 0.0000000000000000
1.0000000000000000 0.0000000000000000 0.0000000000000000
1.0000000000000000 0.0000000000000000 0.0000000000000000
1.0000000000000000 0.0000000000000000 0.0000000000000000
1.0000000000000000 0.0000000000000000 0.0000000000000000
1.0000000000000000 0.0000000000000000 0.0000000000000000
1.0000000000000000 0.0000000000000000 0.0000000000000000
1.0000000000000000 0.0000000000000000 0.0000000000000000
1.0000000000000000 0.0000000000000000 0.0000000000000000
1.0000000000000000 0.0000000000000000 0.0000000000000000
1.0000000000000000 0.0000000000000000 0.0000000000000000
1.0000000000000000 0.0000000000000000 0.0000000000000000
1.0000000000000000 0.0000000000000000 0.0000000000000000
1.0000000000000000 0.0000000000000000 0.0000000000000000
1.0000000000000000 0.0000000000000000 0.0000000000000000
1.0000000000000000 0.0000000000000000 0.0000000000000000
1.0000000000000000 0.0000000000000000 0.0000000000000000
1.0000000000000000 0.0000000000000000 0.0000000000000000
1.0000000000000000 0.0000000000000000 0.0000000000000000
1.0000000000000000 0.0000000000000000 0.0000000000000000
1.0000000000000000 0.0000000000000000 0.0000000000000000
1.0000000000000000 0.0000000000000000 0.0000000000000000
1.0000000000000000 0.0000000000000000 0.0000000000000000
1.0000000000000000 0.0000000000000000 0.0000000000000000
1.0000000000000000 0.0000000000000000 0.0000000000000000
1.0000000000000000 0.0000000000000000 0.0000000000000000
1.0000000000000000 0.0000000000000000 0.0000000000000000
1.0000000000000000 0.0000000000000000 0.0000000000000000
1.0000000000000000 0.0000000000000000 0.0000000000000000
1.0000000000000000 0.0000000000000000 0.0000000000000000
1.0000000000000000 0.0000000000000000 0.0000000000000000
1.0000000000000000 0.0000000000000000 0.0000000000000000
1.0000000000000000 0.0000000000000000 0.0000000000000000
1.0000000000000000 0.0000000000000000 0.0000000000000000
1.0000000000000000 0.0000000000000000 0.0000000000000000
1.0000000000000000 0.0000000000000000 0.0000000000000000
1.0000000000000000 0.0000000000000000 0.0000000000000000
1.0000000000000000 0.0000000000000000 0.0000000000000000
1.0000000000000000 0.0000000000000000 0.0000000000000000
1.0000000000000000 0.0000000000000000 0.0000000000000000
1.0000000000000000 0.0000000000000000 0.0000000000000000
1.0000000000000000 0.0000000000000000 0.0000000000000000
1.0000000000000000 0.0000000000000000 0.0000000000000000
1.0000000000000000 0.0000000000000000 0.0000000000000000
1.0000000000000000 0.0000000000000000 0.0000000000000000
1.0000000000000000 0.0000000000000000 0.0000000000000000
1.0000000000000000 0.0000000000000000 0.0000000000000000
1.0000000000000000 0.0000000000000000 0.0000000000000000
1.0000000000000000 0.0000000000000000 0.0000000000000000
1.0000000000000000 0.0000000000000000 0.0000000000000000
1.0000000000000000 0.0000000000000000 0.0000000000000000
1.0000000000000000 0.0000000000000000 0.0000000000000000
1.0000000000000000 0.0000000000000000 0.0000000000000000
1.0000000000000000 0.0000000000000000 0.0000000000000000
1.0000000000000000 0.0000000000000000 0.0000000000000000
1.0000000000000000 0.0000000000000000 0.0000000000000000
1.0000000000000000 0.0000000000000000 0.0000000000000000
1.0000000000000000 0.0000000000000000 0.0000000000000000
1.0000000000000000 0.0000000000000000 0.0000000000000000
1.0000000000000000 0.0000000000000000 0.0000000000000000
1.0000000000000000 0.0000000000000000 0.0000000000000000
1.0000000000000000 0.0000000000000000 0.0000000000000000
1.0000000000000000 0.0000000000000000 0.0000000000000000
1.0000000000000000 0.0000000000000000 0.0000000000000000
1.0000000000000000 0.0000000000000000 0.0000000000000000
1.0000000000000000 0.0000000000000000 0.0000000000000000
1.0000000000000000 0.0000000000000000 0.0000000000000000
1.0000000000000000 0.0000000000000000 0.0000000000000000
1.0000000000000000 0.0000000000000000 0.0000000000000000
1.0000000000000000 0.0000000000000000 0.0000000000000000
1.0000000000000000 0.0000000000000000 0.0000000000000000
1.0000000000000000 0.0000000000000000 0.0000000000000000
1.0000000000000000 0.0000000000000000 0.0000000000000000
1.0000000000000000 0.0000000000000000 0.0000000000000000
1.0000000000000000 0.0000000000000000 0.0000000000000000
1.0000000000000000 0.0000000000000000 0.0000000000000000
1.0000000000000000 0.0000000000000000 0.0000000000000000
1.0000000000000000 0.0000000000000000 0.0000000000000000
1.0000000000000000 0.0000000000000000 0.0000000000000000
1.0000000000000000 0.0000000000000000 0.0000000000000000
1.0000000000000000 0.0000000000000000 0.0000000000000000
1.0000000000000000 0.0000000000000000 0.0000000000000000
1.0000000000000000 0.0000000000000000 0.0000000000000000
1.0000000000000000 0.0000000000000000 0.0000000000000000
1.0000000000000000 0.0000000000000000 0.0000000000000000
1.0000000000000000 0.0000000000000000 0.0000000000000000
1.0000000000000000 0.0000000000000000 0.0000000000000000
1.0000000000000000 0.0000000000000000 0.0000000000000000
1.0000000000000000 0.0000000000000000 0.0000000000000000
1.0000000000000000 0.0000000000000000 0.0000000000000000
1.0000000000000000 0.0000000000000000 0.0000000000000000
1.0000000000000000 0.0000000000000000 0.0000000000000000
1.0000000000000000 0.0000000000000000 0.0000000000000000
1.0000000000000000 0.0000000000000000 0.0000000000000000
1.0000000000000000 0.0000000000000000 0.0000000000000000
1.0000000000000000 0.0000000000000000 0.0000000000000000
1.0000000000000000 0.0000000000000000 0.0000000000000000
1.0000000000000000 0.0000000000000000 0.0000000000000000
1.0000000000000000 0.0000000000000000 0.0000000000000000
1.0000000000000000 0.0000000000000000 0.0000000000000000
1.0000000000000000 0.0000000000000000 0.0000000000000000
1.0000000000000000 0.0000000000000000 0.0000000000000000
1.0000000000000000 0.0000000000000000 0.0000000000000000
1.0000000000000000 0.0000000000000000 0.0000000000000000
1.0000000000000000 0.0000000000000000 0.0000000000000000
1.0000000000000000 0.0000000000000000 0.0000000000000000
1.0000000000000000 0.0000000000000000 0.0000000000000000
1.0000000000000000 0.0000000000000000 0.0000000000000000
1.0000000000000000 0.0000000000000000 0.0000000000000000
1.0000000000000000 0.0000000000000000 0.0000000000000000
1.0000000000000000 0.0000000000000000 0.0000000000000000
1.0000000000000000 0.0000000000000000 0.0000000000000000
1.0000000000000000 0.0000000000000000 0.0000000000000000
1.0000000000000000 0.0000000000000000 0.0000000000000000
1.0000000000000000 0.0000000000000000 0.0000000000000000
1.0000000000000000 0.0000000000000000 0.0000000000000000
1.0000000000000000 0.0000000000000000 0.0000000000000000
1.0000000000000000 0.0000000000000000 0.0000000000000000
1.0000000000000000 0.0000000000000000 0.0000000000000000
1.0000000000000000 0.0000000000000000 0.0000000000000000
1.0000000000000000 0.0000000000000000 0.0000000000000000
1.0000000000000000 0.0000000000000000 0.0000000000000000
1.0000000000000000 0.0000000000000000 0.0000000000000000
1.0000000000000000 0.0000000000000000 0.0000000000000000
1.0000000000000000 0.0000000000000000 0.0000000000000000
1.0000000000000000 0.0000000000000000 0.0000000000000000
1.0000000000000000 0.0000000000000000 0.0000000000000000
1.0000000000000000 0.0000000000000000 0.0000000000000000
1.0000000000000000 0.0000000000000000 0.0000000000000000
1.0000000000000000 0.0000000000000000 0.0000000000000000
1.0000000000000000 0.0000000000000000 0.0000000000000000
1.0000000000000000 0.0000000000000000 0.0000000000000000
1.0000000000000000 0.0000000000000000 0.0000000000000000
1.0000000000000000 0.0000000000000000 0.0000000000000000
1.0000000000000000 0.0000000000000000 0.0000000000000000
1.0000000000000000 0.0000000000000000 0.0000000000000000
1.0000000000000000 0.0000000000000000 0.0000000000000000
1.0000000000000000 0.0000000000000000 0.0000000000000000
1.0000000000000000 0.0000000000000000 0.0000000000000000
1.0000000000000000 0.0000000000000000 0.0000000000000000
1.0000000000000000 0.0000000000000000 0.0000000000000000
1.0000000000000000 0.0000000000000000 0.0000000000000000
1.0000000000000000 0.0000000000000000 0.0000000000000000
1.0000000000000000 0.0000000000000000 0.0000000000000000
1.0000000000000000 0.0000000000000000 0.0000000000000000
1.0000000000000000 0.0000000000000000 0.0000000000000000
1.0000000000000000 0.0000000000000000 0.0000000000000000
1.0000000000000000 0.0000000000000000 0.0000000000000000
1.0000000000000000 0.0000000000000000 0.0000000000000000
1.0000000000000000 0.0000000000000000 0.0000000000000000
1.0000000000000000 0.0000000000000000 0.0000000000000000
1.0000000000000000 0.0000000000000000 0.0000000000000000
1.0000000000000000 0.0000000000000000 0.0000000000000000
1.0000000000000000 0.0000000000000000 0.0000000000000000
1.0000000000000000 0.0000000000000000 0.0000000000000000
1.0000000000000000 0.0000000000000000 0.0000000000000000
1.0000000000000000 0.0000000000000000 0.0000000000000000
1.0000000000000000 0.0000000000000000 0.0000000000000000
1.0000000000000000 0.0000000000000000 0.0000000000000000
1.0000000000000000 0.0000000000000000 0.0000000000000000
1.0000000000000000 0.0000000000000000 0.0000000000000000
1.0000000000000000 0.0000000000000000 0.0000000000000000
1.0000000000000000 0.0000000000000000 0.0000000000000000
1.0000000000000000 0.0000000000000000 0.0000000000000000
1.0000000000000000 0.0000000000000000 0.0000000000000000
1.0000000000000000 0.0000000000000000 0.0000000000000000
1.0000000000000000 0.0000000000000000 0.0000000000000000
1.0000000000000000 0.0000000000000000 0.0000000000000000
1.0000000000000000 0.0000000000000000 0.0000000000000000
1.0000000000000000 0.0000000000000000 0.0000000000000000
1.0000000000000000 0.0000000000000000 0.0000000000000000
1.0000000000000000 0.0000000000000000 0.0000000000000000
1.0000000000000000 0.0000000000000000 0.0000000000000000
1.0000000000000000 0.0000000000000000 0.0000000000000000
1.0000000000000000 0.0000000000000000 0.0000000000000000
1.0000000000000000 0.0000000000000000 0.0000000000000000
1.0000000000000000 0.0000000000000000 0.0000000000000000
1.0000000000000000 0.0000000000000000 0.0000000000000000
1.0000000000000000 0.0000000000000000 0.0000000000000000
1.0000000000000000 0.0000000000000000 0.0000000000000000
1.0000000000000000 0.0000000000000000 0.0000000000000000
1.0000000000000000 0.0000000000000000 0.0000000000000000
1.0000000000000000 0.0000000000000000 0.0000000000000000
1.0000000000000000 0.0000000000000000 0.0000000000000000
1.0000000000000000 0.0000000000000000 0.0000000000000000
1.0000000000000000 0.0000000000000000 0.0000000000000000
1.0000000000000000 0.0000000000000000 0.0000000000000000
1.0000000000000000 0.0000000000000000 0.0000000000000000
1.0000000000000000 0.0000000000000000 0.0000000000000000
1.0000000000000000 0.0000000000000000 0.0000000000000000
1.0000000000000000 0.0000000000000000 0.0000000000000000
1.0000000000000000 0.0000000000000000 0.0000000000000000
1.0000000000000000 0.0000000000000000 0.0000000000000000
1.0000000000000000 0.0000000000000000 0.0000000000000000
1.0000000000000000 0.0000000000000000 0.0000000000000000
1.0000000000000000 0.0000000000000000 0.0000000000000000
1.0000000000000000 0.0000000000000000 0.0000000000000000
1.0000000000000000 0.0000000000000000 0.0000000000000000
1.0000000000000000 0.0000000000000000 0.0000000000000000
1.0000000000000000 0.0000000000000000 0.0000000000000000
1.0000000000000000 0.0000000000000000 0.0000000000000000
1.0000000000000000 0.0000000000000000 0.0000000000000000
1.0000000000000000 0.0000000000000000 0.0000000000000000
1.0000000000000000 0.0000000000000000 0.0000000000000000
1.0000000000000000 0.0000000000000000 0.0000000000000000
1.0000000000000000 0.0000000000000000 0.0000000000000000
1.0000000000000000 0.0000000000000000 0.0000000000000000
1.0000000000000000 0.0000000000000000 0.0000000000000000
1.0000000000000000 0.0000000000000000 0.0000000000000000
1.0000000000000000 0.0000000000000000 0.0000000000000000
1.0000000000000000 0.0000000000000000 0.0000000000000000
1.0000000000000000 0.0000000000000000 0.0000000000000000
1.0000000000000000 0.0000000000000000 0.0000000000000000
1.0000000000000000 0.0000000000000000 0.0000000000000000
1.0000000000000000 0.0000000000000000 0.0000000000000000
1.0000000000000000 0.0000000000000000 0.0000000000000000
1.0000000000000000 0.0000000000000000 0.0000000000000000
1.0000000000000000 0.0000000000000000 0.0000000000000000
1.0000000000000000 0.0000000000000000 0.0000000000000000
1.0000000000000000 0.0000000000000000 0.0000000000000000
1.0000000000000000 0.0000000000000000 0.0000000000000000
1.0000000000000000 0.0000000000000000 0.0000000000000000
1.0000000000000000 0.0000000000000000 0.0000000000000000
1.0000000000000000 0.0000000000000000 0.0000000000000000
1.0000000000000000 0.0000000000000000 0.0000000000000000
1.0000000000000000 0.0000000000000000 0.0000000000000000
1.0000000000000000 0.0000000000000000 0.0000000000000000
1.0000000000000000 0.0000000000000000 0.0000000000000000
1.0000000000000000 0.0000000000000000 0.0000000000000000
1.0000000000000000 0.0000000000000000 0.0000000000000000
1.0000000000000000 0.0000000000000000 0.0000000000000000
1.0000000000000000 0.0000000000000000 0.0000000000000000
1.0000000000000000 0.0000000000000000 0.0000000000000000
1.0000000000000000 0.0000000000000000 0.0000000000000000
1.0000000000000000 0.0000000000000000 0.0000000000000000
1.0000000000000000 0.0000000000000000 0.0000000000000000
1.0000000000000000 0.0000000000000000 0.0000000000000000
1.0000000000000000 0.0000000000000000 0.0000000000000000
1.0000000000000000 0.0000000000000000 0.0000000000000000
1.0000000000000000 0.0000000000000000 0.0000000000000000
1.0000000000000000 0.0000000000000000 0.0000000000000000
1.0000000000000000 0.0000000000000000 0.0000000000000000
1.0000000000000000 0.0000000000000000 0.0000000000000000
1.0000000000000000 0.0000000000000000 0.0000000000000000
1.0000000000000000 0.0000000000000000 0.0000000000000000
1.0000000000000000 0.0000000000000000 0.0000000000000000
1.0000000000000000 0.0000000000000000 0.0000000000000000
1.0000000000000000 0.0000000000000000 0.0000000000000000
1.0000000000000000 0.0000000000000000 0.0000000000000000
1.0000000000000000 0.0000000000000000 0.0000000000000000
1.0000000000000000 0.0000000000000000 0.0000000000000000
1.0000000000000000 0.0000000000000000 0.0000000000000000
1.0000000000000000 0.0000000000000000 0.0000000000000000
1.0000000000000000 0.0000000000000000 0.0000000000000000
1.0000000000000000 0.0000000000000000 0.0000000000000000
1.0000000000000000 0.0000000000000000 0.0000000000000000
1.0000000000000000 0.0000000000000000 0.0000000000000000
1.0000000000000000 0.0000000000000000 0.0000000000000000
1.0000000000000000 0.0000000000000000 0.0000000000000000
1.0000000000000000 0.0000000000000000 0.0000000000000000
1.0000000000000000 0.0000000000000000 0.0000000000000000
1.0000000000000000 0.0000000000000000 0.0000000000000000
1.0000000000000000 0.0000000000000000 0.0000000000000000
1.0000000000000000 0.0000000000000000 0.0000000000000000
1.0000000000000000 0.0000000000000000 0.0000000000000000
1.0000000000000000 0.0000000000000000 0.0000000000000000
1.0000000000000000 0.0000000000000000 0.0000000000000000
1.0000000000000000 0.0000000000000000 0.0000000000000000
1.0000000000000000 0.0000000000000000 0.0000000000000000
1.0000000000000000 0.0000000000000000 0.0000000000000000
1.0000000000000000 0.0000000000000000 0.0000000000000000
1.0000000000000000 0.0000000000000000 0.0000000000000000
1.0000000000000000 0.0000000000000000 0.0000000000000000
1.0000000000000000 0.0000000000000000 0.0000000000000000
1.0000000000000000 0.0000000000000000 0.0000000000000000
1.0000000000000000 0.0000000000000000 0.0000000000000000
1.0000000000000000 0.0000000000000000 0.0000000000000000
1.0000000000000000 0.0000000000000000 0.0000000000000000
1.0000000000000000 0.0000000000000000 0.0000000000000000
1.0000000000000000 0.0000000000000000 0.0000000000000000
1.0000000000000000 0.0000000000000000 0.0000000000000000
1.0000000000000000 0.0000000000000000 0.0000000000000000
1.0000000000000000 0.0000000000000000 0.0000000000000000
1.0000000000000000 0.0000000000000000 0.0000000000000000
1.0000000000000000 0.0000000000000000 0.0000000000000000
1.0000000000000000 0.0000000000000000 0.0000000000000000
1.0000000000000000 0.0000000000000000 0.0000000000000000
1.0000000000000000 0.0000000000000000 0.0000000000000000
1.0000000000000000 0.0000000000000000 0.0000000000000000
1.0000000000000000 0.0000000000000000 0.0000000000000000
1.0000000000000000 0.0000000000000000 0.0000000000000000
1.0000000000000000 0.0000000000000000 0.0000000000000000
1.0000000000000000 0.0000000000000000 0.0000000000000000
1.0000000000000000 0.0000000000000000 0.0000000000000000
1.0000000000000000 0.0000000000000000 0.0000000000000000
1.0000000000000000 0.0000000000000000 0.0000000000000000
1.0000000000000000 0.0000000000000000 0.0000000000000000
1.0000000000000000 0.0000000000000000 0.0000000000000000
1.0000000000000000 0.0000000000000000 0.0000000000000000
1.0000000000000000 0.0000000000000000 0.0000000000000000
1.0000000000000000 0.0000000000000000 0.0000000000000000
1.0000000000000000 0.0000000000000000 0.0000000000000000
1.0000000000000000 0.0000000000000000 0.0000000000000000
1.0000000000000000 0.0000000000000000 0.0000000000000000
1.0000000000000000 0.0000000000000000 0.0000000000000000
1.0000000000000000 0.0000000000000000 0.0000000000000000
1.0000000000000000 0.0000000000000000 0.0000000000000000
1.0000000000000000 0.0000000000000000 0.0000000000000000
1.0000000000000000 0.0000000000000000 0.0000000000000000
1.0000000000000000 0.0000000000000000 0.0000000000000000
1.0000000000000000 0.0000000000000000 0.0000000000000000
1.0000000000000000 0.0000000000000000 0.0000000000000000
1.0000000000000000 0.0000000000000000 0.0000000000000000
1.0000000000000000 0.0000000000000000 0.0000000000000000
1.0000000000000000 0.0000000000000000 0.0000000000000000
1.0000000000000000 0.0000000000000000 0.0000000000000000
1.0000000000000000 0.0000000000000000 0.0000000000000000
1.0000000000000000 0.0000000000000000 0.0000000000000000
1.0000000000000000 0.0000000000000000 0.0000000000000000
1.0000000000000000 0.0000000000000000 0.0000000000000000
1.0000000000000000 0.0000000000000000 0.0000000000000000
1.0000000000000000 0.0000000000000000 0.0000000000000000
1.0000000000000000 0.0000000000000000 0.0000000000000000
1.0000000000000000 0.0000000000000000 0.0000000000000000
1.0000000000000000 0.0000000000000000 0.0000000000000000
1.0000000000000000 0.0000000000000000 0.0000000000000000
1.0000000000000000 0.0000000000000000 0.0000000000000000
1.0000000000000000 0.0000000000000000 0.0000000000000000
1.0000000000000000 0.0000000000000000 0.0000000000000000
1.0000000000000000 0.0000000000000000 0.0000000000000000
1.0000000000000000 0.0000000000000000 0.0000000000000000
1.0000000000000000 0.0000000000000000 0.0000000000000000
1.0000000000000000 0.0000000000000000 0.0000000000000000
1.0000000000000000 0.0000000000000000 0.0000000000000000
1.0000000000000000 0.0000000000000000 0.0000000000000000
1.0000000000000000 0.0000000000000000 0.0000000000000000
1.0000000000000000 0.0000000000000000 0.0000000000000000
1.0000000000000000 0.0000000000000000 0.0000000000000000
1.0000000000000000 0.0000000000000000 0.0000000000000000
1.0000000000000000 0.0000000000000000 0.0000000000000000
1.0000000000000000 0.0000000000000000 0.0000000000000000
1.0000000000000000 0.0000000000000000 0.0000000000000000
1.0000000000000000 0.0000000000000000 0.0000000000000000
1.0000000000000000 0.0000000000000000 0.0000000000000000
1.0000000000000000 0.0000000000000000 0.0000000000000000
1.0000000000000000 0.0000000000000000 0.0000000000000000
1.0000000000000000 0.0000000000000000 0.0000000000000000
1.0000000000000000 0.0000000000000000 0.0000000000000000
1.0000000000000000 0.0000000000000000 0.0000000000000000
1.0000000000000000 0.0000000000000000 0.0000000000000000
1.0000000000000000 0.0000000000000000 0.0000000000000000
1.0000000000000000 0.0000000000000000 0.0000000000000000
1.0000000000000000 0.0000000000000000 0.0000000000000000
1.0000000000000000 0.0000000000000000 0.0000000000000000
1.0000000000000000 0.0000000000000000 0.0000000000000000
1.0000000000000000 0.0000000000000000 0.0000000000000000
1.0000000000000000 0.0000000000000000 0.0000000000000000
1.0000000000000000 0.0000000000000000 0.0000000000000000
1.0000000000000000 0.0000000000000000 0.0000000000000000
1.0000000000000000 0.0000000000000000 0.0000000000000000
1.0000000000000000 0.0000000000000000 0.0000000000000000
1.0000000000000000 0.0000000000000000 0.0000000000000000
1.0000000000000000 0.0000000000000000 0.0000000000000000
1.0000000000000000 0.0000000000000000 0.0000000000000000
1.0000000000000000 0.0000000000000000 0.0000000000000000
1.0000000000000000 0.0000000000000000 0.0000000000000000
1.0000000000000000 0.0000000000000000 0.0000000000000000
1.0000000000000000 0.0000000000000000 0.0000000000000000
1.0000000000000000 0.0000000000000000 0.0000000000000000
1.0000000000000000 0.0000000000000000 0.0000000000000000
1.0000000000000000 0.0000000000000000 0.0000000000000000
1.0000000000000000 0.0000000000000000 0.0000000000000000
1.0000000000000000 0.0000000000000000 0.0000000000000000
1.0000000000000000 0.0000000000000000 0.0000000000000000
1.0000000000000000 0.0000000000000000 0.0000000000000000
1.0000000000000000 0.0000000000000000 0.0000000000000000
1.0000000000000000 0.0000000000000000 0.0000000000000000
1.0000000000000000 0.0000000000000000 0.0000000000000000
1.0000000000000000 0.0000000000000000 0.0000000000000000
1.0000000000000000 0.0000000000000000 0.0000000000000000
1.0000000000000000 0.0000000000000000 0.0000000000000000
1.0000000000000000 0.0000000000000000 0.0000000000000000
1.0000000000000000 0.0000000000000000 0.0000000000000000
1.0000000000000000 0.0000000000000000 0.0000000000000000
1.0000000000000000 0.0000000000000000 0.0000000000000000
1.0000000000000000 0.0000000000000000 0.0000000000000000
1.0000000000000000 0.0000000000000000 0.0000000000000000
1.0000000000000000 0.0000000000000000 0.0000000000000000
1.0000000000000000 0.0000000000000000 0.0000000000000000
1.0000000000000000 0.0000000000000000 0.0000000000000000
1.0000000000000000 0.0000000000000000 0.0000000000000000
1.0000000000000000 0.0000000000000000 0.0000000000000000
1.0000000000000000 0.0000000000000000 0.0000000000000000
1.0000000000000000 0.0000000000000000 0.0000000000000000
1.0000000000000000 0.0000000000000000 0.0000000000000000
1.0000000000000000 0.0000000000000000 0.0000000000000000
1.0000000000000000 0.0000000000000000 0.0000000000000000
1.0000000000000000 0.0000000000000000 0.0000000000000000
1.0000000000000000 0.0000000000000000 0.0000000000000000
1.0000000000000000 0.0000000000000000 0.0000000000000000
1.0000000000000000 0.0000000000000000 0.0000000000000000
1.0000000000000000 0.0000000000000000 0.0000000000000000
1.0000000000000000 0.0000000000000000 0.0000000000000000
1.0000000000000000 0.0000000000000000 0.0000000000000000
1.0000000000000000 0.0000000000000000 0.0000000000000000
1.0000000000000000 0.0000000000000000 0.0000000000000000
1.0000000000000000 0.0000000000000000 0.0000000000000000
1.0000000000000000 0.0000000000000000 0.0000000000000000
1.0000000000000000 0.0000000000000000 0.0000000000000000
1.0000000000000000 0.0000000000000000 0.0000000000000000
1.0000000000000000 0.0000000000000000 0.0000000000000000
1.0000000000000000 0.0000000000000000 0.0000000000000000
1.0000000000000000 0.0000000000000000 0.0000000000000000
1.0000000000000000 0.0000000000000000 0.0000000000000000
1.0000000000000000 0.0000000000000000 0.0000000000000000
1.0000000000000000 0.0000000000000000 0.0000000000000000
1.0000000000000000 0.0000000000000000 0.0000000000000000
1.0000000000000000 0.0000000000000000 0.0000000000000000
1.0000000000000000 0.0000000000000000 0.0000000000000000
1.0000000000000000 0.0000000000000000 0.0000000000000000
1.0000000000000000 0.0000000000000000 0.0000000000000000
1.0000000000000000 0.0000000000000000 0.0000000000000000
1.0000000000000000 0.0000000000000000 0.0000000000000000
1.0000000000000000 0.0000000000000000 0.0000000000000000
1.0000000000000000 0.0000000000000000 0.0000000000000000
1.0000000000000000 0.0000000000000000 0.0000000000000000
1.0000000000000000 0.0000000000000000 0.0000000000000000
1.0000000000000000 0.0000000000000000 0.0000000000000000
1.0000000000000000 0.0000000000000000 0.0000000000000000
1.0000000000000000 0.0000000000000000 0.0000000000000000
1.0000000000000000 0.0000000000000000 0.0000000000000000
1.0000000000000000 0.0000000000000000 0.0000000000000000
1.0000000000000000 0.0000000000000000 0.0000000000000000
1.0000000000000000 0.0000000000000000 0.0000000000000000
1.0000000000000000 0.0000000000000000 0.0000000000000000
1.0000000000000000 0.0000000000000000 0.0000000000000000
1.0000000000000000 0.0000000000000000 0.0000000000000000
1.0000000000000000 0.0000000000000000 0.0000000000000000
1.0000000000000000 0.0000000000000000 0.0000000000000000
1.0000000000000000 0.0000000000000000 0.0000000000000000
1.0000000000000000 0.0000000000000000 0.0000000000000000
1.0000000000000000 0.0000000000000000 0.0000000000000000
1.0000000000000000 0.0000000000000000 0.0000000000000000
1.0000000000000000 0.0000000000000000 0.0000000000000000
1.0000000000000000 0.0000000000000000 0.0000000000000000
1.0000000000000000 0.0000000000000000 0.0000000000000000
1.0000000000000000 0.0000000000000000 0.0000000000000000
1.0000000000000000 0.0000000000000000 0.0000000000000000
1.0000000000000000 0.0000000000000000 0.0000000000000000
1.0000000000000000 0.0000000000000000 0.0000000000000000
1.0000000000000000 0.0000000000000000 0.0000000000000000
1.0000000000000000 0.0000000000000000 0.0000000000000000
1.0000000000000000 0.0000000000000000 0.0000000000000000
1.0000000000000000 0.0000000000000000 0.0000000000000000
1.0000000000000000 0.0000000000000000 0.0000000000000000
1.0000000000000000 0.0000000000000000 0.0000000000000000
1.0000000000000000 0.0000000000000000 0.0000000000000000
1.0000000000000000 0.0000000000000000 0.0000000000000000
1.0000000000000000 0.0000000000000000 0.0000000000000000
1.0000000000000000 0.0000000000000000 0.0000000000000000
1.0000000000000000 0.0000000000000000 0.0000000000000000
1.0000000000000000 0.0000000000000000 0.0000000000000000
1.0000000000000000 0.0000000000000000 0.0000000000000000
1.0000000000000000 0.0000000000000000 0.0000000000000000
1.0000000000000000 0.0000000000000000 0.0000000000000000
1.0000000000000000 0.0000000000000000 0.0000000000000000
1.0000000000000000 0.0000000000000000 0.0000000000000000
1.0000000000000000 0.0000000000000000 0.0000000000000000
1.0000000000000000 0.0000000000000000 0.0000000000000000
1.0000000000000000 0.0000000000000000 0.0000000000000000
1.0000000000000000 0.0000000000000000 0.0000000000000000
1.0000000000000000 0.0000000000000000 0.0000000000000000
1.0000000000000000 0.0000000000000000 0.0000000000000000
1.0000000000000000 0.0000000000000000 0.0000000000000000
1.0000000000000000 0.0000000000000000 0.0000000000000000
1.0000000000000000 0.0000000000000000 0.0000000000000000
1.0000000000000000 0.0000000000000000 0.0000000000000000
1.0000000000000000 0.0000000000000000 0.0000000000000000
1.0000000000000000 0.0000000000000000 0.0000000000000000
1.0000000000000000 0.0000000000000000 0.0000000000000000
1.0000000000000000 0.0000000000000000 0.0000000000000000
1.0000000000000000 0.0000000000000000 0.0000000000000000
1.0000000000000000 0.0000000000000000 0.0000000000000000
1.0000000000000000 0.0000000000000000 0.0000000000000000
1.0000000000000000 0.0000000000000000 0.0000000000000000
1.0000000000000000 0.0000000000000000 0.0000000000000000
1.0000000000000000 0.0000000000000000 0.0000000000000000
1.0000000000000000 0.0000000000000000 0.0000000000000000
1.0000000000000000 0.0000000000000000 0.0000000000000000
1.0000000000000000 0.0000000000000000 0.0000000000000000
1.0000000000000000 0.0000000000000000 0.0000000000000000
1.0000000000000000 0.0000000000000000 0.0000000000000000
1.0000000000000000 0.0000000000000000 0.0000000000000000
1.0000000000000000 0.0000000000000000 0.0000000000000000
1.0000000000000000 0.0000000000000000 0.0000000000000000
1.0000000000000000 0.0000000000000000 0.0000000000000000
1.0000000000000000 0.0000000000000000 0.0000000000000000
1.0000000000000000 0.0000000000000000 0.0000000000000000
1.0000000000000000 0.0000000000000000 0.0000000000000000
1.0000000000000000 0.0000000000000000 0.0000000000000000
1.0000000000000000 0.0000000000000000 0.0000000000000000
1.0000000000000000 0.0000000000000000 0.0000000000000000
1.0000000000000000 0.0000000000000000 0.0000000000000000
1.0000000000000000 0.0000000000000000 0.0000000000000000
1.0000000000000000 0.0000000000000000 0.0000000000000000
1.0000000000000000 0.0000000000000000 0.0000000000000000
1.0000000000000000 0.0000000000000000 0.0000000000000000
1.0000000000000000 0.0000000000000000 0.0000000000000000
1.0000000000000000 0.0000000000000000 0.0000000000000000
1.0000000000000000 0.0000000000000000 0.0000000000000000
1.0000000000000000 0.0000000000000000 0.0000000000000000
1.0000000000000000 0.0000000000000000 0.0000000000000000
1.0000000000000000 0.0000000000000000 0.0000000000000000
1.0000000000000000 0.0000000000000000 0.0000000000000000
1.0000000000000000 0.0000000000000000 0.0000000000000000
1.0000000000000000 0.0000000000000000 0.0000000000000000
1.0000000000000000 0.0000000000000000 0.0000000000000000
1.0000000000000000 0.0000000000000000 0.0000000000000000
1.0000000000000000 0.0000000000000000 0.0000000000000000
1.0000000000000000 0.0000000000000000 0.0000000000000000
1.0000000000000000 0.0000000000000000 0.0000000000000000
1.0000000000000000 0.0000000000000000 0.0000000000000000
1.0000000000000000 0.0000000000000000 0.0000000000000000
1.0000000000000000 0.0000000000000000 0.0000000000000000
1.0000000000000000 0.0000000000000000 0.0000000000000000
1.0000000000000000 0.0000000000000000 0.0000000000000000
1.0000000000000000 0.0000000000000000 0.0000000000000000
1.0000000000000000 0.0000000000000000 0.0000000000000000
1.0000000000000000 0.0000000000000000 0.0000000000000000
1.0000000000000000 0.0000000000000000 0.0000000000000000
1.0000000000000000 0.0000000000000000 0.0000000000000000
1.0000000000000000 0.0000000000000000 0.0000000000000000
1.0000000000000000 0.0000000000000000 0.0000000000000000
1.0000000000000000 0.0000000000000000 0.0000000000000000
1.0000000000000000 0.0000000000000000 0.0000000000000000
1.0000000000000000 0.0000000000000000 0.0000000000000000
1.0000000000000000 0.0000000000000000 0.0000000000000000
1.0000000000000000 0.0000000000000000 0.0000000000000000
1.0000000000000000 0.0000000000000000 0.0000000000000000
1.0000000000000000 0.0000000000000000 0.0000000000000000
1.0000000000000000 0.0000000000000000 0.0000000000000000
1.0000000000000000 0.0000000000000000 0.0000000000000000
1.0000000000000000 0.0000000000000000 0.0000000000000000
1.0000000000000000 0.0000000000000000 0.0000000000000000
1.0000000000000000 0.0000000000000000 0.0000000000000000
1.0000000000000000 0.0000000000000000 0.0000000000000000
1.0000000000000000 0.0000000000000000 0.0000000000000000
1.0000000000000000 0.0000000000000000 0.0000000000000000
1.0000000000000000 0.0000000000000000 0.0000000000000000
1.0000000000000000 0.0000000000000000 0.0000000000000000
1.0000000000000000 0.0000000000000000 0.0000000000000000
1.0000000000000000 0.0000000000000000 0.0000000000000000
1.0000000000000000 0.0000000000000000 0.0000000000000000
1.0000000000000000 0.0000000000000000 0.0000000000000000
1.0000000000000000 0.0000000000000000 0.0000000000000000
1.0000000000000000 0.0000000000000000 0.0000000000000000
1.0000000000000000 0.0000000000000000 0.0000000000000000
1.0000000000000000 0.0000000000000000 0.0000000000000000
1.0000000000000000 0.0000000000000000 0.0000000000000000
1.0000000000000000 0.0000000000000000 0.0000000000000000
1.0000000000000000 0.0000000000000000 0.0000000000000000
1.0000000000000000 0.0000000000000000 0.0000000000000000
1.0000000000000000 0.0000000000000000 0.0000000000000000
1.0000000000000000 0.0000000000000000 0.0000000000000000
1.0000000000000000 0.0000000000000000 0.0000000000000000
1.0000000000000000 0.0000000000000000 0.0000000000000000
1.0000000000000000 0.0000000000000000 0.0000000000000000
1.0000000000000000 0.0000000000000000 0.0000000000000000
1.0000000000000000 0.0000000000000000 0.0000000000000000
1.0000000000000000 0.0000000000000000 0.0000000000000000
1.0000000000000000 0.0000000000000000 0.0000000000000000
1.0000000000000000 0.0000000000000000 0.0000000000000000
1.0000000000000000 0.0000000000000000 0.0000000000000000
1.0000000000000000 0.0000000000000000 0.0000000000000000
1.0000000000000000 0.0000000000000000 0.0000000000000000
1.0000000000000000 0.0000000000000000 0.0000000000000000
1.0000000000000000 0.0000000000000000 0.0000000000000000
1.0000000000000000 0.0000000000000000 0.0000000000000000
1.0000000000000000 0.0000000000000000 0.0000000000000000
1.0000000000000000 0.0000000000000000 0.0000000000000000
1.0000000000000000 0.0000000000000000 0.0000000000000000
1.0000000000000000 0.0000000000000000 0.0000000000000000
1.0000000000000000 0.0000000000000000 0.0000000000000000
1.0000000000000000 0.0000000000000000 0.0000000000000000
1.0000000000000000 0.0000000000000000 0.0000000000000000
1.0000000000000000 0.0000000000000000 0.0000000000000000
1.0000000000000000 0.0000000000000000 0.0000000000000000
1.0000000000000000 0.0000000000000000 0.0000000000000000
1.0000000000000000 0.0000000000000000 0.0000000000000000
1.0000000000000000 0.0000000000000000 0.0000000000000000
1.0000000000000000 0.0000000000000000 0.0000000000000000
1.0000000000000000 0.0000000000000000 0.0000000000000000
1.0000000000000000 0.0000000000000000 0.0000000000000000
1.0000000000000000 0.0000000000000000 0.0000000000000000
1.0000000000000000 0.0000000000000000 0.0000000000000000
1.0000000000000000 0.0000000000000000 0.0000000000000000
1.0000000000000000 0.0000000000000000 0.0000000000000000
1.0000000000000000 0.0000000000000000 0.0000000000000000
1.0000000000000000 0.0000000000000000 0.0000000000000000
1.0000000000000000 0.0000000000000000 0.0000000000000000
1.0000000000000000 0.0000000000000000 0.0000000000000000
1.0000000000000000 0.0000000000000000 0.0000000000000000
1.0000000000000000 0.0000000000000000 0.0000000000000000
1.0000000000000000 0.0000000000000000 0.0000000000000000
1.0000000000000000 0.0000000000000000 0.0000000000000000
1.0000000000000000 0.0000000000000000 0.0000000000000000
1.0000000000000000 0.0000000000000000 0.0000000000000000
1.0000000000000000 0.0000000000000000 0.0000000000000000
1.0000000000000000 0.0000000000000000 0.0000000000000000
1.0000000000000000 0.0000000000000000 0.0000000000000000
1.0000000000000000 0.0000000000000000 0.0000000000000000
1.0000000000000000 0.0000000000000000 0.0000000000000000
1.0000000000000000 0.0000000000000000 0.0000000000000000
1.0000000000000000 0.0000000000000000 0.0000000000000000
1.0000000000000000 0.0000000000000000 0.0000000000000000
1.0000000000000000 0.0000000000000000 0.0000000000000000
1.0000000000000000 0.0000000000000000 0.0000000000000000
1.0000000000000000 0.0000000000000000 0.0000000000000000
1.0000000000000000 0.0000000000000000 0.0000000000000000
1.0000000000000000 0.0000000000000000 0.0000000000000000
1.0000000000000000 0.0000000000000000 0.0000000000000000
1.0000000000000000 0.0000000000000000 0.0000000000000000
1.0000000000000000 0.0000000000000000 0.0000000000000000
1.0000000000000000 0.0000000000000000 0.0000000000000000
1.0000000000000000 0.0000000000000000 0.0000000000000000
1.0000000000000000 0.0000000000000000 0.0000000000000000
1.0000000000000000 0.0000000000000000 0.0000000000000000
1.0000000000000000 0.0000000000000000 0.0000000000000000
1.0000000000000000 0.0000000000000000 0.0000000000000000
1.0000000000000000 0.0000000000000000 0.0000000000000000
1.0000000000000000 0.0000000000000000 0.0000000000000000
1.0000000000000000 0.0000000000000000 0.0000000000000000
1.0000000000000000 0.0000000000000000 0.0000000000000000
1.0000000000000000 0.0000000000000000 0.0000000000000000
1.0000000000000000 0.0000000000000000 0.0000000000000000
1.0000000000000000 0.0000000000000000 0.0000000000000000
1.0000000000000000 0.0000000000000000 0.0000000000000000
1.0000000000000000 0.0000000000000000 0.0000000000000000
1.0000000000000000 0.0000000000000000 0.0000000000000000
1.0000000000000000 0.0000000000000000 0.0000000000000000
1.0000000000000000 0.0000000000000000 0.0000000000000000
1.0000000000000000 0.0000000000000000 0.0000000000000000
1.0000000000000000 0.0000000000000000 0.0000000000000000
1.0000000000000000 0.0000000000000000 0.0000000000000000
1.0000000000000000 0.0000000000000000 0.0000000000000000
1.0000000000000000 0.0000000000000000 0.0000000000000000
1.0000000000000000 0.0000000000000000 0.0000000000000000
1.0000000000000000 0.0000000000000000 0.0000000000000000
1.0000000000000000 0.0000000000000000 0.0000000000000000
1.0000000000000000 0.0000000000000000 0.0000000000000000
1.0000000000000000 0.0000000000000000 0.0000000000000000
1.0000000000000000 0.0000000000000000 0.0000000000000000
1.0000000000000000 0.0000000000000000 0.0000000000000000
1.0000000000000000 0.0000000000000000 0.0000000000000000
1.0000000000000000 0.0000000000000000 0.0000000000000000
1.0000000000000000 0.0000000000000000 0.0000000000000000
1.0000000000000000 0.0000000000000000 0.0000000000000000
1.0000000000000000 0.0000000000000000 0.0000000000000000
1.0000000000000000 0.0000000000000000 0.0000000000000000
1.0000000000000000 0.0000000000000000 0.0000000000000000
1.0000000000000000 0.0000000000000000 0.0000000000000000
1.0000000000000000 0.0000000000000000 0.0000000000000000
1.0000000000000000 0.0000000000000000 0.0000000000000000
1.0000000000000000 0.0000000000000000 0.0000000000000000
1.0000000000000000 0.0000000000000000 0.0000000000000000
1.0000000000000000 0.0000000000000000 0.0000000000000000
1.0000000000000000 0.0000000000000000 0.0000000000000000
1.0000000000000000 0.0000000000000000 0.0000000000000000
1.0000000000000000 0.0000000000000000 0.0000000000000000
1.0000000000000000 0.0000000000000000 0.0000000000000000
1.0000000000000000 0.0000000000000000 0.0000000000000000
1.0000000000000000 0.0000000000000000 0.0000000000000000
1.0000000000000000 0.0000000000000000 0.0000000000000000
1.0000000000000000 0.0000000000000000 0.0000000000000000
1.0000000000000000 0.0000000000000000 0.0000000000000000
1.0000000000000000 0.0000000000000000 0.0000000000000000
1.0000000000000000 0.0000000000000000 0.0000000000000000
1.0000000000000000 0.0000000000000000 0.0000000000000000
1.0000000000000000 0.0000000000000000 0.0000000000000000
1.0000000000000000 0.0000000000000000 0.0000000000000000
1.0000000000000000 0.0000000000000000 0.0000000000000000
1.0000000000000000 0.0000000000000000 0.0000000000000000
1.0000000000000000 0.0000000000000000 0.0000000000000000
1.0000000000000000 0.0000000000000000 0.0000000000000000
1.0000000000000000 0.0000000000000000 0.0000000000000000
1.0000000000000000 0.0000000000000000 0.0000000000000000
1.0000000000000000 0.0000000000000000 0.0000000000000000
1.0000000000000000 0.0000000000000000 0.0000000000000000
1.0000000000000000 0.0000000000000000 0.0000000000000000
1.0000000000000000 0.0000000000000000 0.0000000000000000
1.0000000000000000 0.0000000000000000 0.0000000000000000
1.0000000000000000 0.0000000000000000 0.0000000000000000
1.0000000000000000 0.0000000000000000 0.0000000000000000
1.0000000000000000 0.0000000000000000 0.0000000000000000
1.0000000000000000 0.0000000000000000 0.0000000000000000
1.0000000000000000 0.0000000000000000 0.0000000000000000
1.0000000000000000 0.0000000000000000 0.0000000000000000
1.0000000000000000 0.0000000000000000 0.0000000000000000
1.0000000000000000 0.0000000000000000 0.0000000000000000
1.0000000000000000 0.0000000000000000 0.0000000000000000
1.0000000000000000 0.0000000000000000 0.0000000000000000
1.0000000000000000 0.0000000000000000 0.0000000000000000
1.0000000000000000 0.0000000000000000 0.0000000000000000
1.0000000000000000 0.0000000000000000 0.0000000000000000
1.0000000000000000 0.0000000000000000 0.0000000000000000
1.0000000000000000 0.0000000000000000 0.0000000000000000
1.0000000000000000 0.0000000000000000 0.0000000000000000
1.0000000000000000 0.0000000000000000 0.0000000000000000
1.0000000000000000 0.0000000000000000 0.0000000000000000
1.0000000000000000 0.0000000000000000 0.0000000000000000
1.0000000000000000 0.0000000000000000 0.0000000000000000
1.0000000000000000 0.0000000000000000 0.0000000000000000
1.0000000000000000 0.0000000000000000 0.0000000000000000
1.0000000000000000 0.0000000000000000 0.0000000000000000
1.0000000000000000 0.0000000000000000 0.0000000000000000
1.0000000000000000 0.0000000000000000 0.0000000000000000
1.0000000000000000 0.0000000000000000 0.0000000000000000
1.0000000000000000 0.0000000000000000 0.0000000000000000
1.0000000000000000 0.0000000000000000 0.0000000000000000
1.0000000000000000 0.0000000000000000 0.0000000000000000
1.0000000000000000 0.0000000000000000 0.0000000000000000
1.0000000000000000 0.0000000000000000 0.0000000000000000
1.0000000000000000 0.0000000000000000 0.0000000000000000
1.0000000000000000 0.0000000000000000 0.0000000000000000
1.0000000000000000 0.0000000000000000 0.0000000000000000
1.0000000000000000 0.0000000000000000 0.0000000000000000
1.0000000000000000 0.0000000000000000 0.0000000000000000
1.0000000000000000 0.0000000000000000 0.0000000000000000
1.0000000000000000 0.0000000000000000 0.0000000000000000
1.0000000000000000 0.0000000000000000 0.0000000000000000
1.0000000000000000 0.0000000000000000 0.0000000000000000
1.0000000000000000 0.0000000000000000 0.0000000000000000
1.0000000000000000 0.0000000000000000 0.0000000000000000
1.0000000000000000 0.0000000000000000 0.0000000000000000
1.0000000000000000 0.0000000000000000 0.0000000000000000
1.0000000000000000 0.0000000000000000 0.0000000000000000
1.0000000000000000 0.0000000000000000 0.0000000000000000
1.0000000000000000 0.0000000000000000 0.0000000000000000
1.0000000000000000 0.0000000000000000 0.0000000000000000
1.0000000000000000 0.0000000000000000 0.0000000000000000
1.0000000000000000 0.0000000000000000 0.0000000000000000
1.0000000000000000 0.0000000000000000 0.0000000000000000
1.0000000000000000 0.0000000000000000 0.0000000000000000
1.0000000000000000 0.0000000000000000 0.0000000000000000
1.0000000000000000 0.0000000000000000 0.0000000000000000
1.0000000000000000 0.0000000000000000 0.0000000000000000
1.0000000000000000 0.0000000000000000 0.0000000000000000
1.0000000000000000 0.0000000000000000 0.0000000000000000
1.0000000000000000 0.0000000000000000 0.0000000000000000
1.0000000000000000 0.0000000000000000 0.0000000000000000
1.0000000000000000 0.0000000000000000 0.0000000000000000
1.0000000000000000 0.0000000000000000 0.0000000000000000
1.0000000000000000 0.0000000000000000 0.0000000000000000
1.0000000000000000 0.0000000000000000 0.0000000000000000
1.0000000000000000 0.0000000000000000 0.0000000000000000
1.0000000000000000 0.0000000000000000 0.0000000000000000
1.0000000000000000 0.0000000000000000 0.0000000000000000
1.0000000000000000 0.0000000000000000 0.0000000000000000
1.0000000000000000 0.0000000000000000 0.0000000000000000
1.0000000000000000 0.0000000000000000 0.0000000000000000
1.0000000000000000 0.0000000000000000 0.0000000000000000
1.0000000000000000 0.0000000000000000 0.0000000000000000
1.0000000000000000 0.0000000000000000 0.0000000000000000
1.0000000000000000 0.0000000000000000 0.0000000000000000
1.0000000000000000 0.0000000000000000 0.0000000000000000
1.0000000000000000 0.0000000000000000 0.0000000000000000
1.0000000000000000 0.0000000000000000 0.0000000000000000
1.0000000000000000 0.0000000000000000 0.0000000000000000
1.0000000000000000 0.0000000000000000 0.0000000000000000
1.0000000000000000 0.0000000000000000 0.0000000000000000
1.0000000000000000 0.0000000000000000 0.0000000000000000
1.0000000000000000 0.0000000000000000 0.0000000000000000
1.0000000000000000 0.0000000000000000 0.0000000000000000
1.0000000000000000 0.0000000000000000 0.0000000000000000
1.0000000000000000 0.0000000000000000 0.0000000000000000
1.0000000000000000 0.0000000000000000 0.0000000000000000
1.0000000000000000 0.0000000000000000 0.0000000000000000
1.0000000000000000 0.0000000000000000 0.0000000000000000
1.0000000000000000 0.0000000000000000 0.0000000000000000
1.0000000000000000 0.0000000000000000 0.0000000000000000
1.0000000000000000 0.0000000000000000 0.0000000000000000
1.0000000000000000 0.0000000000000000 0.0000000000000000
1.0000000000000000 0.0000000000000000 0.0000000000000000
1.0000000000000000 0.0000000000000000 0.0000000000000000
1.0000000000000000 0.0000000000000000 0.0000000000000000
1.0000000000000000 0.0000000000000000 0.0000000000000000
1.0000000000000000 0.0000000000000000 0.0000000000000000
1.0000000000000000 0.0000000000000000 0.0000000000000000
1.0000000000000000 0.0000000000000000 0.0000000000000000
1.0000000000000000 0.0000000000000000 0.0000000000000000
1.0000000000000000 0.0000000000000000 0.0000000000000000
1.0000000000000000 0.0000000000000000 0.0000000000000000
1.0000000000000000 0.0000000000000000 0.0000000000000000
1.0000000000000000 0.0000000000000000 0.0000000000000000
1.0000000000000000 0.0000000000000000 0.0000000000000000
1.0000000000000000 0.0000000000000000 0.0000000000000000
1.0000000000000000 0.0000000000000000 0.0000000000000000
1.0000000000000000 0.0000000000000000 0.0000000000000000
1.0000000000000000 0.0000000000000000 0.0000000000000000
1.0000000000000000 0.0000000000000000 0.0000000000000000
1.0000000000000000 0.0000000000000000 0.0000000000000000
1.0000000000000000 0.0000000000000000 0.0000000000000000
1.0000000000000000 0.0000000000000000 0.0000000000000000
1.0000000000000000 0.0000000000000000 0.0000000000000000
1.0000000000000000 0.0000000000000000 0.0000000000000000
1.0000000000000000 0.0000000000000000 0.0000000000000000
1.0000000000000000 0.0000000000000000 0.0000000000000000
1.0000000000000000 0.0000000000000000 0.0000000000000000
1.0000000000000000 0.0000000000000000 0.0000000000000000
1.0000000000000000 0.0000000000000000 0.0000000000000000
1.0000000000000000 0.0000000000000000 0.0000000000000000
1.0000000000000000 0.0000000000000000 0.0000000000000000
1.0000000000000000 0.0000000000000000 0.0000000000000000
1.0000000000000000 0.0000000000000000 0.0000000000000000
1.0000000000000000 0.0000000000000000 0.0000000000000000
1.0000000000000000 0.0000000000000000 0.0000000000000000
1.0000000000000000 0.0000000000000000 0.0000000000000000
1.0000000000000000 0.0000000000000000 0.0000000000000000
1.0000000000000000 0.0000000000000000 0.0000000000000000
1.0000000000000000 0.0000000000000000 0.0000000000000000
1.0000000000000000 0.0000000000000000 0.0000000000000000
1.0000000000000000 0.0000000000000000 0.0000000000000000
1.0000000000000000 0.0000000000000000 0.0000000000000000
1.0000000000000000 0.0000000000000000 0.0000000000000000
1.0000000000000000 0.0000000000000000 0.0000000000000000
1.0000000000000000 0.0000000000000000 0.0000000000000000
1.0000000000000000 0.0000000000000000 0.0000000000000000
1.0000000000000000 0.0000000000000000 0.0000000000000000
1.0000000000000000 0.0000000000000000 0.0000000000000000
1.0000000000000000 0.0000000000000000 0.0000000000000000
1.0000000000000000 0.0000000000000000 0.0000000000000000
1.0000000000000000 0.0000000000000000 0.0000000000000000
1.0000000000000000 0.0000000000000000 0.0000000000000000
1.0000000000000000 0.0000000000000000 0.0000000000000000
1.0000000000000000 0.0000000000000000 0.0000000000000000
1.0000000000000000 0.0000000000000000 0.0000000000000000
1.0000000000000000 0.0000000000000000 0.0000000000000000
1.0000000000000000 0.0000000000000000 0.0000000000000000
1.0000000000000000 0.0000000000000000 0.0000000000000000
1.0000000000000000 0.0000000000000000 0.0000000000000000
1.0000000000000000 0.0000000000000000 0.0000000000000000
1.0000000000000000 0.0000000000000000 0.0000000000000000
1.0000000000000000 0.0000000000000000 0.0000000000000000
1.0000000000000000 0.0000000000000000 0.0000000000000000
1.0000000000000000 0.0000000000000000 0.0000000000000000
1.0000000000000000 0.0000000000000000 0.0000000000000000
1.0000000000000000 0.0000000000000000 0.0000000000000000
1.0000000000000000 0.0000000000000000 0.0000000000000000
1.0000000000000000 0.0000000000000000 0.0000000000000000
1.0000000000000000 0.0000000000000000 0.0000000000000000
1.0000000000000000 0.0000000000000000 0.0000000000000000
1.0000000000000000 0.0000000000000000 0.0000000000000000
1.0000000000000000 0.0000000000000000 0.0000000000000000
1.0000000000000000 0.0000000000000000 0.0000000000000000
1.0000000000000000 0.0000000000000000 0.0000000000000000
1.0000000000000000 0.0000000000000000 0.0000000000000000
1.0000000000000000 0.0000000000000000 0.0000000000000000
1.0000000000000000 0.0000000000000000 0.0000000000000000
1.0000000000000000 0.0000000000000000 0.0000000000000000
1.0000000000000000 0.0000000000000000 0.0000000000000000
1.0000000000000000 0.0000000000000000 0.0000000000000000
1.0000000000000000 0.0000000000000000 0.0000000000000000
1.0000000000000000 0.0000000000000000 0.0000000000000000
1.0000000000000000 0.0000000000000000 0.0000000000000000
1.0000000000000000 0.0000000000000000 0.0000000000000000
1.0000000000000000 0.0000000000000000 0.0000000000000000
1.0000000000000000 0.0000000000000000 0.0000000000000000
1.0000000000000000 0.0000000000000000 0.0000000000000000
1.0000000000000000 0.0000000000000000 0.0000000000000000
1.0000000000000000 0.0000000000000000 0.0000000000000000
1.0000000000000000 0.0000000000000000 0.0000000000000000
1.0000000000000000 0.0000000000000000 0.0000000000000000
1.0000000000000000 0.0000000000000000 0.0000000000000000
1.0000000000000000 0.0000000000000000 0.0000000000000000
1.0000000000000000 0.0000000000000000 0.0000000000000000
1.0000000000000000 0.0000000000000000 0.0000000000000000
1.0000000000000000 0.0000000000000000 0.0000000000000000
1.0000000000000000 0.0000000000000000 0.0000000000000000
1.0000000000000000 0.0000000000000000 0.0000000000000000
1.0000000000000000 0.0000000000000000 0.0000000000000000
1.0000000000000000 0.0000000000000000 0.0000000000000000
1.0000000000000000 0.0000000000000000 0.0000000000000000
1.0000000000000000 0.0000000000000000 0.0000000000000000
1.0000000000000000 0.0000000000000000 0.0000000000000000
1.0000000000000000 0.0000000000000000 0.0000000000000000
1.0000000000000000 0.0000000000000000 0.0000000000000000
1.0000000000000000 0.0000000000000000 0.0000000000000000
1.0000000000000000 0.0000000000000000 0.0000000000000000
1.0000000000000000 0.0000000000000000 0.0000000000000000
1.0000000000000000 0.0000000000000000 0.0000000000000000
1.0000000000000000 0.0000000000000000 0.0000000000000000
1.0000000000000000 0.0000000000000000 0.0000000000000000
1.0000000000000000 0.0000000000000000 0.0000000000000000
1.0000000000000000 0.0000000000000000 0.0000000000000000
1.0000000000000000 0.0000000000000000 0.0000000000000000
1.0000000000000000 0.0000000000000000 0.0000000000000000
1.0000000000000000 0.0000000000000000 0.0000000000000000
1.0000000000000000 0.0000000000000000 0.0000000000000000
1.0000000000000000 0.0000000000000000 0.0000000000000000
1.0000000000000000 0.0000000000000000 0.0000000000000000
1.0000000000000000 0.0000000000000000 0.0000000000000000
1.0000000000000000 0.0000000000000000 0.0000000000000000
1.0000000000000000 0.0000000000000000 0.0000000000000000
1.0000000000000000 0.0000000000000000 0.0000000000000000
1.0000000000000000 0.0000000000000000 0.0000000000000000
1.0000000000000000 0.0000000000000000 0.0000000000000000
1.0000000000000000 0.0000000000000000 0.0000000000000000
1.0000000000000000 0.0000000000000000 0.0000000000000000
1.0000000000000000 0.0000000000000000 0.0000000000000000
1.0000000000000000 0.0000000000000000 0.0000000000000000
1.0000000000000000 0.0000000000000000 0.0000000000000000
1.0000000000000000 0.0000000000000000 0.0000000000000000
1.0000000000000000 0.0000000000000000 0.0000000000000000
1.0000000000000000 0.0000000000000000 0.0000000000000000
1.0000000000000000 0.0000000000000000 0.0000000000000000
1.0000000000000000 0.0000000000000000 0.0000000000000000
1.0000000000000000 0.0000000000000000 0.0000000000000000
1.0000000000000000 0.0000000000000000 0.0000000000000000
1.0000000000000000 0.0000000000000000 0.0000000000000000
1.0000000000000000 0.0000000000000000 0.0000000000000000
1.0000000000000000 0.0000000000000000 0.0000000000000000
1.0000000000000000 0.0000000000000000 0.0000000000000000
1.0000000000000000 0.0000000000000000 0.0000000000000000
1.0000000000000000 0.0000000000000000 0.0000000000000000
1.0000000000000000 0.0000000000000000 0.0000000000000000
1.0000000000000000 0.0000000000000000 0.0000000000000000
1.0000000000000000 0.0000000000000000 0.0000000000000000
1.0000000000000000 0.0000000000000000 0.0000000000000000
1.0000000000000000 0.0000000000000000 0.0000000000000000
1.0000000000000000 0.0000000000000000 0.0000000000000000
1.0000000000000000 0.0000000000000000 0.0000000000000000
1.0000000000000000 0.0000000000000000 0.0000000000000000
1.0000000000000000 0.0000000000000000 0.0000000000000000
1.0000000000000000 0.0000000000000000 0.0000000000000000
1.0000000000000000 0.0000000000000000 0.0000000000000000
1.0000000000000000 0.0000000000000000 0.0000000000000000
1.0000000000000000 0.0000000000000000 0.0000000000000000
1.0000000000000000 0.0000000000000000 0.0000000000000000
1.0000000000000000 0.0000000000000000 0.0000000000000000
1.0000000000000000 0.0000000000000000 0.0000000000000000
1.0000000000000000 0.0000000000000000 0.0000000000000000
1.0000000000000000 0.0000000000000000 0.0000000000000000
1.0000000000000000 0.0000000000000000 0.0000000000000000
1.0000000000000000 0.0000000000000000 0.0000000000000000
1.0000000000000000 0.0000000000000000 0.0000000000000000
1.0000000000000000 0.0000000000000000 0.0000000000000000
1.0000000000000000 0.0000000000000000 0.0000000000000000
1.0000000000000000 0.0000000000000000 0.0000000000000000
1.0000000000000000 0.0000000000000000 0.0000000000000000
1.0000000000000000 0.0000000000000000 0.0000000000000000
1.0000000000000000 0.0000000000000000 0.0000000000000000
1.0000000000000000 0.0000000000000000 0.0000000000000000
1.0000000000000000 0.0000000000000000 0.0000000000000000
1.0000000000000000 0.0000000000000000 0.0000000000000000
1.0000000000000000 0.0000000000000000 0.0000000000000000
1.0000000000000000 0.0000000000000000 0.0000000000000000
1.0000000000000000 0.0000000000000000 0.0000000000000000
1.0000000000000000 0.0000000000000000 0.0000000000000000
1.0000000000000000 0.0000000000000000 0.0000000000000000
1.0000000000000000 0.0000000000000000 0.0000000000000000
1.0000000000000000 0.0000000000000000 0.0000000000000000
1.0000000000000000 0.0000000000000000 0.0000000000000000
1.0000000000000000 0.0000000000000000 0.0000000000000000
1.0000000000000000 0.0000000000000000 0.0000000000000000
1.0000000000000000 0.0000000000000000 0.0000000000000000
1.0000000000000000 0.0000000000000000 0.0000000000000000
1.0000000000000000 0.0000000000000000 0.0000000000000000
1.0000000000000000 0.0000000000000000 0.0000000000000000
1.0000000000000000 0.0000000000000000 0.0000000000000000
1.0000000000000000 0.0000000000000000 0.0000000000000000
1.0000000000000000 0.0000000000000000 0.0000000000000000
1.0000000000000000 0.0000000000000000 0.0000000000000000
1.0000000000000000 0.0000000000000000 0.0000000000000000
1.0000000000000000 0.0000000000000000 0.0000000000000000
1.0000000000000000 0.0000000000000000 0.0000000000000000
1.0000000000000000 0.0000000000000000 0.0000000000000000
1.0000000000000000 0.0000000000000000 0.0000000000000000
1.0000000000000000 0.0000000000000000 0.0000000000000000
1.0000000000000000 0.0000000000000000 0.0000000000000000
1.0000000000000000 0.0000000000000000 0.0000000000000000
1.0000000000000000 0.0000000000000000 0.0000000000000000
1.0000000000000000 0.0000000000000000 0.0000000000000000
1.0000000000000000 0.0000000000000000 0.0000000000000000
1.0000000000000000 0.0000000000000000 0.0000000000000000
1.0000000000000000 0.0000000000000000 0.0000000000000000
1.0000000000000000 0.0000000000000000 0.0000000000000000
1.0000000000000000 0.0000000000000000 0.0000000000000000
1.0000000000000000 0.0000000000000000 0.0000000000000000
1.0000000000000000 0.0000000000000000 0.0000000000000000
1.0000000000000000 0.0000000000000000 0.0000000000000000
1.0000000000000000 0.0000000000000000 0.0000000000000000
1.0000000000000000 0.0000000000000000 0.0000000000000000
1.0000000000000000 0.0000000000000000 0.0000000000000000
1.0000000000000000 0.0000000000000000 0.0000000000000000
1.0000000000000000 0.0000000000000000 0.0000000000000000
1.0000000000000000 0.0000000000000000 0.0000000000000000
1.0000000000000000 0.0000000000000000 0.0000000000000000
1.0000000000000000 0.0000000000000000 0.0000000000000000
1.0000000000000000 0.0000000000000000 0.0000000000000000
1.0000000000000000 0.0000000000000000 0.0000000000000000
1.0000000000000000 0.0000000000000000 0.0000000000000000
1.0000000000000000 0.0000000000000000 0.0000000000000000
1.0000000000000000 0.0000000000000000 0.0000000000000000
1.0000000000000000 0.0000000000000000 0.0000000000000000
1.0000000000000000 0.0000000000000000 0.0000000000000000
1.0000000000000000 0.0000000000000000 0.0000000000000000
1.0000000000000000 0.0000000000000000 0.0000000000000000
1.0000000000000000 0.0000000000000000 0.0000000000000000
1.0000000000000000 0.0000000000000000 0.0000000000000000
1.0000000000000000 0.0000000000000000 0.0000000000000000
1.0000000000000000 0.0000000000000000 0.0000000000000000
1.0000000000000000 0.0000000000000000 0.0000000000000000
1.0000000000000000 0.0000000000000000 0.0000000000000000
1.0000000000000000 0.0000000000000000 0.0000000000000000
1.0000000000000000 0.0000000000000000 0.0000000000000000
1.0000000000000000 0.0000000000000000 0.0000000000000000
1.0000000000000000 0.0000000000000000 0.0000000000000000
1.0000000000000000 0.0000000000000000 0.0000000000000000
1.0000000000000000 0.0000000000000000 0.0000000000000000
1.0000000000000000 0.0000000000000000 0.0000000000000000
1.0000000000000000 0.0000000000000000 0.0000000000000000
1.0000000000000000 0.0000000000000000 0.0000000000000000
1.0000000000000000 0.0000000000000000 0.0000000000000000
1.0000000000000000 0.0000000000000000 0.0000000000000000
1.0000000000000000 0.0000000000000000 0.0000000000000000
1.0000000000000000 0.0000000000000000 0.0000000000000000
1.0000000000000000 0.0000000000000000 0.0000000000000000
1.0000000000000000 0.0000000000000000 0.0000000000000000
1.0000000000000000 0.0000000000000000 0.0000000000000000
1.0000000000000000 0.0000000000000000 0.0000000000000000
1.0000000000000000 0.0000000000000000 0.0000000000000000
1.0000000000000000 0.0000000000000000 0.0000000000000000
1.0000000000000000 0.0000000000000000 0.0000000000000000
1.0000000000000000 0.0000000000000000 0.0000000000000000
1.0000000000000000 0.0000000000000000 0.0000000000000000
1.0000000000000000 0.0000000000000000 0.0000000000000000
1.0000000000000000 0.0000000000000000 0.0000000000000000
1.0000000000000000 0.0000000000000000 0.0000000000000000
1.0000000000000000 0.0000000000000000 0.0000000000000000
1.0000000000000000 0.0000000000000000 0.0000000000000000
1.0000000000000000 0.0000000000000000 0.0000000000000000
1.0000000000000000 0.0000000000000000 0.0000000000000000
1.0000000000000000 0.0000000000000000 0.0000000000000000
1.0000000000000000 0.0000000000000000 0.0000000000000000
1.0000000000000000 0.0000000000000000 0.0000000000000000
1.0000000000000000 0.0000000000000000 0.0000000000000000
1.0000000000000000 0.0000000000000000 0.0000000000000000
1.0000000000000000 0.0000000000000000 0.0000000000000000
1.0000000000000000 0.0000000000000000 0.0000000000000000
1.0000000000000000 0.0000000000000000 0.0000000000000000
1.0000000000000000 0.0000000000000000 0.0000000000000000
1.0000000000000000 0.0000000000000000 0.0000000000000000
1.0000000000000000 0.0000000000000000 0.0000000000000000
1.0000000000000000 0.0000000000000000 0.0000000000000000
1.0000000000000000 0.0000000000000000 0.0000000000000000
1.0000000000000000 0.0000000000000000 0.0000000000000000
1.0000000000000000 0.0000000000000000 0.0000000000000000
1.0000000000000000 0.0000000000000000 0.0000000000000000
1.0000000000000000 0.0000000000000000 0.0000000000000000
1.0000000000000000 0.0000000000000000 0.0000000000000000
1.0000000000000000 0.0000000000000000 0.0000000000000000
1.0000000000000000 0.0000000000000000 0.0000000000000000
1.0000000000000000 0.0000000000000000 0.0000000000000000
1.0000000000000000 0.0000000000000000 0.0000000000000000
1.0000000000000000 0.0000000000000000 0.0000000000000000
1.0000000000000000 0.0000000000000000 0.0000000000000000
1.0000000000000000 0.0000000000000000 0.0000000000000000
1.0000000000000000 0.0000000000000000 0.0000000000000000
1.0000000000000000 0.0000000000000000 0.0000000000000000
1.0000000000000000 0.0000000000000000 0.0000000000000000
1.0000000000000000 0.0000000000000000 0.0000000000000000
1.0000000000000000 0.0000000000000000 0.0000000000000000
1.0000000000000000 0.0000000000000000 0.0000000000000000
1.0000000000000000 0.0000000000000000 0.0000000000000000
1.0000000000000000 0.0000000000000000 0.0000000000000000
1.0000000000000000 0.0000000000000000 0.0000000000000000
1.0000000000000000 0.0000000000000000 0.0000000000000000
1.0000000000000000 0.0000000000000000 0.0000000000000000
1.0000000000000000 0.0000000000000000 0.0000000000000000
1.0000000000000000 0.0000000000000000 0.0000000000000000
1.0000000000000000 0.0000000000000000 0.0000000000000000
1.0000000000000000 0.0000000000000000 0.0000000000000000
1.0000000000000000 0.0000000000000000 0.0000000000000000
1.0000000000000000 0.0000000000000000 0.0000000000000000
1.0000000000000000 0.0000000000000000 0.0000000000000000
1.0000000000000000 0.0000000000000000 0.0000000000000000
1.0000000000000000 0.0000000000000000 0.0000000000000000
1.0000000000000000 0.0000000000000000 0.0000000000000000
1.0000000000000000 0.0000000000000000 0.0000000000000000
1.0000000000000000 0.0000000000000000 0.0000000000000000
1.0000000000000000 0.0000000000000000 0.0000000000000000
1.0000000000000000 0.0000000000000000 0.0000000000000000
1.0000000000000000 0.0000000000000000 0.0000000000000000
1.0000000000000000 0.0000000000000000 0.0000000000000000
1.0000000000000000 0.0000000000000000 0.0000000000000000
1.0000000000000000 0.0000000000000000 0.0000000000000000
1.0000000000000000 0.0000000000000000 0.0000000000000000
1.0000000000000000 0.0000000000000000 0.0000000000000000
1.0000000000000000 0.0000000000000000 0.0000000000000000
1.0000000000000000 0.0000000000000000 0.0000000000000000
1.0000000000000000 0.0000000000000000 0.0000000000000000
1.0000000000000000 0.0000000000000000 0.0000000000000000
1.0000000000000000 0.0000000000000000 0.0000000000000000
1.0000000000000000 0.0000000000000000 0.0000000000000000
1.0000000000000000 0.0000000000000000 0.0000000000000000
1.0000000000000000 0.0000000000000000 0.0000000000000000
1.0000000000000000 0.0000000000000000 0.0000000000000000
1.0000000000000000 0.0000000000000000 0.0000000000000000
1.0000000000000000 0.0000000000000000 0.0000000000000000
1.0000000000000000 0.0000000000000000 0.0000000000000000
1.0000000000000000 0.0000000000000000 0.0000000000000000
1.0000000000000000 0.0000000000000000 0.0000000000000000
1.0000000000000000 0.0000000000000000 0.0000000000000000
1.0000000000000000 0.0000000000000000 0.0000000000000000
1.0000000000000000 0.0000000000000000 0.0000000000000000
1.0000000000000000 0.0000000000000000 0.0000000000000000
1.0000000000000000 0.0000000000000000 0.0000000000000000
1.0000000000000000 0.0000000000000000 0.0000000000000000
1.0000000000000000 0.0000000000000000 0.0000000000000000
1.0000000000000000 0.0000000000000000 0.0000000000000000
1.0000000000000000 0.0000000000000000 0.0000000000000000
1.0000000000000000 0.0000000000000000 0.0000000000000000
1.0000000000000000 0.0000000000000000 0.0000000000000000
1.0000000000000000 0.0000000000000000 0.0000000000000000
1.0000000000000000 0.0000000000000000 0.0000000000000000
1.0000000000000000 0.0000000000000000 0.0000000000000000
1.0000000000000000 0.0000000000000000 0.0000000000000000
1.0000000000000000 0.0000000000000000 0.0000000000000000
1.0000000000000000 0.0000000000000000 0.0000000000000000
1.0000000000000000 0.0000000000000000 0.0000000000000000
1.0000000000000000 0.0000000000000000 0.0000000000000000
1.0000000000000000 0.0000000000000000 0.0000000000000000
1.0000000000000000 0.0000000000000000 0.0000000000000000
1.0000000000000000 0.0000000000000000 0.0000000000000000
1.0000000000000000 0.0000000000000000 0.0000000000000000
1.0000000000000000 0.0000000000000000 0.0000000000000000
1.0000000000000000 0.0000000000000000 0.0000000000000000
1.0000000000000000 0.0000000000000000 0.0000000000000000
1.0000000000000000 0.0000000000000000 0.0000000000000000
1.0000000000000000 0.0000000000000000 0.0000000000000000
1.0000000000000000 0.0000000000000000 0.0000000000000000
1.0000000000000000 0.0000000000000000 0.0000000000000000
1.0000000000000000 0.0000000000000000 0.0000000000000000
1.0000000000000000 0.0000000000000000 0.0000000000000000
1.0000000000000000 0.0000000000000000 0.0000000000000000
1.0000000000000000 0.0000000000000000 0.0000000000000000
1.0000000000000000 0.0000000000000000 0.0000000000000000
1.0000000000000000 0.0000000000000000 0.0000000000000000
1.0000000000000000 0.0000000000000000 0.0000000000000000
1.0000000000000000 0.0000000000000000 0.0000000000000000
1.0000000000000000 0.0000000000000000 0.0000000000000000
1.0000000000000000 0.0000000000000000 0.0000000000000000
1.0000000000000000 0.0000000000000000 0.0000000000000000
1.0000000000000000 0.0000000000000000 0.0000000000000000
1.0000000000000000 0.0000000000000000 0.0000000000000000
1.0000000000000000 0.0000000000000000 0.0000000000000000
1.0000000000000000 0.0000000000000000 0.0000000000000000
1.0000000000000000 0.0000000000000000 0.0000000000000000
1.0000000000000000 0.0000000000000000 0.0000000000000000
1.0000000000000000 0.0000000000000000 0.0000000000000000
1.0000000000000000 0.0000000000000000 0.0000000000000000
1.0000000000000000 0.0000000000000000 0.0000000000000000
1.0000000000000000 0.0000000000000000 0.0000000000000000
1.0000000000000000 0.0000000000000000 0.0000000000000000
1.0000000000000000 0.0000000000000000 0.0000000000000000
1.0000000000000000 0.0000000000000000 0.0000000000000000
1.0000000000000000 0.0000000000000000 0.0000000000000000
1.0000000000000000 0.0000000000000000 0.0000000000000000
1.0000000000000000 0.0000000000000000 0.0000000000000000
1.0000000000000000 0.0000000000000000 0.0000000000000000
1.0000000000000000 0.0000000000000000 0.0000000000000000
1.0000000000000000 0.0000000000000000 0.0000000000000000
1.0000000000000000 0.0000000000000000 0.0000000000000000
1.0000000000000000 0.0000000000000000 0.0000000000000000
1.0000000000000000 0.0000000000000000 0.0000000000000000
1.0000000000000000 0.0000000000000000 0.0000000000000000
1.0000000000000000 0.0000000000000000 0.0000000000000000
1.0000000000000000 0.0000000000000000 0.0000000000000000
1.0000000000000000 0.0000000000000000 0.0000000000000000
1.0000000000000000 0.0000000000000000 0.0000000000000000
1.0000000000000000 0.0000000000000000 0.0000000000000000
1.0000000000000000 0.0000000000000000 0.0000000000000000
1.0000000000000000 0.0000000000000000 0.0000000000000000
1.0000000000000000 0.0000000000000000 0.0000000000000000
1.0000000000000000 0.0000000000000000 0.0000000000000000
1.0000000000000000 0.0000000000000000 0.0000000000000000
1.0000000000000000 0.0000000000000000 0.0000000000000000
1.0000000000000000 0.0000000000000000 0.0000000000000000
1.0000000000000000 0.0000000000000000 0.0000000000000000
1.0000000000000000 0.0000000000000000 0.0000000000000000
1.0000000000000000 0.0000000000000000 0.0000000000000000
1.0000000000000000 0.0000000000000000 0.0000000000000000
1.0000000000000000 0.0000000000000000 0.0000000000000000
1.0000000000000000 0.0000000000000000 0.0000000000000000
1.0000000000000000 0.0000000000000000 0.0000000000000000
1.0000000000000000 0.0000000000000000 0.0000000000000000
1.0000000000000000 0.0000000000000000 0.0000000000000000
1.0000000000000000 0.0000000000000000 0.0000000000000000
1.0000000000000000 0.0000000000000000 0.0000000000000000
1.0000000000000000 0.0000000000000000 0.0000000000000000
1.0000000000000000 0.0000000000000000 0.0000000000000000
1.0000000000000000 0.0000000000000000 0.0000000000000000
1.0000000000000000 0.0000000000000000 0.0000000000000000
1.0000000000000000 0.0000000000000000 0.0000000000000000
1.0000000000000000 0.0000000000000000 0.0000000000000000
1.0000000000000000 0.0000000000000000 0.0000000000000000
1.0000000000000000 0.0000000000000000 0.0000000000000000
1.0000000000000000 0.0000000000000000 0.0000000000000000
1.0000000000000000 0.0000000000000000 0.0000000000000000
1.0000000000000000 0.0000000000000000 0.0000000000000000
1.0000000000000000 0.0000000000000000 0.0000000000000000
1.0000000000000000 0.0000000000000000 0.0000000000000000
1.0000000000000000 0.0000000000000000 0.0000000000000000
1.0000000000000000 0.0000000000000000 0.0000000000000000
1.0000000000000000 0.0000000000000000 0.0000000000000000
1.0000000000000000 0.0000000000000000 0.0000000000000000
1.0000000000000000 0.0000000000000000 0.0000000000000000
1.0000000000000000 0.0000000000000000 0.0000000000000000
1.0000000000000000 0.0000000000000000 0.0000000000000000
1.0000000000000000 0.0000000000000000 0.0000000000000000
1.0000000000000000 0.0000000000000000 0.0000000000000000
1.0000000000000000 0.0000000000000000 0.0000000000000000
1.0000000000000000 0.0000000000000000 0.0000000000000000
1.0000000000000000 0.0000000000000000 0.0000000000000000
1.0000000000000000 0.0000000000000000 0.0000000000000000
1.0000000000000000 0.0000000000000000 0.0000000000000000
1.0000000000000000 0.0000000000000000 0.0000000000000000
1.0000000000000000 0.0000000000000000 0.0000000000000000
1.0000000000000000 0.0000000000000000 0.0000000000000000
1.0000000000000000 0.0000000000000000 0.0000000000000000
1.0000000000000000 0.0000000000000000 0.0000000000000000
1.0000000000000000 0.0000000000000000 0.0000000000000000
1.0000000000000000 0.0000000000000000 0.0000000000000000
1.0000000000000000 0.0000000000000000 0.0000000000000000
1.0000000000000000 0.0000000000000000 0.0000000000000000
1.0000000000000000 0.0000000000000000 0.0000000000000000
1.0000000000000000 0.0000000000000000 0.0000000000000000
1.0000000000000000 0.0000000000000000 0.0000000000000000
1.0000000000000000 0.0000000000000000 0.0000000000000000
1.0000000000000000 0.0000000000000000 0.0000000000000000
1.0000000000000000 0.0000000000000000 0.0000000000000000
1.0000000000000000 0.0000000000000000 0.0000000000000000
1.0000000000000000 0.0000000000000000 0.0000000000000000
1.0000000000000000 0.0000000000000000 0.0000000000000000
1.0000000000000000 0.0000000000000000 0.0000000000000000
1.0000000000000000 0.0000000000000000 0.0000000000000000
1.0000000000000000 0.0000000000000000 0.0000000000000000
1.0000000000000000 0.0000000000000000 0.0000000000000000
1.0000000000000000 0.0000000000000000 0.0000000000000000
1.0000000000000000 0.0000000000000000 0.0000000000000000
1.0000000000000000 0.0000000000000000 0.0000000000000000
1.0000000000000000 0.0000000000000000 0.0000000000000000
1.0000000000000000 0.0000000000000000 0.0000000000000000
1.0000000000000000 0.0000000000000000 0.0000000000000000
1.0000000000000000 0.0000000000000000 0.0000000000000000
1.0000000000000000 0.0000000000000000 0.0000000000000000
1.0000000000000000 0.0000000000000000 0.0000000000000000
1.0000000000000000 0.0000000000000000 0.0000000000000000
1.0000000000000000 0.0000000000000000 0.0000000000000000
1.0000000000000000 0.0000000000000000 0.0000000000000000
1.0000000000000000 0.0000000000000000 0.0000000000000000
1.0000000000000000 0.0000000000000000 0.0000000000000000
1.0000000000000000 0.0000000000000000 0.0000000000000000
1.0000000000000000 0.0000000000000000 0.0000000000000000
1.0000000000000000 0.0000000000000000 0.0000000000000000
1.0000000000000000 0.0000000000000000 0.0000000000000000
1.0000000000000000 0.0000000000000000 0.0000000000000000
1.0000000000000000 0.0000000000000000 0.0000000000000000
1.0000000000000000 0.0000000000000000 0.0000000000000000
1.0000000000000000 0.0000000000000000 0.0000000000000000
1.0000000000000000 0.0000000000000000 0.0000000000000000
1.0000000000000000 0.0000000000000000 0.0000000000000000
1.0000000000000000 0.0000000000000000 0.0000000000000000
1.0000000000000000 0.0000000000000000 0.0000000000000000
1.0000000000000000 0.0000000000000000 0.0000000000000000
1.0000000000000000 0.0000000000000000 0.0000000000000000
1.0000000000000000 0.0000000000000000 0.0000000000000000
1.0000000000000000 0.0000000000000000 0.0000000000000000
1.0000000000000000 0.0000000000000000 0.0000000000000000
1.0000000000000000 0.0000000000000000 0.0000000000000000
1.0000000000000000 0.0000000000000000 0.0000000000000000
1.0000000000000000 0.0000000000000000 0.0000000000000000
1.0000000000000000 0.0000000000000000 0.0000000000000000
1.0000000000000000 0.0000000000000000 0.0000000000000000
1.0000000000000000 0.0000000000000000 0.0000000000000000
1.0000000000000000 0.0000000000000000 0.0000000000000000
1.0000000000000000 0.0000000000000000 0.0000000000000000
1.0000000000000000 0.0000000000000000 0.0000000000000000
1.0000000000000000 0.0000000000000000 0.0000000000000000
1.0000000000000000 0.0000000000000000 0.0000000000000000
1.0000000000000000 0.0000000000000000 0.0000000000000000
1.0000000000000000 0.0000000000000000 0.0000000000000000
1.0000000000000000 0.0000000000000000 0.0000000000000000
1.0000000000000000 0.0000000000000000 0.0000000000000000
1.0000000000000000 0.0000000000000000 0.0000000000000000
1.0000000000000000 0.0000000000000000 0.0000000000000000
1.0000000000000000 0.0000000000000000 0.0000000000000000
1.0000000000000000 0.0000000000000000 0.0000000000000000
1.0000000000000000 0.0000000000000000 0.0000000000000000
1.0000000000000000 0.0000000000000000 0.0000000000000000
1.0000000000000000 0.0000000000000000 0.0000000000000000
1.0000000000000000 0.0000000000000000 0.0000000000000000
1.0000000000000000 0.0000000000000000 0.0000000000000000
1.0000000000000000 0.0000000000000000 0.0000000000000000
1.0000000000000000 0.0000000000000000 0.0000000000000000
1.0000000000000000 0.0000000000000000 0.0000000000000000
1.0000000000000000 0.0000000000000000 0.0000000000000000
1.0000000000000000 0.0000000000000000 0.0000000000000000
1.0000000000000000 0.0000000000000000 0.0000000000000000
1.0000000000000000 0.0000000000000000 0.0000000000000000
1.0000000000000000 0.0000000000000000 0.0000000000000000
1.0000000000000000 0.0000000000000000 0.0000000000000000
1.0000000000000000 0.0000000000000000 0.0000000000000000
1.0000000000000000 0.0000000000000000 0.0000000000000000
1.0000000000000000 0.0000000000000000 0.0000000000000000
1.0000000000000000 0.0000000000000000 0.0000000000000000
1.0000000000000000 0.0000000000000000 0.0000000000000000
1.0000000000000000 0.0000000000000000 0.0000000000000000
1.0000000000000000 0.0000000000000000 0.0000000000000000
1.0000000000000000 0.0000000000000000 0.0000000000000000
1.0000000000000000 0.0000000000000000 0.0000000000000000
1.0000000000000000 0.0000000000000000 0.0000000000000000
1.0000000000000000 0.0000000000000000 0.0000000000000000
1.0000000000000000 0.0000000000000000 0.0000000000000000
1.0000000000000000 0.0000000000000000 0.0000000000000000
1.0000000000000000 0.0000000000000000 0.0000000000000000
1.0000000000000000 0.0000000000000000 0.0000000000000000
1.0000000000000000 0.0000000000000000 0.0000000000000000
1.0000000000000000 0.0000000000000000 0.0000000000000000
1.0000000000000000 0.0000000000000000 0.0000000000000000
1.0000000000000000 0.0000000000000000 0.0000000000000000
1.0000000000000000 0.0000000000000000 0.0000000000000000
1.0000000000000000 0.0000000000000000 0.0000000000000000
1.0000000000000000 0.0000000000000000 0.0000000000000000
1.0000000000000000 0.0000000000000000 0.0000000000000000
1.0000000000000000 0.0000000000000000 0.0000000000000000
1.0000000000000000 0.0000000000000000 0.0000000000000000
1.0000000000000000 0.0000000000000000 0.0000000000000000
1.0000000000000000 0.0000000000000000 0.0000000000000000
1.0000000000000000 0.0000000000000000 0.0000000000000000
1.0000000000000000 0.0000000000000000 0.0000000000000000
1.0000000000000000 0.0000000000000000 0.0000000000000000
1.0000000000000000 0.0000000000000000 0.0000000000000000
1.0000000000000000 0.0000000000000000 0.0000000000000000
1.0000000000000000 0.0000000000000000 0.0000000000000000
1.0000000000000000 0.0000000000000000 0.0000000000000000
1.0000000000000000 0.0000000000000000 0.0000000000000000
1.0000000000000000 0.0000000000000000 0.0000000000000000
1.0000000000000000 0.0000000000000000 0.0000000000000000
1.0000000000000000 0.0000000000000000 0.0000000000000000
1.0000000000000000 0.0000000000000000 0.0000000000000000
1.0000000000000000 0.0000000000000000 0.0000000000000000
1.0000000000000000 0.0000000000000000 0.0000000000000000
1.0000000000000000 0.0000000000000000 0.0000000000000000
1.0000000000000000 0.0000000000000000 0.0000000000000000
1.0000000000000000 0.0000000000000000 0.0000000000000000
1.0000000000000000 0.0000000000000000 0.0000000000000000
1.0000000000000000 0.0000000000000000 0.0000000000000000
1.0000000000000000 0.0000000000000000 0.0000000000000000
1.0000000000000000 0.0000000000000000 0.0000000000000000
1.0000000000000000 0.0000000000000000 0.0000000000000000
1.0000000000000000 0.0000000000000000 0.0000000000000000
1.0000000000000000 0.0000000000000000 0.0000000000000000
1.0000000000000000 0.0000000000000000 0.0000000000000000
1.0000000000000000 0.0000000000000000 0.0000000000000000
1.0000000000000000 0.0000000000000000 0.0000000000000000
1.0000000000000000 0.0000000000000000 0.0000000000000000
1.0000000000000000 0.0000000000000000 0.0000000000000000
1.0000000000000000 0.0000000000000000 0.0000000000000000
1.0000000000000000 0.0000000000000000 0.0000000000000000
1.0000000000000000 0.0000000000000000 0.0000000000000000
1.0000000000000000 0.0000000000000000 0.0000000000000000
1.0000000000000000 0.0000000000000000 0.0000000000000000
1.0000000000000000 0.0000000000000000 0.0000000000000000
1.0000000000000000 0.0000000000000000 0.0000000000000000
1.0000000000000000 0.0000000000000000 0.0000000000000000
1.0000000000000000 0.0000000000000000 0.0000000000000000
1.0000000000000000 0.0000000000000000 0.0000000000000000
1.0000000000000000 0.0000000000000000 0.0000000000000000
1.0000000000000000 0.0000000000000000 0.0000000000000000
1.0000000000000000 0.0000000000000000 0.0000000000000000
1.0000000000000000 0.0000000000000000 0.0000000000000000
1.0000000000000000 0.0000000000000000 0.0000000000000000
1.0000000000000000 0.0000000000000000 0.0000000000000000
1.0000000000000000 0.0000000000000000 0.0000000000000000
1.0000000000000000 0.0000000000000000 0.0000000000000000
1.0000000000000000 0.0000000000000000 0.0000000000000000
1.0000000000000000 0.0000000000000000 0.0000000000000000
1.0000000000000000 0.0000000000000000 0.0000000000000000
1.0000000000000000 0.0000000000000000 0.0000000000000000
1.0000000000000000 0.0000000000000000 0.0000000000000000
1.0000000000000000 0.0000000000000000 0.0000000000000000
1.0000000000000000 0.0000000000000000 0.0000000000000000
1.0000000000000000 0.0000000000000000 0.0000000000000000
1.0000000000000000 0.0000000000000000 0.0000000000000000
1.0000000000000000 0.0000000000000000 0.0000000000000000
1.0000000000000000 0.0000000000000000 0.0000000000000000
1.0000000000000000 0.0000000000000000 0.0000000000000000
1.0000000000000000 0.0000000000000000 0.0000000000000000
1.0000000000000000 0.0000000000000000 0.0000000000000000
1.0000000000000000 0.0000000000000000 0.0000000000000000
1.0000000000000000 0.0000000000000000 0.0000000000000000
1.0000000000000000 0.0000000000000000 0.0000000000000000
1.0000000000000000 0.0000000000000000 0.0000000000000000
1.0000000000000000 0.0000000000000000 0.0000000000000000
1.0000000000000000 0.0000000000000000 0.0000000000000000
1.0000000000000000 0.0000000000000000 0.0000000000000000
1.0000000000000000 0.0000000000000000 0.0000000000000000
1.0000000000000000 0.0000000000000000 0.0000000000000000
1.0000000000000000 0.0000000000000000 0.0000000000000000
1.0000000000000000 0.0000000000000000 0.0000000000000000
1.0000000000000000 0.0000000000000000 0.0000000000000000
1.0000000000000000 0.0000000000000000 0.0000000000000000
1.0000000000000000 0.0000000000000000 0.0000000000000000
1.0000000000000000 0.0000000000000000 0.0000000000000000
1.0000000000000000 0.0000000000000000 0.0000000000000000
1.0000000000000000 0.0000000000000000 0.0000000000000000
1.0000000000000000 0.0000000000000000 0.0000000000000000
1.0000000000000000 0.0000000000000000 0.0000000000000000
1.0000000000000000 0.0000000000000000 0.0000000000000000
1.0000000000000000 0.0000000000000000 0.0000000000000000
1.0000000000000000 0.0000000000000000 0.0000000000000000
1.0000000000000000 0.0000000000000000 0.0000000000000000
1.0000000000000000 0.0000000000000000 0.0000000000000000
1.0000000000000000 0.0000000000000000 0.0000000000000000
1.0000000000000000 0.0000000000000000 0.0000000000000000
1.0000000000000000 0.0000000000000000 0.0000000000000000
1.0000000000000000 0.0000000000000000 0.0000000000000000
1.0000000000000000 0.0000000000000000 0.0000000000000000
1.0000000000000000 0.0000000000000000 0.0000000000000000
1.0000000000000000 0.0000000000000000 0.0000000000000000
1.0000000000000000 0.0000000000000000 0.0000000000000000
1.0000000000000000 0.0000000000000000 0.0000000000000000
1.0000000000000000 0.0000000000000000 0.0000000000000000
1.0000000000000000 0.0000000000000000 0.0000000000000000
1.0000000000000000 0.0000000000000000 0.0000000000000000
1.0000000000000000 0.0000000000000000 0.0000000000000000
1.0000000000000000 0.0000000000000000 0.0000000000000000
1.0000000000000000 0.0000000000000000 0.0000000000000000
1.0000000000000000 0.0000000000000000 0.0000000000000000
1.0000000000000000 0.0000000000000000 0.0000000000000000
1.0000000000000000 0.0000000000000000 0.0000000000000000
1.0000000000000000 0.0000000000000000 0.0000000000000000
1.0000000000000000 0.0000000000000000 0.0000000000000000
1.0000000000000000 0.0000000000000000 0.0000000000000000
1.0000000000000000 0.0000000000000000 0.0000000000000000
1.0000000000000000 0.0000000000000000 0.0000000000000000
1.0000000000000000 0.0000000000000000 0.0000000000000000
1.0000000000000000 0.0000000000000000 0.0000000000000000
1.0000000000000000 0.0000000000000000 0.0000000000000000
1.0000000000000000 0.0000000000000000 0.0000000000000000
1.0000000000000000 0.0000000000000000 0.0000000000000000
1.0000000000000000 0.0000000000000000 0.0000000000000000
1.0000000000000000 0.0000000000000000 0.0000000000000000
1.0000000000000000 0.0000000000000000 0.0000000000000000
1.0000000000000000 0.0000000000000000 0.0000000000000000
1.0000000000000000 0.0000000000000000 0.0000000000000000
1.0000000000000000 0.0000000000000000 0.0000000000000000
1.0000000000000000 0.0000000000000000 0.0000000000000000
1.0000000000000000 0.0000000000000000 0.0000000000000000
1.0000000000000000 0.0000000000000000 0.0000000000000000
1.0000000000000000 0.0000000000000000 0.0000000000000000
1.0000000000000000 0.0000000000000000 0.0000000000000000
1.0000000000000000 0.0000000000000000 0.0000000000000000
1.0000000000000000 0.0000000000000000 0.0000000000000000
1.0000000000000000 0.0000000000000000 0.0000000000000000
1.0000000000000000 0.0000000000000000 0.0000000000000000
1.0000000000000000 0.0000000000000000 0.0000000000000000
1.0000000000000000 0.0000000000000000 0.0000000000000000
1.0000000000000000 0.0000000000000000 0.0000000000000000
1.0000000000000000 0.0000000000000000 0.0000000000000000
1.0000000000000000 0.0000000000000000 0.0000000000000000
1.0000000000000000 0.0000000000000000 0.0000000000000000
1.0000000000000000 0.0000000000000000 0.0000000000000000
1.0000000000000000 0.0000000000000000 0.0000000000000000
1.0000000000000000 0.0000000000000000 0.0000000000000000
1.0000000000000000 0.0000000000000000 0.0000000000000000
1.0000000000000000 0.0000000000000000 0.0000000000000000
1.0000000000000000 0.0000000000000000 0.0000000000000000
1.0000000000000000 0.0000000000000000 0.0000000000000000
1.0000000000000000 0.0000000000000000 0.0000000000000000
1.0000000000000000 0.0000000000000000 0.0000000000000000
1.0000000000000000 0.0000000000000000 0.0000000000000000
1.0000000000000000 0.0000000000000000 0.0000000000000000
1.0000000000000000 0.0000000000000000 0.0000000000000000
1.0000000000000000 0.0000000000000000 0.0000000000000000
1.0000000000000000 0.0000000000000000 0.0000000000000000
1.0000000000000000 0.0000000000000000 0.0000000000000000
1.0000000000000000 0.0000000000000000 0.0000000000000000
1.0000000000000000 0.0000000000000000 0.0000000000000000
1.0000000000000000 0.0000000000000000 0.0000000000000000
1.0000000000000000 0.0000000000000000 0.0000000000000000
1.0000000000000000 0.0000000000000000 0.0000000000000000
1.0000000000000000 0.0000000000000000 0.0000000000000000
1.0000000000000000 0.0000000000000000 0.0000000000000000
1.0000000000000000 0.0000000000000000 0.0000000000000000
1.0000000000000000 0.0000000000000000 0.0000000000000000
1.0000000000000000 0.0000000000000000 0.0000000000000000
1.0000000000000000 0.0000000000000000 0.0000000000000000
1.0000000000000000 0.0000000000000000 0.0000000000000000
1.0000000000000000 0.0000000000000000 0.0000000000000000
1.0000000000000000 0.0000000000000000 0.0000000000000000
1.0000000000000000 0.0000000000000000 0.0000000000000000
1.0000000000000000 0.0000000000000000 0.0000000000000000
1.0000000000000000 0.0000000000000000 0.0000000000000000
1.0000000000000000 0.0000000000000000 0.0000000000000000
1.0000000000000000 0.0000000000000000 0.0000000000000000
1.0000000000000000 0.0000000000000000 0.0000000000000000
1.0000000000000000 0.0000000000000000 0.0000000000000000
1.0000000000000000 0.0000000000000000 0.0000000000000000
1.0000000000000000 0.0000000000000000 0.0000000000000000
1.0000000000000000 0.0000000000000000 0.0000000000000000
1.0000000000000000 0.0000000000000000 0.0000000000000000
1.0000000000000000 0.0000000000000000 0.0000000000000000
1.0000000000000000 0.0000000000000000 0.0000000000000000
1.0000000000000000 0.0000000000000000 0.0000000000000000
1.0000000000000000 0.0000000000000000 0.0000000000000000
1.0000000000000000 0.0000000000000000 0.0000000000000000
1.0000000000000000 0.0000000000000000 0.0000000000000000
1.0000000000000000 0.0000000000000000 0.0000000000000000
1.0000000000000000 0.0000000000000000 0.0000000000000000
1.0000000000000000 0.0000000000000000 0.0000000000000000
1.0000000000000000 0.0000000000000000 0.0000000000000000
1.0000000000000000 0.0000000000000000 0.0000000000000000
1.0000000000000000 0.0000000000000000 0.0000000000000000
1.0000000000000000 0.0000000000000000 0.0000000000000000
1.0000000000000000 0.0000000000000000 0.0000000000000000
1.0000000000000000 0.0000000000000000 0.0000000000000000
1.0000000000000000 0.0000000000000000 0.0000000000000000
1.0000000000000000 0.0000000000000000 0.0000000000000000
1.0000000000000000 0.0000000000000000 0.0000000000000000
1.0000000000000000 0.0000000000000000 0.0000000000000000
1.0000000000000000 0.0000000000000000 0.0000000000000000
1.0000000000000000 0.0000000000000000 0.0000000000000000
1.0000000000000000 0.0000000000000000 0.0000000000000000
1.0000000000000000 0.0000000000000000 0.0000000000000000
1.0000000000000000 0.0000000000000000 0.0000000000000000
1.0000000000000000 0.0000000000000000 0.0000000000000000
1.0000000000000000 0.0000000000000000 0.0000000000000000
1.0000000000000000 0.0000000000000000 0.0000000000000000
1.0000000000000000 0.0000000000000000 0.0000000000000000
1.0000000000000000 0.0000000000000000 0.0000000000000000
1.0000000000000000 0.0000000000000000 0.0000000000000000
1.0000000000000000 0.0000000000000000 0.0000000000000000
1.0000000000000000 0.0000000000000000 0.0000000000000000
1.0000000000000000 0.0000000000000000 0.0000000000000000
1.0000000000000000 0.0000000000000000 0.0000000000000000
1.0000000000000000 0.0000000000000000 0.0000000000000000
1.0000000000000000 0.0000000000000000 0.0000000000000000
1.0000000000000000 0.0000000000000000 0.0000000000000000
1.0000000000000000 0.0000000000000000 0.0000000000000000
1.0000000000000000 0.0000000000000000 0.0000000000000000
1.0000000000000000 0.0000000000000000 0.0000000000000000
1.0000000000000000 0.0000000000000000 0.0000000000000000
1.0000000000000000 0.0000000000000000 0.0000000000000000
1.0000000000000000 0.0000000000000000 0.0000000000000000
1.0000000000000000 0.0000000000000000 0.0000000000000000
1.0000000000000000 0.0000000000000000 0.0000000000000000
1.0000000000000000 0.0000000000000000 0.0000000000000000
1.0000000000000000 0.0000000000000000 0.0000000000000000
1.0000000000000000 0.0000000000000000 0.0000000000000000
1.0000000000000000 0.0000000000000000 0.0000000000000000
1.0000000000000000 0.0000000000000000 0.0000000000000000
1.0000000000000000 0.0000000000000000 0.0000000000000000
1.0000000000000000 0.0000000000000000 0.0000000000000000
1.0000000000000000 0.0000000000000000 0.0000000000000000
1.0000000000000000 0.0000000000000000 0.0000000000000000
1.0000000000000000 0.0000000000000000 0.0000000000000000
1.0000000000000000 0.0000000000000000 0.0000000000000000
1.0000000000000000 0.0000000000000000 0.0000000000000000
1.0000000000000000 0.0000000000000000 0.0000000000000000
1.0000000000000000 0.0000000000000000 0.0000000000000000
1.0000000000000000 0.0000000000000000 0.0000000000000000
1.0000000000000000 0.0000000000000000 0.0000000000000000
1.0000000000000000 0.0000000000000000 0.0000000000000000
1.0000000000000000 0.0000000000000000 0.0000000000000000
1.0000000000000000 0.0000000000000000 0.0000000000000000
1.0000000000000000 0.0000000000000000 0.0000000000000000
1.0000000000000000 0.0000000000000000 0.0000000000000000
1.0000000000000000 0.0000000000000000 0.0000000000000000
1.0000000000000000 0.0000000000000000 0.0000000000000000
1.0000000000000000 0.0000000000000000 0.0000000000000000
1.0000000000000000 0.0000000000000000 0.0000000000000000
1.0000000000000000 0.0000000000000000 0.0000000000000000
1.0000000000000000 0.0000000000000000 0.0000000000000000
1.0000000000000000 0.0000000000000000 0.0000000000000000
1.0000000000000000 0.0000000000000000 0.0000000000000000
1.0000000000000000 0.0000000000000000 0.0000000000000000
1.0000000000000000 0.0000000000000000 0.0000000000000000
1.0000000000000000 0.0000000000000000 0.0000000000000000
1.0000000000000000 0.0000000000000000 0.0000000000000000
1.0000000000000000 0.0000000000000000 0.0000000000000000
1.0000000000000000 0.0000000000000000 0.0000000000000000
1.0000000000000000 0.0000000000000000 0.0000000000000000
1.0000000000000000 0.0000000000000000 0.0000000000000000
1.0000000000000000 0.0000000000000000 0.0000000000000000
1.0000000000000000 0.0000000000000000 0.0000000000000000
1.0000000000000000 0.0000000000000000 0.0000000000000000
1.0000000000000000 0.0000000000000000 0.0000000000000000
1.0000000000000000 0.0000000000000000 0.0000000000000000
1.0000000000000000 0.0000000000000000 0.0000000000000000
1.0000000000000000 0.0000000000000000 0.0000000000000000
1.0000000000000000 0.0000000000000000 0.0000000000000000
1.0000000000000000 0.0000000000000000 0.0000000000000000
1.0000000000000000 0.0000000000000000 0.0000000000000000
1.0000000000000000 0.0000000000000000 0.0000000000000000
1.0000000000000000 0.0000000000000000 0.0000000000000000
1.0000000000000000 0.0000000000000000 0.0000000000000000
1.0000000000000000 0.0000000000000000 0.0000000000000000
1.0000000000000000 0.0000000000000000 0.0000000000000000
1.0000000000000000 0.0000000000000000 0.0000000000000000
1.0000000000000000 0.0000000000000000 0.0000000000000000
1.0000000000000000 0.0000000000000000 0.0000000000000000
1.0000000000000000 0.0000000000000000 0.0000000000000000
1.0000000000000000 0.0000000000000000 0.0000000000000000
1.0000000000000000 0.0000000000000000 0.0000000000000000
1.0000000000000000 0.0000000000000000 0.0000000000000000
1.0000000000000000 0.0000000000000000 0.0000000000000000
1.0000000000000000 0.0000000000000000 0.0000000000000000
1.0000000000000000 0.0000000000000000 0.0000000000000000
1.0000000000000000 0.0000000000000000 0.0000000000000000
1.0000000000000000 0.0000000000000000 0.0000000000000000
1.0000000000000000 0.0000000000000000 0.0000000000000000
1.0000000000000000 0.0000000000000000 0.0000000000000000
1.0000000000000000 0.0000000000000000 0.0000000000000000
1.0000000000000000 0.0000000000000000 0.0000000000000000
1.0000000000000000 0.0000000000000000 0.0000000000000000
1.0000000000000000 0.0000000000000000 0.0000000000000000
1.0000000000000000 0.0000000000000000 0.0000000000000000
1.0000000000000000 0.0000000000000000 0.0000000000000000
1.0000000000000000 0.0000000000000000 0.0000000000000000
1.0000000000000000 0.0000000000000000 0.0000000000000000
1.0000000000000000 0.0000000000000000 0.0000000000000000
1.0000000000000000 0.0000000000000000 0.0000000000000000
1.0000000000000000 0.0000000000000000 0.0000000000000000
1.0000000000000000 0.0000000000000000 0.0000000000000000
1.0000000000000000 0.0000000000000000 0.0000000000000000
1.0000000000000000 0.0000000000000000 0.0000000000000000
1.0000000000000000 0.0000000000000000 0.0000000000000000
1.0000000000000000 0.0000000000000000 0.0000000000000000
1.0000000000000000 0.0000000000000000 0.0000000000000000
1.0000000000000000 0.0000000000000000 0.0000000000000000
1.0000000000000000 0.0000000000000000 0.0000000000000000
1.0000000000000000 0.0000000000000000 0.0000000000000000
1.0000000000000000 0.0000000000000000 0.0000000000000000
1.0000000000000000 0.0000000000000000 0.0000000000000000
1.0000000000000000 0.0000000000000000 0.0000000000000000
1.0000000000000000 0.0000000000000000 0.0000000000000000
1.0000000000000000 0.0000000000000000 0.0000000000000000
1.0000000000000000 0.0000000000000000 0.0000000000000000
1.0000000000000000 0.0000000000000000 0.0000000000000000
1.0000000000000000 0.0000000000000000 0.0000000000000000
1.0000000000000000 0.0000000000000000 0.0000000000000000
1.0000000000000000 0.0000000000000000 0.0000000000000000
1.0000000000000000 0.0000000000000000 0.0000000000000000
1.0000000000000000 0.0000000000000000 0.0000000000000000
1.0000000000000000 0.0000000000000000 0.0000000000000000
1.0000000000000000 0.0000000000000000 0.0000000000000000
1.0000000000000000 0.0000000000000000 0.0000000000000000
1.0000000000000000 0.0000000000000000 0.0000000000000000
1.0000000000000000 0.0000000000000000 0.0000000000000000
1.0000000000000000 0.0000000000000000 0.0000000000000000
1.0000000000000000 0.0000000000000000 0.0000000000000000
1.0000000000000000 0.0000000000000000 0.0000000000000000
1.0000000000000000 0.0000000000000000 0.0000000000000000
1.0000000000000000 0.0000000000000000 0.0000000000000000
1.0000000000000000 0.0000000000000000 0.0000000000000000
1.0000000000000000 0.0000000000000000 0.0000000000000000
1.0000000000000000 0.0000000000000000 0.0000000000000000
1.0000000000000000 0.0000000000000000 0.0000000000000000
1.0000000000000000 0.0000000000000000 0.0000000000000000
1.0000000000000000 0.0000000000000000 0.0000000000000000
1.0000000000000000 0.0000000000000000 0.0000000000000000
1.0000000000000000 0.0000000000000000 0.0000000000000000
1.0000000000000000 0.0000000000000000 0.0000000000000000
1.0000000000000000 0.0000000000000000 0.0000000000000000
1.0000000000000000 0.0000000000000000 0.0000000000000000
1.0000000000000000 0.0000000000000000 0.0000000000000000
1.0000000000000000 0.0000000000000000 0.0000000000000000
1.0000000000000000 0.0000000000000000 0.0000000000000000
1.0000000000000000 0.0000000000000000 0.0000000000000000
1.0000000000000000 0.0000000000000000 0.0000000000000000
1.0000000000000000 0.0000000000000000 0.0000000000000000
1.0000000000000000 0.0000000000000000 0.0000000000000000
1.0000000000000000 0.0000000000000000 0.0000000000000000
1.0000000000000000 0.0000000000000000 0.0000000000000000
1.0000000000000000 0.0000000000000000 0.0000000000000000
1.0000000000000000 0.0000000000000000 0.0000000000000000
1.0000000000000000 0.0000000000000000 0.0000000000000000
1.0000000000000000 0.0000000000000000 0.0000000000000000
1.0000000000000000 0.0000000000000000 0.0000000000000000
1.0000000000000000 0.0000000000000000 0.0000000000000000
1.0000000000000000 0.0000000000000000 0.0000000000000000
1.0000000000000000 0.0000000000000000 0.0000000000000000
1.0000000000000000 0.0000000000000000 0.0000000000000000
1.0000000000000000 0.0000000000000000 0.0000000000000000
1.0000000000000000 0.0000000000000000 0.0000000000000000
1.0000000000000000 0.0000000000000000 0.0000000000000000
1.0000000000000000 0.0000000000000000 0.0000000000000000
1.0000000000000000 0.0000000000000000 0.0000000000000000
1.0000000000000000 0.0000000000000000 0.0000000000000000
1.0000000000000000 0.0000000000000000 0.0000000000000000
1.0000000000000000 0.0000000000000000 0.0000000000000000
1.0000000000000000 0.0000000000000000 0.0000000000000000
1.0000000000000000 0.0000000000000000 0.0000000000000000
1.0000000000000000 0.0000000000000000 0.0000000000000000
1.0000000000000000 0.0000000000000000 0.0000000000000000
1.0000000000000000 0.0000000000000000 0.0000000000000000
1.0000000000000000 0.0000000000000000 0.0000000000000000
1.0000000000000000 0.0000000000000000 0.0000000000000000
1.0000000000000000 0.0000000000000000 0.0000000000000000
1.0000000000000000 0.0000000000000000 0.0000000000000000
1.0000000000000000 0.0000000000000000 0.0000000000000000
1.0000000000000000 0.0000000000000000 0.0000000000000000
1.0000000000000000 0.0000000000000000 0.0000000000000000
1.0000000000000000 0.0000000000000000 0.0000000000000000
1.0000000000000000 0.0000000000000000 0.0000000000000000
1.0000000000000000 0.0000000000000000 0.0000000000000000
1.0000000000000000 0.0000000000000000 0.0000000000000000
1.0000000000000000 0.0000000000000000 0.0000000000000000
1.0000000000000000 0.0000000000000000 0.0000000000000000
1.0000000000000000 0.0000000000000000 0.0000000000000000
1.0000000000000000 0.0000000000000000 0.0000000000000000
1.0000000000000000 0.0000000000000000 0.0000000000000000
1.0000000000000000 0.0000000000000000 0.0000000000000000
1.0000000000000000 0.0000000000000000 0.0000000000000000
1.0000000000000000 0.0000000000000000 0.0000000000000000
1.0000000000000000 0.0000000000000000 0.0000000000000000
1.0000000000000000 0.0000000000000000 0.0000000000000000
1.0000000000000000 0.0000000000000000 0.0000000000000000
1.0000000000000000 0.0000000000000000 0.0000000000000000
1.0000000000000000 0.0000000000000000 0.0000000000000000
1.0000000000000000 0.0000000000000000 0.0000000000000000
1.0000000000000000 0.0000000000000000 0.0000000000000000
1.0000000000000000 0.0000000000000000 0.0000000000000000
1.0000000000000000 0.0000000000000000 0.0000000000000000
1.0000000000000000 0.0000000000000000 0.0000000000000000
1.0000000000000000 0.0000000000000000 0.0000000000000000
1.0000000000000000 0.0000000000000000 0.0000000000000000
1.0000000000000000 0.0000000000000000 0.0000000000000000
1.0000000000000000 0.0000000000000000 0.0000000000000000
1.0000000000000000 0.0000000000000000 0.0000000000000000
1.0000000000000000 0.0000000000000000 0.0000000000000000
1.0000000000000000 0.0000000000000000 0.0000000000000000
1.0000000000000000 0.0000000000000000 0.0000000000000000
1.0000000000000000 0.0000000000000000 0.0000000000000000
1.0000000000000000 0.0000000000000000 0.0000000000000000
1.0000000000000000 0.0000000000000000 0.0000000000000000
1.0000000000000000 0.0000000000000000 0.0000000000000000
1.0000000000000000 0.0000000000000000 0.0000000000000000
1.0000000000000000 0.0000000000000000 0.0000000000000000
1.0000000000000000 0.0000000000000000 0.0000000000000000
1.0000000000000000 0.0000000000000000 0.0000000000000000
1.0000000000000000 0.0000000000000000 0.0000000000000000
1.0000000000000000 0.0000000000000000 0.0000000000000000
1.0000000000000000 0.0000000000000000 0.0000000000000000
1.0000000000000000 0.0000000000000000 0.0000000000000000
1.0000000000000000 0.0000000000000000 0.0000000000000000
1.0000000000000000 0.0000000000000000 0.0000000000000000
1.0000000000000000 0.0000000000000000 0.0000000000000000
1.0000000000000000 0.0000000000000000 0.0000000000000000
1.0000000000000000 0.0000000000000000 0.0000000000000000
1.0000000000000000 0.0000000000000000 0.0000000000000000
1.0000000000000000 0.0000000000000000 0.0000000000000000
1.0000000000000000 0.0000000000000000 0.0000000000000000
1.0000000000000000 0.0000000000000000 0.0000000000000000
1.0000000000000000 0.0000000000000000 0.0000000000000000
1.0000000000000000 0.0000000000000000 0.0000000000000000
1.0000000000000000 0.0000000000000000 0.0000000000000000
1.0000000000000000 0.0000000000000000 0.0000000000000000
1.0000000000000000 0.0000000000000000 0.0000000000000000
1.0000000000000000 0.0000000000000000 0.0000000000000000
1.0000000000000000 0.0000000000000000 0.0000000000000000
1.0000000000000000 0.0000000000000000 0.0000000000000000
1.0000000000000000 0.0000000000000000 0.0000000000000000
1.0000000000000000 0.0000000000000000 0.0000000000000000
1.0000000000000000 0.0000000000000000 0.0000000000000000
1.0000000000000000 0.0000000000000000 0.0000000000000000
1.0000000000000000 0.0000000000000000 0.0000000000000000
1.0000000000000000 0.0000000000000000 0.0000000000000000
1.0000000000000000 0.0000000000000000 0.0000000000000000
1.0000000000000000 0.0000000000000000 0.0000000000000000
1.0000000000000000 0.0000000000000000 0.0000000000000000
1.0000000000000000 0.0000000000000000 0.0000000000000000
1.0000000000000000 0.0000000000000000 0.0000000000000000
1.0000000000000000 0.0000000000000000 0.0000000000000000
1.0000000000000000 0.0000000000000000 0.0000000000000000
1.0000000000000000 0.0000000000000000 0.0000000000000000
1.0000000000000000 0.0000000000000000 0.0000000000000000
1.0000000000000000 0.0000000000000000 0.0000000000000000
1.0000000000000000 0.0000000000000000 0.0000000000000000
1.0000000000000000 0.0000000000000000 0.0000000000000000
1.0000000000000000 0.0000000000000000 0.0000000000000000
1.0000000000000000 0.0000000000000000 0.0000000000000000
1.0000000000000000 0.0000000000000000 0.0000000000000000
1.0000000000000000 0.0000000000000000 0.0000000000000000
1.0000000000000000 0.0000000000000000 0.0000000000000000
1.0000000000000000 0.0000000000000000 0.0000000000000000
1.0000000000000000 0.0000000000000000 0.0000000000000000
1.0000000000000000 0.0000000000000000 0.0000000000000000
1.0000000000000000 0.0000000000000000 0.0000000000000000
1.0000000000000000 0.0000000000000000 0.0000000000000000
1.0000000000000000 0.0000000000000000 0.0000000000000000
1.0000000000000000 0.0000000000000000 0.0000000000000000
1.0000000000000000 0.0000000000000000 0.0000000000000000
1.0000000000000000 0.0000000000000000 0.0000000000000000
1.0000000000000000 0.0000000000000000 0.0000000000000000
1.0000000000000000 0.0000000000000000 0.0000000000000000
1.0000000000000000 0.0000000000000000 0.0000000000000000
1.0000000000000000 0.0000000000000000 0.0000000000000000
1.0000000000000000 0.0000000000000000 0.0000000000000000
1.0000000000000000 0.0000000000000000 0.0000000000000000
1.0000000000000000 0.0000000000000000 0.0000000000000000
1.0000000000000000 0.0000000000000000 0.0000000000000000
1.0000000000000000 0.0000000000000000 0.0000000000000000
1.0000000000000000 0.0000000000000000 0.0000000000000000
1.0000000000000000 0.0000000000000000 0.0000000000000000
1.0000000000000000 0.0000000000000000 0.0000000000000000
1.0000000000000000 0.0000000000000000 0.0000000000000000
1.0000000000000000 0.0000000000000000 0.0000000000000000
1.0000000000000000 0.0000000000000000 0.0000000000000000
1.0000000000000000 0.0000000000000000 0.0000000000000000
1.0000000000000000 0.0000000000000000 0.0000000000000000
1.0000000000000000 0.0000000000000000 0.0000000000000000
1.0000000000000000 0.0000000000000000 0.0000000000000000
1.0000000000000000 0.0000000000000000 0.0000000000000000
1.0000000000000000 0.0000000000000000 0.0000000000000000
1.0000000000000000 0.0000000000000000 0.0000000000000000
1.0000000000000000 0.0000000000000000 0.0000000000000000
1.0000000000000000 0.0000000000000000 0.0000000000000000
1.0000000000000000 0.0000000000000000 0.0000000000000000
1.0000000000000000 0.0000000000000000 0.0000000000000000
1.0000000000000000 0.0000000000000000 0.0000000000000000
1.0000000000000000 0.0000000000000000 0.0000000000000000
1.0000000000000000 0.0000000000000000 0.0000000000000000
1.0000000000000000 0.0000000000000000 0.0000000000000000
1.0000000000000000 0.0000000000000000 0.0000000000000000
1.0000000000000000 0.0000000000000000 0.0000000000000000
1.0000000000000000 0.0000000000000000 0.0000000000000000
1.0000000000000000 0.0000000000000000 0.0000000000000000
1.0000000000000000 0.0000000000000000 0.0000000000000000
1.0000000000000000 0.0000000000000000 0.0000000000000000
1.0000000000000000 0.0000000000000000 0.0000000000000000
1.0000000000000000 0.0000000000000000 0.0000000000000000
1.0000000000000000 0.0000000000000000 0.0000000000000000
1.0000000000000000 0.0000000000000000 0.0000000000000000
1.0000000000000000 0.0000000000000000 0.0000000000000000
1.0000000000000000 0.0000000000000000 0.0000000000000000
1.0000000000000000 0.0000000000000000 0.0000000000000000
1.0000000000000000 0.0000000000000000 0.0000000000000000
1.0000000000000000 0.0000000000000000 0.0000000000000000
1.0000000000000000 0.0000000000000000 0.0000000000000000
1.0000000000000000 0.0000000000000000 0.0000000000000000
1.0000000000000000 0.0000000000000000 0.0000000000000000
1.0000000000000000 0.0000000000000000 0.0000000000000000
1.0000000000000000 0.0000000000000000 0.0000000000000000
1.0000000000000000 0.0000000000000000 0.0000000000000000
1.0000000000000000 0.0000000000000000 0.0000000000000000
1.0000000000000000 0.0000000000000000 0.0000000000000000
1.0000000000000000 0.0000000000000000 0.0000000000000000
1.0000000000000000 0.0000000000000000 0.0000000000000000
1.0000000000000000 0.0000000000000000 0.0000000000000000
1.0000000000000000 0.0000000000000000 0.0000000000000000
1.0000000000000000 0.0000000000000000 0.0000000000000000
1.0000000000000000 0.0000000000000000 0.0000000000000000
1.0000000000000000 0.0000000000000000 0.0000000000000000
1.0000000000000000 0.0000000000000000 0.0000000000000000
1.0000000000000000 0.0000000000000000 0.0000000000000000
1.0000000000000000 0.0000000000000000 0.0000000000000000
1.0000000000000000 0.0000000000000000 0.0000000000000000
1.0000000000000000 0.0000000000000000 0.0000000000000000
1.0000000000000000 0.0000000000000000 0.0000000000000000
1.0000000000000000 0.0000000000000000 0.0000000000000000
1.0000000000000000 0.0000000000000000 0.0000000000000000
1.0000000000000000 0.0000000000000000 0.0000000000000000
1.0000000000000000 0.0000000000000000 0.0000000000000000
1.0000000000000000 0.0000000000000000 0.0000000000000000
1.0000000000000000 0.0000000000000000 0.0000000000000000
1.0000000000000000 0.0000000000000000 0.0000000000000000
1.0000000000000000 0.0000000000000000 0.0000000000000000
1.0000000000000000 0.0000000000000000 0.0000000000000000
1.0000000000000000 0.0000000000000000 0.0000000000000000
1.0000000000000000 0.0000000000000000 0.0000000000000000
1.0000000000000000 0.0000000000000000 0.0000000000000000
1.0000000000000000 0.0000000000000000 0.0000000000000000
1.0000000000000000 0.0000000000000000 0.0000000000000000
1.0000000000000000 0.0000000000000000 0.0000000000000000
1.0000000000000000 0.0000000000000000 0.0000000000000000
1.0000000000000000 0.0000000000000000 0.0000000000000000
1.0000000000000000 0.0000000000000000 0.0000000000000000
1.0000000000000000 0.0000000000000000 0.0000000000000000
1.0000000000000000 0.0000000000000000 0.0000000000000000
1.0000000000000000 0.0000000000000000 0.0000000000000000
1.0000000000000000 0.0000000000000000 0.0000000000000000
1.0000000000000000 0.0000000000000000 0.0000000000000000
1.0000000000000000 0.0000000000000000 0.0000000000000000
1.0000000000000000 0.0000000000000000 0.0000000000000000
1.0000000000000000 0.0000000000000000 0.0000000000000000
1.0000000000000000 0.0000000000000000 0.0000000000000000
1.0000000000000000 0.0000000000000000 0.0000000000000000
1.0000000000000000 0.0000000000000000 0.0000000000000000
1.0000000000000000 0.0000000000000000 0.0000000000000000
1.0000000000000000 0.0000000000000000 0.0000000000000000
1.0000000000000000 0.0000000000000000 0.0000000000000000
1.0000000000000000 0.0000000000000000 0.0000000000000000
1.0000000000000000 0.0000000000000000 0.0000000000000000
1.0000000000000000 0.0000000000000000 0.0000000000000000
1.0000000000000000 0.0000000000000000 0.0000000000000000
1.0000000000000000 0.0000000000000000 0.0000000000000000
1.0000000000000000 0.0000000000000000 0.0000000000000000
1.0000000000000000 0.0000000000000000 0.0000000000000000
1.0000000000000000 0.0000000000000000 0.0000000000000000
1.0000000000000000 0.0000000000000000 0.0000000000000000
1.0000000000000000 0.0000000000000000 0.0000000000000000
1.0000000000000000 0.0000000000000000 0.0000000000000000
1.0000000000000000 0.0000000000000000 0.0000000000000000
1.0000000000000000 0.0000000000000000 0.0000000000000000
1.0000000000000000 0.0000000000000000 0.0000000000000000
1.0000000000000000 0.0000000000000000 0.0000000000000000
1.0000000000000000 0.0000000000000000 0.0000000000000000
1.0000000000000000 0.0000000000000000 0.0000000000000000
1.0000000000000000 0.0000000000000000 0.0000000000000000
1.0000000000000000 0.0000000000000000 0.0000000000000000
1.0000000000000000 0.0000000000000000 0.0000000000000000
1.0000000000000000 0.0000000000000000 0.0000000000000000
1.0000000000000000 0.0000000000000000 0.0000000000000000
1.0000000000000000 0.0000000000000000 0.0000000000000000
1.0000000000000000 0.0000000000000000 0.0000000000000000
1.0000000000000000 0.0000000000000000 0.0000000000000000
1.0000000000000000 0.0000000000000000 0.0000000000000000
1.0000000000000000 0.0000000000000000 0.0000000000000000
1.0000000000000000 0.0000000000000000 0.0000000000000000
1.0000000000000000 0.0000000000000000 0.0000000000000000
1.0000000000000000 0.0000000000000000 0.0000000000000000
1.0000000000000000 0.0000000000000000 0.0000000000000000
1.0000000000000000 0.0000000000000000 0.0000000000000000
1.0000000000000000 0.0000000000000000 0.0000000000000000
1.0000000000000000 0.0000000000000000 0.0000000000000000
1.0000000000000000 0.0000000000000000 0.0000000000000000
1.0000000000000000 0.0000000000000000 0.0000000000000000
1.0000000000000000 0.0000000000000000 0.0000000000000000
1.0000000000000000 0.0000000000000000 0.0000000000000000
1.0000000000000000 0.0000000000000000 0.0000000000000000
1.0000000000000000 0.0000000000000000 0.0000000000000000
1.0000000000000000 0.0000000000000000 0.0000000000000000
1.0000000000000000 0.0000000000000000 0.0000000000000000
1.0000000000000000 0.0000000000000000 0.0000000000000000
1.0000000000000000 0.0000000000000000 0.0000000000000000
1.0000000000000000 0.0000000000000000 0.0000000000000000
1.0000000000000000 0.0000000000000000 0.0000000000000000
1.0000000000000000 0.0000000000000000 0.0000000000000000
1.0000000000000000 0.0000000000000000 0.0000000000000000
1.0000000000000000 0.0000000000000000 0.0000000000000000
1.0000000000000000 0.0000000000000000 0.0000000000000000
1.0000000000000000 0.0000000000000000 0.0000000000000000
1.0000000000000000 0.0000000000000000 0.0000000000000000
1.0000000000000000 0.0000000000000000 0.0000000000000000
1.0000000000000000 0.0000000000000000 0.0000000000000000
1.0000000000000000 0.0000000000000000 0.0000000000000000
1.0000000000000000 0.0000000000000000 0.0000000000000000
1.0000000000000000 0.0000000000000000 0.0000000000000000
1.0000000000000000 0.0000000000000000 0.0000000000000000
1.0000000000000000 0.0000000000000000 0.0000000000000000
1.0000000000000000 0.0000000000000000 0.0000000000000000
1.0000000000000000 0.0000000000000000 0.0000000000000000
1.0000000000000000 0.0000000000000000 0.0000000000000000
1.0000000000000000 0.0000000000000000 0.0000000000000000
1.0000000000000000 0.0000000000000000 0.0000000000000000
1.0000000000000000 0.0000000000000000 0.0000000000000000
1.0000000000000000 0.0000000000000000 0.0000000000000000
1.0000000000000000 0.0000000000000000 0.0000000000000000
1.0000000000000000 0.0000000000000000 0.0000000000000000
1.0000000000000000 0.0000000000000000 0.0000000000000000
1.0000000000000000 0.0000000000000000 0.0000000000000000
1.0000000000000000 0.0000000000000000 0.0000000000000000
1.0000000000000000 0.0000000000000000 0.0000000000000000
1.0000000000000000 0.0000000000000000 0.0000000000000000
1.0000000000000000 0.0000000000000000 0.0000000000000000
1.0000000000000000 0.0000000000000000 0.0000000000000000
1.0000000000000000 0.0000000000000000 0.0000000000000000
1.0000000000000000 0.0000000000000000 0.0000000000000000
1.0000000000000000 0.0000000000000000 0.0000000000000000
1.0000000000000000 0.0000000000000000 0.0000000000000000
1.0000000000000000 0.0000000000000000 0.0000000000000000
1.0000000000000000 0.0000000000000000 0.0000000000000000
1.0000000000000000 0.0000000000000000 0.0000000000000000
1.0000000000000000 0.0000000000000000 0.0000000000000000
1.0000000000000000 0.0000000000000000 0.0000000000000000
1.0000000000000000 0.0000000000000000 0.0000000000000000
1.0000000000000000 0.0000000000000000 0.0000000000000000
1.0000000000000000 0.0000000000000000 0.0000000000000000
1.0000000000000000 0.0000000000000000 0.0000000000000000
1.0000000000000000 0.0000000000000000 0.0000000000000000
1.0000000000000000 0.0000000000000000 0.0000000000000000
1.0000000000000000 0.0000000000000000 0.0000000000000000
1.0000000000000000 0.0000000000000000 0.0000000000000000
1.0000000000000000 0.0000000000000000 0.0000000000000000
1.0000000000000000 0.0000000000000000 0.0000000000000000
1.0000000000000000 0.0000000000000000 0.0000000000000000
1.0000000000000000 0.0000000000000000 0.0000000000000000
1.0000000000000000 0.0000000000000000 0.0000000000000000
1.0000000000000000 0.0000000000000000 0.0000000000000000
1.0000000000000000 0.0000000000000000 0.0000000000000000
1.0000000000000000 0.0000000000000000 0.0000000000000000
1.0000000000000000 0.0000000000000000 0.0000000000000000
1.0000000000000000 0.0000000000000000 0.0000000000000000
1.0000000000000000 0.0000000000000000 0.0000000000000000
1.0000000000000000 0.0000000000000000 0.0000000000000000
1.0000000000000000 0.0000000000000000 0.0000000000000000
1.0000000000000000 0.0000000000000000 0.0000000000000000
1.0000000000000000 0.0000000000000000 0.0000000000000000
1.0000000000000000 0.0000000000000000 0.0000000000000000
1.0000000000000000 0.0000000000000000 0.0000000000000000
1.0000000000000000 0.0000000000000000 0.0000000000000000
1.0000000000000000 0.0000000000000000 0.0000000000000000
1.0000000000000000 0.0000000000000000 0.0000000000000000
1.0000000000000000 0.0000000000000000 0.0000000000000000
1.0000000000000000 0.0000000000000000 0.0000000000000000
1.0000000000000000 0.0000000000000000 0.0000000000000000
1.0000000000000000 0.0000000000000000 0.0000000000000000
1.0000000000000000 0.0000000000000000 0.0000000000000000
1.0000000000000000 0.0000000000000000 0.0000000000000000
1.0000000000000000 0.0000000000000000 0.0000000000000000
1.0000000000000000 0.0000000000000000 0.0000000000000000
1.0000000000000000 0.0000000000000000 0.0000000000000000
1.0000000000000000 0.0000000000000000 0.0000000000000000
1.0000000000000000 0.0000000000000000 0.0000000000000000
1.0000000000000000 0.0000000000000000 0.0000000000000000
1.0000000000000000 0.0000000000000000 0.0000000000000000
1.0000000000000000 0.0000000000000000 0.0000000000000000
1.0000000000000000 0.0000000000000000 0.0000000000000000
1.0000000000000000 0.0000000000000000 0.0000000000000000
1.0000000000000000 0.0000000000000000 0.0000000000000000
1.0000000000000000 0.0000000000000000 0.0000000000000000
1.0000000000000000 0.0000000000000000 0.0000000000000000
1.0000000000000000 0.0000000000000000 0.0000000000000000
1.0000000000000000 0.0000000000000000 0.0000000000000000
1.0000000000000000 0.0000000000000000 0.0000000000000000
1.0000000000000000 0.0000000000000000 0.0000000000000000
1.0000000000000000 0.0000000000000000 0.0000000000000000
1.0000000000000000 0.0000000000000000 0.0000000000000000
1.0000000000000000 0.0000000000000000 0.0000000000000000
1.0000000000000000 0.0000000000000000 0.0000000000000000
1.0000000000000000 0.0000000000000000 0.0000000000000000
1.0000000000000000 0.0000000000000000 0.0000000000000000
1.0000000000000000 0.0000000000000000 0.0000000000000000
1.0000000000000000 0.0000000000000000 0.0000000000000000
1.0000000000000000 0.0000000000000000 0.0000000000000000
1.0000000000000000 0.0000000000000000 0.0000000000000000
1.0000000000000000 0.0000000000000000 0.0000000000000000
1.0000000000000000 0.0000000000000000 0.0000000000000000
1.0000000000000000 0.0000000000000000 0.0000000000000000
1.0000000000000000 0.0000000000000000 0.0000000000000000
1.0000000000000000 0.0000000000000000 0.0000000000000000
1.0000000000000000 0.0000000000000000 0.0000000000000000
1.0000000000000000 0.0000000000000000 0.0000000000000000
1.0000000000000000 0.0000000000000000 0.0000000000000000
1.0000000000000000 0.0000000000000000 0.0000000000000000
1.0000000000000000 0.0000000000000000 0.0000000000000000
1.0000000000000000 0.0000000000000000 0.0000000000000000
1.0000000000000000 0.0000000000000000 0.0000000000000000
1.0000000000000000 0.0000000000000000 0.0000000000000000
1.0000000000000000 0.0000000000000000 0.0000000000000000
1.0000000000000000 0.0000000000000000 0.0000000000000000
1.0000000000000000 0.0000000000000000 0.0000000000000000
1.0000000000000000 0.0000000000000000 0.0000000000000000
1.0000000000000000 0.0000000000000000 0.0000000000000000
1.0000000000000000 0.0000000000000000 0.0000000000000000
1.0000000000000000 0.0000000000000000 0.0000000000000000
1.0000000000000000 0.0000000000000000 0.0000000000000000
1.0000000000000000 0.0000000000000000 0.0000000000000000
1.0000000000000000 0.0000000000000000 0.0000000000000000
1.0000000000000000 0.0000000000000000 0.0000000000000000
1.0000000000000000 0.0000000000000000 0.0000000000000000
1.0000000000000000 0.0000000000000000 0.0000000000000000
1.0000000000000000 0.0000000000000000 0.0000000000000000
1.0000000000000000 0.0000000000000000 0.0000000000000000
1.0000000000000000 0.0000000000000000 0.0000000000000000
1.0000000000000000 0.0000000000000000 0.0000000000000000
1.0000000000000000 0.0000000000000000 0.0000000000000000
1.0000000000000000 0.0000000000000000 0.0000000000000000
1.0000000000000000 0.0000000000000000 0.0000000000000000
1.0000000000000000 0.0000000000000000 0.0000000000000000
1.0000000000000000 0.0000000000000000 0.0000000000000000
1.0000000000000000 0.0000000000000000 0.0000000000000000
1.0000000000000000 0.0000000000000000 0.0000000000000000
1.0000000000000000 0.0000000000000000 0.0000000000000000
1.0000000000000000 0.0000000000000000 0.0000000000000000
1.0000000000000000 0.0000000000000000 0.0000000000000000
1.0000000000000000 0.0000000000000000 0.0000000000000000
1.0000000000000000 0.0000000000000000 0.0000000000000000
1.0000000000000000 0.0000000000000000 0.0000000000000000
1.0000000000000000 0.0000000000000000 0.0000000000000000
1.0000000000000000 0.0000000000000000 0.0000000000000000
1.0000000000000000 0.0000000000000000 0.0000000000000000
1.0000000000000000 0.0000000000000000 0.0000000000000000
1.0000000000000000 0.0000000000000000 0.0000000000000000
1.0000000000000000 0.0000000000000000 0.0000000000000000
1.0000000000000000 0.0000000000000000 0.0000000000000000
1.0000000000000000 0.0000000000000000 0.0000000000000000
1.0000000000000000 0.0000000000000000 0.0000000000000000
1.0000000000000000 0.0000000000000000 0.0000000000000000
1.0000000000000000 0.0000000000000000 0.0000000000000000
1.0000000000000000 0.0000000000000000 0.0000000000000000
1.0000000000000000 0.0000000000000000 0.0000000000000000
1.0000000000000000 0.0000000000000000 0.0000000000000000
1.0000000000000000 0.0000000000000000 0.0000000000000000
1.0000000000000000 0.0000000000000000 0.0000000000000000
1.0000000000000000 0.0000000000000000 0.0000000000000000
1.0000000000000000 0.0000000000000000 0.0000000000000000
1.0000000000000000 0.0000000000000000 0.0000000000000000
1.0000000000000000 0.0000000000000000 0.0000000000000000
1.0000000000000000 0.0000000000000000 0.0000000000000000
1.0000000000000000 0.0000000000000000 0.0000000000000000
1.0000000000000000 0.0000000000000000 0.0000000000000000
1.0000000000000000 0.0000000000000000 0.0000000000000000
1.0000000000000000 0.0000000000000000 0.0000000000000000
1.0000000000000000 0.0000000000000000 0.0000000000000000
1.0000000000000000 0.0000000000000000 0.0000000000000000
1.0000000000000000 0.0000000000000000 0.0000000000000000
1.0000000000000000 0.0000000000000000 0.0000000000000000
1.0000000000000000 0.0000000000000000 0.0000000000000000
1.0000000000000000 0.0000000000000000 0.0000000000000000
1.0000000000000000 0.0000000000000000 0.0000000000000000
1.0000000000000000 0.0000000000000000 0.0000000000000000
1.0000000000000000 0.0000000000000000 0.0000000000000000
1.0000000000000000 0.0000000000000000 0.0000000000000000
1.0000000000000000 0.0000000000000000 0.0000000000000000
1.0000000000000000 0.0000000000000000 0.0000000000000000
1.0000000000000000 0.0000000000000000 0.0000000000000000
1.0000000000000000 0.0000000000000000 0.0000000000000000
1.0000000000000000 0.0000000000000000 0.0000000000000000
1.0000000000000000 0.0000000000000000 0.0000000000000000
1.0000000000000000 0.0000000000000000 0.0000000000000000
1.0000000000000000 0.0000000000000000 0.0000000000000000
1.0000000000000000 0.0000000000000000 0.0000000000000000
1.0000000000000000 0.0000000000000000 0.0000000000000000
1.0000000000000000 0.0000000000000000 0.0000000000000000
1.0000000000000000 0.0000000000000000 0.0000000000000000
1.0000000000000000 0.0000000000000000 0.0000000000000000
1.0000000000000000 0.0000000000000000 0.0000000000000000
1.0000000000000000 0.0000000000000000 0.0000000000000000
1.0000000000000000 0.0000000000000000 0.0000000000000000
1.0000000000000000 0.0000000000000000 0.0000000000000000
1.0000000000000000 0.0000000000000000 0.0000000000000000
1.0000000000000000 0.0000000000000000 0.0000000000000000
1.0000000000000000 0.0000000000000000 0.0000000000000000
1.0000000000000000 0.0000000000000000 0.0000000000000000
1.0000000000000000 0.0000000000000000 0.0000000000000000
1.0000000000000000 0.0000000000000000 0.0000000000000000
1.0000000000000000 0.0000000000000000 0.0000000000000000
1.0000000000000000 0.0000000000000000 0.0000000000000000
1.0000000000000000 0.0000000000000000 0.0000000000000000
1.0000000000000000 0.0000000000000000 0.0000000000000000
1.0000000000000000 0.0000000000000000 0.0000000000000000
1.0000000000000000 0.0000000000000000 0.0000000000000000
1.0000000000000000 0.0000000000000000 0.0000000000000000
1.0000000000000000 0.0000000000000000 0.0000000000000000
1.0000000000000000 0.0000000000000000 0.0000000000000000
1.0000000000000000 0.0000000000000000 0.0000000000000000
1.0000000000000000 0.0000000000000000 0.0000000000000000
1.0000000000000000 0.0000000000000000 0.0000000000000000
1.0000000000000000 0.0000000000000000 0.0000000000000000
1.0000000000000000 0.0000000000000000 0.0000000000000000
1.0000000000000000 0.0000000000000000 0.0000000000000000
1.0000000000000000 0.0000000000000000 0.0000000000000000
1.0000000000000000 0.0000000000000000 0.0000000000000000
1.0000000000000000 0.0000000000000000 0.0000000000000000
1.0000000000000000 0.0000000000000000 0.0000000000000000
1.0000000000000000 0.0000000000000000 0.0000000000000000
1.0000000000000000 0.0000000000000000 0.0000000000000000
1.0000000000000000 0.0000000000000000 0.0000000000000000
1.0000000000000000 0.0000000000000000 0.0000000000000000
1.0000000000000000 0.0000000000000000 0.0000000000000000
1.0000000000000000 0.0000000000000000 0.0000000000000000
1.0000000000000000 0.0000000000000000 0.0000000000000000
1.0000000000000000 0.0000000000000000 0.0000000000000000
1.0000000000000000 0.0000000000000000 0.0000000000000000
1.0000000000000000 0.0000000000000000 0.0000000000000000
1.0000000000000000 0.0000000000000000 0.0000000000000000
1.0000000000000000 0.0000000000000000 0.0000000000000000
1.0000000000000000 0.0000000000000000 0.0000000000000000
1.0000000000000000 0.0000000000000000 0.0000000000000000
1.0000000000000000 0.0000000000000000 0.0000000000000000
1.0000000000000000 0.0000000000000000 0.0000000000000000
1.0000000000000000 0.0000000000000000 0.0000000000000000
1.0000000000000000 0.0000000000000000 0.0000000000000000
1.0000000000000000 0.0000000000000000 0.0000000000000000
1.0000000000000000 0.0000000000000000 0.0000000000000000
1.0000000000000000 0.0000000000000000 0.0000000000000000
1.0000000000000000 0.0000000000000000 0.0000000000000000
1.0000000000000000 0.0000000000000000 0.0000000000000000
1.0000000000000000 0.0000000000000000 0.0000000000000000
1.0000000000000000 0.0000000000000000 0.0000000000000000
1.0000000000000000 0.0000000000000000 0.0000000000000000
1.0000000000000000 0.0000000000000000 0.0000000000000000
1.0000000000000000 0.0000000000000000 0.0000000000000000
1.0000000000000000 0.0000000000000000 0.0000000000000000
1.0000000000000000 0.0000000000000000 0.0000000000000000
1.0000000000000000 0.0000000000000000 0.0000000000000000
1.0000000000000000 0.0000000000000000 0.0000000000000000
1.0000000000000000 0.0000000000000000 0.0000000000000000
1.0000000000000000 0.0000000000000000 0.0000000000000000
1.0000000000000000 0.0000000000000000 0.0000000000000000
1.0000000000000000 0.0000000000000000 0.0000000000000000
1.0000000000000000 0.0000000000000000 0.0000000000000000
1.0000000000000000 0.0000000000000000 0.0000000000000000
1.0000000000000000 0.0000000000000000 0.0000000000000000
1.0000000000000000 0.0000000000000000 0.0000000000000000
1.0000000000000000 0.0000000000000000 0.0000000000000000
1.0000000000000000 0.0000000000000000 0.0000000000000000
1.0000000000000000 0.0000000000000000 0.0000000000000000
1.0000000000000000 0.0000000000000000 0.0000000000000000
1.0000000000000000 0.0000000000000000 0.0000000000000000
1.0000000000000000 0.0000000000000000 0.0000000000000000
1.0000000000000000 0.0000000000000000 0.0000000000000000
1.0000000000000000 0.0000000000000000 0.0000000000000000
1.0000000000000000 0.0000000000000000 0.0000000000000000
1.0000000000000000 0.0000000000000000 0.0000000000000000
1.0000000000000000 0.0000000000000000 0.0000000000000000
1.0000000000000000 0.0000000000000000 0.0000000000000000
1.0000000000000000 0.0000000000000000 0.0000000000000000
1.0000000000000000 0.0000000000000000 0.0000000000000000
1.0000000000000000 0.0000000000000000 0.0000000000000000
1.0000000000000000 0.0000000000000000 0.0000000000000000
1.0000000000000000 0.0000000000000000 0.0000000000000000
1.0000000000000000 0.0000000000000000 0.0000000000000000
1.0000000000000000 0.0000000000000000 0.0000000000000000
1.0000000000000000 0.0000000000000000 0.0000000000000000
1.0000000000000000 0.0000000000000000 0.0000000000000000
1.0000000000000000 0.0000000000000000 0.0000000000000000
1.0000000000000000 0.0000000000000000 0.0000000000000000
1.0000000000000000 0.0000000000000000 0.0000000000000000
1.0000000000000000 0.0000000000000000 0.0000000000000000
1.0000000000000000 0.0000000000000000 0.0000000000000000
1.0000000000000000 0.0000000000000000 0.0000000000000000
1.0000000000000000 0.0000000000000000 0.0000000000000000
1.0000000000000000 0.0000000000000000 0.0000000000000000
1.0000000000000000 0.0000000000000000 0.0000000000000000
1.0000000000000000 0.0000000000000000 0.0000000000000000
1.0000000000000000 0.0000000000000000 0.0000000000000000
1.0000000000000000 0.0000000000000000 0.0000000000000000
1.0000000000000000 0.0000000000000000 0.0000000000000000
1.0000000000000000 0.0000000000000000 0.0000000000000000
1.0000000000000000 0.0000000000000000 0.0000000000000000
1.0000000000000000 0.0000000000000000 0.0000000000000000
1.0000000000000000 0.0000000000000000 0.0000000000000000
1.0000000000000000 0.0000000000000000 0.0000000000000000
1.0000000000000000 0.0000000000000000 0.0000000000000000
1.0000000000000000 0.0000000000000000 0.0000000000000000
1.0000000000000000 0.0000000000000000 0.0000000000000000
1.0000000000000000 0.0000000000000000 0.0000000000000000
1.0000000000000000 0.0000000000000000 0.0000000000000000
1.0000000000000000 0.0000000000000000 0.0000000000000000
1.0000000000000000 0.0000000000000000 0.0000000000000000
1.0000000000000000 0.0000000000000000 0.0000000000000000
1.0000000000000000 0.0000000000000000 0.0000000000000000
1.0000000000000000 0.0000000000000000 0.0000000000000000
1.0000000000000000 0.0000000000000000 0.0000000000000000
1.0000000000000000 0.0000000000000000 0.0000000000000000
1.0000000000000000 0.0000000000000000 0.0000000000000000
1.0000000000000000 0.0000000000000000 0.0000000000000000
1.0000000000000000 0.0000000000000000 0.0000000000000000
1.0000000000000000 0.0000000000000000 0.0000000000000000
1.0000000000000000 0.0000000000000000 0.0000000000000000
1.0000000000000000 0.0000000000000000 0.0000000000000000
1.0000000000000000 0.0000000000000000 0.0000000000000000
1.0000000000000000 0.0000000000000000 0.0000000000000000
1.0000000000000000 0.0000000000000000 0.0000000000000000
1.0000000000000000 0.0000000000000000 0.0000000000000000
1.0000000000000000 0.0000000000000000 0.0000000000000000
1.0000000000000000 0.0000000000000000 0.0000000000000000
1.0000000000000000 0.0000000000000000 0.0000000000000000
1.0000000000000000 0.0000000000000000 0.0000000000000000
1.0000000000000000 0.0000000000000000 0.0000000000000000
1.0000000000000000 0.0000000000000000 0.0000000000000000
1.0000000000000000 0.0000000000000000 0.0000000000000000
1.0000000000000000 0.0000000000000000 0.0000000000000000
1.0000000000000000 0.0000000000000000 0.0000000000000000
1.0000000000000000 0.0000000000000000 0.0000000000000000
1.0000000000000000 0.0000000000000000 0.0000000000000000
1.0000000000000000 0.0000000000000000 0.0000000000000000
1.0000000000000000 0.0000000000000000 0.0000000000000000
1.0000000000000000 0.0000000000000000 0.0000000000000000
1.0000000000000000 0.0000000000000000 0.0000000000000000
1.0000000000000000 0.0000000000000000 0.0000000000000000
1.0000000000000000 0.0000000000000000 0.0000000000000000
1.0000000000000000 0.0000000000000000 0.0000000000000000
1.0000000000000000 0.0000000000000000 0.0000000000000000
1.0000000000000000 0.0000000000000000 0.0000000000000000
1.0000000000000000 0.0000000000000000 0.0000000000000000
1.0000000000000000 0.0000000000000000 0.0000000000000000
1.0000000000000000 0.0000000000000000 0.0000000000000000
1.0000000000000000 0.0000000000000000 0.0000000000000000
1.0000000000000000 0.0000000000000000 0.0000000000000000
1.0000000000000000 0.0000000000000000 0.0000000000000000
1.0000000000000000 0.0000000000000000 0.0000000000000000
1.0000000000000000 0.0000000000000000 0.0000000000000000
1.0000000000000000 0.0000000000000000 0.0000000000000000
1.0000000000000000 0.0000000000000000 0.0000000000000000
1.0000000000000000 0.0000000000000000 0.0000000000000000
1.0000000000000000 0.0000000000000000 0.0000000000000000
1.0000000000000000 0.0000000000000000 0.0000000000000000
1.0000000000000000 0.0000000000000000 0.0000000000000000
1.0000000000000000 0.0000000000000000 0.0000000000000000
1.0000000000000000 0.0000000000000000 0.0000000000000000
1.0000000000000000 0.0000000000000000 0.0000000000000000
1.0000000000000000 0.0000000000000000 0.0000000000000000
1.0000000000000000 0.0000000000000000 0.0000000000000000
1.0000000000000000 0.0000000000000000 0.0000000000000000
1.0000000000000000 0.0000000000000000 0.0000000000000000
1.0000000000000000 0.0000000000000000 0.0000000000000000
1.0000000000000000 0.0000000000000000 0.0000000000000000
1.0000000000000000 0.0000000000000000 0.0000000000000000
1.0000000000000000 0.0000000000000000 0.0000000000000000
1.0000000000000000 0.0000000000000000 0.0000000000000000
1.0000000000000000 0.0000000000000000 0.0000000000000000
1.0000000000000000 0.0000000000000000 0.0000000000000000
1.0000000000000000 0.0000000000000000 0.0000000000000000
1.0000000000000000 0.0000000000000000 0.0000000000000000
1.0000000000000000 0.0000000000000000 0.0000000000000000
1.0000000000000000 0.0000000000000000 0.0000000000000000
1.0000000000000000 0.0000000000000000 0.0000000000000000
1.0000000000000000 0.0000000000000000 0.0000000000000000
1.0000000000000000 0.0000000000000000 0.0000000000000000
1.0000000000000000 0.0000000000000000 0.0000000000000000
1.0000000000000000 0.0000000000000000 0.0000000000000000
1.0000000000000000 0.0000000000000000 0.0000000000000000
1.0000000000000000 0.0000000000000000 0.0000000000000000
1.0000000000000000 0.0000000000000000 0.0000000000000000
1.0000000000000000 0.0000000000000000 0.0000000000000000
1.0000000000000000 0.0000000000000000 0.0000000000000000
1.0000000000000000 0.0000000000000000 0.0000000000000000
1.0000000000000000 0.0000000000000000 0.0000000000000000
1.0000000000000000 0.0000000000000000 0.0000000000000000
1.0000000000000000 0.0000000000000000 0.0000000000000000
1.0000000000000000 0.0000000000000000 0.0000000000000000
1.0000000000000000 0.0000000000000000 0.0000000000000000
1.0000000000000000 0.0000000000000000 0.0000000000000000
1.0000000000000000 0.0000000000000000 0.0000000000000000
1.0000000000000000 0.0000000000000000 0.0000000000000000
1.0000000000000000 0.0000000000000000 0.0000000000000000

SCALARS f:thickness float 1
LOOKUP_TABLE default
0.8500000238418579
0.8500000238418579
0.8500000238418579
0.8500000238418579
0.8500000238418579
0.8500000238418579
0.8500000238418579
0.8500000238418579
0.8500000238418579
0.8500000238418579
0.8500000238418579
0.8500000238418579
0.8500000238418579
0.8500000238418579
0.8500000238418579
0.8500000238418579
0.8500000238418579
0.8500000238418579
0.8500000238418579
0.8500000238418579
0.8500000238418579
0.8500000238418579
0.8500000238418579
0.8500000238418579
0.8500000238418579
0.8500000238418579
0.8500000238418579
0.8500000238418579
0.8500000238418579
0.8500000238418579
0.8500000238418579
0.8500000238418579
0.8500000238418579
0.8500000238418579
0.8500000238418579
0.8500000238418579
0.8500000238418579
0.8500000238418579
0.8500000238418579
0.8500000238418579
0.8500000238418579
0.8500000238418579
0.8500000238418579
0.8500000238418579
0.8500000238418579
0.8500000238418579
0.8500000238418579
0.8500000238418579
0.8500000238418579
0.8500000238418579
0.8500000238418579
0.8500000238418579
0.8500000238418579
0.8500000238418579
0.8500000238418579
0.8500000238418579
0.8500000238418579
0.8500000238418579
0.8500000238418579
0.8500000238418579
0.8500000238418579
0.8500000238418579
0.8500000238418579
0.8500000238418579
0.8500000238418579
0.8500000238418579
0.8500000238418579
0.8500000238418579
0.8500000238418579
0.8500000238418579
0.8500000238418579
0.8500000238418579
0.8500000238418579
0.8500000238418579
0.8500000238418579
0.8500000238418579
0.8500000238418579
0.8500000238418579
0.8500000238418579
0.8500000238418579
0.8500000238418579
0.8500000238418579
0.8500000238418579
0.8500000238418579
0.8500000238418579
0.8500000238418579
0.8500000238418579
0.8500000238418579
0.8500000238418579
0.8500000238418579
0.8500000238418579
0.8500000238418579
0.8500000238418579
0.8500000238418579
0.8500000238418579
0.8500000238418579
0.8500000238418579
0.8500000238418579
0.8500000238418579
0.8500000238418579
0.8500000238418579
0.8500000238418579
0.8500000238418579
0.8500000238418579
0.8500000238418579
0.8500000238418579
0.8500000238418579
0.8500000238418579
0.8500000238418579
0.8500000238418579
0.8500000238418579
0.8500000238418579
0.8500000238418579
0.8500000238418579
0.8500000238418579
0.8500000238418579
0.8500000238418579
0.8500000238418579
0.8500000238418579
0.8500000238418579
0.8500000238418579
0.8500000238418579
0.8500000238418579
0.8500000238418579
0.8500000238418579
0.8500000238418579
0.8500000238418579
0.8500000238418579
0.8500000238418579
0.8500000238418579
0.8500000238418579
0.8500000238418579
0.8500000238418579
0.8500000238418579
0.8500000238418579
0.8500000238418579
0.8500000238418579
0.8500000238418579
0.8500000238418579
0.8500000238418579
0.8500000238418579
0.8500000238418579
0.8500000238418579
0.8500000238418579
0.8500000238418579
0.8500000238418579
0.8500000238418579
0.8500000238418579
0.8500000238418579
0.8500000238418579
0.8500000238418579
0.8500000238418579
0.8500000238418579
0.8500000238418579
0.8500000238418579
0.8500000238418579
0.8500000238418579
0.8500000238418579
0.8500000238418579
0.8500000238418579
0.8500000238418579
0.8500000238418579
0.8500000238418579
0.8500000238418579
0.8500000238418579
0.8500000238418579
0.8500000238418579
0.8500000238418579
0.8500000238418579
0.8500000238418579
0.8500000238418579
0.8500000238418579
0.8500000238418579
0.8500000238418579
0.8500000238418579
0.8500000238418579
0.8500000238418579
0.8500000238418579
0.8500000238418579
0.8500000238418579
0.8500000238418579
0.8500000238418579
0.8500000238418579
0.8500000238418579
0.8500000238418579
0.8500000238418579
0.8500000238418579
0.8500000238418579
0.8500000238418579
0.8500000238418579
0.8500000238418579
0.8500000238418579
0.8500000238418579
0.8500000238418579
0.8500000238418579
0.8500000238418579
0.8500000238418579
0.8500000238418579
0.8500000238418579
0.8500000238418579
0.8500000238418579
0.8500000238418579
0.8500000238418579
0.8500000238418579
0.8500000238418579
0.8500000238418579
0.8500000238418579
0.8500000238418579
0.8500000238418579
0.8500000238418579
0.8500000238418579
0.8500000238418579
0.8500000238418579
0.8500000238418579
0.8500000238418579
0.8500000238418579
0.8500000238418579
0.8500000238418579
0.8500000238418579
0.8500000238418579
0.8500000238418579
0.8500000238418579
0.8500000238418579
0.8500000238418579
0.8500000238418579
0.8500000238418579
0.8500000238418579
0.8500000238418579
0.8500000238418579
0.8500000238418579
0.8500000238418579
0.8500000238418579
0.8500000238418579
0.8500000238418579
0.8500000238418579
0.8500000238418579
0.8500000238418579
0.8500000238418579
0.8500000238418579
0.8500000238418579
0.8500000238418579
0.8500000238418579
0.8500000238418579
0.8500000238418579
0.8500000238418579
0.8500000238418579
0.8500000238418579
0.8500000238418579
0.8500000238418579
0.8500000238418579
0.8500000238418579
0.8500000238418579
0.8500000238418579
0.8500000238418579
0.8500000238418579
0.8500000238418579
0.8500000238418579
0.8500000238418579
0.8500000238418579
0.8500000238418579
0.8500000238418579
0.8500000238418579
0.8500000238418579
0.8500000238418579
0.8500000238418579
0.8500000238418579
0.8500000238418579
0.8500000238418579
0.8500000238418579
0.8500000238418579
0.8500000238418579
0.8500000238418579
0.8500000238418579
0.8500000238418579
0.8500000238418579
0.8500000238418579
0.8500000238418579
0.8500000238418579
0.8500000238418579
0.8500000238418579
0.8500000238418579
0.8500000238418579
0.8500000238418579
0.8500000238418579
0.8500000238418579
0.8500000238418579
0.8500000238418579
0.8500000238418579
0.8500000238418579
0.8500000238418579
0.8500000238418579
0.8500000238418579
0.8500000238418579
0.8500000238418579
0.8500000238418579
0.8500000238418579
0.8500000238418579
0.8500000238418579
0.8500000238418579
0.8500000238418579
0.8500000238418579
0.8500000238418579
0.8500000238418579
0.8500000238418579
0.8500000238418579
0.8500000238418579
0.8500000238418579
0.8500000238418579
0.8500000238418579
0.8500000238418579
0.8500000238418579
0.8500000238418579
0.8500000238418579
0.8500000238418579
0.8500000238418579
0.8500000238418579
0.8500000238418579
0.8500000238418579
0.8500000238418579
0.8500000238418579
0.8500000238418579
0.8500000238418579
0.8500000238418579
0.8500000238418579
0.8500000238418579
0.8500000238418579
0.8500000238418579
0.8500000238418579
0.8500000238418579
0.8500000238418579
0.8500000238418579
0.8500000238418579
0.8500000238418579
0.8500000238418579
0.8500000238418579
0.8500000238418579
0.8500000238418579
0.8500000238418579
0.8500000238418579
0.8500000238418579
0.8500000238418579
0.8500000238418579
0.8500000238418579
0.8500000238418579
0.8500000238418579
0.8500000238418579
0.8500000238418579
0.8500000238418579
0.8500000238418579
0.8500000238418579
0.8500000238418579
0.8500000238418579
0.8500000238418579
0.8500000238418579
0.8500000238418579
0.8500000238418579
0.8500000238418579
0.8500000238418579
0.8500000238418579
0.8500000238418579
0.8500000238418579
0.8500000238418579
0.8500000238418579
0.8500000238418579
0.8500000238418579
0.8500000238418579
0.8500000238418579
0.8500000238418579
0.8500000238418579
0.8500000238418579
0.8500000238418579
0.8500000238418579
0.8500000238418579
0.8500000238418579
0.8500000238418579
0.8500000238418579
0.8500000238418579
0.8500000238418579
0.8500000238418579
0.8500000238418579
0.8500000238418579
0.8500000238418579
0.8500000238418579
0.8500000238418579
0.8500000238418579
0.8500000238418579
0.8500000238418579
0.8500000238418579
0.8500000238418579
0.8500000238418579
0.8500000238418579
0.8500000238418579
0.8500000238418579
0.8500000238418579
0.8500000238418579
0.8500000238418579
0.8500000238418579
0.8500000238418579
0.8500000238418579
0.8500000238418579
0.8500000238418579
0.8500000238418579
0.8500000238418579
0.8500000238418579
0.8500000238418579
0.8500000238418579
0.8500000238418579
0.8500000238418579
0.8500000238418579
0.8500000238418579
0.8500000238418579
0.8500000238418579
0.8500000238418579
0.8500000238418579
0.8500000238418579
0.8500000238418579
0.8500000238418579
0.8500000238418579
0.8500000238418579
0.8500000238418579
0.8500000238418579
0.8500000238418579
0.8500000238418579
0.8500000238418579
0.8500000238418579
0.8500000238418579
0.8500000238418579
0.8500000238418579
0.8500000238418579
0.8500000238418579
0.8500000238418579
0.8500000238418579
0.8500000238418579
0.8500000238418579
0.8500000238418579
0.8500000238418579
0.8500000238418579
0.8500000238418579
0.8500000238418579
0.8500000238418579
0.8500000238418579
0.8500000238418579
0.8500000238418579
0.8500000238418579
0.8500000238418579
0.8500000238418579
0.8500000238418579
0.8500000238418579
0.8500000238418579
0.8500000238418579
0.8500000238418579
0.8500000238418579
0.8500000238418579
0.8500000238418579
0.8500000238418579
0.8500000238418579
0.8500000238418579
0.8500000238418579
0.8500000238418579
0.8500000238418579
0.8500000238418579
0.8500000238418579
0.8500000238418579
0.8500000238418579
0.8500000238418579
0.8500000238418579
0.8500000238418579
0.8500000238418579
0.8500000238418579
0.8500000238418579
0.8500000238418579
0.8500000238418579
0.8500000238418579
0.8500000238418579
0.8500000238418579
0.8500000238418579
0.8500000238418579
0.8500000238418579
0.8500000238418579
0.8500000238418579
0.8500000238418579
0.8500000238418579
0.8500000238418579
0.8500000238418579
0.8500000238418579
0.8500000238418579
0.8500000238418579
0.8500000238418579
0.8500000238418579
0.8500000238418579
0.8500000238418579
0.8500000238418579
0.8500000238418579
0.8500000238418579
0.8500000238418579
0.8500000238418579
0.8500000238418579
0.8500000238418579
0.8500000238418579
0.8500000238418579
0.8500000238418579
0.8500000238418579
0.8500000238418579
0.8500000238418579
0.8500000238418579
0.8500000238418579
0.8500000238418579
0.8500000238418579
0.8500000238418579
0.8500000238418579
0.8500000238418579
0.8500000238418579
0.8500000238418579
0.8500000238418579
0.8500000238418579
0.8500000238418579
0.8500000238418579
0.8500000238418579
0.8500000238418579
0.8500000238418579
0.8500000238418579
0.8500000238418579
0.8500000238418579
0.8500000238418579
0.8500000238418579
0.8500000238418579
0.8500000238418579
0.8500000238418579
0.8500000238418579
0.8500000238418579
0.8500000238418579
0.8500000238418579
0.8500000238418579
0.8500000238418579
0.8500000238418579
0.8500000238418579
0.8500000238418579
0.8500000238418579
0.8500000238418579
0.8500000238418579
0.8500000238418579
0.8500000238418579
0.8500000238418579
0.8500000238418579
0.8500000238418579
0.8500000238418579
0.8500000238418579
0.8500000238418579
0.8500000238418579
0.8500000238418579
0.8500000238418579
0.8500000238418579
0.8500000238418579
0.8500000238418579
0.8500000238418579
0.8500000238418579
0.8500000238418579
0.8500000238418579
0.8500000238418579
0.8500000238418579
0.8500000238418579
0.8500000238418579
0.8500000238418579
0.8500000238418579
0.8500000238418579
0.8500000238418579
0.8500000238418579
0.8500000238418579
0.8500000238418579
0.8500000238418579
0.8500000238418579
0.8500000238418579
0.8500000238418579
0.8500000238418579
0.8500000238418579
0.8500000238418579
0.8500000238418579
0.8500000238418579
0.8500000238418579
0.8500000238418579
0.8500000238418579
0.8500000238418579
0.8500000238418579
0.8500000238418579
0.8500000238418579
0.8500000238418579
0.8500000238418579
0.8500000238418579
0.8500000238418579
0.8500000238418579
0.8500000238418579
0.8500000238418579
0.8500000238418579
0.8500000238418579
0.8500000238418579
0.8500000238418579
0.8500000238418579
0.8500000238418579
0.8500000238418579
0.8500000238418579
0.8500000238418579
0.8500000238418579
0.8500000238418579
0.8500000238418579
0.8500000238418579
0.8500000238418579
0.8500000238418579
0.8500000238418579
0.8500000238418579
0.8500000238418579
0.8500000238418579
0.8500000238418579
0.8500000238418579
0.8500000238418579
0.8500000238418579
0.8500000238418579
0.8500000238418579
0.8500000238418579
0.8500000238418579
0.8500000238418579
0.8500000238418579
0.8500000238418579
0.8500000238418579
0.8500000238418579
0.8500000238418579
0.8500000238418579
0.8500000238418579
0.8500000238418579
0.8500000238418579
0.8500000238418579
0.8500000238418579
0.8500000238418579
0.8500000238418579
0.8500000238418579
0.8500000238418579
0.8500000238418579
0.8500000238418579
0.8500000238418579
0.8500000238418579
0.8500000238418579
0.8500000238418579
0.8500000238418579
0.8500000238418579
0.8500000238418579
0.8500000238418579
0.8500000238418579
0.8500000238418579
0.8500000238418579
0.8500000238418579
0.8500000238418579
0.8500000238418579
0.8500000238418579
0.8500000238418579
0.8500000238418579
0.8500000238418579
0.8500000238418579
0.8500000238418579
0.8500000238418579
0.8500000238418579
0.8500000238418579
0.8500000238418579
0.8500000238418579
0.8500000238418579
0.8500000238418579
0.8500000238418579
0.8500000238418579
0.8500000238418579
0.8500000238418579
0.8500000238418579
0.8500000238418579
0.8500000238418579
0.8500000238418579
0.8500000238418579
0.8500000238418579
0.8500000238418579
0.8500000238418579
0.8500000238418579
0.8500000238418579
0.8500000238418579
0.8500000238418579
0.8500000238418579
0.8500000238418579
0.8500000238418579
0.8500000238418579
0.8500000238418579
0.8500000238418579
0.8500000238418579
0.8500000238418579
0.8500000238418579
0.8500000238418579
0.8500000238418579
0.8500000238418579
0.8500000238418579
0.8500000238418579
0.8500000238418579
0.8500000238418579
0.8500000238418579
0.8500000238418579
0.8500000238418579
0.8500000238418579
0.8500000238418579
0.8500000238418579
0.8500000238418579
0.8500000238418579
0.8500000238418579
0.8500000238418579
0.8500000238418579
0.8500000238418579
0.8500000238418579
0.8500000238418579
0.8500000238418579
0.8500000238418579
0.8500000238418579
0.8500000238418579
0.8500000238418579
0.8500000238418579
0.8500000238418579
0.8500000238418579
0.8500000238418579
0.8500000238418579
0.8500000238418579
0.8500000238418579
0.8500000238418579
0.8500000238418579
0.8500000238418579
0.8500000238418579
0.8500000238418579
0.8500000238418579
0.8500000238418579
0.8500000238418579
0.8500000238418579
0.8500000238418579
0.8500000238418579
0.8500000238418579
0.8500000238418579
0.8500000238418579
0.8500000238418579
0.8500000238418579
0.8500000238418579
0.8500000238418579
0.8500000238418579
0.8500000238418579
0.8500000238418579
0.8500000238418579
0.8500000238418579
0.8500000238418579
0.8500000238418579
0.8500000238418579
0.8500000238418579
0.8500000238418579
0.8500000238418579
0.8500000238418579
0.8500000238418579
0.8500000238418579
0.8500000238418579
0.8500000238418579
0.8500000238418579
0.8500000238418579
0.8500000238418579
0.8500000238418579
0.8500000238418579
0.8500000238418579
0.8500000238418579
0.8500000238418579
0.8500000238418579
0.8500000238418579
0.8500000238418579
0.8500000238418579
0.8500000238418579
0.8500000238418579
0.8500000238418579
0.8500000238418579
0.8500000238418579
0.8500000238418579
0.8500000238418579
0.8500000238418579
0.8500000238418579
0.8500000238418579
0.8500000238418579
0.8500000238418579
0.8500000238418579
0.8500000238418579
0.8500000238418579
0.8500000238418579
0.8500000238418579
0.8500000238418579
0.8500000238418579
0.8500000238418579
0.8500000238418579
0.8500000238418579
0.8500000238418579
0.8500000238418579
0.8500000238418579
0.8500000238418579
0.8500000238418579
0.8500000238418579
0.8500000238418579
0.8500000238418579
0.8500000238418579
0.8500000238418579
0.8500000238418579
0.8500000238418579
0.8500000238418579
0.8500000238418579
0.8500000238418579
0.8500000238418579
0.8500000238418579
0.8500000238418579
0.8500000238418579
0.8500000238418579
0.8500000238418579
0.8500000238418579
0.8500000238418579
0.8500000238418579
0.8500000238418579
0.8500000238418579
0.8500000238418579
0.8500000238418579
0.8500000238418579
0.8500000238418579
0.8500000238418579
0.8500000238418579
0.8500000238418579
0.8500000238418579
0.8500000238418579
0.8500000238418579
0.8500000238418579
0.8500000238418579
0.8500000238418579
0.8500000238418579
0.8500000238418579
0.8500000238418579
0.8500000238418579
0.8500000238418579
0.8500000238418579
0.8500000238418579
0.8500000238418579
0.8500000238418579
0.8500000238418579
0.8500000238418579
0.8500000238418579
0.8500000238418579
0.8500000238418579
0.8500000238418579
0.8500000238418579
0.8500000238418579
0.8500000238418579
0.8500000238418579
0.8500000238418579
0.8500000238418579
0.8500000238418579
0.8500000238418579
0.8500000238418579
0.8500000238418579
0.8500000238418579
0.8500000238418579
0.8500000238418579
0.8500000238418579
0.8500000238418579
0.8500000238418579
0.8500000238418579
0.8500000238418579
0.8500000238418579
0.8500000238418579
0.8500000238418579
0.8500000238418579
0.8500000238418579
0.8500000238418579
0.8500000238418579
0.8500000238418579
0.8500000238418579
0.8500000238418579
0.8500000238418579
0.8500000238418579
0.8500000238418579
0.8500000238418579
0.8500000238418579
0.8500000238418579
0.8500000238418579
0.8500000238418579
0.8500000238418579
0.8500000238418579
0.8500000238418579
0.8500000238418579
0.8500000238418579
0.8500000238418579
0.8500000238418579
0.8500000238418579
0.8500000238418579
0.8500000238418579
0.8500000238418579
0.8500000238418579
0.8500000238418579
0.8500000238418579
0.8500000238418579
0.8500000238418579
0.8500000238418579
0.8500000238418579
0.8500000238418579
0.8500000238418579
0.8500000238418579
0.8500000238418579
0.8500000238418579
0.8500000238418579
0.8500000238418579
0.8500000238418579
0.8500000238418579
0.8500000238418579
0.8500000238418579
0.8500000238418579
0.8500000238418579
0.8500000238418579
0.8500000238418579
0.8500000238418579
0.8500000238418579
0.8500000238418579
0.8500000238418579
0.8500000238418579
0.8500000238418579
0.8500000238418579
0.8500000238418579
0.8500000238418579
0.8500000238418579
0.8500000238418579
0.8500000238418579
0.8500000238418579
0.8500000238418579
0.8500000238418579
0.8500000238418579
0.8500000238418579
0.8500000238418579
0.8500000238418579
0.8500000238418579
0.8500000238418579
0.8500000238418579
0.8500000238418579
0.8500000238418579
0.8500000238418579
0.8500000238418579
0.8500000238418579
0.8500000238418579
0.8500000238418579
0.8500000238418579
0.8500000238418579
0.8500000238418579
0.8500000238418579
0.8500000238418579
0.8500000238418579
0.8500000238418579
0.8500000238418579
0.8500000238418579
0.8500000238418579
0.8500000238418579
0.8500000238418579
0.8500000238418579
0.8500000238418579
0.8500000238418579
0.8500000238418579
0.8500000238418579
0.8500000238418579
0.8500000238418579
0.8500000238418579
0.8500000238418579
0.8500000238418579
0.8500000238418579
0.8500000238418579
0.8500000238418579
0.8500000238418579
0.8500000238418579
0.8500000238418579
0.8500000238418579
0.8500000238418579
0.8500000238418579
0.8500000238418579
0.8500000238418579
0.8500000238418579
0.8500000238418579
0.8500000238418579
0.8500000238418579
0.8500000238418579
0.8500000238418579
0.8500000238418579
0.8500000238418579
0.8500000238418579
0.8500000238418579
0.8500000238418579
0.8500000238418579
0.8500000238418579
0.8500000238418579
0.8500000238418579
0.8500000238418579
0.8500000238418579
0.8500000238418579
0.8500000238418579
0.8500000238418579
0.8500000238418579
0.8500000238418579
0.8500000238418579
0.8500000238418579
0.8500000238418579
0.8500000238418579
0.8500000238418579
0.8500000238418579
0.8500000238418579
0.8500000238418579
0.8500000238418579
0.8500000238418579
0.8500000238418579
0.8500000238418579
0.8500000238418579
0.8500000238418579
0.8500000238418579
0.8500000238418579
0.8500000238418579
0.8500000238418579
0.8500000238418579
0.8500000238418579
0.8500000238418579
0.8500000238418579
0.8500000238418579
0.8500000238418579
0.8500000238418579
0.8500000238418579
0.8500000238418579
0.8500000238418579
0.8500000238418579
0.8500000238418579
0.8500000238418579
0.8500000238418579
0.8500000238418579
0.8500000238418579
0.8500000238418579
0.8500000238418579
0.8500000238418579
0.8500000238418579
0.8500000238418579
0.8500000238418579
0.8500000238418579
0.8500000238418579
0.8500000238418579
0.8500000238418579
0.8500000238418579
0.8500000238418579
0.8500000238418579
0.8500000238418579
0.8500000238418579
0.8500000238418579
0.8500000238418579
0.8500000238418579
0.8500000238418579
0.8500000238418579
0.8500000238418579
0.8500000238418579
0.8500000238418579
0.8500000238418579
0.8500000238418579
0.8500000238418579
0.8500000238418579
0.8500000238418579
0.8500000238418579
0.8500000238418579
0.8500000238418579
0.8500000238418579
0.8500000238418579
0.8500000238418579
0.8500000238418579
0.8500000238418579
0.8500000238418579
0.8500000238418579
0.8500000238418579
0.8500000238418579
0.8500000238418579
0.8500000238418579
0.8500000238418579
0.8500000238418579
0.8500000238418579
0.8500000238418579
0.8500000238418579
0.8500000238418579
0.8500000238418579
0.8500000238418579
0.8500000238418579
0.8500000238418579
0.8500000238418579
0.8500000238418579
0.8500000238418579
0.8500000238418579
0.8500000238418579
0.8500000238418579
0.8500000238418579
0.8500000238418579
0.8500000238418579
0.8500000238418579
0.8500000238418579
0.8500000238418579
0.8500000238418579
0.8500000238418579
0.8500000238418579
0.8500000238418579
0.8500000238418579
0.8500000238418579
0.8500000238418579
0.8500000238418579
0.8500000238418579
0.8500000238418579
0.8500000238418579
0.8500000238418579
0.8500000238418579
0.8500000238418579
0.8500000238418579
0.8500000238418579
0.8500000238418579
0.8500000238418579
0.8500000238418579
0.8500000238418579
0.8500000238418579
0.8500000238418579
0.8500000238418579
0.8500000238418579
0.8500000238418579
0.8500000238418579
0.8500000238418579
0.8500000238418579
0.8500000238418579
0.8500000238418579
0.8500000238418579
0.8500000238418579
0.8500000238418579
0.8500000238418579
0.8500000238418579
0.8500000238418579
0.8500000238418579
0.8500000238418579
0.8500000238418579
0.8500000238418579
0.8500000238418579
0.8500000238418579
0.8500000238418579
0.8500000238418579
0.8500000238418579
0.8500000238418579
0.8500000238418579
0.8500000238418579
0.8500000238418579
0.8500000238418579
0.8500000238418579
0.8500000238418579
0.8500000238418579
0.8500000238418579
0.8500000238418579
0.8500000238418579
0.8500000238418579
0.8500000238418579
0.8500000238418579
0.8500000238418579
0.8500000238418579
0.8500000238418579
0.8500000238418579
0.8500000238418579
0.8500000238418579
0.8500000238418579
0.8500000238418579
0.8500000238418579
0.8500000238418579
0.8500000238418579
0.8500000238418579
0.8500000238418579
0.8500000238418579
0.8500000238418579
0.8500000238418579
0.8500000238418579
0.8500000238418579
0.8500000238418579
0.8500000238418579
0.8500000238418579
0.8500000238418579
0.8500000238418579
0.8500000238418579
0.8500000238418579
0.8500000238418579
0.8500000238418579
0.8500000238418579
0.8500000238418579
0.8500000238418579
0.8500000238418579
0.8500000238418579
0.8500000238418579
0.8500000238418579
0.8500000238418579
0.8500000238418579
0.8500000238418579
0.8500000238418579
0.8500000238418579
0.8500000238418579
0.8500000238418579
0.8500000238418579
0.8500000238418579
0.8500000238418579
0.8500000238418579
0.8500000238418579
0.8500000238418579
0.8500000238418579
0.8500000238418579
0.8500000238418579
0.8500000238418579
0.8500000238418579
0.8500000238418579
0.8500000238418579
0.8500000238418579
0.8500000238418579
0.8500000238418579
0.8500000238418579
0.8500000238418579
0.8500000238418579
0.8500000238418579
0.8500000238418579
0.8500000238418579
0.8500000238418579
0.8500000238418579
0.8500000238418579
0.8500000238418579
0.8500000238418579
0.8500000238418579
0.8500000238418579
0.8500000238418579
0.8500000238418579
0.8500000238418579
0.8500000238418579
0.8500000238418579
0.8500000238418579
0.8500000238418579
0.8500000238418579
0.8500000238418579
0.8500000238418579
0.8500000238418579
0.8500000238418579
0.8500000238418579
0.8500000238418579
0.8500000238418579
0.8500000238418579
0.8500000238418579
0.8500000238418579
0.8500000238418579
0.8500000238418579
0.8500000238418579
0.8500000238418579
0.8500000238418579
0.8500000238418579
0.8500000238418579
0.8500000238418579
0.8500000238418579
0.8500000238418579
0.8500000238418579
0.8500000238418579
0.8500000238418579
0.8500000238418579
0.8500000238418579
0.8500000238418579
0.8500000238418579
0.8500000238418579
0.8500000238418579
0.8500000238418579
0.8500000238418579
0.8500000238418579
0.8500000238418579
0.8500000238418579
0.8500000238418579
0.8500000238418579
0.8500000238418579
0.8500000238418579
0.8500000238418579
0.8500000238418579
0.8500000238418579
0.8500000238418579
0.8500000238418579
0.8500000238418579
0.8500000238418579
0.8500000238418579
0.8500000238418579
0.8500000238418579
0.8500000238418579
0.8500000238418579
0.8500000238418579
0.8500000238418579
0.8500000238418579
0.8500000238418579
0.8500000238418579
0.8500000238418579
0.8500000238418579
0.8500000238418579
0.8500000238418579
0.8500000238418579
0.8500000238418579
0.8500000238418579
0.8500000238418579
0.8500000238418579
0.8500000238418579
0.8500000238418579
0.8500000238418579
0.8500000238418579
0.8500000238418579
0.8500000238418579
0.8500000238418579
0.8500000238418579
0.8500000238418579
0.8500000238418579
0.8500000238418579
0.8500000238418579
0.8500000238418579
0.8500000238418579
0.8500000238418579
0.8500000238418579
0.8500000238418579
0.8500000238418579
0.8500000238418579
0.8500000238418579
0.8500000238418579
0.8500000238418579
0.8500000238418579
0.8500000238418579
0.8500000238418579
0.8500000238418579
0.8500000238418579
0.8500000238418579
0.8500000238418579
0.8500000238418579
0.8500000238418579
0.8500000238418579
0.8500000238418579
0.8500000238418579
0.8500000238418579
0.8500000238418579
0.8500000238418579
0.8500000238418579
0.8500000238418579
0.8500000238418579
0.8500000238418579
0.8500000238418579
0.8500000238418579
0.8500000238418579
0.8500000238418579
0.8500000238418579
0.8500000238418579
0.8500000238418579
0.8500000238418579
0.8500000238418579
0.8500000238418579
0.8500000238418579
0.8500000238418579
0.8500000238418579
0.8500000238418579
0.8500000238418579
0.8500000238418579
0.8500000238418579
0.8500000238418579
0.8500000238418579
0.8500000238418579
0.8500000238418579
0.8500000238418579
0.8500000238418579
0.8500000238418579
0.8500000238418579
0.8500000238418579
0.8500000238418579
0.8500000238418579
0.8500000238418579
0.8500000238418579
0.8500000238418579
0.8500000238418579
0.8500000238418579
0.8500000238418579
0.8500000238418579
0.8500000238418579
0.8500000238418579
0.8500000238418579
0.8500000238418579
0.8500000238418579
0.8500000238418579
0.8500000238418579
0.8500000238418579
0.8500000238418579
0.8500000238418579
0.8500000238418579
0.8500000238418579
0.8500000238418579
0.8500000238418579
0.8500000238418579
0.8500000238418579
0.8500000238418579
0.8500000238418579
0.8500000238418579
0.8500000238418579
0.8500000238418579
0.8500000238418579
0.8500000238418579
0.8500000238418579
0.8500000238418579
0.8500000238418579
0.8500000238418579
0.8500000238418579
0.8500000238418579
0.8500000238418579
0.8500000238418579
0.8500000238418579
0.8500000238418579
0.8500000238418579
0.8500000238418579
0.8500000238418579
0.8500000238418579
0.8500000238418579
0.8500000238418579
0.8500000238418579
0.8500000238418579
0.8500000238418579
0.8500000238418579
0.8500000238418579
0.8500000238418579
0.8500000238418579
0.8500000238418579
0.8500000238418579
0.8500000238418579
0.8500000238418579
0.8500000238418579
0.8500000238418579
0.8500000238418579
0.8500000238418579
0.8500000238418579
0.8500000238418579
0.8500000238418579
0.8500000238418579
0.8500000238418579
0.8500000238418579
0.8500000238418579
0.8500000238418579
0.8500000238418579
0.8500000238418579
0.8500000238418579
0.8500000238418579
0.8500000238418579
0.8500000238418579
0.8500000238418579
0.8500000238418579
0.8500000238418579
0.8500000238418579
0.8500000238418579
0.8500000238418579
0.8500000238418579
0.8500000238418579
0.8500000238418579
0.8500000238418579
0.8500000238418579
0.8500000238418579
0.8500000238418579
0.8500000238418579
0.8500000238418579
0.8500000238418579
0.8500000238418579
0.8500000238418579
0.8500000238418579
0.8500000238418579
0.8500000238418579
0.8500000238418579
0.8500000238418579
0.8500000238418579
0.8500000238418579
0.8500000238418579
0.8500000238418579
0.8500000238418579
0.8500000238418579
0.8500000238418579
0.8500000238418579
0.8500000238418579
0.8500000238418579
0.8500000238418579
0.8500000238418579
0.8500000238418579
0.8500000238418579
0.8500000238418579
0.8500000238418579
0.8500000238418579
0.8500000238418579
0.8500000238418579
0.8500000238418579
0.8500000238418579
0.8500000238418579
0.8500000238418579
0.8500000238418579
0.8500000238418579
0.8500000238418579
0.8500000238418579
0.8500000238418579
0.8500000238418579
0.8500000238418579
0.8500000238418579
0.8500000238418579
0.8500000238418579
0.8500000238418579
0.8500000238418579
0.8500000238418579
0.8500000238418579
0.8500000238418579
0.8500000238418579
0.8500000238418579
0.8500000238418579
0.8500000238418579
0.8500000238418579
0.8500000238418579
0.8500000238418579
0.8500000238418579
0.8500000238418579
0.8500000238418579
0.8500000238418579
0.8500000238418579
0.8500000238418579
0.8500000238418579
0.8500000238418579
0.8500000238418579
0.8500000238418579
0.8500000238418579
0.8500000238418579
0.8500000238418579
0.8500000238418579
0.8500000238418579
0.8500000238418579
0.8500000238418579
0.8500000238418579
0.8500000238418579
0.8500000238418579
0.8500000238418579
0.8500000238418579
0.8500000238418579
0.8500000238418579
0.8500000238418579
0.8500000238418579
0.8500000238418579
0.8500000238418579
0.8500000238418579
0.8500000238418579
0.8500000238418579
0.8500000238418579
0.8500000238418579
0.8500000238418579
0.8500000238418579
0.8500000238418579
0.8500000238418579
0.8500000238418579
0.8500000238418579
0.8500000238418579
0.8500000238418579
0.8500000238418579
0.8500000238418579
0.8500000238418579
0.8500000238418579
0.8500000238418579
0.8500000238418579
0.8500000238418579
0.8500000238418579
0.8500000238418579
0.8500000238418579
0.8500000238418579
0.8500000238418579
0.8500000238418579
0.8500000238418579
0.8500000238418579
0.8500000238418579
0.8500000238418579
0.8500000238418579
0.8500000238418579
0.8500000238418579
0.8500000238418579
0.8500000238418579
0.8500000238418579
0.8500000238418579
0.8500000238418579
0.8500000238418579
0.8500000238418579
0.8500000238418579
0.8500000238418579
0.8500000238418579
0.8500000238418579
0.8500000238418579
0.8500000238418579
0.8500000238418579
0.8500000238418579
0.8500000238418579
0.8500000238418579
0.8500000238418579
0.8500000238418579
0.8500000238418579
0.8500000238418579
0.8500000238418579
0.8500000238418579
0.8500000238418579
0.8500000238418579
0.8500000238418579
0.8500000238418579
0.8500000238418579
0.8500000238418579
0.8500000238418579
0.8500000238418579
0.8500000238418579
0.8500000238418579
0.8500000238418579
0.8500000238418579
0.8500000238418579
0.8500000238418579
0.8500000238418579
0.8500000238418579
0.8500000238418579
0.8500000238418579
0.8500000238418579
0.8500000238418579
0.8500000238418579
0.8500000238418579
0.8500000238418579
0.8500000238418579
0.8500000238418579
0.8500000238418579
0.8500000238418579
0.8500000238418579
0.8500000238418579
0.8500000238418579
0.8500000238418579
0.8500000238418579
0.8500000238418579
0.8500000238418579
0.8500000238418579
0.8500000238418579
0.8500000238418579
0.8500000238418579
0.8500000238418579
0.8500000238418579
0.8500000238418579
0.8500000238418579
0.8500000238418579
0.8500000238418579
0.8500000238418579
0.8500000238418579
0.8500000238418579
0.8500000238418579
0.8500000238418579
0.8500000238418579
0.8500000238418579
0.8500000238418579
0.8500000238418579
0.8500000238418579
0.8500000238418579
0.8500000238418579
0.8500000238418579
0.8500000238418579
0.8500000238418579
0.8500000238418579
0.8500000238418579
0.8500000238418579
0.8500000238418579
0.8500000238418579
0.8500000238418579
0.8500000238418579
0.8500000238418579
0.8500000238418579
0.8500000238418579
0.8500000238418579
0.8500000238418579
0.8500000238418579
0.8500000238418579
0.8500000238418579
0.8500000238418579
0.8500000238418579
0.8500000238418579
0.8500000238418579
0.8500000238418579
0.8500000238418579
0.8500000238418579
0.8500000238418579
0.8500000238418579
0.8500000238418579
0.8500000238418579
0.8500000238418579
0.8500000238418579
0.8500000238418579
0.8500000238418579
0.8500000238418579
0.8500000238418579
0.8500000238418579
0.8500000238418579
0.8500000238418579
0.8500000238418579
0.8500000238418579
0.8500000238418579
0.8500000238418579
0.8500000238418579
0.8500000238418579
0.8500000238418579
0.8500000238418579
0.8500000238418579
0.8500000238418579
0.8500000238418579
0.8500000238418579
0.8500000238418579
0.8500000238418579
0.8500000238418579
0.8500000238418579
0.8500000238418579
0.8500000238418579
0.8500000238418579
0.8500000238418579
0.8500000238418579
0.8500000238418579
0.8500000238418579
0.8500000238418579
0.8500000238418579
0.8500000238418579
0.8500000238418579
0.8500000238418579
0.8500000238418579
0.8500000238418579
0.8500000238418579
0.8500000238418579
0.8500000238418579
0.8500000238418579
0.8500000238418579
0.8500000238418579
0.8500000238418579
0.8500000238418579
0.8500000238418579
0.8500000238418579
0.8500000238418579
0.8500000238418579
0.8500000238418579
0.8500000238418579
0.8500000238418579
0.8500000238418579
0.8500000238418579
0.8500000238418579
0.8500000238418579
0.8500000238418579
0.8500000238418579
0.8500000238418579
0.8500000238418579
0.8500000238418579
0.8500000238418579
0.8500000238418579
0.8500000238418579
0.8500000238418579
0.8500000238418579
0.8500000238418579
0.8500000238418579
0.8500000238418579
0.8500000238418579
0.8500000238418579
0.8500000238418579
0.8500000238418579
0.8500000238418579
0.8500000238418579
0.8500000238418579
0.8500000238418579
0.8500000238418579
0.8500000238418579
0.8500000238418579
0.8500000238418579
0.8500000238418579
0.8500000238418579
0.8500000238418579
0.8500000238418579
0.8500000238418579
0.8500000238418579
0.8500000238418579
0.8500000238418579
0.8500000238418579
0.8500000238418579
0.8500000238418579
0.8500000238418579
0.8500000238418579
0.8500000238418579
0.8500000238418579
0.8500000238418579
0.8500000238418579
0.8500000238418579
0.8500000238418579
0.8500000238418579
0.8500000238418579
0.8500000238418579
0.8500000238418579
0.8500000238418579
0.8500000238418579
0.8500000238418579
0.8500000238418579
0.8500000238418579
0.8500000238418579
0.8500000238418579
0.8500000238418579
0.8500000238418579
0.8500000238418579
0.8500000238418579
0.8500000238418579
0.8500000238418579
0.8500000238418579
0.8500000238418579
0.8500000238418579
0.8500000238418579
0.8500000238418579
0.8500000238418579
0.8500000238418579
0.8500000238418579
0.8500000238418579
0.8500000238418579
0.8500000238418579
0.8500000238418579
0.8500000238418579
0.8500000238418579
0.8500000238418579
0.8500000238418579
0.8500000238418579
0.8500000238418579
0.8500000238418579
0.8500000238418579
0.8500000238418579
0.8500000238418579
0.8500000238418579
0.8500000238418579
0.8500000238418579
0.8500000238418579
0.8500000238418579
0.8500000238418579
0.8500000238418579
0.8500000238418579
0.8500000238418579
0.8500000238418579
0.8500000238418579
0.8500000238418579
0.8500000238418579
0.8500000238418579
0.8500000238418579
0.8500000238418579
0.8500000238418579
0.8500000238418579
0.8500000238418579
0.8500000238418579
0.8500000238418579
0.8500000238418579
0.8500000238418579
0.8500000238418579
0.8500000238418579
0.8500000238418579
0.8500000238418579
0.8500000238418579
0.8500000238418579
0.8500000238418579
0.8500000238418579
0.8500000238418579
0.8500000238418579
0.8500000238418579
0.8500000238418579
0.8500000238418579
0.8500000238418579
0.8500000238418579
0.8500000238418579
0.8500000238418579
0.8500000238418579
0.8500000238418579
0.8500000238418579
0.8500000238418579
0.8500000238418579
0.8500000238418579
0.8500000238418579
0.8500000238418579
0.8500000238418579
0.8500000238418579
0.8500000238418579
0.8500000238418579
0.8500000238418579
0.8500000238418579
0.8500000238418579
0.8500000238418579
0.8500000238418579
0.8500000238418579
0.8500000238418579
0.8500000238418579
0.8500000238418579
0.8500000238418579
0.8500000238418579
0.8500000238418579
0.8500000238418579
0.8500000238418579
0.8500000238418579
0.8500000238418579
0.8500000238418579
0.8500000238418579
0.8500000238418579
0.8500000238418579
0.8500000238418579
0.8500000238418579
0.8500000238418579
0.8500000238418579
0.8500000238418579
0.8500000238418579
0.8500000238418579
0.8500000238418579
0.8500000238418579
0.8500000238418579
0.8500000238418579
0.8500000238418579
0.8500000238418579
0.8500000238418579
0.8500000238418579
0.8500000238418579
0.8500000238418579
0.8500000238418579
0.8500000238418579
0.8500000238418579
0.8500000238418579
0.8500000238418579
0.8500000238418579
0.8500000238418579
0.8500000238418579
0.8500000238418579
0.8500000238418579
0.8500000238418579
0.8500000238418579
0.8500000238418579
0.8500000238418579
0.8500000238418579
0.8500000238418579
0.8500000238418579
0.8500000238418579
0.8500000238418579
0.8500000238418579
0.8500000238418579
0.8500000238418579
0.8500000238418579
0.8500000238418579
0.8500000238418579
0.8500000238418579
0.8500000238418579
0.8500000238418579
0.8500000238418579
0.8500000238418579
0.8500000238418579
0.8500000238418579
0.8500000238418579
0.8500000238418579
0.8500000238418579
0.8500000238418579
0.8500000238418579
0.8500000238418579
0.8500000238418579
0.8500000238418579
0.8500000238418579
0.8500000238418579
0.8500000238418579
0.8500000238418579
0.8500000238418579
0.8500000238418579
0.8500000238418579
0.8500000238418579
0.8500000238418579
0.8500000238418579
0.8500000238418579
0.8500000238418579
0.8500000238418579
0.8500000238418579
0.8500000238418579
0.8500000238418579
0.8500000238418579
0.8500000238418579
0.8500000238418579
0.8500000238418579
0.8500000238418579
0.8500000238418579
0.8500000238418579
0.8500000238418579
0.8500000238418579
0.8500000238418579
0.8500000238418579
0.8500000238418579
0.8500000238418579
0.8500000238418579
0.8500000238418579
0.8500000238418579
0.8500000238418579
0.8500000238418579
0.8500000238418579
0.8500000238418579
0.8500000238418579
0.8500000238418579
0.8500000238418579
0.8500000238418579
0.8500000238418579
0.8500000238418579
0.8500000238418579
0.8500000238418579
0.8500000238418579
0.8500000238418579
0.8500000238418579
0.8500000238418579
0.8500000238418579
0.8500000238418579
0.8500000238418579
0.8500000238418579
0.8500000238418579
0.8500000238418579
0.8500000238418579
0.8500000238418579
0.8500000238418579
0.8500000238418579
0.8500000238418579
0.8500000238418579
0.8500000238418579
0.8500000238418579
0.8500000238418579
0.8500000238418579
0.8500000238418579
0.8500000238418579
0.8500000238418579
0.8500000238418579
0.8500000238418579
0.8500000238418579
0.8500000238418579
0.8500000238418579
0.8500000238418579
0.8500000238418579
0.8500000238418579
0.8500000238418579
0.8500000238418579
0.8500000238418579
0.8500000238418579
0.8500000238418579
0.8500000238418579
0.8500000238418579
0.8500000238418579
0.8500000238418579
0.8500000238418579
0.8500000238418579
0.8500000238418579
0.8500000238418579
0.8500000238418579
0.8500000238418579
0.8500000238418579
0.8500000238418579
0.8500000238418579
0.8500000238418579
0.8500000238418579
0.8500000238418579
0.8500000238418579
0.8500000238418579
0.8500000238418579
0.8500000238418579
0.8500000238418579
0.8500000238418579
0.8500000238418579
0.8500000238418579
0.8500000238418579
0.8500000238418579
0.8500000238418579
0.8500000238418579
0.8500000238418579
0.8500000238418579
0.8500000238418579
0.8500000238418579
0.8500000238418579
0.8500000238418579
0.8500000238418579
0.8500000238418579
0.8500000238418579
0.8500000238418579
0.8500000238418579
0.8500000238418579
0.8500000238418579
0.8500000238418579
0.8500000238418579
0.8500000238418579
0.8500000238418579
0.8500000238418579
0.8500000238418579
0.8500000238418579
0.8500000238418579
0.8500000238418579
0.8500000238418579
0.8500000238418579
0.8500000238418579
0.8500000238418579
0.8500000238418579
0.8500000238418579
0.8500000238418579
0.8500000238418579
0.8500000238418579
0.8500000238418579
0.8500000238418579
0.8500000238418579
0.8500000238418579
0.8500000238418579
0.8500000238418579
0.8500000238418579
0.8500000238418579
0.8500000238418579
0.8500000238418579
0.8500000238418579
0.8500000238418579
0.8500000238418579
0.8500000238418579
0.8500000238418579
0.8500000238418579
0.8500000238418579
0.8500000238418579
0.8500000238418579
0.8500000238418579
0.8500000238418579
0.8500000238418579
0.8500000238418579
0.8500000238418579
0.8500000238418579
0.8500000238418579
0.8500000238418579
0.8500000238418579
0.8500000238418579
0.8500000238418579
0.8500000238418579
0.8500000238418579
0.8500000238418579
0.8500000238418579
0.8500000238418579
0.8500000238418579
0.8500000238418579
0.8500000238418579
0.8500000238418579
0.8500000238418579
0.8500000238418579
0.8500000238418579
0.8500000238418579
0.8500000238418579
0.8500000238418579
0.8500000238418579
0.8500000238418579
0.8500000238418579
0.8500000238418579
0.8500000238418579
0.8500000238418579
0.8500000238418579
0.8500000238418579
0.8500000238418579
0.8500000238418579
0.8500000238418579
0.8500000238418579
0.8500000238418579
0.8500000238418579
0.8500000238418579
0.8500000238418579
0.8500000238418579
0.8500000238418579
0.8500000238418579
0.8500000238418579
0.8500000238418579
0.8500000238418579
0.8500000238418579
0.8500000238418579
0.8500000238418579
0.8500000238418579
0.8500000238418579
0.8500000238418579
0.8500000238418579
0.8500000238418579
0.8500000238418579
0.8500000238418579
0.8500000238418579
0.8500000238418579
0.8500000238418579
0.8500000238418579
0.8500000238418579
0.8500000238418579
0.8500000238418579
0.8500000238418579
0.8500000238418579
0.8500000238418579
0.8500000238418579
0.8500000238418579
0.8500000238418579
0.8500000238418579
0.8500000238418579
0.8500000238418579
0.8500000238418579
0.8500000238418579
0.8500000238418579
0.8500000238418579
0.8500000238418579
0.8500000238418579
0.8500000238418579
0.8500000238418579
0.8500000238418579
0.8500000238418579
0.8500000238418579
0.8500000238418579
0.8500000238418579
0.8500000238418579
0.8500000238418579
0.8500000238418579
0.8500000238418579
0.8500000238418579
0.8500000238418579
0.8500000238418579
0.8500000238418579
0.8500000238418579
0.8500000238418579
0.8500000238418579
0.8500000238418579
0.8500000238418579
0.8500000238418579
0.8500000238418579
0.8500000238418579
0.8500000238418579
0.8500000238418579
0.8500000238418579
0.8500000238418579
0.8500000238418579
0.8500000238418579
0.8500000238418579
0.8500000238418579
0.8500000238418579
0.8500000238418579
0.8500000238418579
0.8500000238418579
0.8500000238418579
0.8500000238418579
0.8500000238418579
0.8500000238418579
0.8500000238418579
0.8500000238418579
0.8500000238418579
0.8500000238418579
0.8500000238418579
0.8500000238418579
0.8500000238418579
0.8500000238418579
0.8500000238418579
0.8500000238418579
0.8500000238418579
0.8500000238418579
0.8500000238418579
0.8500000238418579
0.8500000238418579
0.8500000238418579
0.8500000238418579
0.8500000238418579
0.8500000238418579
0.8500000238418579
0.8500000238418579
0.8500000238418579
0.8500000238418579
0.8500000238418579
0.8500000238418579
0.8500000238418579
0.8500000238418579
0.8500000238418579
0.8500000238418579
0.8500000238418579
0.8500000238418579
0.8500000238418579
0.8500000238418579
0.8500000238418579
0.8500000238418579
0.8500000238418579
0.8500000238418579
0.8500000238418579
0.8500000238418579
0.8500000238418579
0.8500000238418579
0.8500000238418579
0.8500000238418579
0.8500000238418579
0.8500000238418579
0.8500000238418579
0.8500000238418579
0.8500000238418579
0.8500000238418579
0.8500000238418579
0.8500000238418579
0.8500000238418579
0.8500000238418579
0.8500000238418579
0.8500000238418579
0.8500000238418579
0.8500000238418579
0.8500000238418579
0.8500000238418579
0.8500000238418579
0.8500000238418579
0.8500000238418579
0.8500000238418579
0.8500000238418579
0.8500000238418579
0.8500000238418579
0.8500000238418579
0.8500000238418579
0.8500000238418579
0.8500000238418579
0.8500000238418579
0.8500000238418579
0.8500000238418579
0.8500000238418579
0.8500000238418579
0.8500000238418579
0.8500000238418579
0.8500000238418579
0.8500000238418579
0.8500000238418579
0.8500000238418579
0.8500000238418579
0.8500000238418579
0.8500000238418579
0.8500000238418579
0.8500000238418579
0.8500000238418579
0.8500000238418579
0.8500000238418579
0.8500000238418579
0.8500000238418579
0.8500000238418579
0.8500000238418579
0.8500000238418579
0.8500000238418579
0.8500000238418579
0.8500000238418579
0.8500000238418579
0.8500000238418579
0.8500000238418579
0.8500000238418579
0.8500000238418579
0.8500000238418579
0.8500000238418579
0.8500000238418579
0.8500000238418579
0.8500000238418579
0.8500000238418579
0.8500000238418579
0.8500000238418579
0.8500000238418579
0.8500000238418579
0.8500000238418579
0.8500000238418579
0.8500000238418579
0.8500000238418579
0.8500000238418579
0.8500000238418579
0.8500000238418579
0.8500000238418579
0.8500000238418579
0.8500000238418579
0.8500000238418579
0.8500000238418579
0.8500000238418579
0.8500000238418579
0.8500000238418579
0.8500000238418579
0.8500000238418579
0.8500000238418579
0.8500000238418579
0.8500000238418579
0.8500000238418579
0.8500000238418579
0.8500000238418579
0.8500000238418579
0.8500000238418579
0.8500000238418579
0.8500000238418579
0.8500000238418579
0.8500000238418579
0.8500000238418579
0.8500000238418579
0.8500000238418579
0.8500000238418579
0.8500000238418579
0.8500000238418579
0.8500000238418579
0.8500000238418579
0.8500000238418579
0.8500000238418579
0.8500000238418579
0.8500000238418579
0.8500000238418579
0.8500000238418579
0.8500000238418579
0.8500000238418579
0.8500000238418579
0.8500000238418579
0.8500000238418579
0.8500000238418579
0.8500000238418579
0.8500000238418579
0.8500000238418579
0.8500000238418579
0.8500000238418579
0.8500000238418579
0.8500000238418579
0.8500000238418579
0.8500000238418579
0.8500000238418579
0.8500000238418579
0.8500000238418579
0.8500000238418579
0.8500000238418579
0.8500000238418579
0.8500000238418579
0.8500000238418579
0.8500000238418579
0.8500000238418579
0.8500000238418579
0.8500000238418579
0.8500000238418579
0.8500000238418579
0.8500000238418579
0.8500000238418579
0.8500000238418579
0.8500000238418579
0.8500000238418579
0.8500000238418579
0.8500000238418579
0.8500000238418579
0.8500000238418579
0.8500000238418579
0.8500000238418579
0.8500000238418579
0.8500000238418579
0.8500000238418579
0.8500000238418579
0.8500000238418579
0.8500000238418579
0.8500000238418579
0.8500000238418579
0.8500000238418579
0.8500000238418579
0.8500000238418579
0.8500000238418579
0.8500000238418579
0.8500000238418579
0.8500000238418579
0.8500000238418579
0.8500000238418579
0.8500000238418579
0.8500000238418579
0.8500000238418579
0.8500000238418579
0.8500000238418579
0.8500000238418579
0.8500000238418579
0.8500000238418579
0.8500000238418579
0.8500000238418579
0.8500000238418579
0.8500000238418579
0.8500000238418579
0.8500000238418579
0.8500000238418579
0.8500000238418579
0.8500000238418579
0.8500000238418579
0.8500000238418579
0.8500000238418579
0.8500000238418579
0.8500000238418579
0.8500000238418579
0.8500000238418579
0.8500000238418579
0.8500000238418579
0.8500000238418579
0.8500000238418579
0.8500000238418579
0.8500000238418579
0.8500000238418579
0.8500000238418579
0.8500000238418579
0.8500000238418579
0.8500000238418579
0.8500000238418579
0.8500000238418579
0.8500000238418579
0.8500000238418579
0.8500000238418579
0.8500000238418579
0.8500000238418579
0.8500000238418579
0.8500000238418579
0.8500000238418579
0.8500000238418579
0.8500000238418579
0.8500000238418579
0.8500000238418579
0.8500000238418579
0.8500000238418579
0.8500000238418579
0.8500000238418579
0.8500000238418579
0.8500000238418579
0.8500000238418579
0.8500000238418579
0.8500000238418579
0.8500000238418579
0.8500000238418579
0.8500000238418579
0.8500000238418579
0.8500000238418579
0.8500000238418579
0.8500000238418579
0.8500000238418579
0.8500000238418579
0.8500000238418579
0.8500000238418579
0.8500000238418579
0.8500000238418579
0.8500000238418579
0.8500000238418579
0.8500000238418579
0.8500000238418579
0.8500000238418579
0.8500000238418579
0.8500000238418579
0.8500000238418579
0.8500000238418579
0.8500000238418579
0.8500000238418579
0.8500000238418579
0.8500000238418579
0.8500000238418579
0.8500000238418579
0.8500000238418579
0.8500000238418579
0.8500000238418579
0.8500000238418579
0.8500000238418579
0.8500000238418579
0.8500000238418579
0.8500000238418579
0.8500000238418579
0.8500000238418579
0.8500000238418579
0.8500000238418579
0.8500000238418579
0.8500000238418579
0.8500000238418579
0.8500000238418579
0.8500000238418579
0.8500000238418579
0.8500000238418579
0.8500000238418579
0.8500000238418579
0.8500000238418579
0.8500000238418579
0.8500000238418579
0.8500000238418579
0.8500000238418579
0.8500000238418579
0.8500000238418579
0.8500000238418579
0.8500000238418579
0.8500000238418579
0.8500000238418579
0.8500000238418579
0.8500000238418579
0.8500000238418579
0.8500000238418579
0.8500000238418579
0.8500000238418579
0.8500000238418579
0.8500000238418579
0.8500000238418579
0.8500000238418579
0.8500000238418579
0.8500000238418579
0.8500000238418579
0.8500000238418579
0.8500000238418579
0.8500000238418579
0.8500000238418579
0.8500000238418579
0.8500000238418579
0.8500000238418579
0.8500000238418579
0.8500000238418579
0.8500000238418579
0.8500000238418579
0.8500000238418579
0.8500000238418579
0.8500000238418579
0.8500000238418579
0.8500000238418579
0.8500000238418579
0.8500000238418579
0.8500000238418579
0.8500000238418579
0.8500000238418579
0.8500000238418579
0.8500000238418579
0.8500000238418579
0.8500000238418579
0.8500000238418579
0.8500000238418579
0.8500000238418579
0.8500000238418579
0.8500000238418579
0.8500000238418579
0.8500000238418579
0.8500000238418579
0.8500000238418579
0.8500000238418579
0.8500000238418579
0.8500000238418579
0.8500000238418579
0.8500000238418579
0.8500000238418579
0.8500000238418579
0.8500000238418579
0.8500000238418579
0.8500000238418579
0.8500000238418579
0.8500000238418579
0.8500000238418579
0.8500000238418579
0.8500000238418579
0.8500000238418579
0.8500000238418579
0.8500000238418579
0.8500000238418579
0.8500000238418579
0.8500000238418579
0.8500000238418579
0.8500000238418579
0.8500000238418579
0.8500000238418579
0.8500000238418579
0.8500000238418579
0.8500000238418579
0.8500000238418579
0.8500000238418579
0.8500000238418579
0.8500000238418579
0.8500000238418579
0.8500000238418579
0.8500000238418579
0.8500000238418579
0.8500000238418579
0.8500000238418579
0.8500000238418579
0.8500000238418579
0.8500000238418579
0.8500000238418579
0.8500000238418579
0.8500000238418579
0.8500000238418579
0.8500000238418579
0.8500000238418579
0.8500000238418579
0.8500000238418579
0.8500000238418579
0.8500000238418579
0.8500000238418579
0.8500000238418579
0.8500000238418579
0.8500000238418579
0.8500000238418579
0.8500000238418579
0.8500000238418579
0.8500000238418579
0.8500000238418579
0.8500000238418579
0.8500000238418579
0.8500000238418579
0.8500000238418579
0.8500000238418579
0.8500000238418579
0.8500000238418579
0.8500000238418579
0.8500000238418579
0.8500000238418579
0.8500000238418579
0.8500000238418579
0.8500000238418579
0.8500000238418579
0.8500000238418579
0.8500000238418579
0.8500000238418579
0.8500000238418579
0.8500000238418579
0.8500000238418579
0.8500000238418579
0.8500000238418579
0.8500000238418579
0.8500000238418579
0.8500000238418579
0.8500000238418579
0.8500000238418579
0.8500000238418579
0.8500000238418579
0.8500000238418579
0.8500000238418579
0.8500000238418579
0.8500000238418579
0.8500000238418579
0.8500000238418579
0.8500000238418579
0.8500000238418579
0.8500000238418579
0.8500000238418579
0.8500000238418579
0.8500000238418579
0.8500000238418579
0.8500000238418579
0.8500000238418579
0.8500000238418579
0.8500000238418579
0.8500000238418579
0.8500000238418579
0.8500000238418579
0.8500000238418579
0.8500000238418579
0.8500000238418579
0.8500000238418579
0.8500000238418579
0.8500000238418579
0.8500000238418579
0.8500000238418579
0.8500000238418579
0.8500000238418579
0.8500000238418579
0.8500000238418579
0.8500000238418579
0.8500000238418579
0.8500000238418579
0.8500000238418579
0.8500000238418579
0.8500000238418579
0.8500000238418579
0.8500000238418579
0.8500000238418579
0.8500000238418579
0.8500000238418579
0.8500000238418579
0.8500000238418579
0.8500000238418579
0.8500000238418579
0.8500000238418579
0.8500000238418579
0.8500000238418579
0.8500000238418579
0.8500000238418579
0.8500000238418579
0.8500000238418579
0.8500000238418579
0.8500000238418579
0.8500000238418579
0.8500000238418579
0.8500000238418579
0.8500000238418579
0.8500000238418579
0.8500000238418579
0.8500000238418579
0.8500000238418579
0.8500000238418579
0.8500000238418579
0.8500000238418579
0.8500000238418579
0.8500000238418579
0.8500000238418579
0.8500000238418579
0.8500000238418579
0.8500000238418579
0.8500000238418579
0.8500000238418579
0.8500000238418579
0.8500000238418579
0.8500000238418579
0.8500000238418579
0.8500000238418579
0.8500000238418579
0.8500000238418579
0.8500000238418579
0.8500000238418579
0.8500000238418579
0.8500000238418579
0.8500000238418579
0.8500000238418579
0.8500000238418579
0.8500000238418579
0.8500000238418579
0.8500000238418579
0.8500000238418579
0.8500000238418579
0.8500000238418579
0.8500000238418579
0.8500000238418579
0.8500000238418579
0.8500000238418579
0.8500000238418579
0.8500000238418579
0.8500000238418579
0.8500000238418579
0.8500000238418579
0.8500000238418579
0.8500000238418579
0.8500000238418579
0.8500000238418579
0.8500000238418579
0.8500000238418579
0.8500000238418579
0.8500000238418579
0.8500000238418579
0.8500000238418579
0.8500000238418579
0.8500000238418579
0.8500000238418579
0.8500000238418579
0.8500000238418579
0.8500000238418579
0.8500000238418579
0.8500000238418579
0.8500000238418579
0.8500000238418579
0.8500000238418579
0.8500000238418579
0.8500000238418579
0.8500000238418579
0.8500000238418579
0.8500000238418579
0.8500000238418579
0.8500000238418579
0.8500000238418579
0.8500000238418579
0.8500000238418579
0.8500000238418579
0.8500000238418579
0.8500000238418579
0.8500000238418579
0.8500000238418579
0.8500000238418579
0.8500000238418579
0.8500000238418579
0.8500000238418579
0.8500000238418579
0.8500000238418579
0.8500000238418579
0.8500000238418579
0.8500000238418579
0.8500000238418579
0.8500000238418579
0.8500000238418579
0.8500000238418579
0.8500000238418579
0.8500000238418579
0.8500000238418579
0.8500000238418579
0.8500000238418579
0.8500000238418579
0.8500000238418579
0.8500000238418579
0.8500000238418579
0.8500000238418579
0.8500000238418579
0.8500000238418579
0.8500000238418579
0.8500000238418579
0.8500000238418579
0.8500000238418579
0.8500000238418579
0.8500000238418579
0.8500000238418579
0.8500000238418579
0.8500000238418579
0.8500000238418579
0.8500000238418579
0.8500000238418579
0.8500000238418579
0.8500000238418579
0.8500000238418579
0.8500000238418579
0.8500000238418579
0.8500000238418579
0.8500000238418579
0.8500000238418579
0.8500000238418579
0.8500000238418579
0.8500000238418579
0.8500000238418579
0.8500000238418579
0.8500000238418579
0.8500000238418579
0.8500000238418579
0.8500000238418579
0.8500000238418579
0.8500000238418579
0.8500000238418579
0.8500000238418579
0.8500000238418579
0.8500000238418579
0.8500000238418579
0.8500000238418579
0.8500000238418579
0.8500000238418579
0.8500000238418579
0.8500000238418579
0.8500000238418579
0.8500000238418579
0.8500000238418579
0.8500000238418579
0.8500000238418579
0.8500000238418579
0.8500000238418579
0.8500000238418579
0.8500000238418579
0.8500000238418579
0.8500000238418579
0.8500000238418579
0.8500000238418579
0.8500000238418579
0.8500000238418579
0.8500000238418579
0.8500000238418579
0.8500000238418579
0.8500000238418579
0.8500000238418579
0.8500000238418579
0.8500000238418579
0.8500000238418579
0.8500000238418579
0.8500000238418579
0.8500000238418579
0.8500000238418579
0.8500000238418579
0.8500000238418579
0.8500000238418579
0.8500000238418579
0.8500000238418579
0.8500000238418579
0.8500000238418579
0.8500000238418579
0.8500000238418579
0.8500000238418579
0.8500000238418579
0.8500000238418579
0.8500000238418579
0.8500000238418579
0.8500000238418579
0.8500000238418579
0.8500000238418579
0.8500000238418579
0.8500000238418579
0.8500000238418579
0.8500000238418579
0.8500000238418579
0.8500000238418579
0.8500000238418579
0.8500000238418579
0.8500000238418579
0.8500000238418579
0.8500000238418579
0.8500000238418579
0.8500000238418579
0.8500000238418579
0.8500000238418579
0.8500000238418579
0.8500000238418579
0.8500000238418579
0.8500000238418579
0.8500000238418579
0.8500000238418579
0.8500000238418579
0.8500000238418579
0.8500000238418579
0.8500000238418579
0.8500000238418579
0.8500000238418579
0.8500000238418579
0.8500000238418579
0.8500000238418579
0.8500000238418579
0.8500000238418579
0.8500000238418579
0.8500000238418579
0.8500000238418579
0.8500000238418579
0.8500000238418579
0.8500000238418579
0.8500000238418579
0.8500000238418579
0.8500000238418579
0.8500000238418579
0.8500000238418579
0.8500000238418579
0.8500000238418579
0.8500000238418579
0.8500000238418579
0.8500000238418579
0.8500000238418579
0.8500000238418579
0.8500000238418579
0.8500000238418579
0.8500000238418579
0.8500000238418579
0.8500000238418579
0.8500000238418579
0.8500000238418579
0.8500000238418579
0.8500000238418579
0.8500000238418579
0.8500000238418579
0.8500000238418579
0.8500000238418579
0.8500000238418579
0.8500000238418579
0.8500000238418579
0.8500000238418579
0.8500000238418579
0.8500000238418579
0.8500000238418579
0.8500000238418579
0.8500000238418579
0.8500000238418579
0.8500000238418579
0.8500000238418579
0.8500000238418579
0.8500000238418579
0.8500000238418579
0.8500000238418579
0.8500000238418579
0.8500000238418579
0.8500000238418579
0.8500000238418579
0.8500000238418579
0.8500000238418579
0.8500000238418579
0.8500000238418579
0.8500000238418579
0.8500000238418579
0.8500000238418579
0.8500000238418579
0.8500000238418579
0.8500000238418579
0.8500000238418579
0.8500000238418579
0.8500000238418579
0.8500000238418579
0.8500000238418579
0.8500000238418579
0.8500000238418579
0.8500000238418579
0.8500000238418579
0.8500000238418579
0.8500000238418579
0.8500000238418579
0.8500000238418579
0.8500000238418579
0.8500000238418579
0.8500000238418579
0.8500000238418579
0.8500000238418579
0.8500000238418579
0.8500000238418579
0.8500000238418579
0.8500000238418579
0.8500000238418579
0.8500000238418579
0.8500000238418579
0.8500000238418579
0.8500000238418579
0.8500000238418579
0.8500000238418579
0.8500000238418579
0.8500000238418579
0.8500000238418579
0.8500000238418579
0.8500000238418579
0.8500000238418579
0.8500000238418579
0.8500000238418579
0.8500000238418579
0.8500000238418579
0.8500000238418579
0.8500000238418579
0.8500000238418579
0.8500000238418579
0.8500000238418579
0.8500000238418579
0.8500000238418579
0.8500000238418579
0.8500000238418579
0.8500000238418579
0.8500000238418579
0.8500000238418579
0.8500000238418579
0.8500000238418579
0.8500000238418579
0.8500000238418579
0.8500000238418579
0.8500000238418579
0.8500000238418579
0.8500000238418579
0.8500000238418579
0.8500000238418579
0.8500000238418579
0.8500000238418579
0.8500000238418579
0.8500000238418579
0.8500000238418579
0.8500000238418579
0.8500000238418579
0.8500000238418579
0.8500000238418579
0.8500000238418579
0.8500000238418579
0.8500000238418579
0.8500000238418579
0.8500000238418579
0.8500000238418579
0.8500000238418579
0.8500000238418579
0.8500000238418579
0.8500000238418579
0.8500000238418579
0.8500000238418579
0.8500000238418579
0.8500000238418579
0.8500000238418579
0.8500000238418579
0.8500000238418579
0.8500000238418579
0.8500000238418579
0.8500000238418579
0.8500000238418579
0.8500000238418579
0.8500000238418579
0.8500000238418579
0.8500000238418579
0.8500000238418579
0.8500000238418579
0.8500000238418579
0.8500000238418579
0.8500000238418579
0.8500000238418579
0.8500000238418579
0.8500000238418579
0.8500000238418579
0.8500000238418579
0.8500000238418579
0.8500000238418579
0.8500000238418579
0.8500000238418579
0.8500000238418579
0.8500000238418579
0.8500000238418579
0.8500000238418579
0.8500000238418579
0.8500000238418579
0.8500000238418579
0.8500000238418579
0.8500000238418579
0.8500000238418579
0.8500000238418579
0.8500000238418579
0.8500000238418579
0.8500000238418579
0.8500000238418579
0.8500000238418579
0.8500000238418579
0.8500000238418579
0.8500000238418579
0.8500000238418579
0.8500000238418579
0.8500000238418579
0.8500000238418579
0.8500000238418579
0.8500000238418579
0.8500000238418579
0.8500000238418579
0.8500000238418579
0.8500000238418579
0.8500000238418579
0.8500000238418579
0.8500000238418579
0.8500000238418579
0.8500000238418579
0.8500000238418579
0.8500000238418579
0.8500000238418579
0.8500000238418579
0.8500000238418579
0.8500000238418579
0.8500000238418579
0.8500000238418579
0.8500000238418579
0.8500000238418579
0.8500000238418579
0.8500000238418579
0.8500000238418579
0.8500000238418579
0.8500000238418579
0.8500000238418579
0.8500000238418579
0.8500000238418579
0.8500000238418579
0.8500000238418579
0.8500000238418579
0.8500000238418579
0.8500000238418579
0.8500000238418579
0.8500000238418579
0.8500000238418579
0.8500000238418579
0.8500000238418579
0.8500000238418579
0.8500000238418579
0.8500000238418579
0.8500000238418579
0.8500000238418579
0.8500000238418579
0.8500000238418579
0.8500000238418579
0.8500000238418579
0.8500000238418579
0.8500000238418579
0.8500000238418579
0.8500000238418579
0.8500000238418579
0.8500000238418579
0.8500000238418579
0.8500000238418579
0.8500000238418579
0.8500000238418579
0.8500000238418579
0.8500000238418579
0.8500000238418579
0.8500000238418579
0.8500000238418579
0.8500000238418579
0.8500000238418579
0.8500000238418579
0.8500000238418579
0.8500000238418579
0.8500000238418579
0.8500000238418579
0.8500000238418579
0.8500000238418579
0.8500000238418579
0.8500000238418579
0.8500000238418579
0.8500000238418579
0.8500000238418579
0.8500000238418579
0.8500000238418579
0.8500000238418579
0.8500000238418579
0.8500000238418579
0.8500000238418579
0.8500000238418579
0.8500000238418579
0.8500000238418579
0.8500000238418579
0.8500000238418579
0.8500000238418579
0.8500000238418579
0.8500000238418579
0.8500000238418579
0.8500000238418579
0.8500000238418579
0.8500000238418579
0.8500000238418579
0.8500000238418579
0.8500000238418579
0.8500000238418579
0.8500000238418579
0.8500000238418579
0.8500000238418579
0.8500000238418579
0.8500000238418579
0.8500000238418579
0.8500000238418579
0.8500000238418579
0.8500000238418579
0.8500000238418579
0.8500000238418579
0.8500000238418579
0.8500000238418579
0.8500000238418579
0.8500000238418579
0.8500000238418579
0.8500000238418579
0.8500000238418579
0.8500000238418579
0.8500000238418579
0.8500000238418579
0.8500000238418579
0.8500000238418579
0.8500000238418579
0.8500000238418579
0.8500000238418579
0.8500000238418579
0.8500000238418579
0.8500000238418579
0.8500000238418579
0.8500000238418579
0.8500000238418579
0.8500000238418579
0.8500000238418579
0.8500000238418579
0.8500000238418579
0.8500000238418579
0.8500000238418579
0.8500000238418579
0.8500000238418579
0.8500000238418579
0.8500000238418579
0.8500000238418579
0.8500000238418579
0.8500000238418579
0.8500000238418579
0.8500000238418579
0.8500000238418579
0.8500000238418579
0.8500000238418579
0.8500000238418579
0.8500000238418579
0.8500000238418579
0.8500000238418579
0.8500000238418579
0.8500000238418579
0.8500000238418579
0.8500000238418579
0.8500000238418579
0.8500000238418579
0.8500000238418579
0.8500000238418579
0.8500000238418579
0.8500000238418579
0.8500000238418579
0.8500000238418579
0.8500000238418579
0.8500000238418579
0.8500000238418579
0.8500000238418579
0.8500000238418579
0.8500000238418579
0.8500000238418579
0.8500000238418579
0.8500000238418579
0.8500000238418579
0.8500000238418579
0.8500000238418579
0.8500000238418579
0.8500000238418579
0.8500000238418579
0.8500000238418579
0.8500000238418579
0.8500000238418579
0.8500000238418579
0.8500000238418579
0.8500000238418579
0.8500000238418579
0.8500000238418579
0.8500000238418579
0.8500000238418579
0.8500000238418579
0.8500000238418579
0.8500000238418579
0.8500000238418579
0.8500000238418579
0.8500000238418579
0.8500000238418579
0.8500000238418579
0.8500000238418579
0.8500000238418579
0.8500000238418579
0.8500000238418579
0.8500000238418579
0.8500000238418579
0.8500000238418579
0.8500000238418579
0.8500000238418579
0.8500000238418579
0.8500000238418579
0.8500000238418579
0.8500000238418579
0.8500000238418579
0.8500000238418579
0.8500000238418579
0.8500000238418579
0.8500000238418579
0.8500000238418579
0.8500000238418579
0.8500000238418579
0.8500000238418579
0.8500000238418579
0.8500000238418579
0.8500000238418579
0.8500000238418579
0.8500000238418579
0.8500000238418579
0.8500000238418579
0.8500000238418579
0.8500000238418579
0.8500000238418579
0.8500000238418579
0.8500000238418579
0.8500000238418579
0.8500000238418579
0.8500000238418579
0.8500000238418579
0.8500000238418579
0.8500000238418579
0.8500000238418579
0.8500000238418579
0.8500000238418579
0.8500000238418579
0.8500000238418579
0.8500000238418579
0.8500000238418579
0.8500000238418579
0.8500000238418579
0.8500000238418579
0.8500000238418579
0.8500000238418579
0.8500000238418579
0.8500000238418579
0.8500000238418579
0.8500000238418579
0.8500000238418579
0.8500000238418579
0.8500000238418579
0.8500000238418579
0.8500000238418579
0.8500000238418579
0.8500000238418579
0.8500000238418579
0.8500000238418579
0.8500000238418579
0.8500000238418579
0.8500000238418579
0.8500000238418579
0.8500000238418579
0.8500000238418579
0.8500000238418579
0.8500000238418579
0.8500000238418579
0.8500000238418579
0.8500000238418579
0.8500000238418579
0.8500000238418579
0.8500000238418579
0.8500000238418579
0.8500000238418579
0.8500000238418579
0.8500000238418579
0.8500000238418579
0.8500000238418579
0.8500000238418579
0.8500000238418579
0.8500000238418579
0.8500000238418579
0.8500000238418579
0.8500000238418579
0.8500000238418579
0.8500000238418579
0.8500000238418579
0.8500000238418579
0.8500000238418579
0.8500000238418579
0.8500000238418579
0.8500000238418579
0.8500000238418579
0.8500000238418579
0.8500000238418579
0.8500000238418579
0.8500000238418579
0.8500000238418579
0.8500000238418579
0.8500000238418579
0.8500000238418579
0.8500000238418579
0.8500000238418579
0.8500000238418579
0.8500000238418579
0.8500000238418579
0.8500000238418579
0.8500000238418579
0.8500000238418579
0.8500000238418579
0.8500000238418579
0.8500000238418579
0.8500000238418579
0.8500000238418579
0.8500000238418579
0.8500000238418579
0.8500000238418579
0.8500000238418579
0.8500000238418579
0.8500000238418579
0.8500000238418579
0.8500000238418579
0.8500000238418579
0.8500000238418579
0.8500000238418579
0.8500000238418579
0.8500000238418579
0.8500000238418579
0.8500000238418579
0.8500000238418579
0.8500000238418579
0.8500000238418579
0.8500000238418579
0.8500000238418579
0.8500000238418579
0.8500000238418579
0.8500000238418579
0.8500000238418579
0.8500000238418579
0.8500000238418579
0.8500000238418579
0.8500000238418579
0.8500000238418579
0.8500000238418579
0.8500000238418579
0.8500000238418579
0.8500000238418579
0.8500000238418579
0.8500000238418579
0.8500000238418579
0.8500000238418579
0.8500000238418579
0.8500000238418579
0.8500000238418579
0.8500000238418579
0.8500000238418579
0.8500000238418579
0.8500000238418579
0.8500000238418579
0.8500000238418579
0.8500000238418579
0.8500000238418579
0.8500000238418579
0.8500000238418579
0.8500000238418579
0.8500000238418579
0.8500000238418579
0.8500000238418579
0.8500000238418579
0.8500000238418579
0.8500000238418579
0.8500000238418579
0.8500000238418579
0.8500000238418579
0.8500000238418579
0.8500000238418579
0.8500000238418579
0.8500000238418579
0.8500000238418579
0.8500000238418579
0.8500000238418579
0.8500000238418579
0.8500000238418579
0.8500000238418579
0.8500000238418579
0.8500000238418579
0.8500000238418579
0.8500000238418579
0.8500000238418579
0.8500000238418579
0.8500000238418579
0.8500000238418579
0.8500000238418579
0.8500000238418579
0.8500000238418579
0.8500000238418579
0.8500000238418579
0.8500000238418579
0.8500000238418579
0.8500000238418579
0.8500000238418579
0.8500000238418579
0.8500000238418579
0.8500000238418579
0.8500000238418579
0.8500000238418579
0.8500000238418579
0.8500000238418579
0.8500000238418579
0.8500000238418579
0.8500000238418579
0.8500000238418579
0.8500000238418579
0.8500000238418579
0.8500000238418579
0.8500000238418579
0.8500000238418579
0.8500000238418579
0.8500000238418579
0.8500000238418579
0.8500000238418579
0.8500000238418579
0.8500000238418579
0.8500000238418579
0.8500000238418579
0.8500000238418579
0.8500000238418579
0.8500000238418579
0.8500000238418579
0.8500000238418579
0.8500000238418579
0.8500000238418579
0.8500000238418579
0.8500000238418579
0.8500000238418579
0.8500000238418579
0.8500000238418579
0.8500000238418579
0.8500000238418579
0.8500000238418579
0.8500000238418579
0.8500000238418579
0.8500000238418579
0.8500000238418579
0.8500000238418579
0.8500000238418579
0.8500000238418579
0.8500000238418579
0.8500000238418579
0.8500000238418579
0.8500000238418579
0.8500000238418579
0.8500000238418579
0.8500000238418579
0.8500000238418579
0.8500000238418579
0.8500000238418579
0.8500000238418579
0.8500000238418579
0.8500000238418579
0.8500000238418579
0.8500000238418579
0.8500000238418579
0.8500000238418579
0.8500000238418579
0.8500000238418579
0.8500000238418579
0.8500000238418579
0.8500000238418579
0.8500000238418579
0.8500000238418579
0.8500000238418579
0.8500000238418579
0.8500000238418579
0.8500000238418579
0.8500000238418579
0.8500000238418579
0.8500000238418579
0.8500000238418579
0.8500000238418579
0.8500000238418579
0.8500000238418579
0.8500000238418579
0.8500000238418579
0.8500000238418579
0.8500000238418579
0.8500000238418579
0.8500000238418579
0.8500000238418579
0.8500000238418579
0.8500000238418579
0.8500000238418579
0.8500000238418579
0.8500000238418579
0.8500000238418579
0.8500000238418579
0.8500000238418579
0.8500000238418579
0.8500000238418579
0.8500000238418579
0.8500000238418579
0.8500000238418579
0.8500000238418579
0.8500000238418579
0.8500000238418579
0.8500000238418579
0.8500000238418579
0.8500000238418579
0.8500000238418579
0.8500000238418579
0.8500000238418579
0.8500000238418579
0.8500000238418579
0.8500000238418579
0.8500000238418579
0.8500000238418579
0.8500000238418579
0.8500000238418579
0.8500000238418579
0.8500000238418579
0.8500000238418579
0.8500000238418579
0.8500000238418579
0.8500000238418579
0.8500000238418579
0.8500000238418579
0.8500000238418579
0.8500000238418579
0.8500000238418579
0.8500000238418579
0.8500000238418579
0.8500000238418579
0.8500000238418579
0.8500000238418579
0.8500000238418579
0.8500000238418579
0.8500000238418579
0.8500000238418579
0.8500000238418579
0.8500000238418579
0.8500000238418579
0.8500000238418579
0.8500000238418579
0.8500000238418579
0.8500000238418579
0.8500000238418579
0.8500000238418579
0.8500000238418579
0.8500000238418579
0.8500000238418579
0.8500000238418579
0.8500000238418579
0.8500000238418579
0.8500000238418579
0.8500000238418579
0.8500000238418579
0.8500000238418579
0.8500000238418579
0.8500000238418579
0.8500000238418579
0.8500000238418579
0.8500000238418579
0.8500000238418579
0.8500000238418579
0.8500000238418579
0.8500000238418579
0.8500000238418579
0.8500000238418579
0.8500000238418579
0.8500000238418579
0.8500000238418579
0.8500000238418579
0.8500000238418579
0.8500000238418579
0.8500000238418579
0.8500000238418579
0.8500000238418579
0.8500000238418579
0.8500000238418579
0.8500000238418579
0.8500000238418579
0.8500000238418579
0.8500000238418579
0.8500000238418579
0.8500000238418579
0.8500000238418579
0.8500000238418579
0.8500000238418579
0.8500000238418579
0.8500000238418579
0.8500000238418579
0.8500000238418579
0.8500000238418579
0.8500000238418579
0.8500000238418579
0.8500000238418579
0.8500000238418579
0.8500000238418579
0.8500000238418579
0.8500000238418579
0.8500000238418579
0.8500000238418579
0.8500000238418579
0.8500000238418579
0.8500000238418579
0.8500000238418579
0.8500000238418579
0.8500000238418579
0.8500000238418579
0.8500000238418579
0.8500000238418579
0.8500000238418579
0.8500000238418579
0.8500000238418579
0.8500000238418579
0.8500000238418579
0.8500000238418579
0.8500000238418579
0.8500000238418579
0.8500000238418579
0.8500000238418579
0.8500000238418579
0.8500000238418579
0.8500000238418579
0.8500000238418579
0.8500000238418579
0.8500000238418579
0.8500000238418579
0.8500000238418579
0.8500000238418579
0.8500000238418579
0.8500000238418579
0.8500000238418579
0.8500000238418579
0.8500000238418579
0.8500000238418579
0.8500000238418579
0.8500000238418579
0.8500000238418579
0.8500000238418579
0.8500000238418579
0.8500000238418579
0.8500000238418579
0.8500000238418579
0.8500000238418579
0.8500000238418579
0.8500000238418579
0.8500000238418579
0.8500000238418579
0.8500000238418579
0.8500000238418579
0.8500000238418579
0.8500000238418579
0.8500000238418579
0.8500000238418579
0.8500000238418579
0.8500000238418579
0.8500000238418579
0.8500000238418579
0.8500000238418579
0.8500000238418579
0.8500000238418579
0.8500000238418579
0.8500000238418579
0.8500000238418579
0.8500000238418579
0.8500000238418579
0.8500000238418579
0.8500000238418579
0.8500000238418579
0.8500000238418579
0.8500000238418579
0.8500000238418579
0.8500000238418579
0.8500000238418579
0.8500000238418579
0.8500000238418579
0.8500000238418579
0.8500000238418579
0.8500000238418579
0.8500000238418579
0.8500000238418579
0.8500000238418579
0.8500000238418579
0.8500000238418579
0.8500000238418579
0.8500000238418579
0.8500000238418579
0.8500000238418579
0.8500000238418579
0.8500000238418579
0.8500000238418579
0.8500000238418579
0.8500000238418579
0.8500000238418579
0.8500000238418579
0.8500000238418579
0.8500000238418579
0.8500000238418579
0.8500000238418579
0.8500000238418579
0.8500000238418579
0.8500000238418579
0.8500000238418579
0.8500000238418579
0.8500000238418579
0.8500000238418579
0.8500000238418579
0.8500000238418579
0.8500000238418579
0.8500000238418579
0.8500000238418579
0.8500000238418579
0.8500000238418579
0.8500000238418579
0.8500000238418579
0.8500000238418579
0.8500000238418579
0.8500000238418579
0.8500000238418579
0.8500000238418579
0.8500000238418579
0.8500000238418579
0.8500000238418579
0.8500000238418579
0.8500000238418579
0.8500000238418579
0.8500000238418579
0.8500000238418579
0.8500000238418579
0.8500000238418579
0.8500000238418579
0.8500000238418579
0.8500000238418579
0.8500000238418579
0.8500000238418579
0.8500000238418579
0.8500000238418579
0.8500000238418579
0.8500000238418579
0.8500000238418579
0.8500000238418579
0.8500000238418579
0.8500000238418579
0.8500000238418579
0.8500000238418579
0.8500000238418579
0.8500000238418579
0.8500000238418579
0.8500000238418579
0.8500000238418579
0.8500000238418579
0.8500000238418579
0.8500000238418579
0.8500000238418579
0.8500000238418579
0.8500000238418579
0.8500000238418579
0.8500000238418579
0.8500000238418579
0.8500000238418579
0.8500000238418579
0.8500000238418579
0.8500000238418579
0.8500000238418579
0.8500000238418579
0.8500000238418579
0.8500000238418579
0.8500000238418579
0.8500000238418579
0.8500000238418579
0.8500000238418579
0.8500000238418579
0.8500000238418579
0.8500000238418579
0.8500000238418579
0.8500000238418579
0.8500000238418579
0.8500000238418579
0.8500000238418579
0.8500000238418579
0.8500000238418579
0.8500000238418579
0.8500000238418579
0.8500000238418579
0.8500000238418579
0.8500000238418579
0.8500000238418579
0.8500000238418579
0.8500000238418579
0.8500000238418579
0.8500000238418579
0.8500000238418579
0.8500000238418579
0.8500000238418579
0.8500000238418579
0.8500000238418579
0.8500000238418579
0.8500000238418579
0.8500000238418579
0.8500000238418579
0.8500000238418579
0.8500000238418579
0.8500000238418579
0.8500000238418579
0.8500000238418579
0.8500000238418579
0.8500000238418579
0.8500000238418579
0.8500000238418579
0.8500000238418579
0.8500000238418579
0.8500000238418579
0.8500000238418579
0.8500000238418579
0.8500000238418579
0.8500000238418579
0.8500000238418579
0.8500000238418579
0.8500000238418579
0.8500000238418579
0.8500000238418579
0.8500000238418579
0.8500000238418579
0.8500000238418579
0.8500000238418579
0.8500000238418579
0.8500000238418579
0.8500000238418579
0.8500000238418579
0.8500000238418579
0.8500000238418579
0.8500000238418579
0.8500000238418579
0.8500000238418579
0.8500000238418579
0.8500000238418579
0.8500000238418579
0.8500000238418579
0.8500000238418579
0.8500000238418579
0.8500000238418579
0.8500000238418579
0.8500000238418579
0.8500000238418579
0.8500000238418579
0.8500000238418579
0.8500000238418579
0.8500000238418579
0.8500000238418579
0.8500000238418579
0.8500000238418579
0.8500000238418579
0.8500000238418579
0.8500000238418579
0.8500000238418579
0.8500000238418579
0.8500000238418579
0.8500000238418579
0.8500000238418579
0.8500000238418579
0.8500000238418579
0.8500000238418579
0.8500000238418579
0.8500000238418579
0.8500000238418579
0.8500000238418579
0.8500000238418579
0.8500000238418579
0.8500000238418579
0.8500000238418579
0.8500000238418579
0.8500000238418579
0.8500000238418579
0.8500000238418579
0.8500000238418579
0.8500000238418579
0.8500000238418579
0.8500000238418579
0.8500000238418579
0.8500000238418579
0.8500000238418579
0.8500000238418579
0.8500000238418579
0.8500000238418579
0.8500000238418579
0.8500000238418579
0.8500000238418579
0.8500000238418579
0.8500000238418579
0.8500000238418579
0.8500000238418579
0.8500000238418579
0.8500000238418579
0.8500000238418579
0.8500000238418579
0.8500000238418579
0.8500000238418579
0.8500000238418579
0.8500000238418579
0.8500000238418579
0.8500000238418579
0.8500000238418579
0.8500000238418579
0.8500000238418579
0.8500000238418579
0.8500000238418579
0.8500000238418579
0.8500000238418579
0.8500000238418579
0.8500000238418579
0.8500000238418579
0.8500000238418579
0.8500000238418579
0.8500000238418579
0.8500000238418579
0.8500000238418579
0.8500000238418579
0.8500000238418579
0.8500000238418579
0.8500000238418579
0.8500000238418579
0.8500000238418579
0.8500000238418579
0.8500000238418579
0.8500000238418579
0.8500000238418579
0.8500000238418579
0.8500000238418579
0.8500000238418579
0.8500000238418579
0.8500000238418579
0.8500000238418579
0.8500000238418579
0.8500000238418579
0.8500000238418579
0.8500000238418579
0.8500000238418579
0.8500000238418579
0.8500000238418579
0.8500000238418579
0.8500000238418579
0.8500000238418579
0.8500000238418579
0.8500000238418579
0.8500000238418579
0.8500000238418579
0.8500000238418579
0.8500000238418579
0.8500000238418579
0.8500000238418579
0.8500000238418579
0.8500000238418579
0.8500000238418579
0.8500000238418579
0.8500000238418579
0.8500000238418579
0.8500000238418579
0.8500000238418579
0.8500000238418579
0.8500000238418579
0.8500000238418579
0.8500000238418579
0.8500000238418579
0.8500000238418579
0.8500000238418579
0.8500000238418579
0.8500000238418579
0.8500000238418579
0.8500000238418579
0.8500000238418579
0.8500000238418579
0.8500000238418579
0.8500000238418579
0.8500000238418579
0.8500000238418579
0.8500000238418579
0.8500000238418579
0.8500000238418579
0.8500000238418579
0.8500000238418579
0.8500000238418579
0.8500000238418579
0.8500000238418579
0.8500000238418579
0.8500000238418579
0.8500000238418579
0.8500000238418579
0.8500000238418579
0.8500000238418579
0.8500000238418579
0.8500000238418579
0.8500000238418579
0.8500000238418579
0.8500000238418579
0.8500000238418579
0.8500000238418579
0.8500000238418579
0.8500000238418579
0.8500000238418579
0.8500000238418579
0.8500000238418579
0.8500000238418579
0.8500000238418579
0.8500000238418579
0.8500000238418579
0.8500000238418579
0.8500000238418579
0.8500000238418579
0.8500000238418579
0.8500000238418579
0.8500000238418579
0.8500000238418579
0.8500000238418579
0.8500000238418579
0.8500000238418579
0.8500000238418579
0.8500000238418579
0.8500000238418579
0.8500000238418579
0.8500000238418579
0.8500000238418579
0.8500000238418579
0.8500000238418579
0.8500000238418579
0.8500000238418579
0.8500000238418579
0.8500000238418579
0.8500000238418579
0.8500000238418579
0.8500000238418579
0.8500000238418579
0.8500000238418579
0.8500000238418579
0.8500000238418579
0.8500000238418579
0.8500000238418579
0.8500000238418579
0.8500000238418579
0.8500000238418579
0.8500000238418579
0.8500000238418579
0.8500000238418579
0.8500000238418579
0.8500000238418579
0.8500000238418579
0.8500000238418579
0.8500000238418579
0.8500000238418579
0.8500000238418579
0.8500000238418579
0.8500000238418579
0.8500000238418579
0.8500000238418579
0.8500000238418579
0.8500000238418579
0.8500000238418579
0.8500000238418579
0.8500000238418579
0.8500000238418579
0.8500000238418579
0.8500000238418579
0.8500000238418579
0.8500000238418579
0.8500000238418579
0.8500000238418579
0.8500000238418579
0.8500000238418579
0.8500000238418579
0.8500000238418579
0.8500000238418579
0.8500000238418579
0.8500000238418579
0.8500000238418579
0.8500000238418579
0.8500000238418579
0.8500000238418579
0.8500000238418579
0.8500000238418579
0.8500000238418579
0.8500000238418579
0.8500000238418579
0.8500000238418579
0.8500000238418579
0.8500000238418579
0.8500000238418579
0.8500000238418579
0.8500000238418579
0.8500000238418579
0.8500000238418579
0.8500000238418579
0.8500000238418579
0.8500000238418579
0.8500000238418579
0.8500000238418579
0.8500000238418579
0.8500000238418579
0.8500000238418579
0.8500000238418579
0.8500000238418579
0.8500000238418579
0.8500000238418579
0.8500000238418579
0.8500000238418579
0.8500000238418579
0.8500000238418579
0.8500000238418579
0.8500000238418579
0.8500000238418579
0.8500000238418579
0.8500000238418579
0.8500000238418579
0.8500000238418579
0.8500000238418579
0.8500000238418579
0.8500000238418579
0.8500000238418579
0.8500000238418579
0.8500000238418579
0.8500000238418579
0.8500000238418579
0.8500000238418579
0.8500000238418579
0.8500000238418579
0.8500000238418579
0.8500000238418579
0.8500000238418579
0.8500000238418579
0.8500000238418579
0.8500000238418579
0.8500000238418579
0.8500000238418579
0.8500000238418579
0.8500000238418579
0.8500000238418579
0.8500000238418579
0.8500000238418579
0.8500000238418579
0.8500000238418579
0.8500000238418579
0.8500000238418579
0.8500000238418579
0.8500000238418579
0.8500000238418579
0.8500000238418579
0.8500000238418579
0.8500000238418579
0.8500000238418579
0.8500000238418579
0.8500000238418579
0.8500000238418579
0.8500000238418579
0.8500000238418579
0.8500000238418579
0.8500000238418579
0.8500000238418579
0.8500000238418579
0.8500000238418579
0.8500000238418579
0.8500000238418579
0.8500000238418579
0.8500000238418579
0.8500000238418579
0.8500000238418579
0.8500000238418579
0.8500000238418579
0.8500000238418579
0.8500000238418579
0.8500000238418579
0.8500000238418579
0.8500000238418579
0.8500000238418579
0.8500000238418579
0.8500000238418579
0.8500000238418579
0.8500000238418579
0.8500000238418579
0.8500000238418579
0.8500000238418579
0.8500000238418579
0.8500000238418579
0.8500000238418579
0.8500000238418579
0.8500000238418579
0.8500000238418579
0.8500000238418579
0.8500000238418579
0.8500000238418579
0.8500000238418579
0.8500000238418579
0.8500000238418579
0.8500000238418579
0.8500000238418579
0.8500000238418579
0.8500000238418579
0.8500000238418579
0.8500000238418579
0.8500000238418579
0.8500000238418579
0.8500000238418579
0.8500000238418579
0.8500000238418579
0.8500000238418579
0.8500000238418579
0.8500000238418579
0.8500000238418579
0.8500000238418579
0.8500000238418579
0.8500000238418579
0.8500000238418579
0.8500000238418579
0.8500000238418579
0.8500000238418579
0.8500000238418579
0.8500000238418579
0.8500000238418579
0.8500000238418579
0.8500000238418579
0.8500000238418579
0.8500000238418579
0.8500000238418579
0.8500000238418579
0.8500000238418579
0.8500000238418579
0.8500000238418579
0.8500000238418579
0.8500000238418579
0.8500000238418579
0.8500000238418579
0.8500000238418579
0.8500000238418579
0.8500000238418579
0.8500000238418579
0.8500000238418579
0.8500000238418579
0.8500000238418579
0.8500000238418579
0.8500000238418579
0.8500000238418579
0.8500000238418579
0.8500000238418579
0.8500000238418579
0.8500000238418579
0.8500000238418579
0.8500000238418579
0.8500000238418579
0.8500000238418579
0.8500000238418579
0.8500000238418579
0.8500000238418579
0.8500000238418579
0.8500000238418579
0.8500000238418579
0.8500000238418579
0.8500000238418579
0.8500000238418579
0.8500000238418579
0.8500000238418579
0.8500000238418579
0.8500000238418579
0.8500000238418579
0.8500000238418579
0.8500000238418579
0.8500000238418579
0.8500000238418579
0.8500000238418579
0.8500000238418579
0.8500000238418579
0.8500000238418579
0.8500000238418579
0.8500000238418579
0.8500000238418579
0.8500000238418579
0.8500000238418579
0.8500000238418579
0.8500000238418579
0.8500000238418579
0.8500000238418579
0.8500000238418579
0.8500000238418579
0.8500000238418579
0.8500000238418579
0.8500000238418579
0.8500000238418579
0.8500000238418579
0.8500000238418579
0.8500000238418579
0.8500000238418579
0.8500000238418579
0.8500000238418579
0.8500000238418579
0.8500000238418579
0.8500000238418579
0.8500000238418579
0.8500000238418579
0.8500000238418579
0.8500000238418579
0.8500000238418579
0.8500000238418579
0.8500000238418579
0.8500000238418579
0.8500000238418579
0.8500000238418579
0.8500000238418579
0.8500000238418579
0.8500000238418579
0.8500000238418579
0.8500000238418579
0.8500000238418579
0.8500000238418579
0.8500000238418579
0.8500000238418579
0.8500000238418579
0.8500000238418579
0.8500000238418579
0.8500000238418579
0.8500000238418579
0.8500000238418579
0.8500000238418579
0.8500000238418579
0.8500000238418579
0.8500000238418579
0.8500000238418579
0.8500000238418579
0.8500000238418579
0.8500000238418579
0.8500000238418579
0.8500000238418579
0.8500000238418579
0.8500000238418579
0.8500000238418579
0.8500000238418579
0.8500000238418579
0.8500000238418579
0.8500000238418579
0.8500000238418579
0.8500000238418579
0.8500000238418579
0.8500000238418579
0.8500000238418579
0.8500000238418579
0.8500000238418579
0.8500000238418579
0.8500000238418579
0.8500000238418579
0.8500000238418579
0.8500000238418579
0.8500000238418579
0.8500000238418579
0.8500000238418579
0.8500000238418579
0.8500000238418579
0.8500000238418579
0.8500000238418579
0.8500000238418579
0.8500000238418579
0.8500000238418579
0.8500000238418579
0.8500000238418579
0.8500000238418579
0.8500000238418579
0.8500000238418579
0.8500000238418579
0.8500000238418579
0.8500000238418579
0.8500000238418579
0.8500000238418579
0.8500000238418579
0.8500000238418579
0.8500000238418579
0.8500000238418579
0.8500000238418579
0.8500000238418579
0.8500000238418579
0.8500000238418579
0.8500000238418579
0.8500000238418579
0.8500000238418579
0.8500000238418579
0.8500000238418579
0.8500000238418579
0.8500000238418579
0.8500000238418579
0.8500000238418579
0.8500000238418579
0.8500000238418579
0.8500000238418579
0.8500000238418579
0.8500000238418579
0.8500000238418579
0.8500000238418579
0.8500000238418579
0.8500000238418579
0.8500000238418579
0.8500000238418579
0.8500000238418579
0.8500000238418579
0.8500000238418579
0.8500000238418579
0.8500000238418579
0.8500000238418579
0.8500000238418579
0.8500000238418579
0.8500000238418579
0.8500000238418579
0.8500000238418579
0.8500000238418579
0.8500000238418579
0.8500000238418579
0.8500000238418579
0.8500000238418579
0.8500000238418579
0.8500000238418579
0.8500000238418579
0.8500000238418579
0.8500000238418579
0.8500000238418579
0.8500000238418579
0.8500000238418579
0.8500000238418579
0.8500000238418579
0.8500000238418579
0.8500000238418579
0.8500000238418579
0.8500000238418579
0.8500000238418579
0.8500000238418579
0.8500000238418579
0.8500000238418579
0.8500000238418579
0.8500000238418579
0.8500000238418579
0.8500000238418579
0.8500000238418579
0.8500000238418579
0.8500000238418579
0.8500000238418579
0.8500000238418579
0.8500000238418579
0.8500000238418579
0.8500000238418579
0.8500000238418579
0.8500000238418579
0.8500000238418579
0.8500000238418579
0.8500000238418579
0.8500000238418579
0.8500000238418579
0.8500000238418579
0.8500000238418579
0.8500000238418579
0.8500000238418579
0.8500000238418579
0.8500000238418579
0.8500000238418579
0.8500000238418579
0.8500000238418579
0.8500000238418579
0.8500000238418579
0.8500000238418579
0.8500000238418579
0.8500000238418579
0.8500000238418579
0.8500000238418579
0.8500000238418579
0.8500000238418579
0.8500000238418579
0.8500000238418579
0.8500000238418579
0.8500000238418579
0.8500000238418579
0.8500000238418579
0.8500000238418579
0.8500000238418579
0.8500000238418579
0.8500000238418579
0.8500000238418579
0.8500000238418579
0.8500000238418579
0.8500000238418579
0.8500000238418579
0.8500000238418579
0.8500000238418579
0.8500000238418579
0.8500000238418579
0.8500000238418579
0.8500000238418579
0.8500000238418579
0.8500000238418579
0.8500000238418579
0.8500000238418579
0.8500000238418579
0.8500000238418579
0.8500000238418579
0.8500000238418579
0.8500000238418579

