# vtk DataFile Version 3.0
File written by membrane-model
ASCII
DATASET UNSTRUCTURED_GRID
POINTS 4992 float
9.1633949279785156 -0.0535474009811878 0.0000000000000000
0.9111009240150452 -0.0299694184213877 0.0000000000000000
0.2744954228401184 0.4180122315883636 0.0000000000000000
0.0622935779392719 1.0310397148132324 0.0000000000000000
0.0387155972421169 1.9034250974655151 0.0000000000000000
0.2509174346923828 2.6579205989837646 0.0000000000000000
0.0858715623617172 3.2945261001586914 0.0000000000000000
0.1801834851503372 5.9824156761169434 0.0000000000000000
-0.0555963292717934 6.2181959152221680 0.0000000000000000
-0.0555963292717934 6.5718655586242676 0.0000000000000000
0.1330275237560272 7.4442505836486816 0.0000000000000000
0.1330275237560272 9.1182870864868164 0.0000000000000000
0.3688073456287384 9.7313146591186523 0.0000000000000000
0.7696330547332764 9.9435167312622070 0.0000000000000000
1.5477063655853271 10.0378284454345703 0.0000000000000000
8.8804588317871094 10.1321411132812500 0.0000000000000000
9.3991746902465820 9.9435167312622070 0.0000000000000000
9.8000001907348633 9.2833337783813477 0.0000000000000000
9.8000001907348633 1.1489297151565552 0.0000000000000000
9.5877981185913086 0.2765443325042725 0.0000000000000000
9.1633949279785156 -0.0535474009811878 0.0000000000000000
2.2500000000000000 1.1499999761581421 0.0000000000000000
2.2461571693420410 1.1890180110931396 0.0000000000000000
2.2347760200500488 1.2265366315841675 0.0000000000000000
2.2162938117980957 1.2611140012741089 0.0000000000000000
2.1914212703704834 1.2914214134216309 0.0000000000000000
2.1611139774322510 1.3162939548492432 0.0000000000000000
2.1265366077423096 1.3347759246826172 0.0000000000000000
2.0890181064605713 1.3461570739746094 0.0000000000000000
2.0499999523162842 1.3500000238418579 0.0000000000000000
2.0109820365905762 1.3461570739746094 0.0000000000000000
1.9734632968902588 1.3347759246826172 0.0000000000000000
1.9388859272003174 1.3162939548492432 0.0000000000000000
1.9085786342620850 1.2914214134216309 0.0000000000000000
1.8837060928344727 1.2611140012741089 0.0000000000000000
1.8652241230010986 1.2265366315841675 0.0000000000000000
1.8538429737091064 1.1890180110931396 0.0000000000000000
1.8500000238418579 1.1499999761581421 0.0000000000000000
1.8538429737091064 1.1109819412231445 0.0000000000000000
1.8652241230010986 1.0734633207321167 0.0000000000000000
1.8837060928344727 1.0388859510421753 0.0000000000000000
1.9085786342620850 1.0085786581039429 0.0000000000000000
1.9388859272003174 0.9837060570716858 0.0000000000000000
1.9734632968902588 0.9652240872383118 0.0000000000000000
2.0109820365905762 0.9538429379463196 0.0000000000000000
2.0499999523162842 0.9499999880790710 0.0000000000000000
2.0890181064605713 0.9538429379463196 0.0000000000000000
2.1265366077423096 0.9652240872383118 0.0000000000000000
2.1611139774322510 0.9837060570716858 0.0000000000000000
2.1914212703704834 1.0085786581039429 0.0000000000000000
2.2162938117980957 1.0388859510421753 0.0000000000000000
2.2347760200500488 1.0734633207321167 0.0000000000000000
2.2461571693420410 1.1109819412231445 0.0000000000000000
2.4500000476837158 1.1499999761581421 0.0000000000000000
2.4195518493652344 1.3030734062194824 0.0000000000000000
2.3328428268432617 1.4328427314758301 0.0000000000000000
2.2030732631683350 1.5195517539978027 0.0000000000000000
2.0499999523162842 1.5499999523162842 0.0000000000000000
1.8969266414642334 1.5195517539978027 0.0000000000000000
1.7671573162078857 1.4328427314758301 0.0000000000000000
1.6804481744766235 1.3030734062194824 0.0000000000000000
1.6499999761581421 1.1499999761581421 0.0000000000000000
1.6804481744766235 0.9969266057014465 0.0000000000000000
1.7671573162078857 0.8671572804450989 0.0000000000000000
1.8969266414642334 0.7804481983184814 0.0000000000000000
2.0499999523162842 0.7500000000000000 0.0000000000000000
2.2030732631683350 0.7804481983184814 0.0000000000000000
2.3328428268432617 0.8671572804450989 0.0000000000000000
2.4195518493652344 0.9969266057014465 0.0000000000000000
2.2500000000000000 8.8500003814697266 0.0000000000000000
2.2461571693420410 8.8890180587768555 0.0000000000000000
2.2347760200500488 8.9265365600585938 0.0000000000000000
2.2162938117980957 8.9611139297485352 0.0000000000000000
2.1914212703704834 8.9914216995239258 0.0000000000000000
2.1611139774322510 9.0162935256958008 0.0000000000000000
2.1265366077423096 9.0347757339477539 0.0000000000000000
2.0890181064605713 9.0461568832397461 0.0000000000000000
2.0499999523162842 9.0500001907348633 0.0000000000000000
2.0109820365905762 9.0461568832397461 0.0000000000000000
1.9734632968902588 9.0347757339477539 0.0000000000000000
1.9388859272003174 9.0162935256958008 0.0000000000000000
1.9085786342620850 8.9914216995239258 0.0000000000000000
1.8837060928344727 8.9611139297485352 0.0000000000000000
1.8652241230010986 8.9265365600585938 0.0000000000000000
1.8538429737091064 8.8890180587768555 0.0000000000000000
1.8500000238418579 8.8500003814697266 0.0000000000000000
1.8538429737091064 8.8109817504882812 0.0000000000000000
1.8652241230010986 8.7734632492065430 0.0000000000000000
1.8837060928344727 8.7388858795166016 0.0000000000000000
1.9085786342620850 8.7085790634155273 0.0000000000000000
1.9388859272003174 8.6837062835693359 0.0000000000000000
1.9734632968902588 8.6652240753173828 0.0000000000000000
2.0109820365905762 8.6538429260253906 0.0000000000000000
2.0499999523162842 8.6499996185302734 0.0000000000000000
2.0890181064605713 8.6538429260253906 0.0000000000000000
2.1265366077423096 8.6652240753173828 0.0000000000000000
2.1611139774322510 8.6837062835693359 0.0000000000000000
2.1914212703704834 8.7085790634155273 0.0000000000000000
2.2162938117980957 8.7388858795166016 0.0000000000000000
2.2347760200500488 8.7734632492065430 0.0000000000000000
2.2461571693420410 8.8109817504882812 0.0000000000000000
2.4500000476837158 8.8500003814697266 0.0000000000000000
2.4195518493652344 9.0030736923217773 0.0000000000000000
2.3328428268432617 9.1328430175781250 0.0000000000000000
2.2030732631683350 9.2195520401000977 0.0000000000000000
2.0499999523162842 9.2500000000000000 0.0000000000000000
1.8969266414642334 9.2195520401000977 0.0000000000000000
1.7671573162078857 9.1328430175781250 0.0000000000000000
1.6804481744766235 9.0030736923217773 0.0000000000000000
1.6499999761581421 8.8500003814697266 0.0000000000000000
1.6804481744766235 8.6969270706176758 0.0000000000000000
1.7671573162078857 8.5671577453613281 0.0000000000000000
1.8969266414642334 8.4804477691650391 0.0000000000000000
2.0499999523162842 8.4499998092651367 0.0000000000000000
2.2030732631683350 8.4804477691650391 0.0000000000000000
2.3328428268432617 8.5671577453613281 0.0000000000000000
2.4195518493652344 8.6969270706176758 0.0000000000000000
1.3500000238418579 2.0499999523162842 0.0000000000000000
1.3461570739746094 2.0890181064605713 0.0000000000000000
1.3347759246826172 2.1265366077423096 0.0000000000000000
1.3162939548492432 2.1611139774322510 0.0000000000000000
1.2914214134216309 2.1914212703704834 0.0000000000000000
1.2611140012741089 2.2162938117980957 0.0000000000000000
1.2265366315841675 2.2347760200500488 0.0000000000000000
1.1890180110931396 2.2461571693420410 0.0000000000000000
1.1499999761581421 2.2500000000000000 0.0000000000000000
1.1109819412231445 2.2461571693420410 0.0000000000000000
1.0734633207321167 2.2347760200500488 0.0000000000000000
1.0388859510421753 2.2162938117980957 0.0000000000000000
1.0085786581039429 2.1914212703704834 0.0000000000000000
0.9837060570716858 2.1611139774322510 0.0000000000000000
0.9652240872383118 2.1265366077423096 0.0000000000000000
0.9538429379463196 2.0890181064605713 0.0000000000000000
0.9499999880790710 2.0499999523162842 0.0000000000000000
0.9538429379463196 2.0109820365905762 0.0000000000000000
0.9652240872383118 1.9734632968902588 0.0000000000000000
0.9837060570716858 1.9388859272003174 0.0000000000000000
1.0085786581039429 1.9085786342620850 0.0000000000000000
1.0388859510421753 1.8837060928344727 0.0000000000000000
1.0734633207321167 1.8652241230010986 0.0000000000000000
1.1109819412231445 1.8538429737091064 0.0000000000000000
1.1499999761581421 1.8500000238418579 0.0000000000000000
1.1890180110931396 1.8538429737091064 0.0000000000000000
1.2265366315841675 1.8652241230010986 0.0000000000000000
1.2611140012741089 1.8837060928344727 0.0000000000000000
1.2914214134216309 1.9085786342620850 0.0000000000000000
1.3162939548492432 1.9388859272003174 0.0000000000000000
1.3347759246826172 1.9734632968902588 0.0000000000000000
1.3461570739746094 2.0109820365905762 0.0000000000000000
1.5499999523162842 2.0499999523162842 0.0000000000000000
1.5195517539978027 2.2030732631683350 0.0000000000000000
1.4328427314758301 2.3328428268432617 0.0000000000000000
1.3030734062194824 2.4195518493652344 0.0000000000000000
1.1499999761581421 2.4500000476837158 0.0000000000000000
0.9969266057014465 2.4195518493652344 0.0000000000000000
0.8671572804450989 2.3328428268432617 0.0000000000000000
0.7804481983184814 2.2030732631683350 0.0000000000000000
0.7500000000000000 2.0499999523162842 0.0000000000000000
0.7804481983184814 1.8969266414642334 0.0000000000000000
0.8671572804450989 1.7671573162078857 0.0000000000000000
0.9969266057014465 1.6804481744766235 0.0000000000000000
1.1499999761581421 1.6499999761581421 0.0000000000000000
1.3030734062194824 1.6804481744766235 0.0000000000000000
1.4328427314758301 1.7671573162078857 0.0000000000000000
1.5195517539978027 1.8969266414642334 0.0000000000000000
9.0500001907348633 2.0499999523162842 0.0000000000000000
9.0461568832397461 2.0890181064605713 0.0000000000000000
9.0347757339477539 2.1265366077423096 0.0000000000000000
9.0162935256958008 2.1611139774322510 0.0000000000000000
8.9914216995239258 2.1914212703704834 0.0000000000000000
8.9611139297485352 2.2162938117980957 0.0000000000000000
8.9265365600585938 2.2347760200500488 0.0000000000000000
8.8890180587768555 2.2461571693420410 0.0000000000000000
8.8500003814697266 2.2500000000000000 0.0000000000000000
8.8109817504882812 2.2461571693420410 0.0000000000000000
8.7734632492065430 2.2347760200500488 0.0000000000000000
8.7388858795166016 2.2162938117980957 0.0000000000000000
8.7085790634155273 2.1914212703704834 0.0000000000000000
8.6837062835693359 2.1611139774322510 0.0000000000000000
8.6652240753173828 2.1265366077423096 0.0000000000000000
8.6538429260253906 2.0890181064605713 0.0000000000000000
8.6499996185302734 2.0499999523162842 0.0000000000000000
8.6538429260253906 2.0109820365905762 0.0000000000000000
8.6652240753173828 1.9734632968902588 0.0000000000000000
8.6837062835693359 1.9388859272003174 0.0000000000000000
8.7085790634155273 1.9085786342620850 0.0000000000000000
8.7388858795166016 1.8837060928344727 0.0000000000000000
8.7734632492065430 1.8652241230010986 0.0000000000000000
8.8109817504882812 1.8538429737091064 0.0000000000000000
8.8500003814697266 1.8500000238418579 0.0000000000000000
8.8890180587768555 1.8538429737091064 0.0000000000000000
8.9265365600585938 1.8652241230010986 0.0000000000000000
8.9611139297485352 1.8837060928344727 0.0000000000000000
8.9914216995239258 1.9085786342620850 0.0000000000000000
9.0162935256958008 1.9388859272003174 0.0000000000000000
9.0347757339477539 1.9734632968902588 0.0000000000000000
9.0461568832397461 2.0109820365905762 0.0000000000000000
9.2500000000000000 2.0499999523162842 0.0000000000000000
9.2195520401000977 2.2030732631683350 0.0000000000000000
9.1328430175781250 2.3328428268432617 0.0000000000000000
9.0030736923217773 2.4195518493652344 0.0000000000000000
8.8500003814697266 2.4500000476837158 0.0000000000000000
8.6969270706176758 2.4195518493652344 0.0000000000000000
8.5671577453613281 2.3328428268432617 0.0000000000000000
8.4804477691650391 2.2030732631683350 0.0000000000000000
8.4499998092651367 2.0499999523162842 0.0000000000000000
8.4804477691650391 1.8969266414642334 0.0000000000000000
8.5671577453613281 1.7671573162078857 0.0000000000000000
8.6969270706176758 1.6804481744766235 0.0000000000000000
8.8500003814697266 1.6499999761581421 0.0000000000000000
9.0030736923217773 1.6804481744766235 0.0000000000000000
9.1328430175781250 1.7671573162078857 0.0000000000000000
9.2195520401000977 1.8969266414642334 0.0000000000000000
3.7249999046325684 1.1499999761581421 0.0000000000000000
3.7211570739746094 1.1890180110931396 0.0000000000000000
3.7097759246826172 1.2265366315841675 0.0000000000000000
3.6912939548492432 1.2611140012741089 0.0000000000000000
3.6664214134216309 1.2914214134216309 0.0000000000000000
3.6361141204833984 1.3162939548492432 0.0000000000000000
3.6015367507934570 1.3347759246826172 0.0000000000000000
3.5640180110931396 1.3461570739746094 0.0000000000000000
3.5250000953674316 1.3500000238418579 0.0000000000000000
3.4859819412231445 1.3461570739746094 0.0000000000000000
3.4484632015228271 1.3347759246826172 0.0000000000000000
3.4138860702514648 1.3162939548492432 0.0000000000000000
3.3835785388946533 1.2914214134216309 0.0000000000000000
3.3587059974670410 1.2611140012741089 0.0000000000000000
3.3402240276336670 1.2265366315841675 0.0000000000000000
3.3288428783416748 1.1890180110931396 0.0000000000000000
3.3250000476837158 1.1499999761581421 0.0000000000000000
3.3288428783416748 1.1109819412231445 0.0000000000000000
3.3402240276336670 1.0734633207321167 0.0000000000000000
3.3587059974670410 1.0388859510421753 0.0000000000000000
3.3835785388946533 1.0085786581039429 0.0000000000000000
3.4138860702514648 0.9837060570716858 0.0000000000000000
3.4484632015228271 0.9652240872383118 0.0000000000000000
3.4859819412231445 0.9538429379463196 0.0000000000000000
3.5250000953674316 0.9499999880790710 0.0000000000000000
3.5640180110931396 0.9538429379463196 0.0000000000000000
3.6015367507934570 0.9652240872383118 0.0000000000000000
3.6361141204833984 0.9837060570716858 0.0000000000000000
3.6664214134216309 1.0085786581039429 0.0000000000000000
3.6912939548492432 1.0388859510421753 0.0000000000000000
3.7097759246826172 1.0734633207321167 0.0000000000000000
3.7211570739746094 1.1109819412231445 0.0000000000000000
3.9249999523162842 1.1499999761581421 0.0000000000000000
3.8945517539978027 1.3030734062194824 0.0000000000000000
3.8078427314758301 1.4328427314758301 0.0000000000000000
3.6780734062194824 1.5195517539978027 0.0000000000000000
3.5250000953674316 1.5499999523162842 0.0000000000000000
3.3719265460968018 1.5195517539978027 0.0000000000000000
3.2421572208404541 1.4328427314758301 0.0000000000000000
3.1554481983184814 1.3030734062194824 0.0000000000000000
3.1250000000000000 1.1499999761581421 0.0000000000000000
3.1554481983184814 0.9969266057014465 0.0000000000000000
3.2421572208404541 0.8671572804450989 0.0000000000000000
3.3719265460968018 0.7804481983184814 0.0000000000000000
3.5250000953674316 0.7500000000000000 0.0000000000000000
3.6780734062194824 0.7804481983184814 0.0000000000000000
3.8078427314758301 0.8671572804450989 0.0000000000000000
3.8945517539978027 0.9969266057014465 0.0000000000000000
3.7249999046325684 8.8500003814697266 0.0000000000000000
3.7211570739746094 8.8890180587768555 0.0000000000000000
3.7097759246826172 8.9265365600585938 0.0000000000000000
3.6912939548492432 8.9611139297485352 0.0000000000000000
3.6664214134216309 8.9914216995239258 0.0000000000000000
3.6361141204833984 9.0162935256958008 0.0000000000000000
3.6015367507934570 9.0347757339477539 0.0000000000000000
3.5640180110931396 9.0461568832397461 0.0000000000000000
3.5250000953674316 9.0500001907348633 0.0000000000000000
3.4859819412231445 9.0461568832397461 0.0000000000000000
3.4484632015228271 9.0347757339477539 0.0000000000000000
3.4138860702514648 9.0162935256958008 0.0000000000000000
3.3835785388946533 8.9914216995239258 0.0000000000000000
3.3587059974670410 8.9611139297485352 0.0000000000000000
3.3402240276336670 8.9265365600585938 0.0000000000000000
3.3288428783416748 8.8890180587768555 0.0000000000000000
3.3250000476837158 8.8500003814697266 0.0000000000000000
3.3288428783416748 8.8109817504882812 0.0000000000000000
3.3402240276336670 8.7734632492065430 0.0000000000000000
3.3587059974670410 8.7388858795166016 0.0000000000000000
3.3835785388946533 8.7085790634155273 0.0000000000000000
3.4138860702514648 8.6837062835693359 0.0000000000000000
3.4484632015228271 8.6652240753173828 0.0000000000000000
3.4859819412231445 8.6538429260253906 0.0000000000000000
3.5250000953674316 8.6499996185302734 0.0000000000000000
3.5640180110931396 8.6538429260253906 0.0000000000000000
3.6015367507934570 8.6652240753173828 0.0000000000000000
3.6361141204833984 8.6837062835693359 0.0000000000000000
3.6664214134216309 8.7085790634155273 0.0000000000000000
3.6912939548492432 8.7388858795166016 0.0000000000000000
3.7097759246826172 8.7734632492065430 0.0000000000000000
3.7211570739746094 8.8109817504882812 0.0000000000000000
3.9249999523162842 8.8500003814697266 0.0000000000000000
3.8945517539978027 9.0030736923217773 0.0000000000000000
3.8078427314758301 9.1328430175781250 0.0000000000000000
3.6780734062194824 9.2195520401000977 0.0000000000000000
3.5250000953674316 9.2500000000000000 0.0000000000000000
3.3719265460968018 9.2195520401000977 0.0000000000000000
3.2421572208404541 9.1328430175781250 0.0000000000000000
3.1554481983184814 9.0030736923217773 0.0000000000000000
3.1250000000000000 8.8500003814697266 0.0000000000000000
3.1554481983184814 8.6969270706176758 0.0000000000000000
3.2421572208404541 8.5671577453613281 0.0000000000000000
3.3719265460968018 8.4804477691650391 0.0000000000000000
3.5250000953674316 8.4499998092651367 0.0000000000000000
3.6780734062194824 8.4804477691650391 0.0000000000000000
3.8078427314758301 8.5671577453613281 0.0000000000000000
3.8945517539978027 8.6969270706176758 0.0000000000000000
1.3500000238418579 3.5250000953674316 0.0000000000000000
1.3461570739746094 3.5640180110931396 0.0000000000000000
1.3347759246826172 3.6015367507934570 0.0000000000000000
1.3162939548492432 3.6361141204833984 0.0000000000000000
1.2914214134216309 3.6664214134216309 0.0000000000000000
1.2611140012741089 3.6912939548492432 0.0000000000000000
1.2265366315841675 3.7097759246826172 0.0000000000000000
1.1890180110931396 3.7211570739746094 0.0000000000000000
1.1499999761581421 3.7249999046325684 0.0000000000000000
1.1109819412231445 3.7211570739746094 0.0000000000000000
1.0734633207321167 3.7097759246826172 0.0000000000000000
1.0388859510421753 3.6912939548492432 0.0000000000000000
1.0085786581039429 3.6664214134216309 0.0000000000000000
0.9837060570716858 3.6361141204833984 0.0000000000000000
0.9652240872383118 3.6015367507934570 0.0000000000000000
0.9538429379463196 3.5640180110931396 0.0000000000000000
0.9499999880790710 3.5250000953674316 0.0000000000000000
0.9538429379463196 3.4859819412231445 0.0000000000000000
0.9652240872383118 3.4484632015228271 0.0000000000000000
0.9837060570716858 3.4138860702514648 0.0000000000000000
1.0085786581039429 3.3835785388946533 0.0000000000000000
1.0388859510421753 3.3587059974670410 0.0000000000000000
1.0734633207321167 3.3402240276336670 0.0000000000000000
1.1109819412231445 3.3288428783416748 0.0000000000000000
1.1499999761581421 3.3250000476837158 0.0000000000000000
1.1890180110931396 3.3288428783416748 0.0000000000000000
1.2265366315841675 3.3402240276336670 0.0000000000000000
1.2611140012741089 3.3587059974670410 0.0000000000000000
1.2914214134216309 3.3835785388946533 0.0000000000000000
1.3162939548492432 3.4138860702514648 0.0000000000000000
1.3347759246826172 3.4484632015228271 0.0000000000000000
1.3461570739746094 3.4859819412231445 0.0000000000000000
1.5499999523162842 3.5250000953674316 0.0000000000000000
1.5195517539978027 3.6780734062194824 0.0000000000000000
1.4328427314758301 3.8078427314758301 0.0000000000000000
1.3030734062194824 3.8945517539978027 0.0000000000000000
1.1499999761581421 3.9249999523162842 0.0000000000000000
0.9969266057014465 3.8945517539978027 0.0000000000000000
0.8671572804450989 3.8078427314758301 0.0000000000000000
0.7804481983184814 3.6780734062194824 0.0000000000000000
0.7500000000000000 3.5250000953674316 0.0000000000000000
0.7804481983184814 3.3719265460968018 0.0000000000000000
0.8671572804450989 3.2421572208404541 0.0000000000000000
0.9969266057014465 3.1554481983184814 0.0000000000000000
1.1499999761581421 3.1250000000000000 0.0000000000000000
1.3030734062194824 3.1554481983184814 0.0000000000000000
1.4328427314758301 3.2421572208404541 0.0000000000000000
1.5195517539978027 3.3719265460968018 0.0000000000000000
9.0500001907348633 3.5250000953674316 0.0000000000000000
9.0461568832397461 3.5640180110931396 0.0000000000000000
9.0347757339477539 3.6015367507934570 0.0000000000000000
9.0162935256958008 3.6361141204833984 0.0000000000000000
8.9914216995239258 3.6664214134216309 0.0000000000000000
8.9611139297485352 3.6912939548492432 0.0000000000000000
8.9265365600585938 3.7097759246826172 0.0000000000000000
8.8890180587768555 3.7211570739746094 0.0000000000000000
8.8500003814697266 3.7249999046325684 0.0000000000000000
8.8109817504882812 3.7211570739746094 0.0000000000000000
8.7734632492065430 3.7097759246826172 0.0000000000000000
8.7388858795166016 3.6912939548492432 0.0000000000000000
8.7085790634155273 3.6664214134216309 0.0000000000000000
8.6837062835693359 3.6361141204833984 0.0000000000000000
8.6652240753173828 3.6015367507934570 0.0000000000000000
8.6538429260253906 3.5640180110931396 0.0000000000000000
8.6499996185302734 3.5250000953674316 0.0000000000000000
8.6538429260253906 3.4859819412231445 0.0000000000000000
8.6652240753173828 3.4484632015228271 0.0000000000000000
8.6837062835693359 3.4138860702514648 0.0000000000000000
8.7085790634155273 3.3835785388946533 0.0000000000000000
8.7388858795166016 3.3587059974670410 0.0000000000000000
8.7734632492065430 3.3402240276336670 0.0000000000000000
8.8109817504882812 3.3288428783416748 0.0000000000000000
8.8500003814697266 3.3250000476837158 0.0000000000000000
8.8890180587768555 3.3288428783416748 0.0000000000000000
8.9265365600585938 3.3402240276336670 0.0000000000000000
8.9611139297485352 3.3587059974670410 0.0000000000000000
8.9914216995239258 3.3835785388946533 0.0000000000000000
9.0162935256958008 3.4138860702514648 0.0000000000000000
9.0347757339477539 3.4484632015228271 0.0000000000000000
9.0461568832397461 3.4859819412231445 0.0000000000000000
9.2500000000000000 3.5250000953674316 0.0000000000000000
9.2195520401000977 3.6780734062194824 0.0000000000000000
9.1328430175781250 3.8078427314758301 0.0000000000000000
9.0030736923217773 3.8945517539978027 0.0000000000000000
8.8500003814697266 3.9249999523162842 0.0000000000000000
8.6969270706176758 3.8945517539978027 0.0000000000000000
8.5671577453613281 3.8078427314758301 0.0000000000000000
8.4804477691650391 3.6780734062194824 0.0000000000000000
8.4499998092651367 3.5250000953674316 0.0000000000000000
8.4804477691650391 3.3719265460968018 0.0000000000000000
8.5671577453613281 3.2421572208404541 0.0000000000000000
8.6969270706176758 3.1554481983184814 0.0000000000000000
8.8500003814697266 3.1250000000000000 0.0000000000000000
9.0030736923217773 3.1554481983184814 0.0000000000000000
9.1328430175781250 3.2421572208404541 0.0000000000000000
9.2195520401000977 3.3719265460968018 0.0000000000000000
5.1999998092651367 1.1499999761581421 0.0000000000000000
5.1961569786071777 1.1890180110931396 0.0000000000000000
5.1847758293151855 1.2265366315841675 0.0000000000000000
5.1662940979003906 1.2611140012741089 0.0000000000000000
5.1414213180541992 1.2914214134216309 0.0000000000000000
5.1111140251159668 1.3162939548492432 0.0000000000000000
5.0765366554260254 1.3347759246826172 0.0000000000000000
5.0390181541442871 1.3461570739746094 0.0000000000000000
5.0000000000000000 1.3500000238418579 0.0000000000000000
4.9609818458557129 1.3461570739746094 0.0000000000000000
4.9234633445739746 1.3347759246826172 0.0000000000000000
4.8888859748840332 1.3162939548492432 0.0000000000000000
4.8585786819458008 1.2914214134216309 0.0000000000000000
4.8337059020996094 1.2611140012741089 0.0000000000000000
4.8152241706848145 1.2265366315841675 0.0000000000000000
4.8038430213928223 1.1890180110931396 0.0000000000000000
4.8000001907348633 1.1499999761581421 0.0000000000000000
4.8038430213928223 1.1109819412231445 0.0000000000000000
4.8152241706848145 1.0734633207321167 0.0000000000000000
4.8337059020996094 1.0388859510421753 0.0000000000000000
4.8585786819458008 1.0085786581039429 0.0000000000000000
4.8888859748840332 0.9837060570716858 0.0000000000000000
4.9234633445739746 0.9652240872383118 0.0000000000000000
4.9609818458557129 0.9538429379463196 0.0000000000000000
5.0000000000000000 0.9499999880790710 0.0000000000000000
5.0390181541442871 0.9538429379463196 0.0000000000000000
5.0765366554260254 0.9652240872383118 0.0000000000000000
5.1111140251159668 0.9837060570716858 0.0000000000000000
5.1414213180541992 1.0085786581039429 0.0000000000000000
5.1662940979003906 1.0388859510421753 0.0000000000000000
5.1847758293151855 1.0734633207321167 0.0000000000000000
5.1961569786071777 1.1109819412231445 0.0000000000000000
5.4000000953674316 1.1499999761581421 0.0000000000000000
5.3695516586303711 1.3030734062194824 0.0000000000000000
5.2828426361083984 1.4328427314758301 0.0000000000000000
5.1530733108520508 1.5195517539978027 0.0000000000000000
5.0000000000000000 1.5499999523162842 0.0000000000000000
4.8469266891479492 1.5195517539978027 0.0000000000000000
4.7171573638916016 1.4328427314758301 0.0000000000000000
4.6304483413696289 1.3030734062194824 0.0000000000000000
4.5999999046325684 1.1499999761581421 0.0000000000000000
4.6304483413696289 0.9969266057014465 0.0000000000000000
4.7171573638916016 0.8671572804450989 0.0000000000000000
4.8469266891479492 0.7804481983184814 0.0000000000000000
5.0000000000000000 0.7500000000000000 0.0000000000000000
5.1530733108520508 0.7804481983184814 0.0000000000000000
5.2828426361083984 0.8671572804450989 0.0000000000000000
5.3695516586303711 0.9969266057014465 0.0000000000000000
5.1999998092651367 8.8500003814697266 0.0000000000000000
5.1961569786071777 8.8890180587768555 0.0000000000000000
5.1847758293151855 8.9265365600585938 0.0000000000000000
5.1662940979003906 8.9611139297485352 0.0000000000000000
5.1414213180541992 8.9914216995239258 0.0000000000000000
5.1111140251159668 9.0162935256958008 0.0000000000000000
5.0765366554260254 9.0347757339477539 0.0000000000000000
5.0390181541442871 9.0461568832397461 0.0000000000000000
5.0000000000000000 9.0500001907348633 0.0000000000000000
4.9609818458557129 9.0461568832397461 0.0000000000000000
4.9234633445739746 9.0347757339477539 0.0000000000000000
4.8888859748840332 9.0162935256958008 0.0000000000000000
4.8585786819458008 8.9914216995239258 0.0000000000000000
4.8337059020996094 8.9611139297485352 0.0000000000000000
4.8152241706848145 8.9265365600585938 0.0000000000000000
4.8038430213928223 8.8890180587768555 0.0000000000000000
4.8000001907348633 8.8500003814697266 0.0000000000000000
4.8038430213928223 8.8109817504882812 0.0000000000000000
4.8152241706848145 8.7734632492065430 0.0000000000000000
4.8337059020996094 8.7388858795166016 0.0000000000000000
4.8585786819458008 8.7085790634155273 0.0000000000000000
4.8888859748840332 8.6837062835693359 0.0000000000000000
4.9234633445739746 8.6652240753173828 0.0000000000000000
4.9609818458557129 8.6538429260253906 0.0000000000000000
5.0000000000000000 8.6499996185302734 0.0000000000000000
5.0390181541442871 8.6538429260253906 0.0000000000000000
5.0765366554260254 8.6652240753173828 0.0000000000000000
5.1111140251159668 8.6837062835693359 0.0000000000000000
5.1414213180541992 8.7085790634155273 0.0000000000000000
5.1662940979003906 8.7388858795166016 0.0000000000000000
5.1847758293151855 8.7734632492065430 0.0000000000000000
5.1961569786071777 8.8109817504882812 0.0000000000000000
5.4000000953674316 8.8500003814697266 0.0000000000000000
5.3695516586303711 9.0030736923217773 0.0000000000000000
5.2828426361083984 9.1328430175781250 0.0000000000000000
5.1530733108520508 9.2195520401000977 0.0000000000000000
5.0000000000000000 9.2500000000000000 0.0000000000000000
4.8469266891479492 9.2195520401000977 0.0000000000000000
4.7171573638916016 9.1328430175781250 0.0000000000000000
4.6304483413696289 9.0030736923217773 0.0000000000000000
4.5999999046325684 8.8500003814697266 0.0000000000000000
4.6304483413696289 8.6969270706176758 0.0000000000000000
4.7171573638916016 8.5671577453613281 0.0000000000000000
4.8469266891479492 8.4804477691650391 0.0000000000000000
5.0000000000000000 8.4499998092651367 0.0000000000000000
5.1530733108520508 8.4804477691650391 0.0000000000000000
5.2828426361083984 8.5671577453613281 0.0000000000000000
5.3695516586303711 8.6969270706176758 0.0000000000000000
1.3500000238418579 5.0000000000000000 0.0000000000000000
1.3461570739746094 5.0390181541442871 0.0000000000000000
1.3347759246826172 5.0765366554260254 0.0000000000000000
1.3162939548492432 5.1111140251159668 0.0000000000000000
1.2914214134216309 5.1414213180541992 0.0000000000000000
1.2611140012741089 5.1662940979003906 0.0000000000000000
1.2265366315841675 5.1847758293151855 0.0000000000000000
1.1890180110931396 5.1961569786071777 0.0000000000000000
1.1499999761581421 5.1999998092651367 0.0000000000000000
1.1109819412231445 5.1961569786071777 0.0000000000000000
1.0734633207321167 5.1847758293151855 0.0000000000000000
1.0388859510421753 5.1662940979003906 0.0000000000000000
1.0085786581039429 5.1414213180541992 0.0000000000000000
0.9837060570716858 5.1111140251159668 0.0000000000000000
0.9652240872383118 5.0765366554260254 0.0000000000000000
0.9538429379463196 5.0390181541442871 0.0000000000000000
0.9499999880790710 5.0000000000000000 0.0000000000000000
0.9538429379463196 4.9609818458557129 0.0000000000000000
0.9652240872383118 4.9234633445739746 0.0000000000000000
0.9837060570716858 4.8888859748840332 0.0000000000000000
1.0085786581039429 4.8585786819458008 0.0000000000000000
1.0388859510421753 4.8337059020996094 0.0000000000000000
1.0734633207321167 4.8152241706848145 0.0000000000000000
1.1109819412231445 4.8038430213928223 0.0000000000000000
1.1499999761581421 4.8000001907348633 0.0000000000000000
1.1890180110931396 4.8038430213928223 0.0000000000000000
1.2265366315841675 4.8152241706848145 0.0000000000000000
1.2611140012741089 4.8337059020996094 0.0000000000000000
1.2914214134216309 4.8585786819458008 0.0000000000000000
1.3162939548492432 4.8888859748840332 0.0000000000000000
1.3347759246826172 4.9234633445739746 0.0000000000000000
1.3461570739746094 4.9609818458557129 0.0000000000000000
1.5499999523162842 5.0000000000000000 0.0000000000000000
1.5195517539978027 5.1530733108520508 0.0000000000000000
1.4328427314758301 5.2828426361083984 0.0000000000000000
1.3030734062194824 5.3695516586303711 0.0000000000000000
1.1499999761581421 5.4000000953674316 0.0000000000000000
0.9969266057014465 5.3695516586303711 0.0000000000000000
0.8671572804450989 5.2828426361083984 0.0000000000000000
0.7804481983184814 5.1530733108520508 0.0000000000000000
0.7500000000000000 5.0000000000000000 0.0000000000000000
0.7804481983184814 4.8469266891479492 0.0000000000000000
0.8671572804450989 4.7171573638916016 0.0000000000000000
0.9969266057014465 4.6304483413696289 0.0000000000000000
1.1499999761581421 4.5999999046325684 0.0000000000000000
1.3030734062194824 4.6304483413696289 0.0000000000000000
1.4328427314758301 4.7171573638916016 0.0000000000000000
1.5195517539978027 4.8469266891479492 0.0000000000000000
9.0500001907348633 5.0000000000000000 0.0000000000000000
9.0461568832397461 5.0390181541442871 0.0000000000000000
9.0347757339477539 5.0765366554260254 0.0000000000000000
9.0162935256958008 5.1111140251159668 0.0000000000000000
8.9914216995239258 5.1414213180541992 0.0000000000000000
8.9611139297485352 5.1662940979003906 0.0000000000000000
8.9265365600585938 5.1847758293151855 0.0000000000000000
8.8890180587768555 5.1961569786071777 0.0000000000000000
8.8500003814697266 5.1999998092651367 0.0000000000000000
8.8109817504882812 5.1961569786071777 0.0000000000000000
8.7734632492065430 5.1847758293151855 0.0000000000000000
8.7388858795166016 5.1662940979003906 0.0000000000000000
8.7085790634155273 5.1414213180541992 0.0000000000000000
8.6837062835693359 5.1111140251159668 0.0000000000000000
8.6652240753173828 5.0765366554260254 0.0000000000000000
8.6538429260253906 5.0390181541442871 0.0000000000000000
8.6499996185302734 5.0000000000000000 0.0000000000000000
8.6538429260253906 4.9609818458557129 0.0000000000000000
8.6652240753173828 4.9234633445739746 0.0000000000000000
8.6837062835693359 4.8888859748840332 0.0000000000000000
8.7085790634155273 4.8585786819458008 0.0000000000000000
8.7388858795166016 4.8337059020996094 0.0000000000000000
8.7734632492065430 4.8152241706848145 0.0000000000000000
8.8109817504882812 4.8038430213928223 0.0000000000000000
8.8500003814697266 4.8000001907348633 0.0000000000000000
8.8890180587768555 4.8038430213928223 0.0000000000000000
8.9265365600585938 4.8152241706848145 0.0000000000000000
8.9611139297485352 4.8337059020996094 0.0000000000000000
8.9914216995239258 4.8585786819458008 0.0000000000000000
9.0162935256958008 4.8888859748840332 0.0000000000000000
9.0347757339477539 4.9234633445739746 0.0000000000000000
9.0461568832397461 4.9609818458557129 0.0000000000000000
9.2500000000000000 5.0000000000000000 0.0000000000000000
9.2195520401000977 5.1530733108520508 0.0000000000000000
9.1328430175781250 5.2828426361083984 0.0000000000000000
9.0030736923217773 5.3695516586303711 0.0000000000000000
8.8500003814697266 5.4000000953674316 0.0000000000000000
8.6969270706176758 5.3695516586303711 0.0000000000000000
8.5671577453613281 5.2828426361083984 0.0000000000000000
8.4804477691650391 5.1530733108520508 0.0000000000000000
8.4499998092651367 5.0000000000000000 0.0000000000000000
8.4804477691650391 4.8469266891479492 0.0000000000000000
8.5671577453613281 4.7171573638916016 0.0000000000000000
8.6969270706176758 4.6304483413696289 0.0000000000000000
8.8500003814697266 4.5999999046325684 0.0000000000000000
9.0030736923217773 4.6304483413696289 0.0000000000000000
9.1328430175781250 4.7171573638916016 0.0000000000000000
9.2195520401000977 4.8469266891479492 0.0000000000000000
6.6750001907348633 1.1499999761581421 0.0000000000000000
6.6711568832397461 1.1890180110931396 0.0000000000000000
6.6597757339477539 1.2265366315841675 0.0000000000000000
6.6412940025329590 1.2611140012741089 0.0000000000000000
6.6164212226867676 1.2914214134216309 0.0000000000000000
6.5861139297485352 1.3162939548492432 0.0000000000000000
6.5515365600585938 1.3347759246826172 0.0000000000000000
6.5140180587768555 1.3461570739746094 0.0000000000000000
6.4749999046325684 1.3500000238418579 0.0000000000000000
6.4359817504882812 1.3461570739746094 0.0000000000000000
6.3984632492065430 1.3347759246826172 0.0000000000000000
6.3638858795166016 1.3162939548492432 0.0000000000000000
6.3335785865783691 1.2914214134216309 0.0000000000000000
6.3087062835693359 1.2611140012741089 0.0000000000000000
6.2902240753173828 1.2265366315841675 0.0000000000000000
6.2788429260253906 1.1890180110931396 0.0000000000000000
6.2750000953674316 1.1499999761581421 0.0000000000000000
6.2788429260253906 1.1109819412231445 0.0000000000000000
6.2902240753173828 1.0734633207321167 0.0000000000000000
6.3087062835693359 1.0388859510421753 0.0000000000000000
6.3335785865783691 1.0085786581039429 0.0000000000000000
6.3638858795166016 0.9837060570716858 0.0000000000000000
6.3984632492065430 0.9652240872383118 0.0000000000000000
6.4359817504882812 0.9538429379463196 0.0000000000000000
6.4749999046325684 0.9499999880790710 0.0000000000000000
6.5140180587768555 0.9538429379463196 0.0000000000000000
6.5515365600585938 0.9652240872383118 0.0000000000000000
6.5861139297485352 0.9837060570716858 0.0000000000000000
6.6164212226867676 1.0085786581039429 0.0000000000000000
6.6412940025329590 1.0388859510421753 0.0000000000000000
6.6597757339477539 1.0734633207321167 0.0000000000000000
6.6711568832397461 1.1109819412231445 0.0000000000000000
6.8750000000000000 1.1499999761581421 0.0000000000000000
6.8445520401000977 1.3030734062194824 0.0000000000000000
6.7578425407409668 1.4328427314758301 0.0000000000000000
6.6280732154846191 1.5195517539978027 0.0000000000000000
6.4749999046325684 1.5499999523162842 0.0000000000000000
6.3219265937805176 1.5195517539978027 0.0000000000000000
6.1921572685241699 1.4328427314758301 0.0000000000000000
6.1054482460021973 1.3030734062194824 0.0000000000000000
6.0749998092651367 1.1499999761581421 0.0000000000000000
6.1054482460021973 0.9969266057014465 0.0000000000000000
6.1921572685241699 0.8671572804450989 0.0000000000000000
6.3219265937805176 0.7804481983184814 0.0000000000000000
6.4749999046325684 0.7500000000000000 0.0000000000000000
6.6280732154846191 0.7804481983184814 0.0000000000000000
6.7578425407409668 0.8671572804450989 0.0000000000000000
6.8445520401000977 0.9969266057014465 0.0000000000000000
6.6750001907348633 8.8500003814697266 0.0000000000000000
6.6711568832397461 8.8890180587768555 0.0000000000000000
6.6597757339477539 8.9265365600585938 0.0000000000000000
6.6412940025329590 8.9611139297485352 0.0000000000000000
6.6164212226867676 8.9914216995239258 0.0000000000000000
6.5861139297485352 9.0162935256958008 0.0000000000000000
6.5515365600585938 9.0347757339477539 0.0000000000000000
6.5140180587768555 9.0461568832397461 0.0000000000000000
6.4749999046325684 9.0500001907348633 0.0000000000000000
6.4359817504882812 9.0461568832397461 0.0000000000000000
6.3984632492065430 9.0347757339477539 0.0000000000000000
6.3638858795166016 9.0162935256958008 0.0000000000000000
6.3335785865783691 8.9914216995239258 0.0000000000000000
6.3087062835693359 8.9611139297485352 0.0000000000000000
6.2902240753173828 8.9265365600585938 0.0000000000000000
6.2788429260253906 8.8890180587768555 0.0000000000000000
6.2750000953674316 8.8500003814697266 0.0000000000000000
6.2788429260253906 8.8109817504882812 0.0000000000000000
6.2902240753173828 8.7734632492065430 0.0000000000000000
6.3087062835693359 8.7388858795166016 0.0000000000000000
6.3335785865783691 8.7085790634155273 0.0000000000000000
6.3638858795166016 8.6837062835693359 0.0000000000000000
6.3984632492065430 8.6652240753173828 0.0000000000000000
6.4359817504882812 8.6538429260253906 0.0000000000000000
6.4749999046325684 8.6499996185302734 0.0000000000000000
6.5140180587768555 8.6538429260253906 0.0000000000000000
6.5515365600585938 8.6652240753173828 0.0000000000000000
6.5861139297485352 8.6837062835693359 0.0000000000000000
6.6164212226867676 8.7085790634155273 0.0000000000000000
6.6412940025329590 8.7388858795166016 0.0000000000000000
6.6597757339477539 8.7734632492065430 0.0000000000000000
6.6711568832397461 8.8109817504882812 0.0000000000000000
6.8750000000000000 8.8500003814697266 0.0000000000000000
6.8445520401000977 9.0030736923217773 0.0000000000000000
6.7578425407409668 9.1328430175781250 0.0000000000000000
6.6280732154846191 9.2195520401000977 0.0000000000000000
6.4749999046325684 9.2500000000000000 0.0000000000000000
6.3219265937805176 9.2195520401000977 0.0000000000000000
6.1921572685241699 9.1328430175781250 0.0000000000000000
6.1054482460021973 9.0030736923217773 0.0000000000000000
6.0749998092651367 8.8500003814697266 0.0000000000000000
6.1054482460021973 8.6969270706176758 0.0000000000000000
6.1921572685241699 8.5671577453613281 0.0000000000000000
6.3219265937805176 8.4804477691650391 0.0000000000000000
6.4749999046325684 8.4499998092651367 0.0000000000000000
6.6280732154846191 8.4804477691650391 0.0000000000000000
6.7578425407409668 8.5671577453613281 0.0000000000000000
6.8445520401000977 8.6969270706176758 0.0000000000000000
1.3500000238418579 6.4749999046325684 0.0000000000000000
1.3461570739746094 6.5140180587768555 0.0000000000000000
1.3347759246826172 6.5515365600585938 0.0000000000000000
1.3162939548492432 6.5861139297485352 0.0000000000000000
1.2914214134216309 6.6164212226867676 0.0000000000000000
1.2611140012741089 6.6412940025329590 0.0000000000000000
1.2265366315841675 6.6597757339477539 0.0000000000000000
1.1890180110931396 6.6711568832397461 0.0000000000000000
1.1499999761581421 6.6750001907348633 0.0000000000000000
1.1109819412231445 6.6711568832397461 0.0000000000000000
1.0734633207321167 6.6597757339477539 0.0000000000000000
1.0388859510421753 6.6412940025329590 0.0000000000000000
1.0085786581039429 6.6164212226867676 0.0000000000000000
0.9837060570716858 6.5861139297485352 0.0000000000000000
0.9652240872383118 6.5515365600585938 0.0000000000000000
0.9538429379463196 6.5140180587768555 0.0000000000000000
0.9499999880790710 6.4749999046325684 0.0000000000000000
0.9538429379463196 6.4359817504882812 0.0000000000000000
0.9652240872383118 6.3984632492065430 0.0000000000000000
0.9837060570716858 6.3638858795166016 0.0000000000000000
1.0085786581039429 6.3335785865783691 0.0000000000000000
1.0388859510421753 6.3087062835693359 0.0000000000000000
1.0734633207321167 6.2902240753173828 0.0000000000000000
1.1109819412231445 6.2788429260253906 0.0000000000000000
1.1499999761581421 6.2750000953674316 0.0000000000000000
1.1890180110931396 6.2788429260253906 0.0000000000000000
1.2265366315841675 6.2902240753173828 0.0000000000000000
1.2611140012741089 6.3087062835693359 0.0000000000000000
1.2914214134216309 6.3335785865783691 0.0000000000000000
1.3162939548492432 6.3638858795166016 0.0000000000000000
1.3347759246826172 6.3984632492065430 0.0000000000000000
1.3461570739746094 6.4359817504882812 0.0000000000000000
1.5499999523162842 6.4749999046325684 0.0000000000000000
1.5195517539978027 6.6280732154846191 0.0000000000000000
1.4328427314758301 6.7578425407409668 0.0000000000000000
1.3030734062194824 6.8445520401000977 0.0000000000000000
1.1499999761581421 6.8750000000000000 0.0000000000000000
0.9969266057014465 6.8445520401000977 0.0000000000000000
0.8671572804450989 6.7578425407409668 0.0000000000000000
0.7804481983184814 6.6280732154846191 0.0000000000000000
0.7500000000000000 6.4749999046325684 0.0000000000000000
0.7804481983184814 6.3219265937805176 0.0000000000000000
0.8671572804450989 6.1921572685241699 0.0000000000000000
0.9969266057014465 6.1054482460021973 0.0000000000000000
1.1499999761581421 6.0749998092651367 0.0000000000000000
1.3030734062194824 6.1054482460021973 0.0000000000000000
1.4328427314758301 6.1921572685241699 0.0000000000000000
1.5195517539978027 6.3219265937805176 0.0000000000000000
9.0500001907348633 6.4749999046325684 0.0000000000000000
9.0461568832397461 6.5140180587768555 0.0000000000000000
9.0347757339477539 6.5515365600585938 0.0000000000000000
9.0162935256958008 6.5861139297485352 0.0000000000000000
8.9914216995239258 6.6164212226867676 0.0000000000000000
8.9611139297485352 6.6412940025329590 0.0000000000000000
8.9265365600585938 6.6597757339477539 0.0000000000000000
8.8890180587768555 6.6711568832397461 0.0000000000000000
8.8500003814697266 6.6750001907348633 0.0000000000000000
8.8109817504882812 6.6711568832397461 0.0000000000000000
8.7734632492065430 6.6597757339477539 0.0000000000000000
8.7388858795166016 6.6412940025329590 0.0000000000000000
8.7085790634155273 6.6164212226867676 0.0000000000000000
8.6837062835693359 6.5861139297485352 0.0000000000000000
8.6652240753173828 6.5515365600585938 0.0000000000000000
8.6538429260253906 6.5140180587768555 0.0000000000000000
8.6499996185302734 6.4749999046325684 0.0000000000000000
8.6538429260253906 6.4359817504882812 0.0000000000000000
8.6652240753173828 6.3984632492065430 0.0000000000000000
8.6837062835693359 6.3638858795166016 0.0000000000000000
8.7085790634155273 6.3335785865783691 0.0000000000000000
8.7388858795166016 6.3087062835693359 0.0000000000000000
8.7734632492065430 6.2902240753173828 0.0000000000000000
8.8109817504882812 6.2788429260253906 0.0000000000000000
8.8500003814697266 6.2750000953674316 0.0000000000000000
8.8890180587768555 6.2788429260253906 0.0000000000000000
8.9265365600585938 6.2902240753173828 0.0000000000000000
8.9611139297485352 6.3087062835693359 0.0000000000000000
8.9914216995239258 6.3335785865783691 0.0000000000000000
9.0162935256958008 6.3638858795166016 0.0000000000000000
9.0347757339477539 6.3984632492065430 0.0000000000000000
9.0461568832397461 6.4359817504882812 0.0000000000000000
9.2500000000000000 6.4749999046325684 0.0000000000000000
9.2195520401000977 6.6280732154846191 0.0000000000000000
9.1328430175781250 6.7578425407409668 0.0000000000000000
9.0030736923217773 6.8445520401000977 0.0000000000000000
8.8500003814697266 6.8750000000000000 0.0000000000000000
8.6969270706176758 6.8445520401000977 0.0000000000000000
8.5671577453613281 6.7578425407409668 0.0000000000000000
8.4804477691650391 6.6280732154846191 0.0000000000000000
8.4499998092651367 6.4749999046325684 0.0000000000000000
8.4804477691650391 6.3219265937805176 0.0000000000000000
8.5671577453613281 6.1921572685241699 0.0000000000000000
8.6969270706176758 6.1054482460021973 0.0000000000000000
8.8500003814697266 6.0749998092651367 0.0000000000000000
9.0030736923217773 6.1054482460021973 0.0000000000000000
9.1328430175781250 6.1921572685241699 0.0000000000000000
9.2195520401000977 6.3219265937805176 0.0000000000000000
8.1499996185302734 1.1499999761581421 0.0000000000000000
8.1461572647094727 1.1890180110931396 0.0000000000000000
8.1347761154174805 1.2265366315841675 0.0000000000000000
8.1162939071655273 1.2611140012741089 0.0000000000000000
8.0914211273193359 1.2914214134216309 0.0000000000000000
8.0611143112182617 1.3162939548492432 0.0000000000000000
8.0265369415283203 1.3347759246826172 0.0000000000000000
7.9890179634094238 1.3461570739746094 0.0000000000000000
7.9499998092651367 1.3500000238418579 0.0000000000000000
7.9109821319580078 1.3461570739746094 0.0000000000000000
7.8734631538391113 1.3347759246826172 0.0000000000000000
7.8388857841491699 1.3162939548492432 0.0000000000000000
7.8085784912109375 1.2914214134216309 0.0000000000000000
7.7837061882019043 1.2611140012741089 0.0000000000000000
7.7652239799499512 1.2265366315841675 0.0000000000000000
7.7538428306579590 1.1890180110931396 0.0000000000000000
7.7500000000000000 1.1499999761581421 0.0000000000000000
7.7538428306579590 1.1109819412231445 0.0000000000000000
7.7652239799499512 1.0734633207321167 0.0000000000000000
7.7837061882019043 1.0388859510421753 0.0000000000000000
7.8085784912109375 1.0085786581039429 0.0000000000000000
7.8388857841491699 0.9837060570716858 0.0000000000000000
7.8734631538391113 0.9652240872383118 0.0000000000000000
7.9109821319580078 0.9538429379463196 0.0000000000000000
7.9499998092651367 0.9499999880790710 0.0000000000000000
7.9890179634094238 0.9538429379463196 0.0000000000000000
8.0265369415283203 0.9652240872383118 0.0000000000000000
8.0611143112182617 0.9837060570716858 0.0000000000000000
8.0914211273193359 1.0085786581039429 0.0000000000000000
8.1162939071655273 1.0388859510421753 0.0000000000000000
8.1347761154174805 1.0734633207321167 0.0000000000000000
8.1461572647094727 1.1109819412231445 0.0000000000000000
8.3500003814697266 1.1499999761581421 0.0000000000000000
8.3195514678955078 1.3030734062194824 0.0000000000000000
8.2328424453735352 1.4328427314758301 0.0000000000000000
8.1030731201171875 1.5195517539978027 0.0000000000000000
7.9499998092651367 1.5499999523162842 0.0000000000000000
7.7969264984130859 1.5195517539978027 0.0000000000000000
7.6671571731567383 1.4328427314758301 0.0000000000000000
7.5804481506347656 1.3030734062194824 0.0000000000000000
7.5500001907348633 1.1499999761581421 0.0000000000000000
7.5804481506347656 0.9969266057014465 0.0000000000000000
7.6671571731567383 0.8671572804450989 0.0000000000000000
7.7969264984130859 0.7804481983184814 0.0000000000000000
7.9499998092651367 0.7500000000000000 0.0000000000000000
8.1030731201171875 0.7804481983184814 0.0000000000000000
8.2328424453735352 0.8671572804450989 0.0000000000000000
8.3195514678955078 0.9969266057014465 0.0000000000000000
8.1499996185302734 8.8500003814697266 0.0000000000000000
8.1461572647094727 8.8890180587768555 0.0000000000000000
8.1347761154174805 8.9265365600585938 0.0000000000000000
8.1162939071655273 8.9611139297485352 0.0000000000000000
8.0914211273193359 8.9914216995239258 0.0000000000000000
8.0611143112182617 9.0162935256958008 0.0000000000000000
8.0265369415283203 9.0347757339477539 0.0000000000000000
7.9890179634094238 9.0461568832397461 0.0000000000000000
7.9499998092651367 9.0500001907348633 0.0000000000000000
7.9109821319580078 9.0461568832397461 0.0000000000000000
7.8734631538391113 9.0347757339477539 0.0000000000000000
7.8388857841491699 9.0162935256958008 0.0000000000000000
7.8085784912109375 8.9914216995239258 0.0000000000000000
7.7837061882019043 8.9611139297485352 0.0000000000000000
7.7652239799499512 8.9265365600585938 0.0000000000000000
7.7538428306579590 8.8890180587768555 0.0000000000000000
7.7500000000000000 8.8500003814697266 0.0000000000000000
7.7538428306579590 8.8109817504882812 0.0000000000000000
7.7652239799499512 8.7734632492065430 0.0000000000000000
7.7837061882019043 8.7388858795166016 0.0000000000000000
7.8085784912109375 8.7085790634155273 0.0000000000000000
7.8388857841491699 8.6837062835693359 0.0000000000000000
7.8734631538391113 8.6652240753173828 0.0000000000000000
7.9109821319580078 8.6538429260253906 0.0000000000000000
7.9499998092651367 8.6499996185302734 0.0000000000000000
7.9890179634094238 8.6538429260253906 0.0000000000000000
8.0265369415283203 8.6652240753173828 0.0000000000000000
8.0611143112182617 8.6837062835693359 0.0000000000000000
8.0914211273193359 8.7085790634155273 0.0000000000000000
8.1162939071655273 8.7388858795166016 0.0000000000000000
8.1347761154174805 8.7734632492065430 0.0000000000000000
8.1461572647094727 8.8109817504882812 0.0000000000000000
8.3500003814697266 8.8500003814697266 0.0000000000000000
8.3195514678955078 9.0030736923217773 0.0000000000000000
8.2328424453735352 9.1328430175781250 0.0000000000000000
8.1030731201171875 9.2195520401000977 0.0000000000000000
7.9499998092651367 9.2500000000000000 0.0000000000000000
7.7969264984130859 9.2195520401000977 0.0000000000000000
7.6671571731567383 9.1328430175781250 0.0000000000000000
7.5804481506347656 9.0030736923217773 0.0000000000000000
7.5500001907348633 8.8500003814697266 0.0000000000000000
7.5804481506347656 8.6969270706176758 0.0000000000000000
7.6671571731567383 8.5671577453613281 0.0000000000000000
7.7969264984130859 8.4804477691650391 0.0000000000000000
7.9499998092651367 8.4499998092651367 0.0000000000000000
8.1030731201171875 8.4804477691650391 0.0000000000000000
8.2328424453735352 8.5671577453613281 0.0000000000000000
8.3195514678955078 8.6969270706176758 0.0000000000000000
1.3500000238418579 7.9499998092651367 0.0000000000000000
1.3461570739746094 7.9890179634094238 0.0000000000000000
1.3347759246826172 8.0265369415283203 0.0000000000000000
1.3162939548492432 8.0611143112182617 0.0000000000000000
1.2914214134216309 8.0914211273193359 0.0000000000000000
1.2611140012741089 8.1162939071655273 0.0000000000000000
1.2265366315841675 8.1347761154174805 0.0000000000000000
1.1890180110931396 8.1461572647094727 0.0000000000000000
1.1499999761581421 8.1499996185302734 0.0000000000000000
1.1109819412231445 8.1461572647094727 0.0000000000000000
1.0734633207321167 8.1347761154174805 0.0000000000000000
1.0388859510421753 8.1162939071655273 0.0000000000000000
1.0085786581039429 8.0914211273193359 0.0000000000000000
0.9837060570716858 8.0611143112182617 0.0000000000000000
0.9652240872383118 8.0265369415283203 0.0000000000000000
0.9538429379463196 7.9890179634094238 0.0000000000000000
0.9499999880790710 7.9499998092651367 0.0000000000000000
0.9538429379463196 7.9109821319580078 0.0000000000000000
0.9652240872383118 7.8734631538391113 0.0000000000000000
0.9837060570716858 7.8388857841491699 0.0000000000000000
1.0085786581039429 7.8085784912109375 0.0000000000000000
1.0388859510421753 7.7837061882019043 0.0000000000000000
1.0734633207321167 7.7652239799499512 0.0000000000000000
1.1109819412231445 7.7538428306579590 0.0000000000000000
1.1499999761581421 7.7500000000000000 0.0000000000000000
1.1890180110931396 7.7538428306579590 0.0000000000000000
1.2265366315841675 7.7652239799499512 0.0000000000000000
1.2611140012741089 7.7837061882019043 0.0000000000000000
1.2914214134216309 7.8085784912109375 0.0000000000000000
1.3162939548492432 7.8388857841491699 0.0000000000000000
1.3347759246826172 7.8734631538391113 0.0000000000000000
1.3461570739746094 7.9109821319580078 0.0000000000000000
1.5499999523162842 7.9499998092651367 0.0000000000000000
1.5195517539978027 8.1030731201171875 0.0000000000000000
1.4328427314758301 8.2328424453735352 0.0000000000000000
1.3030734062194824 8.3195514678955078 0.0000000000000000
1.1499999761581421 8.3500003814697266 0.0000000000000000
0.9969266057014465 8.3195514678955078 0.0000000000000000
0.8671572804450989 8.2328424453735352 0.0000000000000000
0.7804481983184814 8.1030731201171875 0.0000000000000000
0.7500000000000000 7.9499998092651367 0.0000000000000000
0.7804481983184814 7.7969264984130859 0.0000000000000000
0.8671572804450989 7.6671571731567383 0.0000000000000000
0.9969266057014465 7.5804481506347656 0.0000000000000000
1.1499999761581421 7.5500001907348633 0.0000000000000000
1.3030734062194824 7.5804481506347656 0.0000000000000000
1.4328427314758301 7.6671571731567383 0.0000000000000000
1.5195517539978027 7.7969264984130859 0.0000000000000000
9.0500001907348633 7.9499998092651367 0.0000000000000000
9.0461568832397461 7.9890179634094238 0.0000000000000000
9.0347757339477539 8.0265369415283203 0.0000000000000000
9.0162935256958008 8.0611143112182617 0.0000000000000000
8.9914216995239258 8.0914211273193359 0.0000000000000000
8.9611139297485352 8.1162939071655273 0.0000000000000000
8.9265365600585938 8.1347761154174805 0.0000000000000000
8.8890180587768555 8.1461572647094727 0.0000000000000000
8.8500003814697266 8.1499996185302734 0.0000000000000000
8.8109817504882812 8.1461572647094727 0.0000000000000000
8.7734632492065430 8.1347761154174805 0.0000000000000000
8.7388858795166016 8.1162939071655273 0.0000000000000000
8.7085790634155273 8.0914211273193359 0.0000000000000000
8.6837062835693359 8.0611143112182617 0.0000000000000000
8.6652240753173828 8.0265369415283203 0.0000000000000000
8.6538429260253906 7.9890179634094238 0.0000000000000000
8.6499996185302734 7.9499998092651367 0.0000000000000000
8.6538429260253906 7.9109821319580078 0.0000000000000000
8.6652240753173828 7.8734631538391113 0.0000000000000000
8.6837062835693359 7.8388857841491699 0.0000000000000000
8.7085790634155273 7.8085784912109375 0.0000000000000000
8.7388858795166016 7.7837061882019043 0.0000000000000000
8.7734632492065430 7.7652239799499512 0.0000000000000000
8.8109817504882812 7.7538428306579590 0.0000000000000000
8.8500003814697266 7.7500000000000000 0.0000000000000000
8.8890180587768555 7.7538428306579590 0.0000000000000000
8.9265365600585938 7.7652239799499512 0.0000000000000000
8.9611139297485352 7.7837061882019043 0.0000000000000000
8.9914216995239258 7.8085784912109375 0.0000000000000000
9.0162935256958008 7.8388857841491699 0.0000000000000000
9.0347757339477539 7.8734631538391113 0.0000000000000000
9.0461568832397461 7.9109821319580078 0.0000000000000000
9.2500000000000000 7.9499998092651367 0.0000000000000000
9.2195520401000977 8.1030731201171875 0.0000000000000000
9.1328430175781250 8.2328424453735352 0.0000000000000000
9.0030736923217773 8.3195514678955078 0.0000000000000000
8.8500003814697266 8.3500003814697266 0.0000000000000000
8.6969270706176758 8.3195514678955078 0.0000000000000000
8.5671577453613281 8.2328424453735352 0.0000000000000000
8.4804477691650391 8.1030731201171875 0.0000000000000000
8.4499998092651367 7.9499998092651367 0.0000000000000000
8.4804477691650391 7.7969264984130859 0.0000000000000000
8.5671577453613281 7.6671571731567383 0.0000000000000000
8.6969270706176758 7.5804481506347656 0.0000000000000000
8.8500003814697266 7.5500001907348633 0.0000000000000000
9.0030736923217773 7.5804481506347656 0.0000000000000000
9.1328430175781250 7.6671571731567383 0.0000000000000000
9.2195520401000977 7.7969264984130859 0.0000000000000000
8.2464733123779297 -0.0509276241064072 0.0000000000000000
7.3295516967773438 -0.0483078509569168 0.0000000000000000
6.4126300811767578 -0.0456880740821362 0.0000000000000000
5.4957084655761719 -0.0430682972073555 0.0000000000000000
4.5787868499755859 -0.0404485203325748 0.0000000000000000
3.6618654727935791 -0.0378287471830845 0.0000000000000000
2.7449438571929932 -0.0352089703083038 0.0000000000000000
1.8280224800109863 -0.0325891934335232 0.0000000000000000
0.1173088699579239 4.1904892921447754 0.0000000000000000
0.1487461775541306 5.0864524841308594 0.0000000000000000
0.1330275237560272 8.2812690734863281 0.0000000000000000
2.4643003940582275 10.0496177673339844 0.0000000000000000
3.3808944225311279 10.0614070892333984 0.0000000000000000
4.2974886894226074 10.0731954574584961 0.0000000000000000
5.2140827178955078 10.0849847793579102 0.0000000000000000
6.1306767463684082 10.0967741012573242 0.0000000000000000
7.0472707748413086 10.1085624694824219 0.0000000000000000
7.9638648033142090 10.1203517913818359 0.0000000000000000
9.8000001907348633 8.3795108795166016 0.0000000000000000
9.8000001907348633 7.4756879806518555 0.0000000000000000
9.8000001907348633 6.5718655586242676 0.0000000000000000
9.8000001907348633 5.6680426597595215 0.0000000000000000
9.8000001907348633 4.7642202377319336 0.0000000000000000
9.8000001907348633 3.8603975772857666 0.0000000000000000
9.8000001907348633 2.9565749168395996 0.0000000000000000
9.8000001907348633 2.0527522563934326 0.0000000000000000
9.1053953170776367 0.3420672416687012 0.0000000000000000
0.7658560872077942 9.5010538101196289 0.0000000000000000
8.9211015701293945 9.6348581314086914 0.0000000000000000
0.6714230179786682 0.8833119273185730 0.0000000000000000
0.2116613686084747 6.4060187339782715 0.0000000000000000
0.3001970350742340 6.8577694892883301 0.0000000000000000
0.4637449979782104 1.4001705646514893 0.0000000000000000
8.0183095932006836 9.0765037536621094 0.0000000000000000
8.6237688064575195 8.0117702484130859 0.0000000000000000
8.1389036178588867 8.9831466674804688 0.0000000000000000
6.2447443008422852 8.9146490097045898 0.0000000000000000
8.9146490097045898 6.7052555084228516 0.0000000000000000
8.7807025909423828 6.2401981353759766 0.0000000000000000
7.7162566184997559 8.9347686767578125 0.0000000000000000
8.7753028869628906 7.7225747108459473 0.0000000000000000
4.7796525955200195 8.9604568481445312 0.0000000000000000
5.2249722480773926 8.7450304031372070 0.0000000000000000
8.9551286697387695 5.2248635292053223 0.0000000000000000
8.7113761901855469 4.7966709136962891 0.0000000000000000
8.0956792831420898 8.6524286270141602 0.0000000000000000
9.0457429885864258 8.0858020782470703 0.0000000000000000
2.1165809631347656 8.6242580413818359 0.0000000000000000
3.4498822689056396 9.0774183273315430 0.0000000000000000
3.5932455062866211 8.6234073638916016 0.0000000000000000
9.0765924453735352 3.5932455062866211 0.0000000000000000
8.1388397216796875 1.0033087730407715 0.0000000000000000
4.9318490028381348 9.0861005783081055 0.0000000000000000
5.0751175880432129 8.6225814819335938 0.0000000000000000
9.0833034515380859 5.0848546028137207 0.0000000000000000
6.5501174926757812 8.6225814819335938 0.0000000000000000
1.9748823642730713 9.0774183273315430 0.0000000000000000
8.6242580413818359 3.4584188461303711 0.0000000000000000
8.9579935073852539 4.7853364944458008 0.0000000000000000
6.2497777938842773 8.7446594238281250 0.0000000000000000
8.7231311798095703 6.6854577064514160 0.0000000000000000
7.7364697456359863 8.7423496246337891 0.0000000000000000
8.9576501846313477 7.7364697456359863 0.0000000000000000
5.0274257659912109 9.0942840576171875 0.0000000000000000
9.0961017608642578 4.9709491729736328 0.0000000000000000
1.0002361536026001 8.1332283020019531 0.0000000000000000
1.3068610429763794 8.1318111419677734 0.0000000000000000
8.7011976242065430 8.1412878036499023 0.0000000000000000
2.1966912746429443 9.0388393402099609 0.0000000000000000
3.6716911792755127 9.0388393402099609 0.0000000000000000
8.6115274429321289 2.0322587490081787 0.0000000000000000
8.0383014678955078 8.6237735748291016 0.0000000000000000
9.0822095870971680 8.0285053253173828 0.0000000000000000
8.1355104446411133 1.2940987348556519 0.0000000000000000
1.3810943365097046 8.0191307067871094 0.0000000000000000
8.9194335937500000 2.2875702381134033 0.0000000000000000
8.1753759384155273 8.8127374649047852 0.0000000000000000
0.9243361949920654 8.0119943618774414 0.0000000000000000
8.8923597335815430 8.1847858428955078 0.0000000000000000
8.6115274429321289 6.4572587013244629 0.0000000000000000
8.0117702484130859 1.3762314319610596 0.0000000000000000
8.6115274429321289 7.9322586059570312 0.0000000000000000
6.5116930007934570 9.0927143096923828 0.0000000000000000
9.0888538360595703 6.4573702812194824 0.0000000000000000
7.9141359329223633 9.0936918258666992 0.0000000000000000
7.9209494590759277 8.6038980484008789 0.0000000000000000
9.0961017608642578 7.9209494590759277 0.0000000000000000
5.1801047325134277 8.9978075027465820 0.0000000000000000
6.6695623397827148 9.0034780502319336 0.0000000000000000
4.7915010452270508 8.7379341125488281 0.0000000000000000
8.7379341125488281 5.2084989547729492 0.0000000000000000
8.9683284759521484 6.2672090530395508 0.0000000000000000
2.2365095615386963 8.7052421569824219 0.0000000000000000
3.7129883766174316 8.7021570205688477 0.0000000000000000
8.9978427886962891 3.7129883766174316 0.0000000000000000
8.7052459716796875 3.3384923934936523 0.0000000000000000
3.3305149078369141 8.9890241622924805 0.0000000000000000
3.4173071384429932 8.6360750198364258 0.0000000000000000
9.0639257431030273 3.4173071384429932 0.0000000000000000
8.6225814819335938 4.9248824119567871 0.0000000000000000
9.0961017608642578 2.0209493637084961 0.0000000000000000
1.8250279426574707 8.9549694061279297 0.0000000000000000
2.2636330127716064 8.9579954147338867 0.0000000000000000
8.9579429626464844 1.8355033397674561 0.0000000000000000
1.8968024253845215 8.6550683975219727 0.0000000000000000
3.3105032444000244 8.7420568466186523 0.0000000000000000
8.7446594238281250 3.7502222061157227 0.0000000000000000
8.9576501846313477 3.3114695549011230 0.0000000000000000
1.3311704397201538 6.3189196586608887 0.0000000000000000
1.3311704397201538 7.7939195632934570 0.0000000000000000
1.8241117000579834 8.7381935119628906 0.0000000000000000
8.6550683975219727 3.6781976222991943 0.0000000000000000
8.1737813949584961 8.7424678802490234 0.0000000000000000
8.9587965011596680 8.1696729660034180 0.0000000000000000
4.9251313209533691 8.6228914260864258 0.0000000000000000
6.3865561485290527 9.0737619400024414 0.0000000000000000
6.4001312255859375 8.6228914260864258 0.0000000000000000
1.2683286666870117 6.2672090530395508 0.0000000000000000
9.0884857177734375 6.5423398017883301 0.0000000000000000
8.6112804412841797 6.5419387817382812 0.0000000000000000
1.2714675664901733 7.7338666915893555 0.0000000000000000
1.2113014459609985 4.7652802467346191 0.0000000000000000
8.0583391189575195 0.9352321624755859 0.0000000000000000
8.9978427886962891 2.2379884719848633 0.0000000000000000
8.7235813140869141 2.2464804649353027 0.0000000000000000
5.2236266136169434 1.2025488615036011 0.0000000000000000
6.7025642395019531 1.2113070487976074 0.0000000000000000
3.7386329174041748 8.9579954147338867 0.0000000000000000
4.7681937217712402 1.0818250179290771 0.0000000000000000
1.0818250179290771 5.2318062782287598 0.0000000000000000
6.2492580413818359 1.0834189653396606 0.0000000000000000
2.2745769023895264 1.0390443801879883 0.0000000000000000
2.2662723064422607 1.2715297937393188 0.0000000000000000
3.3766376972198486 9.0353956222534180 0.0000000000000000
1.0328984260559082 3.7335290908813477 0.0000000000000000
5.1564288139343262 0.9686391353607178 0.0000000000000000
0.9686391353607178 4.8435711860656738 0.0000000000000000
6.6314287185668945 0.9686391353607178 0.0000000000000000
6.7029995918273926 8.7746553421020508 0.0000000000000000
5.2333393096923828 8.9346656799316406 0.0000000000000000
6.7024183273315430 8.9251174926757812 0.0000000000000000
9.0765924453735352 2.1182453632354736 0.0000000000000000
8.6112804412841797 2.1169388294219971 0.0000000000000000
3.3419277667999268 0.9823229908943176 0.0000000000000000
4.7717509269714355 1.2254780530929565 0.0000000000000000
1.2253446578979492 5.2279996871948242 0.0000000000000000
6.2467508316040039 1.2254780530929565 0.0000000000000000
1.3104822635650635 4.8182587623596191 0.0000000000000000
2.2774255275726318 8.7753009796142578 0.0000000000000000
3.7565925121307373 8.7734823226928711 0.0000000000000000
1.3059288263320923 3.3424615859985352 0.0000000000000000
8.9270582199096680 3.7620804309844971 0.0000000000000000
8.7753028869628906 3.2975745201110840 0.0000000000000000
4.8440713882446289 1.3325383663177490 0.0000000000000000
1.3370481729507446 5.1523041725158691 0.0000000000000000
1.3779995441436768 4.9246554374694824 0.0000000000000000
6.3190712928771973 1.3325383663177490 0.0000000000000000
9.0639257431030273 1.9423071146011353 0.0000000000000000
5.1912879943847656 1.2988027334213257 0.0000000000000000
6.6662878990173340 1.2988027334213257 0.0000000000000000
5.2481284141540527 1.1365997791290283 0.0000000000000000
5.1296505928039551 9.0504541397094727 0.0000000000000000
9.0639257431030273 4.8923072814941406 0.0000000000000000
6.7162666320800781 1.1453392505645752 0.0000000000000000
1.3888534307479858 6.4573702812194824 0.0000000000000000
1.1322587728500366 6.7134723663330078 0.0000000000000000
0.9019828438758850 6.4858860969543457 0.0000000000000000
7.7115278244018555 1.1322587728500366 0.0000000000000000
7.9348726272583008 0.9076591134071350 0.0000000000000000
1.3888534307479858 7.9323706626892090 0.0000000000000000
3.3438296318054199 1.3060804605484009 0.0000000000000000
1.3070797920227051 3.7069904804229736 0.0000000000000000
3.5753421783447266 0.9188046455383301 0.0000000000000000
1.1292892694473267 4.7607774734497070 0.0000000000000000
6.5725274085998535 9.0724048614501953 0.0000000000000000
0.9539221525192261 6.3226332664489746 0.0000000000000000
1.1679176092147827 6.2352533340454102 0.0000000000000000
7.8530321121215820 9.0722551345825195 0.0000000000000000
7.8423070907592773 8.6360750198364258 0.0000000000000000
0.9686391353607178 7.7935709953308105 0.0000000000000000
1.1737462282180786 7.7144861221313477 0.0000000000000000
9.0639257431030273 7.8423070907592773 0.0000000000000000
4.8468022346496582 8.6550683975219727 0.0000000000000000
8.6550683975219727 5.1531977653503418 0.0000000000000000
9.0311708450317383 6.3189196586608887 0.0000000000000000
3.7129883766174316 1.0021570920944214 0.0000000000000000
2.2060432434082031 1.3315284252166748 0.0000000000000000
2.1132593154907227 1.3806012868881226 0.0000000000000000
0.9228909611701965 3.5998685359954834 0.0000000000000000
0.9939568042755127 3.3434715270996094 0.0000000000000000
4.9370827674865723 0.9152601957321167 0.0000000000000000
6.4093213081359863 0.9250142574310303 0.0000000000000000
1.3332278728485107 6.6247639656066895 0.0000000000000000
7.8020992279052734 1.3330789804458618 0.0000000000000000
1.2576502561569214 1.8364695310592651 0.0000000000000000
8.7312927246093750 1.8498076200485229 0.0000000000000000
5.2162513732910156 1.0289814472198486 0.0000000000000000
1.0289814472198486 4.7837486267089844 0.0000000000000000
2.0322587490081787 1.3884723186492920 0.0000000000000000
0.9220004677772522 2.1253445148468018 0.0000000000000000
3.5919930934906006 1.3888621330261230 0.0000000000000000
1.3782490491867065 3.4495220184326172 0.0000000000000000
4.9822587966918945 1.3884723186492920 0.0000000000000000
0.9115276336669922 4.9822587966918945 0.0000000000000000
6.4572587013244629 1.3884723186492920 0.0000000000000000
1.9033087491989136 0.9611604213714600 0.0000000000000000
2.2874436378479004 8.8798589706420898 0.0000000000000000
1.8965215682983398 9.0445623397827148 0.0000000000000000
1.3567036390304565 1.9374561309814453 0.0000000000000000
8.8325319290161133 2.2930769920349121 0.0000000000000000
3.2830114364624023 8.8650321960449219 0.0000000000000000
5.0177412033081055 0.9115276336669922 0.0000000000000000
6.4927411079406738 0.9115276336669922 0.0000000000000000
1.2576928138732910 2.2639253139495850 0.0000000000000000
1.0425130128860474 1.8416723012924194 0.0000000000000000
3.7214443683624268 1.2763891220092773 0.0000000000000000
1.3774183988571167 5.0751175880432129 0.0000000000000000
1.3884859085083008 6.5423398017883301 0.0000000000000000
1.3783148527145386 3.5992050170898438 0.0000000000000000
0.9198567271232605 3.4498240947723389 0.0000000000000000
2.1248686313629150 9.0771093368530273 0.0000000000000000
0.9152601957321167 5.0629172325134277 0.0000000000000000
3.5069792270660400 1.3886991739273071 0.0000000000000000
3.5085062980651855 0.9056441187858582 0.0000000000000000
1.8197443485260010 1.2146489620208740 0.0000000000000000
0.9225816726684570 1.9748823642730713 0.0000000000000000
3.3957021236419678 0.9467895627021790 0.0000000000000000
1.0867407321929932 3.2943987846374512 0.0000000000000000
4.8439598083496094 0.9590235948562622 0.0000000000000000
4.8492836952209473 9.0364789962768555 0.0000000000000000
5.1534786224365234 8.6554374694824219 0.0000000000000000
0.9590235948562622 5.1560401916503906 0.0000000000000000
9.0472211837768555 5.1382617950439453 0.0000000000000000
6.3271570205688477 0.9620115756988525 0.0000000000000000
6.3268055915832520 9.0460577011108398 0.0000000000000000
6.6273045539855957 8.6629514694213867 0.0000000000000000
1.0434449911117554 6.2570610046386719 0.0000000000000000
9.0332279205322266 6.6247639656066895 0.0000000000000000
1.0319362878799438 7.7471356391906738 0.0000000000000000
2.1251177787780762 0.9225816726684570 0.0000000000000000
1.1107829809188843 2.2858264446258545 0.0000000000000000
0.9115276336669922 7.9322586059570312 0.0000000000000000
1.8169575929641724 1.1245670318603516 0.0000000000000000
2.2034785747528076 0.9554376006126404 0.0000000000000000
0.9935711026191711 6.6563611030578613 0.0000000000000000
7.7686390876770020 0.9935711026191711 0.0000000000000000
1.9751313924789429 0.9228909611701965 0.0000000000000000
1.3635303974151611 2.1576502323150635 0.0000000000000000
1.1761868000030518 2.2860026359558105 0.0000000000000000
3.7680771350860596 1.1674684286117554 0.0000000000000000
3.4066712856292725 1.3577908277511597 0.0000000000000000
3.2861466407775879 1.1676295995712280 0.0000000000000000
1.1748749017715454 3.7590379714965820 0.0000000000000000
1.8144057989120483 8.8910131454467773 0.0000000000000000
8.8349676132202148 1.8080112934112549 0.0000000000000000
8.6686391830444336 1.8935711383819580 0.0000000000000000
8.8082733154296875 3.7624926567077637 0.0000000000000000
8.8798036575317383 3.2877438068389893 0.0000000000000000
2.2954094409942627 1.1765118837356567 0.0000000000000000
7.9322586059570312 1.3884723186492920 0.0000000000000000
0.9895176887512207 2.2317414283752441 0.0000000000000000
1.1703313589096069 1.8062059879302979 0.0000000000000000
1.9751313924789429 8.6228914260864258 0.0000000000000000
1.1677412986755371 3.2865276336669922 0.0000000000000000
5.0617704391479492 1.3762314319610596 0.0000000000000000
6.5367703437805176 1.3762314319610596 0.0000000000000000
8.6744613647460938 2.2162702083587646 0.0000000000000000
3.5998685359954834 9.0771093368530273 0.0000000000000000
8.6228914260864258 3.5998685359954834 0.0000000000000000
0.9337485432624817 6.5960187911987305 0.0000000000000000
3.6912500858306885 1.3254623413085938 0.0000000000000000
1.2119940519332886 6.7006635665893555 0.0000000000000000
7.7243361473083496 1.2119940519332886 0.0000000000000000
0.9672744870185852 3.6717777252197266 0.0000000000000000
1.9020993709564209 1.3330789804458618 0.0000000000000000
0.9636575579643250 1.9103990793228149 0.0000000000000000
1.3822102546691895 2.0790827274322510 0.0000000000000000
7.8312969207763672 0.9498210549354553 0.0000000000000000
3.7568690776824951 8.8728370666503906 0.0000000000000000
8.6752729415893555 4.8478126525878906 0.0000000000000000
6.3218021392822266 8.6550683975219727 0.0000000000000000
8.6743974685668945 6.6432666778564453 0.0000000000000000
8.6619281768798828 6.3233060836791992 0.0000000000000000
8.6677370071411133 7.8051428794860840 0.0000000000000000
3.7625703811645508 1.0805660486221313 0.0000000000000000
5.2372221946716309 8.8083095550537109 0.0000000000000000
4.7701525688171387 8.8895158767700195 0.0000000000000000
8.8925485610961914 5.2323579788208008 0.0000000000000000
8.6228914260864258 5.0748686790466309 0.0000000000000000
8.8348579406738281 4.7577290534973145 0.0000000000000000
6.2448601722717285 8.8057069778442383 0.0000000000000000
8.8304662704467773 6.7235226631164551 0.0000000000000000
8.8680210113525391 6.2363009452819824 0.0000000000000000
7.7038350105285645 8.8204889297485352 0.0000000000000000
8.8798036575317383 7.7127437591552734 0.0000000000000000
3.2865140438079834 1.0826601982116699 0.0000000000000000
0.9148866534233093 6.4227442741394043 0.0000000000000000
8.1771087646484375 1.0751314163208008 0.0000000000000000
1.8363670110702515 1.0420048236846924 0.0000000000000000
8.1851711273193359 8.9256105422973633 0.0000000000000000
8.7730751037597656 8.1844158172607422 0.0000000000000000
3.4959492683410645 8.6038980484008789 0.0000000000000000
9.0961017608642578 3.4959492683410645 0.0000000000000000
8.1774187088012695 1.2251176834106445 0.0000000000000000
1.1676295995712280 8.1888532638549805 0.0000000000000000
1.0826601982116699 8.1884860992431641 0.0000000000000000
6.6912512779235840 1.0289814472198486 0.0000000000000000
7.7523345947265625 8.9895572662353516 0.0000000000000000
0.4147320389747620 5.5256528854370117 0.0000000000000000
0.8725157976150513 1.2528597116470337 0.0000000000000000
9.4923696517944336 4.4246406555175781 0.0000000000000000
9.4227771759033203 8.7489795684814453 0.0000000000000000
0.4967245757579803 6.1231603622436523 0.0000000000000000
0.5023404955863953 8.7712106704711914 0.0000000000000000
9.5097770690917969 7.0048928260803223 0.0000000000000000
1.4167480468750000 0.3668510615825653 0.0000000000000000
6.4486441612243652 8.6079339981079102 0.0000000000000000
8.6079339981079102 5.0263557434082031 0.0000000000000000
4.9736442565917969 8.6079339981079102 0.0000000000000000
9.0025873184204102 4.8100085258483887 0.0000000000000000
8.6162748336791992 1.9817149639129639 0.0000000000000000
8.6079339981079102 3.5513556003570557 0.0000000000000000
2.0236442089080811 8.6079339981079102 0.0000000000000000
1.3922139406204224 4.9735651016235352 0.0000000000000000
9.0025300979614258 7.7601976394653320 0.0000000000000000
9.0025787353515625 1.8600364923477173 0.0000000000000000
8.6162748336791992 6.4067149162292480 0.0000000000000000
2.0763556957244873 9.0920658111572266 0.0000000000000000
1.3635535240173340 6.3580160140991211 0.0000000000000000
9.0025300979614258 3.3351974487304688 0.0000000000000000
5.0682849884033203 0.9162747263908386 0.0000000000000000
3.5513556003570557 9.0920658111572266 0.0000000000000000
7.7162747383117676 1.0817149877548218 0.0000000000000000
4.9317150115966797 1.3837252855300903 0.0000000000000000
0.9162747263908386 4.9317150115966797 0.0000000000000000
1.2671505212783813 3.7386901378631592 0.0000000000000000
8.6162748336791992 7.8817148208618164 0.0000000000000000
0.9077860116958618 2.0764350891113281 0.0000000000000000
1.9817149639129639 1.3837252855300903 0.0000000000000000
6.5432848930358887 0.9162747263908386 0.0000000000000000
1.3398025035858154 2.2025299072265625 0.0000000000000000
1.3025299310684204 1.8601975440979004 0.0000000000000000
0.9079344272613525 3.5513556003570557 0.0000000000000000
2.0236442089080811 0.9079344272613525 0.0000000000000000
1.0817149877548218 6.7087254524230957 0.0000000000000000
1.2182849645614624 3.2912747859954834 0.0000000000000000
4.7577443122863770 1.1764572858810425 0.0000000000000000
1.1764349937438965 5.2422137260437012 0.0000000000000000
6.4067149162292480 1.3837252855300903 0.0000000000000000
1.3922555446624756 3.4985427856445312 0.0000000000000000
3.3114464282989502 1.2669839859008789 0.0000000000000000
7.7601976394653320 8.6974697113037109 0.0000000000000000
6.7172141075134277 8.8235645294189453 0.0000000000000000
1.3635535240173340 7.8330159187316895 0.0000000000000000
3.3350365161895752 8.6974210739135742 0.0000000000000000
6.2327442169189453 1.1764572858810425 0.0000000000000000
9.0635538101196289 6.3580160140991211 0.0000000000000000
7.8817148208618164 1.3837252855300903 0.0000000000000000
0.9162747263908386 7.8817148208618164 0.0000000000000000
1.2671140432357788 8.1636600494384766 0.0000000000000000
8.1920652389526367 1.1236443519592285 0.0000000000000000
8.7631959915161133 0.2576756477355957 0.0000000000000000
8.7960977554321289 0.5877674221992493 0.0000000000000000
9.2011079788208008 0.7478128075599670 0.0000000000000000
8.7754621505737305 0.9707973003387451 0.0000000000000000
9.1418933868408203 1.1607710123062134 0.0000000000000000
8.5501136779785156 0.7529492974281311 0.0000000000000000
8.8504705429077148 1.3084022998809814 0.0000000000000000
8.6205291748046875 1.1588952541351318 0.0000000000000000
8.6239795684814453 1.4128820896148682 0.0000000000000000
0.4997475743293762 6.6007552146911621 0.0000000000000000
0.5615672469139099 6.9205293655395508 0.0000000000000000
5.6594214439392090 9.7156972885131836 0.0000000000000000
4.0710010528564453 0.3614228963851929 0.0000000000000000
9.1081581115722656 1.4867112636566162 0.0000000000000000
2.9430911540985107 9.5961732864379883 0.0000000000000000
1.3247971534729004 8.2022237777709961 0.0000000000000000
1.4449646472930908 8.3840236663818359 0.0000000000000000
1.3677893877029419 8.1368541717529297 0.0000000000000000
1.3068211078643799 8.4701671600341797 0.0000000000000000
1.1325960159301758 8.5260772705078125 0.0000000000000000
1.2726747989654541 8.6496238708496094 0.0000000000000000
1.5836557149887085 8.2471885681152344 0.0000000000000000
1.6770030260086060 8.1174812316894531 0.0000000000000000
1.7198766469955444 7.9493589401245117 0.0000000000000000
1.8315974473953247 8.0652065277099609 0.0000000000000000
1.8739495277404785 7.9159340858459473 0.0000000000000000
1.9808439016342163 8.0304136276245117 0.0000000000000000
2.0255510807037354 7.8813042640686035 0.0000000000000000
1.9190340042114258 7.7671885490417480 0.0000000000000000
2.0710432529449463 7.7320504188537598 0.0000000000000000
2.1775543689727783 7.8461318016052246 0.0000000000000000
2.2230844497680664 7.6968636512756348 0.0000000000000000
2.3295941352844238 7.8109440803527832 0.0000000000000000
2.3751366138458252 7.6616663932800293 0.0000000000000000
2.2686297893524170 7.5475845336914062 0.0000000000000000
2.4206809997558594 7.5123877525329590 0.0000000000000000
2.5271880626678467 7.6264700889587402 0.0000000000000000
2.5727326869964600 7.4771909713745117 0.0000000000000000
2.4662256240844727 7.3631086349487305 0.0000000000000000
2.6182773113250732 7.3279118537902832 0.0000000000000000
2.7247843742370605 7.4419941902160645 0.0000000000000000
2.7703289985656738 7.2927155494689941 0.0000000000000000
2.6638219356536865 7.1786332130432129 0.0000000000000000
2.8158738613128662 7.1434364318847656 0.0000000000000000
2.7093665599822998 7.0293540954589844 0.0000000000000000
2.8614184856414795 6.9941573143005371 0.0000000000000000
2.9679255485534668 7.1082396507263184 0.0000000000000000
3.0134701728820801 6.9589605331420898 0.0000000000000000
2.9069631099700928 6.8448781967163086 0.0000000000000000
3.0590147972106934 6.8096814155578613 0.0000000000000000
3.1655218601226807 6.9237637519836426 0.0000000000000000
3.2110667228698730 6.7744846343994141 0.0000000000000000
3.1045594215393066 6.6604022979736328 0.0000000000000000
3.2566113471984863 6.6252059936523438 0.0000000000000000
3.3631184101104736 6.7392883300781250 0.0000000000000000
3.4086630344390869 6.5900092124938965 0.0000000000000000
3.3021559715270996 6.4759268760681152 0.0000000000000000
3.4542076587677002 6.4407300949096680 0.0000000000000000
3.5607147216796875 6.5548124313354492 0.0000000000000000
3.6062595844268799 6.4055333137512207 0.0000000000000000
3.4997522830963135 6.2914509773254395 0.0000000000000000
3.6518042087554932 6.2562541961669922 0.0000000000000000
3.5452971458435059 6.1421718597412109 0.0000000000000000
3.6973488330841064 6.1069750785827637 0.0000000000000000
3.8038558959960938 6.2210574150085449 0.0000000000000000
3.8494005203247070 6.0717787742614746 0.0000000000000000
3.7428934574127197 5.9576964378356934 0.0000000000000000
3.8949451446533203 5.9224996566772461 0.0000000000000000
4.0014524459838867 6.0365819931030273 0.0000000000000000
4.0469970703125000 5.8873028755187988 0.0000000000000000
3.9404900074005127 5.7732205390930176 0.0000000000000000
4.0925416946411133 5.7380237579345703 0.0000000000000000
4.1990489959716797 5.8521060943603516 0.0000000000000000
4.2445936203002930 5.7028269767761230 0.0000000000000000
4.1380863189697266 5.5887446403503418 0.0000000000000000
4.2901382446289062 5.5535478591918945 0.0000000000000000
4.3966450691223145 5.6676301956176758 0.0000000000000000
4.4421896934509277 5.5183515548706055 0.0000000000000000
4.5486969947814941 5.6324338912963867 0.0000000000000000
4.5942416191101074 5.4831547737121582 0.0000000000000000
4.1836309432983398 5.4394655227661133 0.0000000000000000
4.7007489204406738 5.5972371101379395 0.0000000000000000
4.7462935447692871 5.4479579925537109 0.0000000000000000
4.8528003692626953 5.5620403289794922 0.0000000000000000
4.8983449935913086 5.4127612113952637 0.0000000000000000
5.0048522949218750 5.5268435478210449 0.0000000000000000
5.0503969192504883 5.3775644302368164 0.0000000000000000
4.9438900947570801 5.2634820938110352 0.0000000000000000
5.0959415435791016 5.2282857894897461 0.0000000000000000
4.9894347190856934 5.1142029762268066 0.0000000000000000
5.1414861679077148 5.0790066719055176 0.0000000000000000
5.0349793434143066 4.9649243354797363 0.0000000000000000
5.1870307922363281 4.9297275543212891 0.0000000000000000
5.1569042205810547 5.4916467666625977 0.0000000000000000
5.0805239677429199 4.8156452178955078 0.0000000000000000
5.2325754165649414 4.7804484367370605 0.0000000000000000
5.1260685920715332 4.6663661003112793 0.0000000000000000
5.2781205177307129 4.6311693191528320 0.0000000000000000
5.3846273422241211 4.7452516555786133 0.0000000000000000
5.4301719665527344 4.5959725379943848 0.0000000000000000
5.1716132164001465 4.5170869827270508 0.0000000000000000
5.5366792678833008 4.7100548744201660 0.0000000000000000
5.5822238922119141 4.5607762336730957 0.0000000000000000
5.1113595962524414 5.6409258842468262 0.0000000000000000
5.2634110450744629 5.6057291030883789 0.0000000000000000
5.6887311935424805 4.6748585700988770 0.0000000000000000
5.7342758178710938 4.5255794525146484 0.0000000000000000
5.2178664207458496 5.7550082206726074 0.0000000000000000
5.3699183464050293 5.7198119163513184 0.0000000000000000
5.3243737220764160 5.8690905570983887 0.0000000000000000
5.4764256477355957 5.8338942527770996 0.0000000000000000
5.8407826423645020 4.6396617889404297 0.0000000000000000
5.8863272666931152 4.4903826713562012 0.0000000000000000
5.7798204421997070 4.3763003349304199 0.0000000000000000
5.9318718910217285 4.3411035537719727 0.0000000000000000
5.8253650665283203 4.2270212173461914 0.0000000000000000
5.9774165153503418 4.1918244361877441 0.0000000000000000
5.8709096908569336 4.0777420997619629 0.0000000000000000
6.0229611396789551 4.0425453186035156 0.0000000000000000
5.4308810234069824 5.9831728935241699 0.0000000000000000
5.5829324722290039 5.9479765892028809 0.0000000000000000
5.9164543151855469 3.9284632205963135 0.0000000000000000
6.0685062408447266 3.8932664394378662 0.0000000000000000
5.5373878479003906 6.0972552299499512 0.0000000000000000
5.6894397735595703 6.0620589256286621 0.0000000000000000
5.9928345680236816 4.6044650077819824 0.0000000000000000
6.1750130653381348 4.0073490142822266 0.0000000000000000
6.2205576896667480 3.8580696582794189 0.0000000000000000
5.9619989395141602 3.7791841030120850 0.0000000000000000
5.6438951492309570 6.2113375663757324 0.0000000000000000
5.7959465980529785 6.1761412620544434 0.0000000000000000
6.3270649909973145 3.9721519947052002 0.0000000000000000
6.3726096153259277 3.8228731155395508 0.0000000000000000
5.0195612907409668 4.5522837638854980 0.0000000000000000
5.0651059150695801 4.4030046463012695 0.0000000000000000
4.9130544662475586 4.4382014274597168 0.0000000000000000
4.9585990905761719 4.2889223098754883 0.0000000000000000
4.8065471649169922 4.3241190910339355 0.0000000000000000
4.8520917892456055 4.1748399734497070 0.0000000000000000
4.7000398635864258 4.2100367546081543 0.0000000000000000
4.7455844879150391 4.0607576370239258 0.0000000000000000
4.5935330390930176 4.0959544181823730 0.0000000000000000
4.6390776634216309 3.9466753005981445 0.0000000000000000
4.4870257377624512 3.9818718433380127 0.0000000000000000
4.5325703620910645 3.8325929641723633 0.0000000000000000
4.3805189132690430 3.8677895069122314 0.0000000000000000
4.4260635375976562 3.7185106277465820 0.0000000000000000
4.2740116119384766 3.7537071704864502 0.0000000000000000
5.7504019737243652 6.3254203796386719 0.0000000000000000
5.9024538993835449 6.2902235984802246 0.0000000000000000
5.5983505249023438 6.3606166839599609 0.0000000000000000
6.4791169166564941 3.9369554519653320 0.0000000000000000
6.5246615409851074 3.7876763343811035 0.0000000000000000
4.3195562362670898 3.6044282913208008 0.0000000000000000
4.1675043106079102 3.6396248340606689 0.0000000000000000
4.1219596862792969 3.7889039516448975 0.0000000000000000
4.0154528617858887 3.6748216152191162 0.0000000000000000
3.9699079990386963 3.8241007328033447 0.0000000000000000
3.8634009361267090 3.7100181579589844 0.0000000000000000
3.8178563117980957 3.8592972755432129 0.0000000000000000
4.4716081619262695 3.5692315101623535 0.0000000000000000
3.7113492488861084 3.7452149391174316 0.0000000000000000
3.6658043861389160 3.8944940567016602 0.0000000000000000
5.7048573493957520 6.4746990203857422 0.0000000000000000
5.5528059005737305 6.5098958015441895 0.0000000000000000
3.7568938732147217 3.5959358215332031 0.0000000000000000
3.6048419475555420 3.6311326026916504 0.0000000000000000
4.3651008605957031 3.4551491737365723 0.0000000000000000
4.5171527862548828 3.4199523925781250 0.0000000000000000
5.9479985237121582 6.1409444808959961 0.0000000000000000
6.0545058250427246 6.2550268173217773 0.0000000000000000
6.1000504493713379 6.1057476997375488 0.0000000000000000
6.2065572738647461 6.2198300361633301 0.0000000000000000
6.2521018981933594 6.0705509185791016 0.0000000000000000
6.3586091995239258 6.1846332550048828 0.0000000000000000
6.4041538238525391 6.0353541374206543 0.0000000000000000
6.3130645751953125 6.3339123725891113 0.0000000000000000
6.4651165008544922 6.2987155914306641 0.0000000000000000
6.4195718765258789 6.4479947090148926 0.0000000000000000
6.6311683654785156 3.9017586708068848 0.0000000000000000
6.6767129898071289 3.7524797916412354 0.0000000000000000
6.5702061653137207 3.6383972167968750 0.0000000000000000
6.7222576141357422 3.6032006740570068 0.0000000000000000
5.6593127250671387 6.6239781379699707 0.0000000000000000
5.5072612762451172 6.6591749191284180 0.0000000000000000
6.6157507896423340 3.4891183376312256 0.0000000000000000
6.7678022384643555 3.4539215564727783 0.0000000000000000
3.6503865718841553 3.4818534851074219 0.0000000000000000
3.4983348846435547 3.5170502662658691 0.0000000000000000
4.4106454849243164 3.3058700561523438 0.0000000000000000
4.5626974105834961 3.2706735134124756 0.0000000000000000
6.5716233253479004 6.4127979278564453 0.0000000000000000
6.5260787010192871 6.5620770454406738 0.0000000000000000
5.6137681007385254 6.7732572555541992 0.0000000000000000
5.4617161750793457 6.8084540367126465 0.0000000000000000
3.5438795089721680 3.3677711486816406 0.0000000000000000
3.3918278217315674 3.4029679298400879 0.0000000000000000
6.6781306266784668 6.5268802642822266 0.0000000000000000
4.4561901092529297 3.1565909385681152 0.0000000000000000
4.6082420349121094 3.1213943958282471 0.0000000000000000
6.6325860023498535 6.6761593818664551 0.0000000000000000
6.7832202911376953 3.8665621280670166 0.0000000000000000
6.6612954139709473 3.3398392200469971 0.0000000000000000
6.8133473396301270 3.3046424388885498 0.0000000000000000
5.5682234764099121 6.9225363731384277 0.0000000000000000
5.4161715507507324 6.9577331542968750 0.0000000000000000
6.7846379280090332 6.6409626007080078 0.0000000000000000
6.8301825523376465 6.4916839599609375 0.0000000000000000
3.4373724460601807 3.2536888122558594 0.0000000000000000
3.2853207588195801 3.2888855934143066 0.0000000000000000
3.2397761344909668 3.4381644725799561 0.0000000000000000
6.7376756668090820 4.0158410072326660 0.0000000000000000
6.8897275924682617 3.9806444644927979 0.0000000000000000
6.8441824913024902 4.1299233436584473 0.0000000000000000
6.7390928268432617 6.7902417182922363 0.0000000000000000
6.8911447525024414 6.7550449371337891 0.0000000000000000
3.1332688331604004 3.3240821361541748 0.0000000000000000
3.0877242088317871 3.4733612537384033 0.0000000000000000
3.1788134574890137 3.1748032569885254 0.0000000000000000
6.9962344169616699 4.0947265625000000 0.0000000000000000
6.9506897926330566 4.2440056800842285 0.0000000000000000
6.8456001281738281 6.9043240547180176 0.0000000000000000
4.5017347335815430 3.0073120594024658 0.0000000000000000
4.6537866592407227 2.9721152782440186 0.0000000000000000
6.7068400382995605 3.1905601024627686 0.0000000000000000
6.8588919639587402 3.1553635597229004 0.0000000000000000
6.9976520538330078 6.8691277503967285 0.0000000000000000
6.9521074295043945 7.0184063911437988 0.0000000000000000
6.8000555038452148 7.0536031723022461 0.0000000000000000
3.0267617702484131 3.2099997997283936 0.0000000000000000
3.0723063945770264 3.0607209205627441 0.0000000000000000
7.1041588783264160 6.9832100868225098 0.0000000000000000
5.5226788520812988 7.0718154907226562 0.0000000000000000
5.3706269264221191 7.1070122718811035 0.0000000000000000
5.2641201019287109 6.9929299354553223 0.0000000000000000
2.9202547073364258 3.0959174633026123 0.0000000000000000
2.9657993316650391 2.9466383457183838 0.0000000000000000
5.2185754776000977 7.1422085762023926 0.0000000000000000
3.1178510189056396 2.9114418029785156 0.0000000000000000
5.1120681762695312 7.0281262397766113 0.0000000000000000
5.0665235519409180 7.1774053573608398 0.0000000000000000
7.0586142539978027 7.1324887275695801 0.0000000000000000
2.8137476444244385 2.9818351268768311 0.0000000000000000
7.1027417182922363 4.2088088989257812 0.0000000000000000
7.0571970939636230 4.3580880165100098 0.0000000000000000
6.7523846626281738 3.0412812232971191 0.0000000000000000
6.9044365882873535 3.0060844421386719 0.0000000000000000
6.6003327369689941 3.0764777660369873 0.0000000000000000
6.9653987884521484 3.2694458961486816 0.0000000000000000
2.8592922687530518 2.8325560092926025 0.0000000000000000
4.5472793579101562 2.8580329418182373 0.0000000000000000
4.6993312835693359 2.8228361606597900 0.0000000000000000
4.8058385848999023 2.9369187355041504 0.0000000000000000
4.8513832092285156 2.7876396179199219 0.0000000000000000
4.9600162506103516 7.0633230209350586 0.0000000000000000
4.9144716262817383 7.2126021385192871 0.0000000000000000
3.7723116874694824 4.0085763931274414 0.0000000000000000
3.6202597618103027 4.0437731742858887 0.0000000000000000
7.1497035026550293 6.8339309692382812 0.0000000000000000
7.2106661796569824 7.0972924232482910 0.0000000000000000
4.9578900337219238 2.9017219543457031 0.0000000000000000
5.0034346580505371 2.7524428367614746 0.0000000000000000
5.4771342277526855 7.2210946083068848 0.0000000000000000
7.1651215553283691 7.2465710639953613 0.0000000000000000
5.1099419593811035 2.8665251731872559 0.0000000000000000
5.1554865837097168 2.7172462940216064 0.0000000000000000
6.6458773612976074 2.9271988868713379 0.0000000000000000
2.7072403430938721 2.8677527904510498 0.0000000000000000
2.7682027816772461 3.1311142444610596 0.0000000000000000
7.2092485427856445 4.3228912353515625 0.0000000000000000
7.1637039184570312 4.4721703529357910 0.0000000000000000
7.2547931671142578 4.1736125946044922 0.0000000000000000
5.2619938850402832 2.8313286304473877 0.0000000000000000
5.3075385093688965 2.6820495128631592 0.0000000000000000
4.8079648017883301 7.0985198020935059 0.0000000000000000
4.7624201774597168 7.2477989196777344 0.0000000000000000
3.7267668247222900 4.1578555107116699 0.0000000000000000
3.5747151374816895 4.1930522918701172 0.0000000000000000
5.9472899436950684 4.7537441253662109 0.0000000000000000
2.7527852058410645 2.7184736728668213 0.0000000000000000
4.8535094261169434 6.9492406845092773 0.0000000000000000
7.3171734809875488 7.2113747596740723 0.0000000000000000
4.5928239822387695 2.7087538242340088 0.0000000000000000
4.4407725334167480 2.7439506053924561 0.0000000000000000
4.4863171577453613 2.5946714878082275 0.0000000000000000
4.3342652320861816 2.6298682689666748 0.0000000000000000
7.3613004684448242 4.2876949310302734 0.0000000000000000
5.6291861534118652 7.1858978271484375 0.0000000000000000
5.5836415290832520 7.3351769447326660 0.0000000000000000
4.6544952392578125 4.3593158721923828 0.0000000000000000
7.2716288566589355 7.3606534004211426 0.0000000000000000
7.1195769309997559 7.3958501815795898 0.0000000000000000
3.6812222003936768 4.3071346282958984 0.0000000000000000
3.5291705131530762 4.3423309326171875 0.0000000000000000
4.6559128761291504 7.1337165832519531 0.0000000000000000
4.6103682518005371 7.2829957008361816 0.0000000000000000
4.3798098564147949 2.4805891513824463 0.0000000000000000
4.2277584075927734 2.5157859325408936 0.0000000000000000
2.6007332801818848 2.7536704540252686 0.0000000000000000
7.4068450927734375 4.1384158134460449 0.0000000000000000
5.7356929779052734 7.2999801635742188 0.0000000000000000
5.6901483535766602 7.4492592811584473 0.0000000000000000
5.8422002792358398 7.4140625000000000 0.0000000000000000
6.0993413925170898 4.7185473442077637 0.0000000000000000
5.2164492607116699 2.9806075096130371 0.0000000000000000
5.4140453338623047 2.7961318492889404 0.0000000000000000
5.4595904350280762 2.6468527317047119 0.0000000000000000
5.8099470138549805 3.8143808841705322 0.0000000000000000
6.0537967681884766 4.8678264617919922 0.0000000000000000
6.2058486938476562 4.8326296806335449 0.0000000000000000
4.6552042961120605 5.7465162277221680 0.0000000000000000
2.6462779045104980 2.6043913364410400 0.0000000000000000
2.7983298301696777 2.5691947937011719 0.0000000000000000
7.4236803054809570 7.3254570960998535 0.0000000000000000
7.4692249298095703 7.1761779785156250 0.0000000000000000
3.6356775760650635 4.4564132690429688 0.0000000000000000
3.4836258888244629 4.4916100502014160 0.0000000000000000
3.3771188259124756 4.3775277137756348 0.0000000000000000
3.3315739631652832 4.5268068313598633 0.0000000000000000
3.2250669002532959 4.4127244949340820 0.0000000000000000
3.1795222759246826 4.5620036125183105 0.0000000000000000
3.0730152130126953 4.4479212760925293 0.0000000000000000
3.0274705886840820 4.5972003936767578 0.0000000000000000
2.9209632873535156 4.4831180572509766 0.0000000000000000
2.8754186630249023 4.6323971748352051 0.0000000000000000
2.9819259643554688 4.7464795112609863 0.0000000000000000
2.8298740386962891 4.7816758155822754 0.0000000000000000
2.7689116001129150 4.5183143615722656 0.0000000000000000
2.9363811016082764 4.8957581520080566 0.0000000000000000
2.7843294143676758 4.9309549331665039 0.0000000000000000
2.8908364772796631 5.0450372695922852 0.0000000000000000
2.7387847900390625 5.0802340507507324 0.0000000000000000
2.8452918529510498 5.1943163871765137 0.0000000000000000
2.6932401657104492 5.2295131683349609 0.0000000000000000
3.4380812644958496 4.6408891677856445 0.0000000000000000
2.7997472286224365 5.3435955047607422 0.0000000000000000
2.6476955413818359 5.3787922859191895 0.0000000000000000
4.5038609504699707 7.1689133644104004 0.0000000000000000
4.4583163261413574 7.3181920051574707 0.0000000000000000
2.9973435401916504 5.1591196060180664 0.0000000000000000
2.7542026042938232 5.4928746223449707 0.0000000000000000
2.6021506786346436 5.5280714035034180 0.0000000000000000
7.2260837554931641 7.5099325180053711 0.0000000000000000
7.5133523941040039 4.2524981498718262 0.0000000000000000
5.0209789276123047 7.3266844749450684 0.0000000000000000
2.6322777271270752 4.9661517143249512 0.0000000000000000
6.1455950736999512 5.9564685821533203 0.0000000000000000
7.0740323066711426 7.5451292991638184 0.0000000000000000
5.7966556549072266 7.5633416175842285 0.0000000000000000
5.9487071037292480 7.5281448364257812 0.0000000000000000
5.2788290977478027 6.0183696746826172 0.0000000000000000
4.7911295890808105 3.9114785194396973 0.0000000000000000
4.3518095016479492 7.2041096687316895 0.0000000000000000
4.3062648773193359 7.3533887863159180 0.0000000000000000
4.4127717018127441 7.4674711227416992 0.0000000000000000
4.2607197761535645 7.5026679039001465 0.0000000000000000
4.3973541259765625 7.0548310279846191 0.0000000000000000
2.7086579799652100 5.6421537399291992 0.0000000000000000
2.5566060543060303 5.6773500442504883 0.0000000000000000
4.1542129516601562 7.3885855674743652 0.0000000000000000
4.1086683273315430 7.5378646850585938 0.0000000000000000
2.6918225288391113 2.4551124572753906 0.0000000000000000
5.5660972595214844 2.7609350681304932 0.0000000000000000
5.6116418838500977 2.6116561889648438 0.0000000000000000
2.8438744544982910 2.4199156761169434 0.0000000000000000
4.2151751518249512 7.6519470214843750 0.0000000000000000
2.4942262172698975 2.6395881175994873 0.0000000000000000
2.4486815929412842 2.7888672351837158 0.0000000000000000
5.0489797592163086 2.6031639575958252 0.0000000000000000
4.2733030319213867 2.3665068149566650 0.0000000000000000
4.1212511062622070 2.4017035961151123 0.0000000000000000
7.1805391311645508 7.6592116355895996 0.0000000000000000
7.5588970184326172 4.1032190322875977 0.0000000000000000
7.5757322311401367 7.2902603149414062 0.0000000000000000
7.6654038429260254 4.2173013687133789 0.0000000000000000
7.6198592185974121 4.3665804862976074 0.0000000000000000
5.6446037292480469 7.5985383987426758 0.0000000000000000
5.5051350593566895 2.4975738525390625 0.0000000000000000
5.6571865081787109 2.4623770713806152 0.0000000000000000
2.8144562244415283 4.3690357208251953 0.0000000000000000
2.6624045372009277 4.4042320251464844 0.0000000000000000
2.7079491615295410 4.2549533843994141 0.0000000000000000
2.5558974742889404 4.2901496887207031 0.0000000000000000
2.6014420986175537 4.1408710479736328 0.0000000000000000
2.4493901729583740 4.1760673522949219 0.0000000000000000
2.4038455486297607 4.3253464698791504 0.0000000000000000
2.4949350357055664 4.0267887115478516 0.0000000000000000
2.4500989913940430 5.5632677078247070 0.0000000000000000
2.4045543670654297 5.7125468254089355 0.0000000000000000
2.5110614299774170 5.8266291618347168 0.0000000000000000
7.6212768554687500 7.1409811973571777 0.0000000000000000
5.5219702720642090 5.6846151351928711 0.0000000000000000
6.1603040695190430 4.9819087982177734 0.0000000000000000
6.3123559951782227 4.9467120170593262 0.0000000000000000
4.0021610260009766 7.4237823486328125 0.0000000000000000
3.9566164016723633 7.5730614662170410 0.0000000000000000
5.7511110305786133 7.7126207351684570 0.0000000000000000
2.3590097427368164 5.8618259429931641 0.0000000000000000
2.4655168056488037 5.9759082794189453 0.0000000000000000
2.7373673915863037 2.3058333396911621 0.0000000000000000
2.3421745300292969 2.6747848987579346 0.0000000000000000
2.2973384857177734 4.2112641334533691 0.0000000000000000
2.2525026798248291 5.7477436065673828 0.0000000000000000
2.2966296672821045 2.8240637779235840 0.0000000000000000
4.4253544807434082 2.3313102722167969 0.0000000000000000
4.3188476562500000 2.2172276973724365 0.0000000000000000
5.8877449035644531 7.2647833824157715 0.0000000000000000
4.1822133064270020 2.6650650501251221 0.0000000000000000
4.8829274177551270 5.0001206398010254 0.0000000000000000
6.4938259124755859 2.9623954296112061 0.0000000000000000
6.5393705368041992 2.8131163120269775 0.0000000000000000
5.8554916381835938 3.6651017665863037 0.0000000000000000
5.7034401893615723 3.7002983093261719 0.0000000000000000
7.7277841567993164 7.2550635337829590 0.0000000000000000
7.6822395324707031 7.4043426513671875 0.0000000000000000
5.5506796836853027 2.3482947349548340 0.0000000000000000
5.7027311325073242 2.3130979537963867 0.0000000000000000
7.0284876823425293 7.6944084167480469 0.0000000000000000
7.1349945068359375 7.8084907531738281 0.0000000000000000
6.2668113708496094 5.0959911346435547 0.0000000000000000
6.4188628196716309 5.0607943534851074 0.0000000000000000
3.7877295017242432 4.4212169647216797 0.0000000000000000
3.8501093387603760 7.4589791297912598 0.0000000000000000
3.8045647144317627 7.6082582473754883 0.0000000000000000
7.4523897171020508 3.9891366958618164 0.0000000000000000
7.6044416427612305 3.9539399147033691 0.0000000000000000
2.8607096672058105 5.6069569587707520 0.0000000000000000
2.8894190788269043 2.2706365585327148 0.0000000000000000
2.3134651184082031 6.0111050605773926 0.0000000000000000
2.4199721813201904 6.1251873970031738 0.0000000000000000
7.7719111442565918 4.3313837051391602 0.0000000000000000
7.7263665199279785 4.4806628227233887 0.0000000000000000
2.2517938613891602 4.3605432510375977 0.0000000000000000
2.7829120159149170 2.1565542221069336 0.0000000000000000
2.6308600902557373 2.1917510032653809 0.0000000000000000
5.5990591049194336 7.7478170394897461 0.0000000000000000
5.7055664062500000 7.8618993759155273 0.0000000000000000
7.4979343414306641 3.8398575782775879 0.0000000000000000
7.6499862670898438 3.8046610355377197 0.0000000000000000
7.5434789657592773 3.6905784606933594 0.0000000000000000
7.6955308914184570 3.6553819179534912 0.0000000000000000
7.5890235900878906 3.5412995815277100 0.0000000000000000
7.7733287811279297 7.1057844161987305 0.0000000000000000
2.1452867984771729 4.2464609146118164 0.0000000000000000
2.1901226043701172 2.7099814414978027 0.0000000000000000
7.7410755157470703 3.5061028003692627 0.0000000000000000
7.6345682144165039 3.3920204639434814 0.0000000000000000
7.7866201400756836 3.3568236827850342 0.0000000000000000
7.6801133155822754 3.2427413463592529 0.0000000000000000
7.8321647644042969 3.2075448036193848 0.0000000000000000
7.7256579399108887 3.0934624671936035 0.0000000000000000
7.8777093887329102 3.0582656860351562 0.0000000000000000
7.7712025642395020 2.9441833496093750 0.0000000000000000
7.9232540130615234 2.9089865684509277 0.0000000000000000
7.8167471885681152 2.7949042320251465 0.0000000000000000
7.6646952629089355 2.8301010131835938 0.0000000000000000
7.7102398872375488 2.6808218955993652 0.0000000000000000
7.5581879615783691 2.7160186767578125 0.0000000000000000
7.6037330627441406 2.5667395591735840 0.0000000000000000
7.4516811370849609 2.6019363403320312 0.0000000000000000
7.4972257614135742 2.4526572227478027 0.0000000000000000
7.3451738357543945 2.4878540039062500 0.0000000000000000
7.3907184600830078 2.3385748863220215 0.0000000000000000
7.2386670112609863 2.3737716674804688 0.0000000000000000
7.2842116355895996 2.2244925498962402 0.0000000000000000
7.1321597099304199 2.2596893310546875 0.0000000000000000
7.6492776870727539 2.4174604415893555 0.0000000000000000
7.8798356056213379 7.2198667526245117 0.0000000000000000
6.3740272521972656 6.5972738265991211 0.0000000000000000
6.0082521438598633 5.0171055793762207 0.0000000000000000
6.3733181953430176 5.2100734710693359 0.0000000000000000
6.5253701210021973 5.1748766899108887 0.0000000000000000
3.6959314346313477 3.3325746059417725 0.0000000000000000
3.8956539630889893 7.3097000122070312 0.0000000000000000
5.8092384338378906 2.4271802902221680 0.0000000000000000
5.8547830581665039 2.2779014110565186 0.0000000000000000
5.7482757568359375 2.1638190746307373 0.0000000000000000
3.6980576515197754 7.4941754341125488 0.0000000000000000
3.6525127887725830 7.6434545516967773 0.0000000000000000
2.5720238685607910 6.0899906158447266 0.0000000000000000
7.1777043342590332 2.1104102134704590 0.0000000000000000
7.0256524085998535 2.1456067562103271 0.0000000000000000
2.2679202556610107 6.1603841781616211 0.0000000000000000
2.3744275569915771 6.2744665145874023 0.0000000000000000
6.5709147453308105 5.0255975723266602 0.0000000000000000
6.6774220466613770 5.1396799087524414 0.0000000000000000
6.6318774223327637 5.2889590263366699 0.0000000000000000
6.7839288711547852 5.2537622451782227 0.0000000000000000
6.7383842468261719 5.4030413627624512 0.0000000000000000
6.8904361724853516 5.3678445816040039 0.0000000000000000
6.8448915481567383 5.5171236991882324 0.0000000000000000
6.9969429969787598 5.4819269180297852 0.0000000000000000
7.0424880981445312 5.3326482772827148 0.0000000000000000
7.1489949226379395 5.4467306137084961 0.0000000000000000
7.1034502983093262 5.5960092544555664 0.0000000000000000
7.2555022239685059 5.5608129501342773 0.0000000000000000
7.3010468482971191 5.4115338325500488 0.0000000000000000
7.4075536727905273 5.5256161689758301 0.0000000000000000
7.3620090484619141 5.6748952865600586 0.0000000000000000
7.5140609741210938 5.6396985054016113 0.0000000000000000
7.4685163497924805 5.7889776229858398 0.0000000000000000
7.6205682754516602 5.7537808418273926 0.0000000000000000
7.5750236511230469 5.9030599594116211 0.0000000000000000
7.4530987739562988 5.3763370513916016 0.0000000000000000
7.7270750999450684 5.8678631782531738 0.0000000000000000
7.6815304756164551 6.0171422958374023 0.0000000000000000
7.7726197242736816 5.7185840606689453 0.0000000000000000
7.5294790267944336 6.0523390769958496 0.0000000000000000
7.6359858512878418 6.1664214134216309 0.0000000000000000
6.7986378669738770 4.2792024612426758 0.0000000000000000
5.1106505393981934 4.2537255287170410 0.0000000000000000
5.7489848136901855 3.5510194301605225 0.0000000000000000
5.5969328880310059 3.5862159729003906 0.0000000000000000
5.9010362625122070 3.5158226490020752 0.0000000000000000
2.1445779800415039 2.8592605590820312 0.0000000000000000
5.4007539749145508 6.5450925827026367 0.0000000000000000
7.2870464324951172 7.7732939720153809 0.0000000000000000
7.2415018081665039 7.9225730895996094 0.0000000000000000
7.3935537338256836 7.8873763084411621 0.0000000000000000
4.6692042350769043 3.3847558498382568 0.0000000000000000
2.2510850429534912 2.9733428955078125 0.0000000000000000
2.2356672286987305 2.5607023239135742 0.0000000000000000
6.9219803810119629 7.5803260803222656 0.0000000000000000
6.8764357566833496 7.7296051979064941 0.0000000000000000
6.7699284553527832 7.6155228614807129 0.0000000000000000
2.9959261417388916 2.3847188949584961 0.0000000000000000
3.0414893627166748 2.2355196475982666 0.0000000000000000
3.1479809284210205 2.3495354652404785 0.0000000000000000
7.6668214797973633 6.9917020797729492 0.0000000000000000
6.7243838310241699 7.7648019790649414 0.0000000000000000
4.4708991050720215 2.1820311546325684 0.0000000000000000
4.3643922805786133 2.0679488182067871 0.0000000000000000
7.8791270256042480 5.8326663970947266 0.0000000000000000
7.9246716499328613 5.6833872795104980 0.0000000000000000
3.1935446262359619 2.2003386020660400 0.0000000000000000
3.3000340461730957 2.3143436908721924 0.0000000000000000
7.8188734054565430 6.9565052986145020 0.0000000000000000
2.2223756313323975 6.3096632957458496 0.0000000000000000
3.7590200901031494 7.7575368881225586 0.0000000000000000
3.6069681644439697 7.7927336692810059 0.0000000000000000
3.5004611015319824 7.6786513328552246 0.0000000000000000
3.4549164772033691 7.8279304504394531 0.0000000000000000
2.0380709171295166 2.7451782226562500 0.0000000000000000
5.9003276824951172 2.1286222934722900 0.0000000000000000
6.0068349838256836 2.2427046298980713 0.0000000000000000
5.7938203811645508 2.0145399570465088 0.0000000000000000
2.7534937858581543 4.1056742668151855 0.0000000000000000
6.3873186111450195 2.8483130931854248 0.0000000000000000
7.4839339256286621 6.2016177177429199 0.0000000000000000
2.3288829326629639 6.4237456321716309 0.0000000000000000
7.8784184455871582 4.4454660415649414 0.0000000000000000
7.8328738212585449 4.5947451591491699 0.0000000000000000
7.9239630699157715 4.2961869239807129 0.0000000000000000
7.6808218955993652 4.6299419403076172 0.0000000000000000
7.7873291969299316 4.7440242767333984 0.0000000000000000
7.9687986373901367 2.7597076892852783 0.0000000000000000
2.1768310070037842 6.4589424133300781 0.0000000000000000
2.0997421741485596 4.3957400321960449 0.0000000000000000
1.9932349920272827 4.2816576957702637 0.0000000000000000
2.0387794971466064 4.1323785781860352 0.0000000000000000
7.3297562599182129 2.0752134323120117 0.0000000000000000
7.2232489585876465 1.9611310958862305 0.0000000000000000
7.8020381927490234 3.7694642543792725 0.0000000000000000
2.6764049530029297 2.0424718856811523 0.0000000000000000
2.5243530273437500 2.0776686668395996 0.0000000000000000
5.5535144805908203 7.8970961570739746 0.0000000000000000
5.6600217819213867 8.0111789703369141 0.0000000000000000
5.8120732307434082 7.9759817123413086 0.0000000000000000
3.3388419151306152 2.1713550090789795 0.0000000000000000
2.0990333557128906 3.0085396766662598 0.0000000000000000
2.2055404186248779 3.1226220130920410 0.0000000000000000
8.0311784744262695 5.7974696159362793 0.0000000000000000
6.8308911323547363 7.8788843154907227 0.0000000000000000
7.3164644241333008 5.8241744041442871 0.0000000000000000
7.6352772712707520 4.7792210578918457 0.0000000000000000
7.7417840957641602 4.8933033943176270 0.0000000000000000
6.6178770065307617 7.6507196426391602 0.0000000000000000
6.5723323822021484 7.7999982833862305 0.0000000000000000
6.8294734954833984 5.1044836044311523 0.0000000000000000
6.9801077842712402 2.2948858737945557 0.0000000000000000
6.8736009597778320 2.1808035373687744 0.0000000000000000
5.6417689323425293 2.0497367382049561 0.0000000000000000
5.4470071792602539 7.7830138206481934 0.0000000000000000
2.8283782005310059 2.0072512626647949 0.0000000000000000
6.2815203666687012 4.1214313507080078 0.0000000000000000
5.2479934692382812 5.1930890083312988 0.0000000000000000
6.3579006195068359 4.7974328994750977 0.0000000000000000
5.7658200263977051 6.7380604743957520 0.0000000000000000
3.2706115245819092 4.2634453773498535 0.0000000000000000
5.5513882637023926 3.7354950904846191 0.0000000000000000
5.4448809623718262 3.6214127540588379 0.0000000000000000
4.4877343177795410 5.3690724372863770 0.0000000000000000
3.5137526988983154 3.9296905994415283 0.0000000000000000
6.3417739868164062 2.9975922107696533 0.0000000000000000
3.8788187503814697 4.1226587295532227 0.0000000000000000
2.2062492370605469 4.5098223686218262 0.0000000000000000
4.4414811134338379 4.1311511993408203 0.0000000000000000
3.7127666473388672 6.5196156501770020 0.0000000000000000
5.5205526351928711 2.9102141857147217 0.0000000000000000
5.6726045608520508 2.8750176429748535 0.0000000000000000
2.1614131927490234 6.0463018417358398 0.0000000000000000
6.2212667465209961 5.2452702522277832 0.0000000000000000
6.3277735710144043 5.3593525886535645 0.0000000000000000
6.1757216453552246 5.3945493698120117 0.0000000000000000
4.3041386604309082 3.1917877197265625 0.0000000000000000
4.7168750762939453 7.3970780372619629 0.0000000000000000
3.4509601593017578 2.2801833152770996 0.0000000000000000
3.4832043647766113 2.1143684387207031 0.0000000000000000
3.3932452201843262 6.1773686408996582 0.0000000000000000
3.4387898445129395 6.0280895233154297 0.0000000000000000
4.0315790176391602 5.4746623039245605 0.0000000000000000
4.0771241188049316 5.3253831863403320 0.0000000000000000
3.9250721931457520 5.3605799674987793 0.0000000000000000
3.9706168174743652 5.2113008499145508 0.0000000000000000
3.8185648918151855 5.2464976310729980 0.0000000000000000
4.1226687431335449 5.1761045455932617 0.0000000000000000
7.5736060142517090 3.1286590099334717 0.0000000000000000
3.4063506126403809 2.4285867214202881 0.0000000000000000
3.8641097545623779 5.0972185134887695 0.0000000000000000
6.5870413780212402 6.8254384994506836 0.0000000000000000
3.6672220230102539 6.6688947677612305 0.0000000000000000
3.8192737102508545 6.6336979866027832 0.0000000000000000
6.8743095397949219 3.5680038928985596 0.0000000000000000
3.7120578289031982 5.1324152946472168 0.0000000000000000
3.6665132045745850 5.2816944122314453 0.0000000000000000
7.3465914726257324 5.2622547149658203 0.0000000000000000
6.4328632354736328 2.6990339756011963 0.0000000000000000
4.2123403549194336 2.1031453609466553 0.0000000000000000
4.2578849792480469 1.9538663625717163 0.0000000000000000
4.1058330535888672 1.9890631437301636 0.0000000000000000
2.5411882400512695 5.2647099494934082 0.0000000000000000
7.0116524696350098 4.5073671340942383 0.0000000000000000
7.1181592941284180 4.6214494705200195 0.0000000000000000
3.2867381572723389 6.0632863044738770 0.0000000000000000
3.3322827816009521 5.9140071868896484 0.0000000000000000
6.6171679496765137 6.2635192871093750 0.0000000000000000
2.4809346199035645 6.3885488510131836 0.0000000000000000
7.5904412269592285 6.3157005310058594 0.0000000000000000
7.7424931526184082 6.2805037498474121 0.0000000000000000
2.2833380699157715 6.5730247497558594 0.0000000000000000
2.1312863826751709 6.6082210540771484 0.0000000000000000
3.3484094142913818 7.7138481140136719 0.0000000000000000
3.3028645515441895 7.8631272315979004 0.0000000000000000
3.3939540386199951 7.5645689964294434 0.0000000000000000
2.2377934455871582 6.7223033905029297 0.0000000000000000
2.0857417583465576 6.7575001716613770 0.0000000000000000
1.9645414352416992 7.6179594993591309 0.0000000000000000
5.7665286064147949 8.1252613067626953 0.0000000000000000
5.6873135566711426 1.9004576206207275 0.0000000000000000
6.0523796081542969 2.0934255123138428 0.0000000000000000
6.1588864326477051 2.2075078487396240 0.0000000000000000
2.7219364643096924 1.8931888341903687 0.0000000000000000
7.3480091094970703 8.0366554260253906 0.0000000000000000
7.5000605583190918 8.0014591217041016 0.0000000000000000
7.1959571838378906 8.0718517303466797 0.0000000000000000
8.0753059387207031 2.8737900257110596 0.0000000000000000
5.4014625549316406 7.9322929382324219 0.0000000000000000
5.2949557304382324 7.8182106018066406 0.0000000000000000
8.0304698944091797 4.4102692604064941 0.0000000000000000
8.0760145187377930 4.2609901428222656 0.0000000000000000
2.0541973114013672 4.5450191497802734 0.0000000000000000
2.1607046127319336 4.6591014862060547 0.0000000000000000
4.5164437294006348 2.0327520370483398 0.0000000000000000
4.6229510307312012 2.1468343734741211 0.0000000000000000
5.5352616310119629 1.9356542825698853 0.0000000000000000
8.0767230987548828 5.6481909751892090 0.0000000000000000
7.9702162742614746 5.5341081619262695 0.0000000000000000
8.1832304000854492 5.7622733116149902 0.0000000000000000
1.8867278099060059 4.1675753593444824 0.0000000000000000
1.9322724342346191 4.0182962417602539 0.0000000000000000
6.9191455841064453 2.0315244197845459 0.0000000000000000
6.7670936584472656 2.0667212009429932 0.0000000000000000
5.9185805320739746 8.0900640487670898 0.0000000000000000
2.0534887313842773 3.1578185558319092 0.0000000000000000
2.1599957942962646 3.2719008922576904 0.0000000000000000
1.9469815492630005 3.0437362194061279 0.0000000000000000
6.2044310569763184 2.0582289695739746 0.0000000000000000
8.1208505630493164 2.7245109081268311 0.0000000000000000
3.7134752273559570 7.9068160057067871 0.0000000000000000
3.2304894924163818 2.0620875358581543 0.0000000000000000
7.3753008842468262 1.9259344339370728 0.0000000000000000
7.2687935829162598 1.8118520975112915 0.0000000000000000
8.2273578643798828 2.8385932445526123 0.0000000000000000
6.7215490341186523 2.2160003185272217 0.0000000000000000
6.6914219856262207 2.7779197692871094 0.0000000000000000
6.2352666854858398 2.8835098743438721 0.0000000000000000
6.1897220611572266 3.0327887535095215 0.0000000000000000
5.6733131408691406 4.2622179985046387 0.0000000000000000
5.3993363380432129 3.7706918716430664 0.0000000000000000
5.2928295135498047 3.6566095352172852 0.0000000000000000
6.6928396224975586 5.5523204803466797 0.0000000000000000
6.7993469238281250 5.6664028167724609 0.0000000000000000
3.5583705902099609 2.3934168815612793 0.0000000000000000
3.5129766464233398 2.5425543785095215 0.0000000000000000
7.1931223869323730 2.5230505466461182 0.0000000000000000
7.4061365127563477 2.7512152194976807 0.0000000000000000
6.4636988639831543 3.5243148803710938 0.0000000000000000
3.5600061416625977 5.1676120758056641 0.0000000000000000
3.5144615173339844 5.3168911933898926 0.0000000000000000
5.4904255867004395 3.4721336364746094 0.0000000000000000
7.4369721412658691 3.5764961242675781 0.0000000000000000
7.4383893013000488 6.3508968353271484 0.0000000000000000
7.3318824768066406 6.2368144989013672 0.0000000000000000
3.1963574886322021 7.7490448951721191 0.0000000000000000
3.1508128643035889 7.8983240127563477 0.0000000000000000
2.1922488212585449 6.8715825080871582 0.0000000000000000
2.0401971340179443 6.9067792892456055 0.0000000000000000
7.3024640083312988 8.1859340667724609 0.0000000000000000
7.8938360214233398 4.8581066131591797 0.0000000000000000
1.8411831855773926 4.3168544769287109 0.0000000000000000
8.1376857757568359 5.9115519523620605 0.0000000000000000
4.1513781547546387 1.8397840261459351 0.0000000000000000
7.8928251266479492 3.4699640274047852 0.0000000000000000
2.8739078044891357 1.8579676151275635 0.0000000000000000
2.7674763202667236 1.7439084053039551 0.0000000000000000
5.2494111061096191 7.9674897193908691 0.0000000000000000
5.1429038047790527 7.8534073829650879 0.0000000000000000
2.0732076168060303 6.3421678543090820 0.0000000000000000
5.8393654823303223 1.8652608394622803 0.0000000000000000
5.7328581809997559 1.7511785030364990 0.0000000000000000
4.3034296035766602 1.8045873641967773 0.0000000000000000
2.2840578556060791 7.9602155685424805 0.0000000000000000
2.4361009597778320 7.9250264167785645 0.0000000000000000
1.7346760034561157 4.2027721405029297 0.0000000000000000
8.1817417144775391 4.3717031478881836 0.0000000000000000
2.0086526870727539 4.6942982673645020 0.0000000000000000
2.1151597499847412 4.8083806037902832 0.0000000000000000
4.6684956550598145 1.9975553750991821 0.0000000000000000
4.7750029563903809 2.1116378307342529 0.0000000000000000
8.2279367446899414 4.2252321243286133 0.0000000000000000
7.8482913970947266 5.0073857307434082 0.0000000000000000
6.4658250808715820 7.6859159469604492 0.0000000000000000
6.5113697052001953 7.5366373062133789 0.0000000000000000
6.4202804565429688 7.8351950645446777 0.0000000000000000
3.7737290859222412 6.7829771041870117 0.0000000000000000
3.9257807731628418 6.7477803230285645 0.0000000000000000
3.9713253974914551 6.5985012054443359 0.0000000000000000
5.7945294380187988 3.4017403125762939 0.0000000000000000
3.7421846389770508 4.5704960823059082 0.0000000000000000
3.8942365646362305 4.5352993011474609 0.0000000000000000
7.6969485282897949 6.4297828674316406 0.0000000000000000
7.8489999771118164 6.3945860862731934 0.0000000000000000
7.9815897941589355 3.1609671115875244 0.0000000000000000
5.6144766807556152 8.1604576110839844 0.0000000000000000
5.7209839820861816 8.2745399475097656 0.0000000000000000
7.1504125595092773 8.2211313247680664 0.0000000000000000
7.2600097656250000 8.3361558914184570 0.0000000000000000
2.0079441070556641 3.3070976734161377 0.0000000000000000
2.1144511699676514 3.4211800098419189 0.0000000000000000
2.2665028572082520 3.3859832286834717 0.0000000000000000
2.2209582328796387 3.5352623462677002 0.0000000000000000
2.3730099201202393 3.5000655651092529 0.0000000000000000
3.9993262290954590 1.8749806880950928 0.0000000000000000
6.5267877578735352 7.9492774009704590 0.0000000000000000
4.1969227790832520 1.6905050277709961 0.0000000000000000
5.0973591804504395 8.0026865005493164 0.0000000000000000
4.9908518791198730 7.8886041641235352 0.0000000000000000
2.8768362998962402 7.4067978858947754 0.0000000000000000
2.0689065456390381 3.5704591274261475 0.0000000000000000
5.9641251564025879 7.9407854080200195 0.0000000000000000
6.0706324577331543 8.0548677444458008 0.0000000000000000
6.9661078453063965 4.6566462516784668 0.0000000000000000
4.0778326988220215 6.7125835418701172 0.0000000000000000
4.1233773231506348 6.5633049011230469 0.0000000000000000
4.2298846244812012 6.6773872375488281 0.0000000000000000
4.2754292488098145 6.5281081199645996 0.0000000000000000
4.3819360733032227 6.6421904563903809 0.0000000000000000
4.4274806976318359 6.4929113388061523 0.0000000000000000
4.5339879989624023 6.6069936752319336 0.0000000000000000
4.5795326232910156 6.4577145576477051 0.0000000000000000
4.4730253219604492 6.3436322212219238 0.0000000000000000
4.6250772476196289 6.3084354400634766 0.0000000000000000
4.7315845489501953 6.4225177764892578 0.0000000000000000
4.7771291732788086 6.2732386589050293 0.0000000000000000
4.8836359977722168 6.3873214721679688 0.0000000000000000
3.8655271530151367 7.8716192245483398 0.0000000000000000
3.8199825286865234 8.0208988189697266 0.0000000000000000
3.9720342159271240 7.9857015609741211 0.0000000000000000
7.0726146697998047 4.7707285881042480 0.0000000000000000
5.3986277580261230 2.3834915161132812 0.0000000000000000
2.0843243598937988 3.9830994606018066 0.0000000000000000
4.6383690834045410 2.5594749450683594 0.0000000000000000
6.1448864936828613 4.5692682266235352 0.0000000000000000
3.6650481224060059 2.5073385238647461 0.0000000000000000
3.6195318698883057 2.6565907001495361 0.0000000000000000
5.6431860923767090 4.8241372108459473 0.0000000000000000
6.2822289466857910 5.5086317062377930 0.0000000000000000
6.1301770210266113 5.5438280105590820 0.0000000000000000
6.0236701965332031 5.4297456741333008 0.0000000000000000
3.1942312717437744 3.5874435901641846 0.0000000000000000
3.0421795845031738 3.6226403713226318 0.0000000000000000
3.1486866474151611 3.7367227077484131 0.0000000000000000
7.3458828926086426 3.8750543594360352 0.0000000000000000
5.0658149719238281 5.7902050018310547 0.0000000000000000
6.0089612007141113 6.4043059349060059 0.0000000000000000
5.2472848892211914 3.8058884143829346 0.0000000000000000
5.1407775878906250 3.6918060779571533 0.0000000000000000
5.1863222122192383 3.5425271987915039 0.0000000000000000
7.4818077087402344 2.0400168895721436 0.0000000000000000
4.8675098419189453 4.5874805450439453 0.0000000000000000
4.0609974861145020 3.5255424976348877 0.0000000000000000
2.6168599128723145 4.5535111427307129 0.0000000000000000
8.1430501937866211 4.5152530670166016 0.0000000000000000
5.4315896034240723 7.3703732490539551 0.0000000000000000
5.3537917137145996 3.9199707508087158 0.0000000000000000
3.0884330272674561 4.8605618476867676 0.0000000000000000
4.9123454093933105 3.0510010719299316 0.0000000000000000
4.2453022003173828 7.0900273323059082 0.0000000000000000
7.5456051826477051 7.8521795272827148 0.0000000000000000
7.6521124839782715 7.9662618637084961 0.0000000000000000
7.6976571083068848 7.8169832229614258 0.0000000000000000
7.8041644096374512 7.9310655593872070 0.0000000000000000
7.8497090339660645 7.7817864418029785 0.0000000000000000
2.9356725215911865 3.5085580348968506 0.0000000000000000
2.8901278972625732 3.6578369140625000 0.0000000000000000
8.0143432617187500 2.6104285717010498 0.0000000000000000
3.6209685802459717 5.4309735298156738 0.0000000000000000
3.4689168930053711 5.4661703109741211 0.0000000000000000
3.9537816047668457 2.0242598056793213 0.0000000000000000
6.1133418083190918 2.3567869663238525 0.0000000000000000
3.8472743034362793 1.9101774692535400 0.0000000000000000
5.7349843978881836 5.9127798080444336 0.0000000000000000
5.1576128005981445 6.8788471221923828 0.0000000000000000
8.1215381622314453 4.1116175651550293 0.0000000000000000
2.8151650428771973 5.7562360763549805 0.0000000000000000
7.2863378524780273 6.3860936164855957 0.0000000000000000
7.3928446769714355 6.5001759529113770 0.0000000000000000
7.1798305511474609 6.2720112800598145 0.0000000000000000
2.3898453712463379 6.6871070861816406 0.0000000000000000
4.5185699462890625 6.1943531036376953 0.0000000000000000
6.2653937339782715 2.3215904235839844 0.0000000000000000
3.0443058013916016 7.7842416763305664 0.0000000000000000
2.9987611770629883 7.9335203170776367 0.0000000000000000
3.1052682399749756 8.0476026535034180 0.0000000000000000
2.9532165527343750 8.0827999114990234 0.0000000000000000
2.1467041969299316 7.0208616256713867 0.0000000000000000
1.9946523904800415 7.0560584068298340 0.0000000000000000
2.3905565738677979 8.0743055343627930 0.0000000000000000
7.9562158584594727 7.8958687782287598 0.0000000000000000
8.0017604827880859 7.7465896606445312 0.0000000000000000
4.9453072547912598 8.0378828048706055 0.0000000000000000
4.8388004302978516 7.9238004684448242 0.0000000000000000
4.7932553291320801 8.0730800628662109 0.0000000000000000
4.6867485046386719 7.9589972496032715 0.0000000000000000
4.6412038803100586 8.1082763671875000 0.0000000000000000
4.5346965789794922 7.9941940307617188 0.0000000000000000
4.4891519546508789 8.1434726715087891 0.0000000000000000
8.1222677230834961 5.4989118576049805 0.0000000000000000
1.8881453275680542 6.9419760704040527 0.0000000000000000
1.8426005840301514 7.0912551879882812 0.0000000000000000
2.6154396533966064 1.7791097164154053 0.0000000000000000
3.4093718528747559 7.9772095680236816 0.0000000000000000
8.3336420059204102 4.3358516693115234 0.0000000000000000
3.9264895915985107 8.1349811553955078 0.0000000000000000
8.1663951873779297 2.5752317905426025 0.0000000000000000
8.0598878860473633 2.4611494541168213 0.0000000000000000
4.8205475807189941 1.9623587131500244 0.0000000000000000
4.9270544052124023 2.0764410495758057 0.0000000000000000
7.5273528099060059 1.8907377719879150 0.0000000000000000
7.6338596343994141 2.0048201084136963 0.0000000000000000
1.9809919595718384 6.6510095596313477 0.0000000000000000
1.9631080627441406 4.8435769081115723 0.0000000000000000
2.0696151256561279 4.9576592445373535 0.0000000000000000
8.0003433227539062 4.9721889495849609 0.0000000000000000
8.2897377014160156 5.8763556480407715 0.0000000000000000
8.3352823257446289 5.7270765304565430 0.0000000000000000
1.6891313791275024 4.3520507812500000 0.0000000000000000
1.5826243162155151 4.2379684448242188 0.0000000000000000
6.8126382827758789 1.9174422025680542 0.0000000000000000
6.6605868339538574 1.9526388645172119 0.0000000000000000
4.3489742279052734 1.6553083658218384 0.0000000000000000
4.2424674034118652 1.5412259101867676 0.0000000000000000
8.3799409866333008 4.1898326873779297 0.0000000000000000
8.4864406585693359 4.3038811683654785 0.0000000000000000
4.9725995063781738 1.9271619319915771 0.0000000000000000
5.0791063308715820 2.0412442684173584 0.0000000000000000
5.1246509552001953 1.8919652700424194 0.0000000000000000
2.9126038551330566 1.7065991163253784 0.0000000000000000
2.8118789196014404 1.5942808389663696 0.0000000000000000
3.0597236156463623 8.1968822479248047 0.0000000000000000
2.9076716899871826 8.2320785522460938 0.0000000000000000
7.6055727005004883 8.1112413406372070 0.0000000000000000
5.8817820549011230 1.7175993919372559 0.0000000000000000
5.7768297195434570 1.6018481254577637 0.0000000000000000
1.9175634384155273 4.9928560256958008 0.0000000000000000
2.0240705013275146 5.1069383621215820 0.0000000000000000
4.8380913734436035 6.5366001129150391 0.0000000000000000
7.4986433982849121 5.2270579338073730 0.0000000000000000
7.3921360969543457 5.1129755973815918 0.0000000000000000
6.3593177795410156 7.5718336105346680 0.0000000000000000
6.4048628807067871 7.4225544929504395 0.0000000000000000
8.0157613754272461 5.3848295211791992 0.0000000000000000
7.2246665954589844 4.7355318069458008 0.0000000000000000
5.0335617065429688 2.1905233860015869 0.0000000000000000
5.9781255722045898 5.5790247917175293 0.0000000000000000
5.8716182708740234 5.4649424552917480 0.0000000000000000
2.3274652957916260 3.6493446826934814 0.0000000000000000
5.1884484291076660 7.7041282653808594 0.0000000000000000
4.3826451301574707 8.0293903350830078 0.0000000000000000
4.3371000289916992 8.1786699295043945 0.0000000000000000
4.4436073303222656 8.2927522659301758 0.0000000000000000
4.2915554046630859 8.3279485702514648 0.0000000000000000
6.0832152366638184 2.9187064170837402 0.0000000000000000
5.0342702865600586 3.5777237415313721 0.0000000000000000
7.8637094497680664 5.4200258255004883 0.0000000000000000
3.8802361488342285 6.8970594406127930 0.0000000000000000
3.7281844615936279 6.9322562217712402 0.0000000000000000
5.9465808868408203 3.3665435314178467 0.0000000000000000
2.7836205959320068 3.5437545776367188 0.0000000000000000
2.7380759716033936 3.6930336952209473 0.0000000000000000
2.4185547828674316 3.3507866859436035 0.0000000000000000
4.9901432991027832 6.5014038085937500 0.0000000000000000
5.0798149108886719 3.4284446239471436 0.0000000000000000
4.8843450546264648 7.7745218276977539 0.0000000000000000
3.7715916633605957 2.6213865280151367 0.0000000000000000
3.7260532379150391 2.7706596851348877 0.0000000000000000
3.5740025043487549 2.8058555126190186 0.0000000000000000
2.2672116756439209 4.7731838226318359 0.0000000000000000
5.6270599365234375 3.0242965221405029 0.0000000000000000
6.2962293624877930 3.1468710899353027 0.0000000000000000
3.7105960845947266 2.3580563068389893 0.0000000000000000
2.4788084030151367 2.2269475460052490 0.0000000000000000
2.3723013401031494 2.1128652095794678 0.0000000000000000
6.6472949981689453 5.7015995979309082 0.0000000000000000
6.7538022994995117 5.8156819343566895 0.0000000000000000
3.1024339199066162 2.4988036155700684 0.0000000000000000
3.5754239559173584 5.5802526473999023 0.0000000000000000
6.8154730796813965 7.4662437438964844 0.0000000000000000
6.0530881881713867 3.4806261062622070 0.0000000000000000
2.1761224269866943 5.0717415809631348 0.0000000000000000
2.1305775642395020 5.2210206985473633 0.0000000000000000
1.9785258769989014 5.2562174797058105 0.0000000000000000
3.4079542160034180 5.2028088569641113 0.0000000000000000
2.0850329399108887 5.3702998161315918 0.0000000000000000
1.9329812526702881 5.4054965972900391 0.0000000000000000
3.4534990787506104 5.0535297393798828 0.0000000000000000
3.7576024532318115 4.9831361770629883 0.0000000000000000
3.9096543788909912 4.9479393959045410 0.0000000000000000
3.6805119514465332 2.9199354648590088 0.0000000000000000
3.8325641155242920 2.8847384452819824 0.0000000000000000
4.9291806221008301 6.2380423545837402 0.0000000000000000
2.9672167301177979 5.7210392951965332 0.0000000000000000
3.0127613544464111 5.5717601776123047 0.0000000000000000
2.9216721057891846 5.8703184127807617 0.0000000000000000
7.8945446014404297 6.2453069686889648 0.0000000000000000
8.0010519027709961 6.3593893051147461 0.0000000000000000
7.9555072784423828 6.5086684226989746 0.0000000000000000
4.5802412033081055 7.8449149131774902 0.0000000000000000
4.1689219474792480 6.4140257835388184 0.0000000000000000
6.1287598609924316 2.7694275379180908 0.0000000000000000
7.7123661041259766 6.8424229621887207 0.0000000000000000
7.5603141784667969 6.8776197433471680 0.0000000000000000
2.5573148727416992 7.0645508766174316 0.0000000000000000
4.8226737976074219 6.1239600181579590 0.0000000000000000
2.8922541141510010 7.8194379806518555 0.0000000000000000
2.1011595726013184 7.1701407432556152 0.0000000000000000
2.5426068305969238 8.0391101837158203 0.0000000000000000
2.4970619678497314 8.1883888244628906 0.0000000000000000
7.9106712341308594 8.0451478958129883 0.0000000000000000
8.0627231597900391 8.0099506378173828 0.0000000000000000
5.6260890960693359 1.6370875835418701 0.0000000000000000
5.6715898513793945 1.4878071546554565 0.0000000000000000
7.1053829193115234 8.3705673217773438 0.0000000000000000
7.2150659561157227 8.4856185913085938 0.0000000000000000
6.9984464645385742 8.2563543319702148 0.0000000000000000
6.0250873565673828 8.2041463851928711 0.0000000000000000
6.1771392822265625 8.1689500808715820 0.0000000000000000
8.2441930770874023 6.0256342887878418 0.0000000000000000
1.8566009998321533 4.7294945716857910 0.0000000000000000
8.4417896270751953 5.8411588668823242 0.0000000000000000
8.4873342514038086 5.6918797492980957 0.0000000000000000
4.7140402793884277 1.8482763767242432 0.0000000000000000
5.5689320564270020 8.3097362518310547 0.0000000000000000
5.6754393577575684 8.4238195419311523 0.0000000000000000
8.5938415527343750 5.8059620857238770 0.0000000000000000
1.7360935211181641 6.9771728515625000 0.0000000000000000
1.6905488967895508 7.1264519691467285 0.0000000000000000
1.7970553636550903 7.2405323982238770 0.0000000000000000
1.6450039148330688 7.2757306098937988 0.0000000000000000
1.5384970903396606 7.1616482734680176 0.0000000000000000
5.2038660049438477 8.1167688369750977 0.0000000000000000
7.6794042587280273 1.8555411100387573 0.0000000000000000
7.7859115600585938 1.9696234464645386 0.0000000000000000
8.1678123474121094 5.3496327400207520 0.0000000000000000
1.8126131296157837 7.6530342102050781 0.0000000000000000
4.4036474227905273 8.4437351226806641 0.0000000000000000
4.2469415664672852 8.4775114059448242 0.0000000000000000
4.3591885566711426 8.5933456420898438 0.0000000000000000
1.6281689405441284 4.0886898040771484 0.0000000000000000
8.2119398117065430 2.4259529113769531 0.0000000000000000
8.1054325103759766 2.3118705749511719 0.0000000000000000
8.3184471130371094 2.5400352478027344 0.0000000000000000
8.1075592041015625 6.4734716415405273 0.0000000000000000
8.0620145797729492 6.6227507591247559 0.0000000000000000
3.7744379043579102 8.1701774597167969 0.0000000000000000
7.5728974342346191 1.7414586544036865 0.0000000000000000
3.8948068618774414 1.7694863080978394 0.0000000000000000
3.7473812103271484 1.7916609048843384 0.0000000000000000
3.0141789913177490 8.3461608886718750 0.0000000000000000
2.8621270656585693 8.3813571929931641 0.0000000000000000
1.8264740705490112 5.2914142608642578 0.0000000000000000
1.7809294462203979 5.4406933784484863 0.0000000000000000
1.8874365091323853 5.5547757148742676 0.0000000000000000
1.7353848218917847 5.5899724960327148 0.0000000000000000
1.8418918848037720 5.7040548324584961 0.0000000000000000
1.6898400783538818 5.7392511367797852 0.0000000000000000
1.7963472604751587 5.8533339500427246 0.0000000000000000
1.5833330154418945 5.6251688003540039 0.0000000000000000
1.5377883911132812 5.7744479179382324 0.0000000000000000
1.4312812089920044 5.6603655815124512 0.0000000000000000
1.5327856540679932 4.3912563323974609 0.0000000000000000
1.4298568964004517 4.2738332748413086 0.0000000000000000
1.0741333961486816 8.7122230529785156 0.0000000000000000
1.2347040176391602 8.8465423583984375 0.0000000000000000
1.4929523468017578 7.3109273910522461 0.0000000000000000
1.3864452838897705 7.1968450546264648 0.0000000000000000
4.2017331123352051 8.6268930435180664 0.0000000000000000
4.3130025863647461 8.7424287796020508 0.0000000000000000
6.2528109550476074 7.4577512741088867 0.0000000000000000
6.2983555793762207 7.3084721565246582 0.0000000000000000
6.4504075050354004 7.2732758522033691 0.0000000000000000
6.3439002037048340 7.1591935157775879 0.0000000000000000
6.1918482780456543 7.1943898200988770 0.0000000000000000
6.2373929023742676 7.0451111793518066 0.0000000000000000
6.0853414535522461 7.0803074836730957 0.0000000000000000
6.1308860778808594 6.9310288429260254 0.0000000000000000
4.4884433746337891 6.7562727928161621 0.0000000000000000
4.9445986747741699 6.6506824493408203 0.0000000000000000
5.1856136322021484 2.1553266048431396 0.0000000000000000
6.1161770820617676 7.9055886268615723 0.0000000000000000
8.3808269500732422 5.5777974128723145 0.0000000000000000
7.8952536582946777 7.6325073242187500 0.0000000000000000
8.0473051071166992 7.5973105430603027 0.0000000000000000
8.1538124084472656 7.7113928794860840 0.0000000000000000
8.1993570327758789 7.5621137619018555 0.0000000000000000
8.0928497314453125 7.4480314254760742 0.0000000000000000
8.2449016571044922 7.4128351211547852 0.0000000000000000
8.1383943557739258 7.2987523078918457 0.0000000000000000
8.2904462814331055 7.2635560035705566 0.0000000000000000
8.1839389801025391 7.1494736671447754 0.0000000000000000
8.3359909057617188 7.1142768859863281 0.0000000000000000
8.4424982070922852 7.2283592224121094 0.0000000000000000
8.2294836044311523 7.0001945495605469 0.0000000000000000
7.5287699699401855 4.6651387214660645 0.0000000000000000
7.4832253456115723 4.8144173622131348 0.0000000000000000
7.1791219711303711 4.8848109245300293 0.0000000000000000
5.7791113853454590 2.9890999794006348 0.0000000000000000
6.9205627441406250 4.8059253692626953 0.0000000000000000
6.8140559196472168 4.6918430328369141 0.0000000000000000
7.1342859268188477 6.4212903976440430 0.0000000000000000
5.2318668365478516 3.3932480812072754 0.0000000000000000
5.9767079353332520 2.8046240806579590 0.0000000000000000
4.7925467491149902 6.6858792304992676 0.0000000000000000
1.9778171777725220 3.8690171241760254 0.0000000000000000
5.0952329635620117 3.8410851955413818 0.0000000000000000
8.0458879470825195 4.8229098320007324 0.0000000000000000
4.7294583320617676 2.2609167098999023 0.0000000000000000
7.4054827690124512 8.2972640991210938 0.0000000000000000
7.2400841712951660 5.1481723785400391 0.0000000000000000
3.0420351028442383 1.8005802631378174 0.0000000000000000
2.8445830345153809 3.8071160316467285 0.0000000000000000
1.8257653713226318 3.9042139053344727 0.0000000000000000
1.8713099956512451 3.7549347877502441 0.0000000000000000
3.2411935329437256 6.2125654220581055 0.0000000000000000
1.6385771036148071 4.5060071945190430 0.0000000000000000
7.1167421340942383 1.8470487594604492 0.0000000000000000
7.1622867584228516 1.6977697610855103 0.0000000000000000
7.0102348327636719 1.7329664230346680 0.0000000000000000
7.0557794570922852 1.5836874246597290 0.0000000000000000
7.2078313827514648 1.5484906435012817 0.0000000000000000
7.1017398834228516 1.4345351457595825 0.0000000000000000
7.2571258544921875 1.3953948020935059 0.0000000000000000
7.1479787826538086 1.2846411466598511 0.0000000000000000
5.4897170066833496 2.0849332809448242 0.0000000000000000
3.9397811889648438 4.3860201835632324 0.0000000000000000
4.0462884902954102 4.5001025199890137 0.0000000000000000
4.0918331146240234 4.3508234024047852 0.0000000000000000
4.1983399391174316 4.4649057388305664 0.0000000000000000
4.1527953147888184 4.6141848564147949 0.0000000000000000
4.3048472404479980 4.5789880752563477 0.0000000000000000
4.2593026161193848 4.7282671928405762 0.0000000000000000
4.4113540649414062 4.6930704116821289 0.0000000000000000
4.3658094406127930 4.8423495292663574 0.0000000000000000
4.5178613662719727 4.8071527481079102 0.0000000000000000
4.4723167419433594 4.9564318656921387 0.0000000000000000
5.3089556694030762 5.4564504623413086 0.0000000000000000
3.3007385730743408 3.7015259265899658 0.0000000000000000
3.2551937103271484 3.8508050441741943 0.0000000000000000
3.1031420230865479 3.8860018253326416 0.0000000000000000
7.7403669357299805 2.1189024448394775 0.0000000000000000
4.0764150619506836 3.9381830692291260 0.0000000000000000
2.3267567157745361 2.2621443271636963 0.0000000000000000
2.2202494144439697 2.1480619907379150 0.0000000000000000
2.2657942771911621 1.9987828731536865 0.0000000000000000
2.1137423515319824 2.0339796543121338 0.0000000000000000
2.0681977272033691 2.1832587718963623 0.0000000000000000
1.9627785682678223 2.0681605339050293 0.0000000000000000
1.9161459207534790 2.2184553146362305 0.0000000000000000
2.0074167251586914 1.9197280406951904 0.0000000000000000
1.8564829826354980 1.9538807868957520 0.0000000000000000
2.0226531028747559 2.3325376510620117 0.0000000000000000
1.8709603548049927 2.3692855834960938 0.0000000000000000
5.1400690078735352 2.3046057224273682 0.0000000000000000
6.2366843223571777 5.6579103469848633 0.0000000000000000
4.3665184974670410 6.2295498847961426 0.0000000000000000
3.3609499931335449 2.5777275562286377 0.0000000000000000
5.4757165908813477 4.4466934204101562 0.0000000000000000
8.1808948516845703 2.9839034080505371 0.0000000000000000
8.3316326141357422 2.9430341720581055 0.0000000000000000
8.2968034744262695 3.0930480957031250 0.0000000000000000
8.3790378570556641 2.8017897605895996 0.0000000000000000
8.4834041595458984 2.9066243171691895 0.0000000000000000
8.5309801101684570 2.7661230564117432 0.0000000000000000
8.6379680633544922 2.8822822570800781 0.0000000000000000
8.6834325790405273 2.7326569557189941 0.0000000000000000
8.7904253005981445 2.8488342761993408 0.0000000000000000
7.0277786254882812 6.3072080612182617 0.0000000000000000
7.0733232498168945 6.1579289436340332 0.0000000000000000
6.9212718009948730 6.1931257247924805 0.0000000000000000
6.9668164253234863 6.0438466072082520 0.0000000000000000
3.4233720302581787 5.6154489517211914 0.0000000000000000
3.3168649673461914 5.5013666152954102 0.0000000000000000
7.5911498069763184 7.7029008865356445 0.0000000000000000
4.9880170822143555 2.3398025035858154 0.0000000000000000
7.0417790412902832 3.9454476833343506 0.0000000000000000
4.3503918647766113 4.4297089576721191 0.0000000000000000
6.0839238166809082 4.3059067726135254 0.0000000000000000
3.5298793315887451 5.7295312881469727 0.0000000000000000
3.8795273303985596 5.5098590850830078 0.0000000000000000
2.3575921058654785 3.0874252319335938 0.0000000000000000
5.4750080108642578 3.0594933032989502 0.0000000000000000
1.7816381454467773 6.8278937339782715 0.0000000000000000
3.5284607410430908 2.9551315307617188 0.0000000000000000
5.1253600120544434 3.2791657447814941 0.0000000000000000
7.3644571304321289 1.5079690217971802 0.0000000000000000
6.0979242324829102 1.9441465139389038 0.0000000000000000
6.2495355606079102 1.9093610048294067 0.0000000000000000
6.3564095497131348 2.0231008529663086 0.0000000000000000
6.9058537483215332 5.7804851531982422 0.0000000000000000
7.9533810615539551 2.3470671176910400 0.0000000000000000
7.8924183845520020 2.0837056636810303 0.0000000000000000
7.9379634857177734 1.9344266653060913 0.0000000000000000
8.0444707870483398 2.0485091209411621 0.0000000000000000
8.0900154113769531 1.8992300033569336 0.0000000000000000
6.2072663307189941 7.6070303916931152 0.0000000000000000
4.9733080863952637 3.3143622875213623 0.0000000000000000
6.2661023139953613 3.7087907791137695 0.0000000000000000
4.2137579917907715 4.8775463104248047 0.0000000000000000
3.8017296791076660 2.0594565868377686 0.0000000000000000
3.9082367420196533 2.1735389232635498 0.0000000000000000
6.8147644996643066 6.0790433883666992 0.0000000000000000
3.3014471530914307 5.0887265205383301 0.0000000000000000
3.3469917774200439 4.9394474029541016 0.0000000000000000
6.1411705017089844 1.7985843420028687 0.0000000000000000
4.5634059906005859 4.6578736305236816 0.0000000000000000
6.0376706123352051 3.0679855346679688 0.0000000000000000
3.4990437030792236 4.9042506217956543 0.0000000000000000
3.4219539165496826 2.8410491943359375 0.0000000000000000
8.1531038284301758 6.3241925239562988 0.0000000000000000
3.2559025287628174 5.2380056381225586 0.0000000000000000
5.9171628952026367 5.3156633377075195 0.0000000000000000
5.7651114463806152 5.3508601188659668 0.0000000000000000
5.8260736465454102 5.6142215728759766 0.0000000000000000
5.9325809478759766 5.7283039093017578 0.0000000000000000
5.5815153121948242 3.1735756397247314 0.0000000000000000
4.6699132919311523 4.7719559669494629 0.0000000000000000
2.2370848655700684 5.3351030349731445 0.0000000000000000
5.8106560707092285 5.2015810012817383 0.0000000000000000
5.6586041450500488 5.2367777824401855 0.0000000000000000
5.6130595207214355 5.3860569000244141 0.0000000000000000
3.2117753028869629 8.1616849899291992 0.0000000000000000
3.7870202064514160 3.0340168476104736 0.0000000000000000
3.9390721321105957 2.9988200664520264 0.0000000000000000
5.9788341522216797 6.9662251472473145 0.0000000000000000
6.0243787765502930 6.8169460296630859 0.0000000000000000
3.1346864700317383 6.0984830856323242 0.0000000000000000
3.0891416072845459 6.2477622032165527 0.0000000000000000
1.9483990669250488 5.8181371688842773 0.0000000000000000
3.1192686557769775 5.6858425140380859 0.0000000000000000
1.9028543233871460 5.9674162864685059 0.0000000000000000
1.7508026361465454 6.0026125907897949 0.0000000000000000
1.8573096990585327 6.1166949272155762 0.0000000000000000
5.8274912834167480 8.3886222839355469 0.0000000000000000
5.7819466590881348 8.5379018783569336 0.0000000000000000
6.0222525596618652 2.6553452014923096 0.0000000000000000
7.6058592796325684 6.7283406257629395 0.0000000000000000
2.6028594970703125 6.9152717590332031 0.0000000000000000
3.8935277462005615 3.1480989456176758 0.0000000000000000
2.9826345443725586 6.1336798667907715 0.0000000000000000
2.9370899200439453 6.2829585075378418 0.0000000000000000
6.2198491096496582 2.4708693027496338 0.0000000000000000
6.4959521293640137 7.1239967346191406 0.0000000000000000
6.6024589538574219 7.2380790710449219 0.0000000000000000
6.2829375267028809 6.8958320617675781 0.0000000000000000
4.4120631217956543 6.0802707672119141 0.0000000000000000
5.0966506004333496 6.6154861450195312 0.0000000000000000
5.1421952247619629 6.4662070274353027 0.0000000000000000
4.5641145706176758 6.0450739860534668 0.0000000000000000
7.4538073539733887 6.7635374069213867 0.0000000000000000
6.3996706008911133 1.8717931509017944 0.0000000000000000
6.3719010353088379 2.4356727600097656 0.0000000000000000
6.4174456596374512 2.2863936424255371 0.0000000000000000
6.5239524841308594 2.4004759788513184 0.0000000000000000
4.9747252464294434 6.0887632369995117 0.0000000000000000
4.8682184219360352 5.9746809005737305 0.0000000000000000
4.1396589279174805 8.3631925582885742 0.0000000000000000
3.0898504257202148 7.6349625587463379 0.0000000000000000
5.0812325477600098 6.2028455734252930 0.0000000000000000
2.2532112598419189 7.1349439620971680 0.0000000000000000
2.5881509780883789 7.8898310661315918 0.0000000000000000
1.5996873378753662 7.4247956275939941 0.0000000000000000
2.2385618686676025 8.1094360351562500 0.0000000000000000
1.3856312036514282 5.8091893196105957 0.0000000000000000
1.2792118787765503 5.6954865455627441 0.0000000000000000
5.8225827217102051 1.4522893428802490 0.0000000000000000
5.7171616554260254 1.3384811878204346 0.0000000000000000
1.0001598596572876 8.9317350387573242 0.0000000000000000
1.2053823471069336 9.0797204971313477 0.0000000000000000
4.0646290779113770 1.5746463537216187 0.0000000000000000
8.4943265914916992 7.0729331970214844 0.0000000000000000
8.6018810272216797 7.1859908103942871 0.0000000000000000
8.6397533416748047 5.6582689285278320 0.0000000000000000
8.7459545135498047 5.7710299491882324 0.0000000000000000
8.5321102142333984 4.1551399230957031 0.0000000000000000
8.6386365890502930 4.2693061828613281 0.0000000000000000
4.3945188522338867 1.5060292482376099 0.0000000000000000
4.2880120277404785 1.3919469118118286 0.0000000000000000
4.5021882057189941 1.6190266609191895 0.0000000000000000
2.9553337097167969 1.5564612150192261 0.0000000000000000
2.8567640781402588 1.4448006153106689 0.0000000000000000
2.7061769962310791 1.4804441928863525 0.0000000000000000
2.7517139911651611 1.3311628103256226 0.0000000000000000
8.0169067382812500 8.1580581665039062 0.0000000000000000
8.1691846847534180 8.1238384246826172 0.0000000000000000
7.8667898178100586 8.1858854293823242 0.0000000000000000
8.1595153808593750 4.9389700889587402 0.0000000000000000
8.2066860198974609 4.7823357582092285 0.0000000000000000
3.8805282115936279 8.2824602127075195 0.0000000000000000
8.4237537384033203 4.0428924560546875 0.0000000000000000
1.9396380186080933 8.1761245727539062 0.0000000000000000
6.7050652503967285 1.7987538576126099 0.0000000000000000
8.4520301818847656 4.4544239044189453 0.0000000000000000
5.6309533119201660 8.5721101760864258 0.0000000000000000
5.7365784645080566 8.6870155334472656 0.0000000000000000
1.9011871814727783 1.8065012693405151 0.0000000000000000
2.9678246974945068 8.4919433593750000 0.0000000000000000
2.8164474964141846 8.5300540924072266 0.0000000000000000
2.7100529670715332 8.4164571762084961 0.0000000000000000
2.9199366569519043 8.6398754119873047 0.0000000000000000
2.7704899311065674 8.6790113449096680 0.0000000000000000
2.8745832443237305 8.7914104461669922 0.0000000000000000
2.7254931926727295 8.8291950225830078 0.0000000000000000
2.8403649330139160 8.9519300460815430 0.0000000000000000
8.5497112274169922 7.3390159606933594 0.0000000000000000
8.7013463973999023 7.3031015396118164 0.0000000000000000
8.7582826614379883 7.1501784324645996 0.0000000000000000
8.8552675247192383 7.2707676887512207 0.0000000000000000
8.9077081680297852 7.1192908287048340 0.0000000000000000
9.0159730911254883 7.2567977905273438 0.0000000000000000
1.4909915924072266 5.9198513031005859 0.0000000000000000
4.8994822502136230 8.1859502792358398 0.0000000000000000
1.4532579183578491 8.5443191528320312 0.0000000000000000
7.0605697631835938 8.5200700759887695 0.0000000000000000
7.1666531562805176 8.6340227127075195 0.0000000000000000
7.3197035789489746 8.5991811752319336 0.0000000000000000
7.2753043174743652 8.7487678527832031 0.0000000000000000
7.2989978790283203 1.2484136819839478 0.0000000000000000
7.1926112174987793 1.1355156898498535 0.0000000000000000
7.6962394714355469 5.0425820350646973 0.0000000000000000
8.0613059997558594 5.2355504035949707 0.0000000000000000
8.2151308059692383 5.2023224830627441 0.0000000000000000
6.3747358322143555 7.9844741821289062 0.0000000000000000
6.4812431335449219 8.0985565185546875 0.0000000000000000
6.6332945823669434 8.0633602142333984 0.0000000000000000
6.5907616615295410 8.2098274230957031 0.0000000000000000
6.7403035163879395 8.1769733428955078 0.0000000000000000
5.3832101821899414 1.9708509445190430 0.0000000000000000
5.4287548065185547 1.8215719461441040 0.0000000000000000
8.0774326324462891 7.0353913307189941 0.0000000000000000
7.8027467727661133 5.1566648483276367 0.0000000000000000
4.2908468246459961 6.9407486915588379 0.0000000000000000
3.9846167564392090 2.8495409488677979 0.0000000000000000
4.0911240577697754 2.9636230468750000 0.0000000000000000
7.6051502227783203 5.3411402702331543 0.0000000000000000
7.4082627296447754 6.9128165245056152 0.0000000000000000
6.7685112953186035 4.8411221504211426 0.0000000000000000
6.6620039939880371 4.7270398139953613 0.0000000000000000
6.7075486183166504 4.5777606964111328 0.0000000000000000
6.5554971694946289 4.6129574775695801 0.0000000000000000
6.6010417938232422 4.4636783599853516 0.0000000000000000
6.4489898681640625 4.4988751411437988 0.0000000000000000
6.4945344924926758 4.3495960235595703 0.0000000000000000
2.1298689842224121 3.8338203430175781 0.0000000000000000
6.3424825668334961 4.3847923278808594 0.0000000000000000
3.0435969829559326 6.3970413208007812 0.0000000000000000
2.8915452957153320 6.4322376251220703 0.0000000000000000
2.7850382328033447 6.3181552886962891 0.0000000000000000
2.7394936084747314 6.4674344062805176 0.0000000000000000
2.8460006713867188 6.5815167427062988 0.0000000000000000
2.6939487457275391 6.6167135238647461 0.0000000000000000
5.4624252319335938 8.1956539154052734 0.0000000000000000
2.6925313472747803 3.8423128128051758 0.0000000000000000
6.0096697807312012 7.7915062904357910 0.0000000000000000
4.0175790786743164 7.8364229202270508 0.0000000000000000
1.9771683216094971 2.4820752143859863 0.0000000000000000
1.8251264095306396 2.5173151493072510 0.0000000000000000
1.7216559648513794 2.4056487083435059 0.0000000000000000
1.6735342741012573 2.5527133941650391 0.0000000000000000
1.7796118259429932 2.6664266586303711 0.0000000000000000
1.6274602413177490 2.7014892101287842 0.0000000000000000
1.7339839935302734 2.8155939579010010 0.0000000000000000
1.5819183588027954 2.8507719039916992 0.0000000000000000
1.4754089117050171 2.7366864681243896 0.0000000000000000
1.6884226799011230 2.9648506641387939 0.0000000000000000
1.4305930137634277 2.8852853775024414 0.0000000000000000
1.3234782218933105 2.7717695236206055 0.0000000000000000
3.2096490859985352 4.0000839233398438 0.0000000000000000
3.0575973987579346 4.0352807044982910 0.0000000000000000
2.5250618457794189 3.4648690223693848 0.0000000000000000
2.5706064701080322 3.3155899047851562 0.0000000000000000
6.3887362480163574 5.6227140426635742 0.0000000000000000
2.2363760471343994 3.9479029178619385 0.0000000000000000
2.1915400028228760 5.4843821525573730 0.0000000000000000
6.3431916236877441 5.7719931602478027 0.0000000000000000
2.4332637786865234 2.3762266635894775 0.0000000000000000
6.0986328125000000 3.3313469886779785 0.0000000000000000
5.8702006340026855 2.6905417442321777 0.0000000000000000
3.6819310188293457 5.6943349838256836 0.0000000000000000
6.6017503738403320 5.8508787155151367 0.0000000000000000
2.5860242843627930 3.7282304763793945 0.0000000000000000
6.2051401138305664 3.4454293251037598 0.0000000000000000
2.8291654586791992 3.3944756984710693 0.0000000000000000
3.8346915245056152 7.0463385581970215 0.0000000000000000
3.6826398372650146 7.0815353393554688 0.0000000000000000
3.5761325359344482 6.9674530029296875 0.0000000000000000
3.5305879116058350 7.1167321205139160 0.0000000000000000
3.4240808486938477 7.0026497840881348 0.0000000000000000
3.3785362243652344 7.1519284248352051 0.0000000000000000
3.4850432872772217 7.2660107612609863 0.0000000000000000
3.3329916000366211 7.3012075424194336 0.0000000000000000
3.2264842987060547 7.1871252059936523 0.0000000000000000
3.1809396743774414 7.3364043235778809 0.0000000000000000
3.3764100074768066 2.9903273582458496 0.0000000000000000
5.2774114608764648 3.2439689636230469 0.0000000000000000
3.8486919403076172 4.6845784187316895 0.0000000000000000
3.6966400146484375 4.7197747230529785 0.0000000000000000
5.5065522193908691 5.2719745635986328 0.0000000000000000
5.5520968437194824 5.1226954460144043 0.0000000000000000
5.8400740623474121 3.2524611949920654 0.0000000000000000
4.1240859031677246 7.9505052566528320 0.0000000000000000
2.7696204185485840 5.9055151939392090 0.0000000000000000
3.9867432117462158 7.0111417770385742 0.0000000000000000
7.1188683509826660 6.0086498260498047 0.0000000000000000
7.7579107284545898 6.6931438446044922 0.0000000000000000
8.0921411514282227 6.0608310699462891 0.0000000000000000
8.1229772567749023 6.8861122131347656 0.0000000000000000
8.2747240066528320 6.8512001037597656 0.0000000000000000
2.4508078098297119 6.9504680633544922 0.0000000000000000
4.2600111961364746 6.1154675483703613 0.0000000000000000
4.4576077461242676 5.9309916496276855 0.0000000000000000
2.8312914371490479 7.5560770034790039 0.0000000000000000
2.2076666355133057 7.2842230796813965 0.0000000000000000
2.0556149482727051 7.3194198608398438 0.0000000000000000
2.6946578025817871 8.0039138793945312 0.0000000000000000
1.8580451011657715 7.5038666725158691 0.0000000000000000
8.2112951278686523 6.5901408195495605 0.0000000000000000
8.8492012023925781 2.6968753337860107 0.0000000000000000
8.9741230010986328 2.8012883663177490 0.0000000000000000
5.9318490028381348 8.4975862503051758 0.0000000000000000
2.8995809555053711 1.2946892976760864 0.0000000000000000
2.7968027591705322 1.1817446947097778 0.0000000000000000
7.1248860359191895 8.7795400619506836 0.0000000000000000
7.2305803298950195 8.8974704742431641 0.0000000000000000
5.4200005531311035 8.3420200347900391 0.0000000000000000
8.3476247787475586 7.5257625579833984 0.0000000000000000
8.1937189102172852 2.0124571323394775 0.0000000000000000
8.2393751144409180 1.8632119894027710 0.0000000000000000
6.1249594688415527 8.3168954849243164 0.0000000000000000
9.0620117187500000 7.0770163536071777 0.0000000000000000
8.3126907348632812 5.3176698684692383 0.0000000000000000
5.5205521583557129 1.5278193950653076 0.0000000000000000
5.8635306358337402 1.3015414476394653 0.0000000000000000
5.7619452476501465 1.1889495849609375 0.0000000000000000
1.7101871967315674 6.1485180854797363 0.0000000000000000
1.8112398386001587 6.2855701446533203 0.0000000000000000
1.2380706071853638 5.8400139808654785 0.0000000000000000
1.1272330284118652 5.7270359992980957 0.0000000000000000
1.3394411802291870 7.3398194313049316 0.0000000000000000
1.2337099313735962 7.2290883064270020 0.0000000000000000
8.5724697113037109 2.6226651668548584 0.0000000000000000
8.2084236145019531 7.9727864265441895 0.0000000000000000
4.1608090400695801 8.7717962265014648 0.0000000000000000
4.2681207656860352 8.8909454345703125 0.0000000000000000
6.9065041542053223 1.6191616058349609 0.0000000000000000
7.0851049423217773 8.9243440628051758 0.0000000000000000
7.1723303794860840 9.0497188568115234 0.0000000000000000
7.3332996368408203 9.0112152099609375 0.0000000000000000
7.2683401107788086 9.1911048889160156 0.0000000000000000
2.6799793243408203 8.9856586456298828 0.0000000000000000
1.7542980909347534 1.8359489440917969 0.0000000000000000
1.4390190839767456 7.0505189895629883 0.0000000000000000
1.2830206155776978 2.9145555496215820 0.0000000000000000
1.1746397018432617 2.8036754131317139 0.0000000000000000
1.4208092689514160 8.7300233840942383 0.0000000000000000
8.6857156753540039 4.1266593933105469 0.0000000000000000
8.7907285690307617 4.2342858314514160 0.0000000000000000
8.7345838546752930 4.3568019866943359 0.0000000000000000
8.8805303573608398 4.3501863479614258 0.0000000000000000
8.9484682083129883 4.1947917938232422 0.0000000000000000
1.6796804666519165 5.3347516059875488 0.0000000000000000
8.2523832321166992 2.2814364433288574 0.0000000000000000
7.9833779335021973 1.7897479534149170 0.0000000000000000
2.0545752048492432 1.7779989242553711 0.0000000000000000
4.5501146316528320 8.4068346023559570 0.0000000000000000
8.7936363220214844 5.6309857368469238 0.0000000000000000
8.8983211517333984 5.7371959686279297 0.0000000000000000
1.0910701751708984 5.8683118820190430 0.0000000000000000
0.9654061198234558 5.7654571533203125 0.0000000000000000
1.6113898754119873 8.4113903045654297 0.0000000000000000
1.7236150503158569 8.2892608642578125 0.0000000000000000
1.4314429759979248 8.9566850662231445 0.0000000000000000
1.3938544988632202 9.2072963714599609 0.0000000000000000
1.1638884544372559 9.3638896942138672 0.0000000000000000
1.4883700609207153 5.5132145881652832 0.0000000000000000
7.3419742584228516 1.0998095273971558 0.0000000000000000
7.2375760078430176 0.9863747358322144 0.0000000000000000
7.0897502899169922 1.0209007263183594 0.0000000000000000
7.1204948425292969 0.8936421871185303 0.0000000000000000
1.7288709878921509 5.1876740455627441 0.0000000000000000
8.9416818618774414 5.5996608734130859 0.0000000000000000
9.0285110473632812 5.7101101875305176 0.0000000000000000
1.7266197204589844 3.7923774719238281 0.0000000000000000
1.7726714611053467 3.6432530879974365 0.0000000000000000
5.0185275077819824 1.7836922407150269 0.0000000000000000
5.1701955795288086 1.7426862716674805 0.0000000000000000
1.3850278854370117 4.4224443435668945 0.0000000000000000
1.2784014940261841 4.3084735870361328 0.0000000000000000
1.3242517709732056 4.1600785255432129 0.0000000000000000
1.1720136404037476 4.1942796707153320 0.0000000000000000
1.1264688968658447 4.3435587882995605 0.0000000000000000
0.9958550930023193 4.2143411636352539 0.0000000000000000
9.0590162277221680 4.3424630165100098 0.0000000000000000
9.1399822235107422 4.1531271934509277 0.0000000000000000
6.4379005432128906 8.2388896942138672 0.0000000000000000
7.0250301361083984 9.0588369369506836 0.0000000000000000
5.5934062004089355 8.7197866439819336 0.0000000000000000
5.6918573379516602 8.8365030288696289 0.0000000000000000
5.8379678726196289 8.7996749877929688 0.0000000000000000
5.8030424118041992 8.9591159820556641 0.0000000000000000
5.6423935890197754 8.9958181381225586 0.0000000000000000
1.6356383562088013 6.8656420707702637 0.0000000000000000
5.6192355155944824 1.2234773635864258 0.0000000000000000
5.6593856811523438 1.0754799842834473 0.0000000000000000
5.8080439567565918 1.0407229661941528 0.0000000000000000
5.6887006759643555 0.9466709494590759 0.0000000000000000
4.1223325729370117 8.9174051284790039 0.0000000000000000
4.2050843238830566 9.0434722900390625 0.0000000000000000
4.3679356575012207 9.0039510726928711 0.0000000000000000
4.3265013694763184 9.1908941268920898 0.0000000000000000
1.2178144454956055 2.6660335063934326 0.0000000000000000
1.0621823072433472 2.6979231834411621 0.0000000000000000
1.0230526924133301 2.8448061943054199 0.0000000000000000
0.8867329955101013 2.7196757793426514 0.0000000000000000
0.8169627189636230 2.9068329334259033 0.0000000000000000
9.1675262451171875 7.2034792900085449 0.0000000000000000
8.5543155670166016 5.9569344520568848 0.0000000000000000
1.0029125213623047 5.6061367988586426 0.0000000000000000
0.8407028913497925 5.6439623832702637 0.0000000000000000
0.7812829613685608 5.8444924354553223 0.0000000000000000
5.7990264892578125 9.1495180130004883 0.0000000000000000
5.5888261795043945 9.1776065826416016 0.0000000000000000
2.7921395301818848 9.1579055786132812 0.0000000000000000
2.5890812873840332 9.1910018920898438 0.0000000000000000
7.3900098800659180 0.9513744711875916 0.0000000000000000
8.1207237243652344 8.2634468078613281 0.0000000000000000
8.2677812576293945 8.2378463745117188 0.0000000000000000
1.7889412641525269 1.6979933977127075 0.0000000000000000
1.6563855409622192 1.7244926691055298 0.0000000000000000
2.6563978195190430 1.2175456285476685 0.0000000000000000
2.6969220638275146 1.0691924095153809 0.0000000000000000
2.8439972400665283 1.0328871011734009 0.0000000000000000
2.7256083488464355 0.9404206871986389 0.0000000000000000
0.9483918547630310 8.5664091110229492 0.0000000000000000
7.7249488830566406 1.7062619924545288 0.0000000000000000
2.6308326721191406 8.7124414443969727 0.0000000000000000
4.4400634765625000 1.3567502498626709 0.0000000000000000
4.3316750526428223 1.2444247007369995 0.0000000000000000
4.1834702491760254 1.2788527011871338 0.0000000000000000
4.2228341102600098 1.1277526617050171 0.0000000000000000
4.3758373260498047 1.0909172296524048 0.0000000000000000
4.2711930274963379 0.9752897024154663 0.0000000000000000
4.0441751480102539 9.0530204772949219 0.0000000000000000
8.8504486083984375 5.8788261413574219 0.0000000000000000
4.4279127120971680 0.9093919992446899 0.0000000000000000
1.6751310825347900 6.7138113975524902 0.0000000000000000
5.9759993553161621 1.4174237251281738 0.0000000000000000
6.0683360099792480 1.5534105300903320 0.0000000000000000
4.0791878700256348 1.0182847976684570 0.0000000000000000
3.9927651882171631 0.8435159921646118 0.0000000000000000
3.8926424980163574 0.6925835013389587 0.0000000000000000
3.7157402038574219 0.5081727504730225 0.0000000000000000
3.4950842857360840 0.5137142539024353 0.0000000000000000
3.2008895874023438 0.5677790641784668 0.0000000000000000
2.9417278766632080 0.7029808759689331 0.0000000000000000
8.3252887725830078 4.8967432975769043 0.0000000000000000
1.1876405477523804 7.3771800994873047 0.0000000000000000
1.0773118734359741 7.2681784629821777 0.0000000000000000
1.1404742002487183 7.1113553047180176 0.0000000000000000
0.9562727212905884 7.1475062370300293 0.0000000000000000
0.8939108252525330 7.3265190124511719 0.0000000000000000
0.7298132777214050 7.1653242111206055 0.0000000000000000
0.7063549757003784 7.5166411399841309 0.0000000000000000
8.9414329528808594 7.4214978218078613 0.0000000000000000
9.1296186447143555 7.4203033447265625 0.0000000000000000
4.4742970466613770 8.7149124145507812 0.0000000000000000
8.8965272903442383 2.9611678123474121 0.0000000000000000
9.0744361877441406 2.9326260089874268 0.0000000000000000
1.5680617094039917 2.4418447017669678 0.0000000000000000
3.7307457923889160 8.3163042068481445 0.0000000000000000
3.6259129047393799 8.2018442153930664 0.0000000000000000
8.3016271591186523 5.0629425048828125 0.0000000000000000
6.6942572593688965 8.3267211914062500 0.0000000000000000
3.8053393363952637 1.6301963329315186 0.0000000000000000
3.9227240085601807 1.5505695343017578 0.0000000000000000
3.6429517269134521 1.6649488210678101 0.0000000000000000
3.4814054965972900 1.6975225210189819 0.0000000000000000
3.3061449527740479 1.6775473356246948 0.0000000000000000
3.3725073337554932 1.8208582401275635 0.0000000000000000
3.5272779464721680 1.8694674968719482 0.0000000000000000
3.2139792442321777 1.8038569688796997 0.0000000000000000
3.1563887596130371 1.6715064048767090 0.0000000000000000
3.4295766353607178 1.9613196849822998 0.0000000000000000
7.6236438751220703 1.5834140777587891 0.0000000000000000
1.6877139806747437 1.5776501893997192 0.0000000000000000
1.5346372127532959 1.6327538490295410 0.0000000000000000
1.5920689105987549 1.4615195989608765 0.0000000000000000
1.5279043912887573 1.3029299974441528 0.0000000000000000
1.4698785543441772 1.1302492618560791 0.0000000000000000
1.3493746519088745 1.2846750020980835 0.0000000000000000
1.2787895202636719 1.0823132991790771 0.0000000000000000
1.4257236719131470 1.4839911460876465 0.0000000000000000
1.4268155097961426 0.9386588335037231 0.0000000000000000
1.1897400617599487 0.8399837613105774 0.0000000000000000
1.2204464673995972 1.4491108655929565 0.0000000000000000
1.1322840452194214 1.2568647861480713 0.0000000000000000
9.2787208557128906 7.5537519454956055 0.0000000000000000
8.3845844268798828 4.7442741394042969 0.0000000000000000
8.4242630004882812 4.5960459709167480 0.0000000000000000
8.2557277679443359 4.6300797462463379 0.0000000000000000
1.6858234405517578 1.9753525257110596 0.0000000000000000
1.6651775836944580 2.1469326019287109 0.0000000000000000
4.5400972366333008 8.5567436218261719 0.0000000000000000
0.8389202356338501 6.9407329559326172 0.0000000000000000
8.5733461380004883 3.0468928813934326 0.0000000000000000
8.4465742111206055 3.1263289451599121 0.0000000000000000
8.3750152587890625 3.2663927078247070 0.0000000000000000
8.2024803161621094 3.2342765331268311 0.0000000000000000
8.2633142471313477 3.3727631568908691 0.0000000000000000
8.1079473495483398 3.3575284481048584 0.0000000000000000
8.1633834838867188 3.5089368820190430 0.0000000000000000
3.1185286045074463 8.4538373947143555 0.0000000000000000
4.4204134941101074 8.8642196655273438 0.0000000000000000
7.5156407356262207 1.4711577892303467 0.0000000000000000
4.3217992782592773 0.7493324279785156 0.0000000000000000
4.5170192718505859 0.7050305604934692 0.0000000000000000
7.4070801734924316 1.3555113077163696 0.0000000000000000
8.2154560089111328 8.3914003372192383 0.0000000000000000
8.3748579025268555 8.4564323425292969 0.0000000000000000
4.0558333396911621 8.6573123931884766 0.0000000000000000
0.9226818680763245 9.1850013732910156 0.0000000000000000
8.7438621520996094 3.0051970481872559 0.0000000000000000
7.4270782470703125 8.7150783538818359 0.0000000000000000
7.4892702102661133 8.5511245727539062 0.0000000000000000
7.5811476707458496 8.4318561553955078 0.0000000000000000
7.3604078292846680 8.4433879852294922 0.0000000000000000
7.3786940574645996 8.8666887283325195 0.0000000000000000
3.1390924453735352 1.9413721561431885 0.0000000000000000
2.8011648654937744 8.1179962158203125 0.0000000000000000
6.8479857444763184 8.2899770736694336 0.0000000000000000
4.8990540504455566 6.7999615669250488 0.0000000000000000
5.9332895278930664 7.1155042648315430 0.0000000000000000
5.8267822265625000 7.0014219284057617 0.0000000000000000
6.1617217063903809 7.7563095092773438 0.0000000000000000
2.8004560470581055 6.7307958602905273 0.0000000000000000
5.7812376022338867 7.1507010459899902 0.0000000000000000
6.0397968292236328 7.2295866012573242 0.0000000000000000
7.6506948471069336 5.1918611526489258 0.0000000000000000
4.7470021247863770 6.8351583480834961 0.0000000000000000
4.7014575004577637 6.9844374656677246 0.0000000000000000
6.1007590293884277 7.4929480552673340 0.0000000000000000
6.7854299545288086 8.0280847549438477 0.0000000000000000
6.4034452438354492 4.6481537818908691 0.0000000000000000
5.3112788200378418 8.2300052642822266 0.0000000000000000
4.4428987503051758 6.9055519104003906 0.0000000000000000
8.2490549087524414 6.4390583038330078 0.0000000000000000
8.3166408538818359 6.2862968444824219 0.0000000000000000
7.5441880226135254 5.0777788162231445 0.0000000000000000
7.3311734199523926 4.8496141433715820 0.0000000000000000
8.2971696853637695 7.6735434532165527 0.0000000000000000
8.2484560012817383 7.8218522071838379 0.0000000000000000
7.9709248542785645 6.9213089942932129 0.0000000000000000
7.8644180297851562 6.8072261810302734 0.0000000000000000
8.1154537200927734 5.0889072418212891 0.0000000000000000
3.0744326114654541 7.2223219871520996 0.0000000000000000
7.0123610496520996 5.8945674896240234 0.0000000000000000
5.2921204566955566 2.2694089412689209 0.0000000000000000
6.6164593696594238 4.8763184547424316 0.0000000000000000
6.7692198753356934 6.2283225059509277 0.0000000000000000
5.7805290222167969 5.7635006904602051 0.0000000000000000
7.9863429069519043 7.3339490890502930 0.0000000000000000
7.9407982826232910 7.4832282066345215 0.0000000000000000
5.0945243835449219 2.4538848400115967 0.0000000000000000
2.6484041213989258 6.7659926414489746 0.0000000000000000
4.1366686820983887 2.8143439292907715 0.0000000000000000
4.2431759834289551 2.9284262657165527 0.0000000000000000
8.7367124557495117 2.5705776214599609 0.0000000000000000
6.7082576751708984 5.9649610519409180 0.0000000000000000
4.3202648162841797 4.9916286468505859 0.0000000000000000
4.4267721176147461 5.1057109832763672 0.0000000000000000
4.5788240432739258 5.0705142021179199 0.0000000000000000
2.5404796600341797 3.8775093555450439 0.0000000000000000
5.9150366783142090 1.1540623903274536 0.0000000000000000
5.2767028808593750 1.8567686080932617 0.0000000000000000
5.3236165046691895 1.7134038209915161 0.0000000000000000
4.2747201919555664 5.1409077644348145 0.0000000000000000
2.9980523586273193 6.5463199615478516 0.0000000000000000
7.3767185211181641 4.7003350257873535 0.0000000000000000
7.4222631454467773 4.5510563850402832 0.0000000000000000
7.9253802299499512 7.0705876350402832 0.0000000000000000
4.1850743293762207 8.2138748168945312 0.0000000000000000
4.0301618576049805 2.7002615928649902 0.0000000000000000
4.0757064819335938 2.5509824752807617 0.0000000000000000
3.9691994190216064 2.4369001388549805 0.0000000000000000
4.7474193572998047 8.2210988998413086 0.0000000000000000
7.4541349411010742 8.1501379013061523 0.0000000000000000
7.5613341331481934 8.2746953964233398 0.0000000000000000
7.7029814720153809 8.3375597000122070 0.0000000000000000
5.1267771720886230 6.0535664558410645 0.0000000000000000
3.9411985874176025 7.1604208946228027 0.0000000000000000
7.4376807212829590 4.9636964797973633 0.0000000000000000
5.7041487693786621 5.0874986648559570 0.0000000000000000
4.9424724578857422 2.4890813827514648 0.0000000000000000
4.8969278335571289 2.6383605003356934 0.0000000000000000
6.8750181198120117 4.9552044868469238 0.0000000000000000
5.0516200065612793 8.1511249542236328 0.0000000000000000
4.5332794189453125 5.2197933197021484 0.0000000000000000
4.6853308677673340 5.1845965385437012 0.0000000000000000
7.7887463569641113 7.5184249877929688 0.0000000000000000
5.0511054992675781 6.7647647857666016 0.0000000000000000
5.2031574249267578 6.7295684814453125 0.0000000000000000
8.7003479003906250 5.9200444221496582 0.0000000000000000
7.9393806457519531 4.7088274955749512 0.0000000000000000
5.2010312080383301 2.5679671764373779 0.0000000000000000
4.7904205322265625 2.5242781639099121 0.0000000000000000
2.2819206714630127 3.7986238002777100 0.0000000000000000
6.5849151611328125 2.6638374328613281 0.0000000000000000
6.7369670867919922 2.6286406517028809 0.0000000000000000
6.8434739112854004 2.7427229881286621 0.0000000000000000
6.8890185356140137 2.5934441089630127 0.0000000000000000
6.9955258369445801 2.7075264453887939 0.0000000000000000
6.7825117111206055 2.4793615341186523 0.0000000000000000
6.9499812126159668 2.8568053245544434 0.0000000000000000
7.1020326614379883 2.8216087818145752 0.0000000000000000
7.0564880371093750 2.9708876609802246 0.0000000000000000
7.2085399627685547 2.9356911182403564 0.0000000000000000
7.1629953384399414 3.0849699974060059 0.0000000000000000
7.3150472640991211 3.0497734546661377 0.0000000000000000
7.2695026397705078 3.1990525722503662 0.0000000000000000
7.1174507141113281 3.2342491149902344 0.0000000000000000
7.2239580154418945 3.3483314514160156 0.0000000000000000
7.3760094642639160 3.3131349086761475 0.0000000000000000
7.0719060897827148 3.3835282325744629 0.0000000000000000
7.1784129142761230 3.4976105690002441 0.0000000000000000
7.0263614654541016 3.5328073501586914 0.0000000000000000
7.1328682899475098 3.6468896865844727 0.0000000000000000
6.9808168411254883 3.6820862293243408 0.0000000000000000
7.0873236656188965 3.7961685657501221 0.0000000000000000
7.0109434127807617 3.1201667785644531 0.0000000000000000
6.9829430580139160 7.8436875343322754 0.0000000000000000
6.9374122619628906 7.9929533004760742 0.0000000000000000
6.9345631599426270 2.4441649913787842 0.0000000000000000
6.5694971084594727 2.2511968612670898 0.0000000000000000
6.4629778861999512 2.1371259689331055 0.0000000000000000
3.1199772357940674 7.0730428695678711 0.0000000000000000
7.2407932281494141 6.5353727340698242 0.0000000000000000
7.0887413024902344 6.5705695152282715 0.0000000000000000
6.0552144050598145 7.6422271728515625 0.0000000000000000
6.9822340011596680 6.4564871788024902 0.0000000000000000
5.8246560096740723 2.8398208618164062 0.0000000000000000
4.2887206077575684 2.7791473865509033 0.0000000000000000
3.2720291614532471 7.0378460884094238 0.0000000000000000
7.0130696296691895 7.2817678451538086 0.0000000000000000
6.9065628051757812 7.1676855087280273 0.0000000000000000
7.0866150856018066 2.4089682102203369 0.0000000000000000
5.3839187622070312 3.3580513000488281 0.0000000000000000
8.1496601104736328 2.1632425785064697 0.0000000000000000
4.1293425559997559 1.4208619594573975 0.0000000000000000
7.2702112197875977 4.5862526893615723 0.0000000000000000
7.3157558441162109 4.4369735717773438 0.0000000000000000
8.2731246948242188 5.4642539024353027 0.0000000000000000
8.4161424636840820 5.4320077896118164 0.0000000000000000
8.5279817581176758 5.5484127998352051 0.0000000000000000
7.8181643486022949 5.5693049430847168 0.0000000000000000
1.9021456241607666 4.5802154541015625 0.0000000000000000
7.7880377769470215 6.1312246322631836 0.0000000000000000
6.6788535118103027 7.9140677452087402 0.0000000000000000
2.7990384101867676 3.9563951492309570 0.0000000000000000
7.4390983581542969 7.7380971908569336 0.0000000000000000
7.4846429824829102 7.5888185501098633 0.0000000000000000
7.5126433372497559 2.8652977943420410 0.0000000000000000
5.3405003547668457 7.6689314842224121 0.0000000000000000
5.2339930534362793 7.5548491477966309 0.0000000000000000
5.0819411277770996 7.5900459289550781 0.0000000000000000
8.0959434509277344 4.6698255538940430 0.0000000000000000
3.4696254730224609 6.8533706665039062 0.0000000000000000
7.4229717254638672 5.9382567405700684 0.0000000000000000
5.1274857521057129 7.4407668113708496 0.0000000000000000
3.5614235401153564 7.9420127868652344 0.0000000000000000
3.5164666175842285 8.0907039642333984 0.0000000000000000
5.4746985435485840 1.6744965314865112 0.0000000000000000
6.8922472000122070 8.1418991088867188 0.0000000000000000
6.9555277824401855 8.4041357040405273 0.0000000000000000
7.0439877510070801 8.1069936752319336 0.0000000000000000
7.2856287956237793 4.9988932609558105 0.0000000000000000
7.1335773468017578 5.0340900421142578 0.0000000000000000
7.0880327224731445 5.1833691596984863 0.0000000000000000
5.4462985992431641 6.3958134651184082 0.0000000000000000
5.4918432235717773 6.2465343475341797 0.0000000000000000
5.3397912979125977 6.2817311286926270 0.0000000000000000
2.9510903358459473 3.9211983680725098 0.0000000000000000
4.8653655052185059 1.8147858381271362 0.0000000000000000
4.7632670402526855 1.6964001655578613 0.0000000000000000
6.5407876968383789 5.5875172615051270 0.0000000000000000
2.0394883155822754 5.5195789337158203 0.0000000000000000
6.5099520683288574 4.7622361183166504 0.0000000000000000
4.9277634620666504 3.4636414051055908 0.0000000000000000
4.8822188377380371 3.6129205226898193 0.0000000000000000
4.7757115364074707 3.4988381862640381 0.0000000000000000
4.7301669120788574 3.6481170654296875 0.0000000000000000
1.4299829006195068 7.4791045188903809 0.0000000000000000
5.3250823020935059 7.2562909126281738 0.0000000000000000
6.0075435638427734 3.6299049854278564 0.0000000000000000
5.7181491851806641 2.7257385253906250 0.0000000000000000
5.6880221366882324 3.2876579761505127 0.0000000000000000
1.6349821090698242 5.4786095619201660 0.0000000000000000
4.6404948234558105 6.7210760116577148 0.0000000000000000
6.3137731552124023 7.7211127281188965 0.0000000000000000
6.8280563354492188 2.3300826549530029 0.0000000000000000
5.0055608749389648 6.9140439033508301 0.0000000000000000
7.0711975097656250 1.9963277578353882 0.0000000000000000
3.1802310943603516 5.9492039680480957 0.0000000000000000
4.1696305274963379 7.8012261390686035 0.0000000000000000
6.5540795326232910 1.8385565280914307 0.0000000000000000
6.5932359695434570 1.6782547235488892 0.0000000000000000
6.4409952163696289 1.7240707874298096 0.0000000000000000
6.7518897056579590 1.6529980897903442 0.0000000000000000
7.5147695541381836 7.0268988609313965 0.0000000000000000
7.5743145942687988 4.5158596038818359 0.0000000000000000
7.4678077697753906 4.4017772674560547 0.0000000000000000
1.7492588758468628 4.6161918640136719 0.0000000000000000
1.7122447490692139 4.7575068473815918 0.0000000000000000
1.5980421304702759 4.6506090164184570 0.0000000000000000
1.4614286422729492 4.5517826080322266 0.0000000000000000
8.5997791290283203 4.4161415100097656 0.0000000000000000
5.2171578407287598 4.3678078651428223 0.0000000000000000
5.2627024650573730 4.2185287475585938 0.0000000000000000
5.1561951637268066 4.1044464111328125 0.0000000000000000
5.3692097663879395 4.3326110839843750 0.0000000000000000
5.4147543907165527 4.1833324432373047 0.0000000000000000
6.6921310424804688 4.1651201248168945 0.0000000000000000
6.5856237411499023 4.0510377883911133 0.0000000000000000
8.5838871002197266 3.9955949783325195 0.0000000000000000
1.6767195463180542 3.9403276443481445 0.0000000000000000
7.5883150100708008 2.1540992259979248 0.0000000000000000
1.3020964860916138 7.0822877883911133 0.0000000000000000
7.3017554283142090 6.7987341880798340 0.0000000000000000
6.9646902084350586 1.8822454214096069 0.0000000000000000
3.1956489086151123 6.3618445396423340 0.0000000000000000
5.9031624794006348 7.6774239540100098 0.0000000000000000
7.3914275169372559 3.7257752418518066 0.0000000000000000
5.8562006950378418 5.0523018836975098 0.0000000000000000
4.6860399246215820 6.5717968940734863 0.0000000000000000
4.0455794334411621 3.1129021644592285 0.0000000000000000
4.0000348091125488 3.2621810436248779 0.0000000000000000
4.1520867347717285 3.2269845008850098 0.0000000000000000
5.6424775123596191 3.4369370937347412 0.0000000000000000
3.3617010116577148 3.9648873805999756 0.0000000000000000
8.1060991287231445 7.8600063323974609 0.0000000000000000
7.8622918128967285 2.6456253528594971 0.0000000000000000
6.1294684410095215 4.1566276550292969 0.0000000000000000
6.4798254966735840 5.3241558074951172 0.0000000000000000
2.6778223514556885 4.8168725967407227 0.0000000000000000
2.5257704257965088 4.8520693778991699 0.0000000000000000
2.4802258014678955 5.0013484954833984 0.0000000000000000
2.5713152885437012 4.7027902603149414 0.0000000000000000
7.7564935684204102 3.9187433719635010 0.0000000000000000
7.9085450172424316 3.8835465908050537 0.0000000000000000
7.9583096504211426 3.7303280830383301 0.0000000000000000
8.0613002777099609 3.8476932048797607 0.0000000000000000
7.8630003929138184 4.0328254699707031 0.0000000000000000
8.1079607009887695 3.6960735321044922 0.0000000000000000
8.2128610610961914 3.8127386569976807 0.0000000000000000
8.2547988891601562 3.6603515148162842 0.0000000000000000
7.9971594810485840 3.5771868228912354 0.0000000000000000
8.1672525405883789 3.9622380733489990 0.0000000000000000
7.2099575996398926 5.7100920677185059 0.0000000000000000
3.6686165332794189 8.0554084777832031 0.0000000000000000
3.4748084545135498 8.2324743270874023 0.0000000000000000
1.9181661605834961 3.6060559749603271 0.0000000000000000
1.8160841464996338 3.4933235645294189 0.0000000000000000
1.9491072893142700 7.2053351402282715 0.0000000000000000
2.9062542915344238 5.4576778411865234 0.0000000000000000
3.0583062171936035 5.4224810600280762 0.0000000000000000
4.5774064064025879 2.2961134910583496 0.0000000000000000
7.3151006698608398 1.6616855859756470 0.0000000000000000
3.6349685192108154 3.0692136287689209 0.0000000000000000
4.7161664962768555 6.0098776817321777 0.0000000000000000
5.2935380935668945 5.0438098907470703 0.0000000000000000
3.1641044616699219 4.1493630409240723 0.0000000000000000
3.0120527744293213 4.1845598220825195 0.0000000000000000
6.4181542396545410 3.6735939979553223 0.0000000000000000
2.1754136085510254 3.6845414638519287 0.0000000000000000
4.0007438659667969 4.6493816375732422 0.0000000000000000
6.3894448280334473 7.0099143981933594 0.0000000000000000
5.4610075950622559 5.4212536811828613 0.0000000000000000
5.5675148963928223 5.5353360176086426 0.0000000000000000
3.8024384975433350 3.4466569423675537 0.0000000000000000
2.5103528499603271 4.4394288063049316 0.0000000000000000
5.4154629707336426 5.5705327987670898 0.0000000000000000
7.3003382682800293 4.0243334770202637 0.0000000000000000
1.9635740518569946 3.4567351341247559 0.0000000000000000
1.8570441007614136 3.3426458835601807 0.0000000000000000
1.6831295490264893 3.3929443359375000 0.0000000000000000
1.7493851184844971 3.2282118797302246 0.0000000000000000
7.6191506385803223 2.9793801307678223 0.0000000000000000
4.8072557449340820 5.7113194465637207 0.0000000000000000
3.4226634502410889 4.2282485961914062 0.0000000000000000
7.7109489440917969 4.0680222511291504 0.0000000000000000
2.9517989158630371 5.3083987236022949 0.0000000000000000
3.1501040458679199 6.5111236572265625 0.0000000000000000
2.0235803127288818 3.7198047637939453 0.0000000000000000
4.7610025405883789 4.4733982086181641 0.0000000000000000
7.6948223114013672 2.2681815624237061 0.0000000000000000
6.2969379425048828 4.5340714454650879 0.0000000000000000
2.9349381923675537 2.1213812828063965 0.0000000000000000
3.4527902603149414 3.6663293838500977 0.0000000000000000
3.5908417701721191 5.9928927421569824 0.0000000000000000
4.4099369049072266 1.9186697006225586 0.0000000000000000
1.9016288518905640 3.1930739879608154 0.0000000000000000
2.9966349601745605 3.7719192504882812 0.0000000000000000
1.8404772281646729 2.9296576976776123 0.0000000000000000
2.9665081501007080 4.3338389396667480 0.0000000000000000
2.7233669757843018 4.6675934791564941 0.0000000000000000
1.7949622869491577 3.0789432525634766 0.0000000000000000
1.6475090980529785 3.1098129749298096 0.0000000000000000
6.4805340766906738 6.7113561630249023 0.0000000000000000
4.6095027923583984 1.7324953079223633 0.0000000000000000
5.3383741378784180 3.5073304176330566 0.0000000000000000
3.5151700973510742 6.7040915489196777 0.0000000000000000
6.5562057495117188 6.0001578330993652 0.0000000000000000
6.1911396980285645 5.8071894645690918 0.0000000000000000
2.2826294898986816 5.1858239173889160 0.0000000000000000
3.1648132801055908 5.5365633964538574 0.0000000000000000
4.0602884292602539 2.1383421421051025 0.0000000000000000
3.4072456359863281 3.8156082630157471 0.0000000000000000
6.9198541641235352 3.4187247753143311 0.0000000000000000
3.0113439559936523 2.7973594665527344 0.0000000000000000
3.1633958816528320 2.7621626853942871 0.0000000000000000
7.4362630844116211 2.1892957687377930 0.0000000000000000
2.4031369686126709 2.9381461143493652 0.0000000000000000
2.5096440315246582 3.0522284507751465 0.0000000000000000
2.3737187385559082 4.8872661590576172 0.0000000000000000
6.4644074440002441 4.9115152359008789 0.0000000000000000
4.0631237030029297 7.6871438026428223 0.0000000000000000
4.3216824531555176 7.7660293579101562 0.0000000000000000
5.5212612152099609 4.2974147796630859 0.0000000000000000
5.5668058395385742 4.1481356620788574 0.0000000000000000
5.7188577651977539 4.1129388809204102 0.0000000000000000
5.6123509407043457 3.9988565444946289 0.0000000000000000
2.1291701793670654 2.4466631412506104 0.0000000000000000
2.0836272239685059 2.5959494113922119 0.0000000000000000
6.8581829071044922 1.7681630849838257 0.0000000000000000
5.4441723823547363 2.2342123985290527 0.0000000000000000
2.5264792442321777 6.2392697334289551 0.0000000000000000
5.5808291435241699 1.7867411375045776 0.0000000000000000
2.1596164703369141 1.8859025239944458 0.0000000000000000
2.3113937377929688 1.8497041463851929 0.0000000000000000
2.2048316001892090 1.7354215383529663 0.0000000000000000
2.3588635921478271 1.7087730169296265 0.0000000000000000
4.2130489349365234 3.4903457164764404 0.0000000000000000
4.3356828689575195 5.4042692184448242 0.0000000000000000
1.8860390186309814 2.7804014682769775 0.0000000000000000
5.7952380180358887 4.7889409065246582 0.0000000000000000
5.3390827178955078 4.8945307731628418 0.0000000000000000
7.2562108039855957 6.9480133056640625 0.0000000000000000
3.9853258132934570 4.2367410659790039 0.0000000000000000
4.1373777389526367 4.2015442848205566 0.0000000000000000
4.5648236274719238 7.4322743415832520 0.0000000000000000
4.6713304519653320 7.5463571548461914 0.0000000000000000
4.8233823776245117 7.5111603736877441 0.0000000000000000
4.5192790031433105 7.5815534591674805 0.0000000000000000
4.7778377532958984 7.6604394912719727 0.0000000000000000
3.3175737857818604 6.8885669708251953 0.0000000000000000
2.5824372768402100 1.3597273826599121 0.0000000000000000
2.5542199611663818 1.5202437639236450 0.0000000000000000
5.3236651420593262 4.4818902015686035 0.0000000000000000
6.5081276893615723 1.9875221252441406 0.0000000000000000
2.6609871387481689 1.6298314332962036 0.0000000000000000
4.1072506904602051 4.7634639739990234 0.0000000000000000
3.3462831974029541 3.5522470474243164 0.0000000000000000
3.6055507659912109 5.0183329582214355 0.0000000000000000
5.6277685165405273 4.4114971160888672 0.0000000000000000
2.3127562999725342 4.6239047050476074 0.0000000000000000
6.4482812881469727 3.1116745471954346 0.0000000000000000
6.4027366638183594 3.2609536647796631 0.0000000000000000
4.5479884147644043 4.2452335357666016 0.0000000000000000
4.7147493362426758 3.2354767322540283 0.0000000000000000
4.7448759078979492 2.6735572814941406 0.0000000000000000
3.6803770065307617 1.9297285079956055 0.0000000000000000
6.1764307022094727 6.7817497253417969 0.0000000000000000
6.0699234008789062 6.6676673889160156 0.0000000000000000
5.9178719520568848 6.7028636932373047 0.0000000000000000
1.2201577425003052 4.4456582069396973 0.0000000000000000
2.9496726989746094 1.1467976570129395 0.0000000000000000
3.0091035366058350 1.0117646455764771 0.0000000000000000
2.5397708415985107 2.4903090000152588 0.0000000000000000
7.5448966026306152 6.4649791717529297 0.0000000000000000
2.9503815174102783 2.5339984893798828 0.0000000000000000
5.8569092750549316 6.4395027160644531 0.0000000000000000
1.9476902484893799 4.4309368133544922 0.0000000000000000
3.6014990806579590 2.2415690422058105 0.0000000000000000
7.0270700454711914 4.9200077056884766 0.0000000000000000
3.9089455604553223 3.5607392787933350 0.0000000000000000
5.4925518035888672 7.6337347030639648 0.0000000000000000
1.9638167619705200 6.2307772636413574 0.0000000000000000
4.9284720420837402 4.8508419990539551 0.0000000000000000
4.7764201164245605 4.8860383033752441 0.0000000000000000
4.1997575759887695 7.2393064498901367 0.0000000000000000
6.9262866973876953 1.4612129926681519 0.0000000000000000
2.6662335395812988 8.5647659301757812 0.0000000000000000
2.5629324913024902 8.4472360610961914 0.0000000000000000
4.5318617820739746 2.4453926086425781 0.0000000000000000
2.5853154659271240 2.3410298824310303 0.0000000000000000
6.3109240531921387 2.1723246574401855 0.0000000000000000
4.3363914489746094 6.7914695739746094 0.0000000000000000
4.0322880744934082 6.8618626594543457 0.0000000000000000
3.2860293388366699 4.6760859489440918 0.0000000000000000
3.1339776515960693 4.7112827301025391 0.0000000000000000
2.2069578170776367 5.8970227241516113 0.0000000000000000
3.9243633747100830 3.9733796119689941 0.0000000000000000
5.8576178550720215 7.8267030715942383 0.0000000000000000
6.5569143295288086 7.3873581886291504 0.0000000000000000
1.7946643829345703 4.4670429229736328 0.0000000000000000
6.1441774368286133 3.1820678710937500 0.0000000000000000
2.6616957187652588 3.0170319080352783 0.0000000000000000
5.2024488449096680 5.3423681259155273 0.0000000000000000
5.5962243080139160 2.1990156173706055 0.0000000000000000
3.9559075832366943 6.1858611106872559 0.0000000000000000
3.9103629589080811 6.3351402282714844 0.0000000000000000
3.7274756431579590 5.5450558662414551 0.0000000000000000
4.5024437904357910 4.3945121765136719 0.0000000000000000
4.3959364891052246 4.2804298400878906 0.0000000000000000
4.0617060661315918 4.9127430915832520 0.0000000000000000
3.8332741260528564 4.2719378471374512 0.0000000000000000
3.2713203430175781 5.6506457328796387 0.0000000000000000
5.3685007095336914 2.9454109668731689 0.0000000000000000
2.5551886558532715 2.9029495716094971 0.0000000000000000
4.9740166664123535 4.7015628814697266 0.0000000000000000
1.7807216644287109 4.0536456108093262 0.0000000000000000
1.5256016254425049 3.9873578548431396 0.0000000000000000
2.1747064590454102 2.2973482608795166 0.0000000000000000
2.2812139987945557 2.4114317893981934 0.0000000000000000
4.2284669876098633 3.9029862880706787 0.0000000000000000
4.1829223632812500 4.0522651672363281 0.0000000000000000
1.5241087675094604 2.5889666080474854 0.0000000000000000
1.3697184324264526 2.6292698383331299 0.0000000000000000
4.0308704376220703 4.0874619483947754 0.0000000000000000
7.2253751754760742 6.1227321624755859 0.0000000000000000
3.5592973232269287 3.7804117202758789 0.0000000000000000
2.4353899955749512 6.5378279685974121 0.0000000000000000
6.5547881126403809 3.2257568836212158 0.0000000000000000
3.2544484138488770 2.4636468887329102 0.0000000000000000
3.3308653831481934 3.1396064758300781 0.0000000000000000
7.3781356811523438 7.4747362136840820 0.0000000000000000
2.6161510944366455 3.1663107872009277 0.0000000000000000
8.2285757064819336 5.6130838394165039 0.0000000000000000
4.9593076705932617 5.6761226654052734 0.0000000000000000
5.5380964279174805 7.4844560623168945 0.0000000000000000
2.5698950290679932 1.9283887147903442 0.0000000000000000
4.9754343032836914 7.4759635925292969 0.0000000000000000
1.4761171340942383 4.1238861083984375 0.0000000000000000
1.9315948486328125 2.6311876773834229 0.0000000000000000
4.3349738121032715 4.0170688629150391 0.0000000000000000
2.3877193927764893 2.5255072116851807 0.0000000000000000
6.4952430725097656 5.7367963790893555 0.0000000000000000
6.4496984481811523 5.8860754966735840 0.0000000000000000
2.7226581573486328 3.2803933620452881 0.0000000000000000
3.9110717773437500 7.7223405838012695 0.0000000000000000
5.3860449790954590 7.5196523666381836 0.0000000000000000
6.2808113098144531 2.7342307567596436 0.0000000000000000
6.3116469383239746 3.5595116615295410 0.0000000000000000
3.7730202674865723 5.3957767486572266 0.0000000000000000
6.7089662551879883 7.3521614074707031 0.0000000000000000
3.3477005958557129 6.3266477584838867 0.0000000000000000
6.9366893768310547 6.6057662963867188 0.0000000000000000
6.6935482025146484 6.9395208358764648 0.0000000000000000
3.0428884029388428 5.0098404884338379 0.0000000000000000
7.2996292114257812 2.6371328830718994 0.0000000000000000
6.1147594451904297 5.1311879158020020 0.0000000000000000
3.5460057258605957 7.5293722152709961 0.0000000000000000
5.0188527107238770 3.1650834083557129 0.0000000000000000
3.8781070709228516 2.7354609966278076 0.0000000000000000
6.2675199508666992 6.4831914901733398 0.0000000000000000
7.9563598632812500 3.3189170360565186 0.0000000000000000
8.2732629776000977 4.0765080451965332 0.0000000000000000
2.6771135330200195 3.4296722412109375 0.0000000000000000
5.6284770965576172 5.7986974716186523 0.0000000000000000
3.4682080745697021 4.0789699554443359 0.0000000000000000
4.2291755676269531 5.2901868820190430 0.0000000000000000
2.9048368930816650 2.6832771301269531 0.0000000000000000
6.2513933181762695 4.6833505630493164 0.0000000000000000
5.0643973350524902 3.0158042907714844 0.0000000000000000
2.5867331027984619 5.1154308319091797 0.0000000000000000
2.9525077342987061 6.6955990791320801 0.0000000000000000
4.8815097808837891 2.2257201671600342 0.0000000000000000
3.9860346317291260 5.6239414215087891 0.0000000000000000
5.1730308532714844 7.2914876937866211 0.0000000000000000
7.5427703857421875 2.3033781051635742 0.0000000000000000
7.8013291358947754 2.3822638988494873 0.0000000000000000
1.9925299882888794 2.8944623470306396 0.0000000000000000
5.9458723068237305 1.9793432950973511 0.0000000000000000
2.3428831100463867 4.0619850158691406 0.0000000000000000
4.8689270019531250 7.3618812561035156 0.0000000000000000
4.1667957305908203 2.2524244785308838 0.0000000000000000
7.6661128997802734 5.6045017242431641 0.0000000000000000
4.7602939605712891 3.0861976146697998 0.0000000000000000
3.7583112716674805 6.3703365325927734 0.0000000000000000
2.4956436157226562 5.4139890670776367 0.0000000000000000
4.8976364135742188 4.0255608558654785 0.0000000000000000
4.9431810379028320 3.8762819766998291 0.0000000000000000
6.6627125740051270 6.1142401695251465 0.0000000000000000
6.0692148208618164 5.2804670333862305 0.0000000000000000
8.3962459564208984 5.9863924980163574 0.0000000000000000
1.6006361246109009 6.0352530479431152 0.0000000000000000
4.5781149864196777 3.6833138465881348 0.0000000000000000
1.9939436912536621 5.6688580513000488 0.0000000000000000
2.6631133556365967 5.7914328575134277 0.0000000000000000
7.1945395469665527 5.2974514961242676 0.0000000000000000
3.0568888187408447 2.6480808258056641 0.0000000000000000
4.7918381690979004 5.2986788749694824 0.0000000000000000
6.8287649154663086 3.7172830104827881 0.0000000000000000
6.9352722167968750 3.8313653469085693 0.0000000000000000
2.3583009243011475 4.4746255874633789 0.0000000000000000
1.8292330503463745 6.6874718666076660 0.0000000000000000
1.7206757068634033 6.5645322799682617 0.0000000000000000
1.6858553886413574 6.3976755142211914 0.0000000000000000
1.8434929847717285 6.4516863822937012 0.0000000000000000
2.3884277343750000 3.9127061367034912 0.0000000000000000
8.2728404998779297 2.6890463829040527 0.0000000000000000
2.3120474815368652 3.2367043495178223 0.0000000000000000
5.3853359222412109 6.1324520111083984 0.0000000000000000
2.0093615055084229 6.0814986228942871 0.0000000000000000
2.1163492202758789 6.1951322555541992 0.0000000000000000
5.9612903594970703 2.3919837474822998 0.0000000000000000
3.1185598373413086 4.2986421585083008 0.0000000000000000
5.5079698562622070 8.0463752746582031 0.0000000000000000
5.3560690879821777 8.0814313888549805 0.0000000000000000
6.0383791923522949 4.4551858901977539 0.0000000000000000
5.2017402648925781 3.9551675319671631 0.0000000000000000
2.9956281185150146 1.4135062694549561 0.0000000000000000
4.4568991661071777 4.5437912940979004 0.0000000000000000
4.6089506149291992 4.5085945129394531 0.0000000000000000
6.8603091239929199 5.9297642707824707 0.0000000000000000
5.5278773307800293 8.4548244476318359 0.0000000000000000
2.1908314228057861 4.0971817970275879 0.0000000000000000
1.9338551759719849 6.7934107780456543 0.0000000000000000
5.7644023895263672 3.9636597633361816 0.0000000000000000
7.9866890907287598 4.5573978424072266 0.0000000000000000
4.2894291877746582 4.1663475036621094 0.0000000000000000
2.4178545475006104 1.9636194705963135 0.0000000000000000
5.4911346435546875 4.8593339920043945 0.0000000000000000
2.8600008487701416 4.2197566032409668 0.0000000000000000
6.1610126495361328 6.3691091537475586 0.0000000000000000
2.4640994071960449 3.2015075683593750 0.0000000000000000
5.7636938095092773 2.5764594078063965 0.0000000000000000
4.0147438049316406 2.2876212596893311 0.0000000000000000
4.6236596107482910 3.5340347290039062 0.0000000000000000
1.6444009542465210 5.8874583244323730 0.0000000000000000
6.9051451683044434 4.3932847976684570 0.0000000000000000
6.7229666709899902 4.9904007911682129 0.0000000000000000
6.9359807968139648 5.2185659408569336 0.0000000000000000
4.5623168945312500 1.8831899166107178 0.0000000000000000
5.8113646507263184 6.5887813568115234 0.0000000000000000
4.8212561607360840 3.3495590686798096 0.0000000000000000
2.9812171459197998 3.3592789173126221 0.0000000000000000
5.3530831336975098 2.5327703952789307 0.0000000000000000
6.7236752510070801 6.3776016235351562 0.0000000000000000
6.4335718154907227 4.0862345695495605 0.0000000000000000
3.8171429634094238 2.4721012115478516 0.0000000000000000
7.8174557685852051 4.1821045875549316 0.0000000000000000
5.5058436393737793 3.8847742080688477 0.0000000000000000
5.2332844734191895 6.1676487922668457 0.0000000000000000
2.0035221576690674 6.4929738044738770 0.0000000000000000
3.5901329517364502 4.6056923866271973 0.0000000000000000
5.9884362220764160 1.8328915834426880 0.0000000000000000
4.2585935592651367 3.3410668373107910 0.0000000000000000
4.8219647407531738 4.7367596626281738 0.0000000000000000
4.7154579162597656 4.6226773262023926 0.0000000000000000
5.0041437149047852 4.1396431922912598 0.0000000000000000
6.5863323211669922 5.4382381439208984 0.0000000000000000
4.0448708534240723 1.7257016897201538 0.0000000000000000
7.4825167655944824 3.4272172451019287 0.0000000000000000
4.0161614418029785 5.0620217323303223 0.0000000000000000
5.7195663452148438 5.5001392364501953 0.0000000000000000
4.5494055747985840 7.0196342468261719 0.0000000000000000
4.1682133674621582 5.0268254280090332 0.0000000000000000
6.9513983726501465 5.6312060356140137 0.0000000000000000
3.8648183345794678 6.4844188690185547 0.0000000000000000
3.4674770832061768 2.6917905807495117 0.0000000000000000
7.8335824012756348 5.9819455146789551 0.0000000000000000
4.3672270774841309 7.6167502403259277 0.0000000000000000
4.8668007850646973 3.2002799510955811 0.0000000000000000
6.6634216308593750 7.5014405250549316 0.0000000000000000
2.9055457115173340 4.0704774856567383 0.0000000000000000
3.3624095916748047 5.3520879745483398 0.0000000000000000
5.2465758323669434 2.4186880588531494 0.0000000000000000
5.8414916992187500 6.0268621444702148 0.0000000000000000
5.8870363235473633 5.8775830268859863 0.0000000000000000
5.9935431480407715 5.9916653633117676 0.0000000000000000
7.4687643051147461 1.6237233877182007 0.0000000000000000
6.0390877723693848 5.8423862457275391 0.0000000000000000
4.2438845634460449 4.3156266212463379 0.0000000000000000
3.3161563873291016 4.1141662597656250 0.0000000000000000
5.1709046363830566 3.1298866271972656 0.0000000000000000
4.1976313591003418 3.0777053833007812 0.0000000000000000
3.2089405059814453 2.6128835678100586 0.0000000000000000
1.5411235094070435 2.9956126213073730 0.0000000000000000
6.5092434883117676 3.3750360012054443 0.0000000000000000
6.7979292869567871 2.8920021057128906 0.0000000000000000
1.8735027313232422 5.1438589096069336 0.0000000000000000
2.8747100830078125 3.2451965808868408 0.0000000000000000
4.4560580253601074 1.7688795328140259 0.0000000000000000
3.3925366401672363 4.7901682853698730 0.0000000000000000
3.5445883274078369 4.7549715042114258 0.0000000000000000
7.8342909812927246 7.3691458702087402 0.0000000000000000
7.0410704612731934 2.5582473278045654 0.0000000000000000
3.2404847145080566 4.8253650665283203 0.0000000000000000
3.1949400901794434 4.9746441841125488 0.0000000000000000
2.7549111843109131 6.8800749778747559 0.0000000000000000
7.7572021484375000 5.3059434890747070 0.0000000000000000
3.6370949745178223 7.2308144569396973 0.0000000000000000
2.4637303352355957 1.8157705068588257 0.0000000000000000
5.6740217208862305 5.6494183540344238 0.0000000000000000
7.0894660949707031 7.9577584266662598 0.0000000000000000
7.8468737602233887 2.2329847812652588 0.0000000000000000
5.3096647262573242 6.8436508178710938 0.0000000000000000
5.5717825889587402 1.3765412569046021 0.0000000000000000
3.7884380817413330 5.8084173202514648 0.0000000000000000
4.5574045181274414 1.4660211801528931 0.0000000000000000
4.6600508689880371 1.5784050226211548 0.0000000000000000
3.1493954658508301 5.1239228248596191 0.0000000000000000
8.3195562362670898 2.1361780166625977 0.0000000000000000
3.2573199272155762 8.0124063491821289 0.0000000000000000
4.3952279090881348 2.8932297229766846 0.0000000000000000
4.3209738731384277 6.3788290023803711 0.0000000000000000
5.2795376777648926 7.4055700302124023 0.0000000000000000
8.0282516479492188 3.0165417194366455 0.0000000000000000
3.1038508415222168 5.2732019424438477 0.0000000000000000
8.3822269439697266 6.9643054008483887 0.0000000000000000
8.5406141281127930 6.9106769561767578 0.0000000000000000
8.6514902114868164 7.0290818214416504 0.0000000000000000
7.3774271011352539 6.0875353813171387 0.0000000000000000
2.4648079872131348 4.5887079238891602 0.0000000000000000
3.9551990032196045 4.7986607551574707 0.0000000000000000
3.7436022758483887 7.3448967933654785 0.0000000000000000
2.2216670513153076 4.9224629402160645 0.0000000000000000
6.1140508651733398 3.7439873218536377 0.0000000000000000
6.8596005439758301 4.5425639152526855 0.0000000000000000
5.6578955650329590 3.8495774269104004 0.0000000000000000
3.6510953903198242 4.8690538406372070 0.0000000000000000
7.3627181053161621 7.0620956420898438 0.0000000000000000
7.3325910568237305 7.6240148544311523 0.0000000000000000
4.6706218719482422 6.1591563224792480 0.0000000000000000
3.3646707534790039 8.1250410079956055 0.0000000000000000
3.3160321712493896 8.2686395645141602 0.0000000000000000
6.9675250053405762 7.4310469627380371 0.0000000000000000
7.4212188720703125 1.7761148214340210 0.0000000000000000
2.5096716880798340 1.6691457033157349 0.0000000000000000
3.3154366016387939 2.7269763946533203 0.0000000000000000
7.5596055984497070 5.4904193878173828 0.0000000000000000
3.7557387351989746 2.2083485126495361 0.0000000000000000
3.6481740474700928 2.0913362503051758 0.0000000000000000
5.4602990150451660 4.0340533256530762 0.0000000000000000
2.6469867229461670 3.9915916919708252 0.0000000000000000
5.8824224472045898 8.6448879241943359 0.0000000000000000
4.5956106185913086 8.2573451995849609 0.0000000000000000
4.7064414024353027 8.3616857528686523 0.0000000000000000
3.0737237930297852 5.8351216316223145 0.0000000000000000
4.2144665718078613 6.2647466659545898 0.0000000000000000
1.8134690523147583 4.8765211105346680 0.0000000000000000
4.0974445343017578 8.5123786926269531 0.0000000000000000
3.6363863945007324 5.8436141014099121 0.0000000000000000
5.9311633110046387 2.9539031982421875 0.0000000000000000
5.8856186866760254 3.1031823158264160 0.0000000000000000
2.4795172214508057 3.6141481399536133 0.0000000000000000
6.5106611251831055 6.1494364738464355 0.0000000000000000
3.8031470775604248 4.8338570594787598 0.0000000000000000
6.8757271766662598 6.3424048423767090 0.0000000000000000
3.2699010372161865 2.8762469291687012 0.0000000000000000
5.0496883392333984 3.9903643131256104 0.0000000000000000
6.3571915626525879 3.4102325439453125 0.0000000000000000
7.9695038795471191 4.1468925476074219 0.0000000000000000
4.9887256622314453 3.7270028591156006 0.0000000000000000
2.6315689086914062 3.5789513587951660 0.0000000000000000
6.2506847381591797 3.2961502075195312 0.0000000000000000
5.9921259880065918 3.2172646522521973 0.0000000000000000
2.6175684928894043 5.9407114982604980 0.0000000000000000
8.0151901245117188 3.9974689483642578 0.0000000000000000
4.0168700218200684 6.4492225646972656 0.0000000000000000
8.3969535827636719 7.3776383399963379 0.0000000000000000
8.3606519699096680 2.3938739299774170 0.0000000000000000
7.1482863426208496 4.0595302581787109 0.0000000000000000
2.4346811771392822 5.1506276130676270 0.0000000000000000
7.7557845115661621 2.5315430164337158 0.0000000000000000
5.0356879234313965 6.3521246910095215 0.0000000000000000
3.4843344688415527 5.8788104057312012 0.0000000000000000
3.6216773986816406 6.8181738853454590 0.0000000000000000
3.2243578433990479 3.0255243778228760 0.0000000000000000
2.0549061298370361 5.9322195053100586 0.0000000000000000
6.4342808723449707 5.4734349250793457 0.0000000000000000
3.8626096248626709 2.3227610588073730 0.0000000000000000
4.9298896789550781 7.6252427101135254 0.0000000000000000
7.0579056739807129 5.7452883720397949 0.0000000000000000
5.2311582565307617 2.0060477256774902 0.0000000000000000
7.8304519653320312 1.8220282793045044 0.0000000000000000
6.9815254211425781 5.0692868232727051 0.0000000000000000
7.9856343269348145 5.9467487335205078 0.0000000000000000
5.3229560852050781 3.0946898460388184 0.0000000000000000
5.9627075195312500 5.1663846969604492 0.0000000000000000
3.5894241333007812 3.2184922695159912 0.0000000000000000
4.6243686676025391 4.9212350845336914 0.0000000000000000
4.6397862434387207 5.3338756561279297 0.0000000000000000
2.2980473041534424 5.5984644889831543 0.0000000000000000
2.4192633628845215 4.7379870414733887 0.0000000000000000
1.5863975286483765 7.0140457153320312 0.0000000000000000
5.4000453948974609 5.1578922271728516 0.0000000000000000
4.8359651565551758 2.3749990463256836 0.0000000000000000
8.3167619705200195 3.9293348789215088 0.0000000000000000
5.5359706878662109 3.3228547573089600 0.0000000000000000
7.8478231430053711 3.6180713176727295 0.0000000000000000
3.2419021129608154 7.5997657775878906 0.0000000000000000
7.5897326469421387 4.9284996986389160 0.0000000000000000
3.9236514568328857 2.5861821174621582 0.0000000000000000
7.5301876068115234 7.4395394325256348 0.0000000000000000
3.8339827060699463 5.6591382026672363 0.0000000000000000
3.4829168319702148 3.1044099330902100 0.0000000000000000
2.3281741142272949 5.0365452766418457 0.0000000000000000
2.4339723587036133 3.7634270191192627 0.0000000000000000
8.5208568572998047 7.5096054077148438 0.0000000000000000
6.0846323966979980 5.6931071281433105 0.0000000000000000
7.0165419578552246 8.6637430191040039 0.0000000000000000
7.2709197998046875 5.9734530448913574 0.0000000000000000
2.1459953784942627 5.6336612701416016 0.0000000000000000
2.1004507541656494 5.7829403877258301 0.0000000000000000
5.4294633865356445 3.2087724208831787 0.0000000000000000
1.7748489379882812 5.0304861068725586 0.0000000000000000
7.7577357292175293 8.0739049911499023 0.0000000000000000
2.7556164264678955 8.2672586441040039 0.0000000000000000
7.8034553527832031 6.5438652038574219 0.0000000000000000
7.9099626541137695 6.6579475402832031 0.0000000000000000
6.7530932426452637 4.4284815788269043 0.0000000000000000
1.3312865495681763 5.5326595306396484 0.0000000000000000
1.1697039604187012 5.5583248138427734 0.0000000000000000
7.1644129753112793 5.8593707084655762 0.0000000000000000
3.7414758205413818 3.1832957267761230 0.0000000000000000
7.9078364372253418 2.4963462352752686 0.0000000000000000
7.0421624183654785 1.1658812761306763 0.0000000000000000
5.9157457351684570 2.5412626266479492 0.0000000000000000
5.7335667610168457 3.1383788585662842 0.0000000000000000
5.3545007705688477 5.3071713447570801 0.0000000000000000
7.7116575241088867 5.4552226066589355 0.0000000000000000
5.3082470893859863 4.0692501068115234 0.0000000000000000
2.3891365528106689 5.2999067306518555 0.0000000000000000
6.2976469993591309 5.9212718009948730 0.0000000000000000
4.6839137077331543 2.4101958274841309 0.0000000000000000
5.0363965034484863 7.7393250465393066 0.0000000000000000
5.5976414680480957 4.9734163284301758 0.0000000000000000
4.3812274932861328 5.2549901008605957 0.0000000000000000
5.3376650810241699 2.1201300621032715 0.0000000000000000
7.7432017326354980 7.6677041053771973 0.0000000000000000
2.8305828571319580 6.1688761711120605 0.0000000000000000
2.3435919284820557 5.4491853713989258 0.0000000000000000
4.3496832847595215 3.0425086021423340 0.0000000000000000
6.1595954895019531 3.5947084426879883 0.0000000000000000
7.0431966781616211 6.7198486328125000 0.0000000000000000
4.0477056503295898 7.2745032310485840 0.0000000000000000
7.9092540740966797 5.2707471847534180 0.0000000000000000
7.1475777626037598 2.6723296642303467 0.0000000000000000
6.2359757423400879 4.2707099914550781 0.0000000000000000
5.7202754020690918 6.8873395919799805 0.0000000000000000
4.6846222877502441 3.7973961830139160 0.0000000000000000
5.9942522048950195 7.3788657188415527 0.0000000000000000
4.1843395233154297 6.8266658782958984 0.0000000000000000
8.0318870544433594 7.1846699714660645 0.0000000000000000
5.4455900192260742 5.0086131095886230 0.0000000000000000
3.7891469001770020 7.1956176757812500 0.0000000000000000
4.4737343788146973 7.7308325767517090 0.0000000000000000
8.2005624771118164 6.1744637489318848 0.0000000000000000
5.9017453193664551 4.9030232429504395 0.0000000000000000
7.9987063407897949 2.1978967189788818 0.0000000000000000
5.7496933937072754 4.9382195472717285 0.0000000000000000
8.4640531539916992 2.5108144283294678 0.0000000000000000
3.2257757186889648 5.7999248504638672 0.0000000000000000
4.0624146461486816 6.2999434471130371 0.0000000000000000
4.1065421104431152 3.3762633800506592 0.0000000000000000
6.2226839065551758 8.0196704864501953 0.0000000000000000
4.8366742134094238 3.7621994018554688 0.0000000000000000
7.6366944313049316 7.5536217689514160 0.0000000000000000
7.9562325477600098 5.1219072341918945 0.0000000000000000
4.5031523704528809 5.7817130088806152 0.0000000000000000
2.2987558841705322 6.9856648445129395 0.0000000000000000
3.8479831218719482 3.2973778247833252 0.0000000000000000
3.3778274059295654 5.7647280693054199 0.0000000000000000
5.2942466735839844 6.4310102462768555 0.0000000000000000
5.8730359077453613 8.2393436431884766 0.0000000000000000
6.7545108795166016 7.2028822898864746 0.0000000000000000
3.9544901847839355 3.4114601612091064 0.0000000000000000
2.7240757942199707 6.0547938346862793 0.0000000000000000
3.2103579044342041 5.3872842788696289 0.0000000000000000
4.7322931289672852 7.8097181320190430 0.0000000000000000
6.0677971839904785 2.5060660839080811 0.0000000000000000
5.9783110618591309 8.3527288436889648 0.0000000000000000
4.1387948989868164 6.9759449958801270 0.0000000000000000
5.8723268508911133 6.8521428108215332 0.0000000000000000
2.8761274814605713 6.0195975303649902 0.0000000000000000
4.8373827934265137 5.1493997573852539 0.0000000000000000
2.4052631855010986 7.0997471809387207 0.0000000000000000
4.0932502746582031 7.1252241134643555 0.0000000000000000
8.4235382080078125 2.6548042297363281 0.0000000000000000
4.1079592704772949 6.1506643295288086 0.0000000000000000
6.6465864181518555 4.3143992424011230 0.0000000000000000
4.7308754920959473 5.0353174209594727 0.0000000000000000
6.3293247222900391 8.1332101821899414 0.0000000000000000
6.1904311180114746 4.4199891090393066 0.0000000000000000
5.1566057205200195 8.2575292587280273 0.0000000000000000
6.6304597854614258 2.5145583152770996 0.0000000000000000
5.6747307777404785 7.0366187095642090 0.0000000000000000
3.5915503501892090 7.3800930976867676 0.0000000000000000
3.1617889404296875 8.3075780868530273 0.0000000000000000
7.6514039039611816 6.5790615081787109 0.0000000000000000
6.1743044853210449 2.6201484203338623 0.0000000000000000
6.1463036537170410 7.3436689376831055 0.0000000000000000
3.0281791687011719 5.9844007492065430 0.0000000000000000
6.8610181808471680 7.3169646263122559 0.0000000000000000
4.1535043716430664 6.0013852119445801 0.0000000000000000
6.2759342193603516 8.2745189666748047 0.0000000000000000
4.5949501991271973 6.8703551292419434 0.0000000000000000
6.3263564109802246 2.5849516391754150 0.0000000000000000
8.1359062194824219 1.7521394491195679 0.0000000000000000
8.2810907363891602 1.7162467241287231 0.0000000000000000
7.2540845870971680 2.7864120006561279 0.0000000000000000
6.4784078598022461 2.5497550964355469 0.0000000000000000
7.1952486038208008 6.6846518516540527 0.0000000000000000
6.6480035781860352 7.0887999534606934 0.0000000000000000
6.5414967536926270 6.9747176170349121 0.0000000000000000
7.4993519783020020 6.6142582893371582 0.0000000000000000
2.3443005084991455 6.8363857269287109 0.0000000000000000
8.0469160079956055 6.2100353240966797 0.0000000000000000
6.5400791168212891 4.2003169059753418 0.0000000000000000
7.3473000526428223 6.6494550704956055 0.0000000000000000
3.1353950500488281 7.4856834411621094 0.0000000000000000
6.3880271911621094 4.2355136871337891 0.0000000000000000
3.4394986629486084 7.4152898788452148 0.0000000000000000
6.2682285308837891 7.8703918457031250 0.0000000000000000
7.9401426315307617 6.0960154533386230 0.0000000000000000
6.6149721145629883 2.1018676757812500 0.0000000000000000
4.6257858276367188 7.6956357955932617 0.0000000000000000
8.0164699554443359 6.7720298767089844 0.0000000000000000
8.3505592346191406 6.1263971328735352 0.0000000000000000
6.6760044097900391 2.3652791976928711 0.0000000000000000
3.2874469757080078 7.4504866600036621 0.0000000000000000
4.3055558204650879 5.9661884307861328 0.0000000000000000
2.6785309314727783 6.2040729522705078 0.0000000000000000
4.9137630462646484 5.8254017829895020 0.0000000000000000
4.4281897544860840 7.8801116943359375 0.0000000000000000
4.2761378288269043 7.9153084754943848 0.0000000000000000
6.4349894523620605 6.8606352806091309 0.0000000000000000
4.6096596717834473 5.8957953453063965 0.0000000000000000
4.2305974960327148 8.0645885467529297 0.0000000000000000
6.3284826278686523 6.7465529441833496 0.0000000000000000
7.3605918884277344 2.9004943370819092 0.0000000000000000
8.1680088043212891 6.7373118400573730 0.0000000000000000
8.3199567794799805 6.7008647918701172 0.0000000000000000
4.3511004447937012 5.8169093132019043 0.0000000000000000
6.1154680252075195 6.5183882713317871 0.0000000000000000
7.4670987129211426 3.0145766735076904 0.0000000000000000
2.6329863071441650 6.3533520698547363 0.0000000000000000
4.0785465240478516 8.0997858047485352 0.0000000000000000
4.0329580307006836 8.2487726211547852 0.0000000000000000
5.3552093505859375 6.6943717002868652 0.0000000000000000
4.7617111206054688 5.8605985641479492 0.0000000000000000
2.4963524341583252 6.8011894226074219 0.0000000000000000
5.1723217964172363 5.9042873382568359 0.0000000000000000
5.1877398490905762 6.3169279098510742 0.0000000000000000
6.2219753265380859 6.6324706077575684 0.0000000000000000
8.3307304382324219 8.0764608383178711 0.0000000000000000
7.4215540885925293 3.1638557910919189 0.0000000000000000
5.9634165763854980 6.5535850524902344 0.0000000000000000
2.5874416828155518 6.5026311874389648 0.0000000000000000
3.9884576797485352 8.3975353240966797 0.0000000000000000
5.0202703475952148 5.9394841194152832 0.0000000000000000
7.5280613899230957 3.2779381275177002 0.0000000000000000
7.1938309669494629 3.9102509021759033 0.0000000000000000
2.5418970584869385 6.6519103050231934 0.0000000000000000
7.3304648399353027 3.4624137878417969 0.0000000000000000
5.2487020492553711 6.5802893638610840 0.0000000000000000
7.2849202156066895 3.6116929054260254 0.0000000000000000
7.2393755912780762 3.7609720230102539 0.0000000000000000
2.9223809242248535 7.2575187683105469 0.0000000000000000
3.0288879871368408 7.3716011047363281 0.0000000000000000
2.9377987384796143 7.6701593399047852 0.0000000000000000
2.7857468128204346 7.7053556442260742 0.0000000000000000
2.9833433628082275 7.5208802223205566 0.0000000000000000
2.5117702484130859 7.2138295173645020 0.0000000000000000
2.3597183227539062 7.2490262985229492 0.0000000000000000
2.6792397499084473 7.5912733078002930 0.0000000000000000
2.3141739368438721 7.3983054161071777 0.0000000000000000
2.1621243953704834 7.4335026741027832 0.0000000000000000
2.3457825183868408 8.2228622436523438 0.0000000000000000
2.1936781406402588 8.2516307830810547 0.0000000000000000
2.4816439151763916 7.7757487297058105 0.0000000000000000
2.6043822765350342 8.3017005920410156 0.0000000000000000
2.6336951255798340 7.7405524253845215 0.0000000000000000
2.8467094898223877 7.9687170982360840 0.0000000000000000
2.4565100669860840 8.3330154418945312 0.0000000000000000
2.7402024269104004 7.8546347618103027 0.0000000000000000
2.6492483615875244 8.1530609130859375 0.0000000000000000
1.7515529394149780 7.3897690773010254 0.0000000000000000
2.1165814399719238 7.5827822685241699 0.0000000000000000
1.7062687873840332 7.5388069152832031 0.0000000000000000
1.6501212120056152 7.6989703178405762 0.0000000000000000
2.0100779533386230 7.4686894416809082 0.0000000000000000
1.9035712480545044 7.3546032905578613 0.0000000000000000
2.1322190761566162 7.9953083992004395 0.0000000000000000
2.0867452621459961 8.1443481445312500 0.0000000000000000
3.0865988731384277 2.0887722969055176 0.0000000000000000
2.9841585159301758 1.9695541858673096 0.0000000000000000
4.7971830368041992 0.3424552977085114 0.0000000000000000
1.7676752805709839 7.8017253875732422 0.0000000000000000
1.0717810392379761 4.0524749755859375 0.0000000000000000
0.9104760289192200 4.0223274230957031 0.0000000000000000
0.7910127639770508 4.1987881660461426 0.0000000000000000
0.9173739552497864 4.3698821067810059 0.0000000000000000
2.0443260669708252 8.2910556793212891 0.0000000000000000
0.4727487266063690 7.2254881858825684 0.0000000000000000
8.3696794509887695 3.7775387763977051 0.0000000000000000
1.5593177080154419 7.5798220634460449 0.0000000000000000
8.4252500534057617 6.8174271583557129 0.0000000000000000
5.3737759590148926 1.5683693885803223 0.0000000000000000
6.9918179512023926 1.3059468269348145 0.0000000000000000
1.3454835414886475 5.9493093490600586 0.0000000000000000
8.2497434616088867 1.0851230621337891 0.0000000000000000
8.2039003372192383 1.0166332721710205 0.0000000000000000
0.8482457995414734 7.8952317237854004 0.0000000000000000
0.6434405446052551 7.7984867095947266 0.0000000000000000
0.8643897771835327 7.9760513305664062 0.0000000000000000
7.8952317237854004 1.4517542123794556 0.0000000000000000
7.9760513305664062 1.4356102943420410 0.0000000000000000
9.1020994186401367 6.3003544807434082 0.0000000000000000
9.2431745529174805 6.1789026260375977 0.0000000000000000
9.0335359573364258 6.2546219825744629 0.0000000000000000
7.6921744346618652 8.6839246749877930 0.0000000000000000
7.6790018081665039 8.7607450485229492 0.0000000000000000
1.4020994901657104 7.7753548622131348 0.0000000000000000
1.3361673355102539 7.7337865829467773 0.0000000000000000
1.2149695158004761 5.2999167442321777 0.0000000000000000
1.2797051668167114 5.2559752464294434 0.0000000000000000
4.7000346183776855 1.2149953842163086 0.0000000000000000
4.7460999488830566 1.2833666801452637 0.0000000000000000
1.2047684192657471 3.2232458591461182 0.0000000000000000
1.1239485740661621 3.2393896579742432 0.0000000000000000
1.4499651193618774 3.4600045680999756 0.0000000000000000
1.4039000272750854 3.3916332721710205 0.0000000000000000
0.8502565026283264 3.5898768901824951 0.0000000000000000
0.6131736636161804 3.6278405189514160 0.0000000000000000
0.6979326605796814 3.9108834266662598 0.0000000000000000
0.8982090353965759 3.6477816104888916 0.0000000000000000
1.9851230382919312 0.8502565026283264 0.0000000000000000
1.9643571376800537 0.6074974536895752 0.0000000000000000
1.9166332483291626 0.8960999846458435 0.0000000000000000
3.2729005813598633 1.3246452808380127 0.0000000000000000
3.3414642810821533 1.3703781366348267 0.0000000000000000
1.9952316284179688 1.4517542123794556 0.0000000000000000
2.0760514736175537 1.4356102943420410 0.0000000000000000
3.5898768901824951 9.1497430801391602 0.0000000000000000
3.6720333099365234 9.4054164886474609 0.0000000000000000
3.6583666801452637 9.1038999557495117 0.0000000000000000
1.4078255891799927 2.2160756587982178 0.0000000000000000
1.4238389730453491 2.1352298259735107 0.0000000000000000
2.1148769855499268 9.1497430801391602 0.0000000000000000
2.1565480232238770 9.4154396057128906 0.0000000000000000
2.1833667755126953 9.1038999557495117 0.0000000000000000
1.3160756826400757 1.7921744585037231 0.0000000000000000
1.2377250194549561 1.7793970108032227 0.0000000000000000
0.8500833511352539 2.1149694919586182 0.0000000000000000
0.8940246701240540 2.1797051429748535 0.0000000000000000
0.6252052187919617 2.1497752666473389 0.0000000000000000
0.7063366174697876 2.3084571361541748 0.0000000000000000
1.3248395919799805 3.7772588729858398 0.0000000000000000
1.3703781366348267 3.7085359096527100 0.0000000000000000
6.4202318191528320 1.4517542123794556 0.0000000000000000
6.5010514259338379 1.4356102943420410 0.0000000000000000
5.0547685623168945 0.8482457995414734 0.0000000000000000
4.9823603630065918 0.8680858016014099 0.0000000000000000
8.5502567291259766 5.0648770332336426 0.0000000000000000
8.5952625274658203 5.1285119056701660 0.0000000000000000
8.5482454299926758 7.8952317237854004 0.0000000000000000
8.5643901824951172 7.9760513305664062 0.0000000000000000
0.8482457995414734 4.9452314376831055 0.0000000000000000
0.5488938689231873 4.8749518394470215 0.0000000000000000
0.6903468370437622 4.4236292839050293 0.0000000000000000
0.5772402882575989 5.0950098037719727 0.0000000000000000
0.5139003992080688 4.1868691444396973 0.0000000000000000
0.8680858016014099 5.0176396369934082 0.0000000000000000
0.4100701510906219 3.7586910724639893 0.0000000000000000
4.9452314376831055 1.4517542123794556 0.0000000000000000
5.0260515213012695 1.4356102943420410 0.0000000000000000
6.1750349998474121 1.2149953842163086 0.0000000000000000
6.2210998535156250 1.2833666801452637 0.0000000000000000
6.5297684669494629 0.8482457995414734 0.0000000000000000
6.6770648956298828 0.5793164968490601 0.0000000000000000
6.4579205513000488 0.8703889250755310 0.0000000000000000
4.9351229667663574 8.5502567291259766 0.0000000000000000
4.8714880943298340 8.5952625274658203 0.0000000000000000
1.4499166011810303 4.9350304603576660 0.0000000000000000
1.4059753417968750 4.8702950477600098 0.0000000000000000
1.0952316522598267 6.7767543792724609 0.0000000000000000
1.1760514974594116 6.7606101036071777 0.0000000000000000
7.6482458114624023 1.0952316522598267 0.0000000000000000
7.6643896102905273 1.1760514974594116 0.0000000000000000
1.4020994901657104 6.3003544807434082 0.0000000000000000
1.3335357904434204 6.2546219825744629 0.0000000000000000
3.2669866085052490 8.6838674545288086 0.0000000000000000
3.2522826194763184 8.7607135772705078 0.0000000000000000
9.0160760879516602 3.2671744823455811 0.0000000000000000
8.9352302551269531 3.2511610984802246 0.0000000000000000
1.9851230382919312 8.5502567291259766 0.0000000000000000
1.9214881658554077 8.5952625274658203 0.0000000000000000
9.0161428451538086 4.7419543266296387 0.0000000000000000
8.9392557144165039 4.7268481254577637 0.0000000000000000
9.1200532913208008 4.5351562500000000 0.0000000000000000
9.2768840789794922 4.6188435554504395 0.0000000000000000
8.5502567291259766 3.5898768901824951 0.0000000000000000
8.5952625274658203 3.6535117626190186 0.0000000000000000
8.5482454299926758 1.9952316284179688 0.0000000000000000
8.5654735565185547 2.0712456703186035 0.0000000000000000
6.7749166488647461 8.7850303649902344 0.0000000000000000
6.7309751510620117 8.7202949523925781 0.0000000000000000
8.5482454299926758 6.4202318191528320 0.0000000000000000
8.5654735565185547 6.4962458610534668 0.0000000000000000
9.0160760879516602 7.6921744346618652 0.0000000000000000
8.9352302551269531 7.6761612892150879 0.0000000000000000
9.0161323547363281 1.7919865846633911 0.0000000000000000
8.9392862319946289 1.7772827148437500 0.0000000000000000
6.4101228713989258 8.5502567291259766 0.0000000000000000
6.3464879989624023 8.5952625274658203 0.0000000000000000
8.4580793380737305 1.0546700954437256 0.0000000000000000
4.0823183059692383 1.1696032285690308 0.0000000000000000
5.2588410377502441 8.3897066116333008 0.0000000000000000
1.8901968002319336 8.3312873840332031 0.0000000000000000
6.9075450897216797 8.5473318099975586 0.0000000000000000
6.2922072410583496 1.7668123245239258 0.0000000000000000
1.6196004152297974 8.5566377639770508 0.0000000000000000
5.0066199302673340 8.2957706451416016 0.0000000000000000
1.4745588302612305 6.8912878036499023 0.0000000000000000
9.4345149993896484 7.7204456329345703 0.0000000000000000
9.5087728500366211 7.9690666198730469 0.0000000000000000
0.6902648210525513 4.6600890159606934 0.0000000000000000
1.9427921772003174 1.6557923555374146 0.0000000000000000
0.4322336912155151 3.3415374755859375 0.0000000000000000
6.0774312019348145 8.4580392837524414 0.0000000000000000
5.5378413200378418 0.9585503339767456 0.0000000000000000
5.5935988426208496 0.7845146656036377 0.0000000000000000
1.3855451345443726 3.0209677219390869 0.0000000000000000
8.8362731933593750 4.0850067138671875 0.0000000000000000
0.9990992546081543 3.0085961818695068 0.0000000000000000
2.3002603054046631 8.3852081298828125 0.0000000000000000
4.9215908050537109 1.6699060201644897 0.0000000000000000
4.8604354858398438 8.3313179016113281 0.0000000000000000
5.9241442680358887 1.5647774934768677 0.0000000000000000
5.9607810974121094 1.0144510269165039 0.0000000000000000
6.0211014747619629 0.8665087223052979 0.0000000000000000
6.1378579139709473 0.6445572972297668 0.0000000000000000
7.9700059890747070 8.3014764785766602 0.0000000000000000
6.1782612800598145 1.6663582324981689 0.0000000000000000
7.8822059631347656 1.6749192476272583 0.0000000000000000
0.8012087941169739 2.5198187828063965 0.0000000000000000
0.6269671320915222 2.6910467147827148 0.0000000000000000
0.5483172535896301 3.0052571296691895 0.0000000000000000
8.3914842605590820 9.6400842666625977 0.0000000000000000
8.6153583526611328 9.3386611938476562 0.0000000000000000
8.9359836578369141 9.2220525741577148 0.0000000000000000
8.6681413650512695 9.0393695831298828 0.0000000000000000
8.9331436157226562 8.9038152694702148 0.0000000000000000
8.6968755722045898 8.7442359924316406 0.0000000000000000
8.9837245941162109 8.6169176101684570 0.0000000000000000
9.2536783218383789 8.5245580673217773 0.0000000000000000
8.7680225372314453 8.5087814331054688 0.0000000000000000
8.5586585998535156 8.4687261581420898 0.0000000000000000
8.4697189331054688 9.1788024902343750 0.0000000000000000
8.3257369995117188 9.3221721649169922 0.0000000000000000
8.1369628906250000 9.3828248977661133 0.0000000000000000
7.9185485839843750 9.4991855621337891 0.0000000000000000
5.4713830947875977 8.6053619384765625 0.0000000000000000
1.8123959302902222 2.1013457775115967 0.0000000000000000
1.1492122411727905 9.6663026809692383 0.0000000000000000
1.6589628458023071 4.9068775177001953 0.0000000000000000
3.1057436466217041 1.5300260782241821 0.0000000000000000
1.7690722942352295 2.2559437751770020 0.0000000000000000
8.7017917633056641 5.5055227279663086 0.0000000000000000
1.2322643995285034 4.0414214134216309 0.0000000000000000
1.5508526563644409 9.4806833267211914 0.0000000000000000
5.5483179092407227 8.8612070083618164 0.0000000000000000
2.3829295635223389 1.5575534105300903 0.0000000000000000
3.8346917629241943 8.4252767562866211 0.0000000000000000
8.7892293930053711 7.4231152534484863 0.0000000000000000
1.5642625093460083 3.8303947448730469 0.0000000000000000
4.0319743156433105 1.2980728149414062 0.0000000000000000
0.7263570427894592 8.9776506423950195 0.0000000000000000
3.9506516456604004 8.5480117797851562 0.0000000000000000
2.5074028968811035 8.6022043228149414 0.0000000000000000
1.5949000120162964 3.2486810684204102 0.0000000000000000
8.9443101882934570 4.4952569007873535 0.0000000000000000
0.6789058446884155 3.2264075279235840 0.0000000000000000
8.9836778640747070 4.0458335876464844 0.0000000000000000
2.5803339481353760 0.9553965330123901 0.0000000000000000
2.6477370262145996 0.7578855752944946 0.0000000000000000
1.3805941343307495 4.0213017463684082 0.0000000000000000
8.3809204101562500 0.4555190503597260 0.0000000000000000
6.8102364540100098 8.4319601058959961 0.0000000000000000
0.5783653855323792 5.3336491584777832 0.0000000000000000
1.5915411710739136 0.8644272089004517 0.0000000000000000
1.7015588283538818 0.6898479461669922 0.0000000000000000
3.0213918685913086 8.7448425292968750 0.0000000000000000
2.9880957603454590 8.9024667739868164 0.0000000000000000
2.9692089557647705 9.0866403579711914 0.0000000000000000
8.6524152755737305 7.4431424140930176 0.0000000000000000
8.4522476196289062 3.9106407165527344 0.0000000000000000
4.4776787757873535 1.2085826396942139 0.0000000000000000
1.9804229736328125 9.6863698959350586 0.0000000000000000
1.0548201799392700 6.9797358512878418 0.0000000000000000
8.7930059432983398 1.4925209283828735 0.0000000000000000
9.4176750183105469 4.7935671806335449 0.0000000000000000
9.4835710525512695 5.0320582389831543 0.0000000000000000
9.3527193069458008 7.2675189971923828 0.0000000000000000
1.6127270460128784 2.2977142333984375 0.0000000000000000
6.0303549766540527 1.6889369487762451 0.0000000000000000
8.4685077667236328 1.2585926055908203 0.0000000000000000
8.4281482696533203 1.4634771347045898 0.0000000000000000
8.5669822692871094 1.5773987770080566 0.0000000000000000
8.4305591583251953 1.6617152690887451 0.0000000000000000
8.3148107528686523 1.5631942749023438 0.0000000000000000
8.1025218963623047 0.9644786119461060 0.0000000000000000
8.1562805175781250 0.9510810375213623 0.0000000000000000
8.1147699356079102 0.8955721855163574 0.0000000000000000
8.0390939712524414 0.8773619532585144 0.0000000000000000
8.0829076766967773 0.5967510938644409 0.0000000000000000
1.2199177742004395 6.2452549934387207 0.0000000000000000
1.2644556760787964 6.2122869491577148 0.0000000000000000
1.2048649787902832 6.1769113540649414 0.0000000000000000
1.1281276941299438 6.1893177032470703 0.0000000000000000
8.9199352264404297 6.2454299926757812 0.0000000000000000
8.9644594192504883 6.2123222351074219 0.0000000000000000
8.9048852920532227 6.1771206855773926 0.0000000000000000
8.8178329467773438 6.1854906082153320 0.0000000000000000
2.2353322505950928 9.0024642944335938 0.0000000000000000
2.2488811016082764 9.0562686920166016 0.0000000000000000
2.3042008876800537 9.0147008895874023 0.0000000000000000
2.3249642848968506 8.9355630874633789 0.0000000000000000
3.4550650119781494 1.3795702457427979 0.0000000000000000
3.4105408191680908 1.4126778841018677 0.0000000000000000
3.4701144695281982 1.4478794336318970 0.0000000000000000
3.5462355613708496 1.4339143037796021 0.0000000000000000
3.7103323936462402 9.0024642944335938 0.0000000000000000
3.7238812446594238 9.0562686920166016 0.0000000000000000
3.7792007923126221 9.0147008895874023 0.0000000000000000
3.7999641895294189 8.9355630874633789 0.0000000000000000
1.8646677732467651 0.9975358247756958 0.0000000000000000
1.8511188030242920 0.9437310695648193 0.0000000000000000
1.7957991361618042 0.9852988123893738 0.0000000000000000
1.7857174873352051 1.0589473247528076 0.0000000000000000
1.0371208190917969 3.3132178783416748 0.0000000000000000
1.0451934337615967 3.2583239078521729 0.0000000000000000
0.9781774878501892 3.2755575180053711 0.0000000000000000
0.9389591217041016 3.3405847549438477 0.0000000000000000
0.8178948163986206 3.0907831192016602 0.0000000000000000
2.1628792285919189 1.3617820739746094 0.0000000000000000
2.1548066139221191 1.4166761636734009 0.0000000000000000
2.2218225002288818 1.3994425535202026 0.0000000000000000
2.2657735347747803 1.3357418775558472 0.0000000000000000
8.8267583847045898 3.2861418724060059 0.0000000000000000
8.8552236557006836 3.2385156154632568 0.0000000000000000
8.7867145538330078 3.2287914752960205 0.0000000000000000
8.7160730361938477 3.2700688838958740 0.0000000000000000
8.8267583847045898 7.7111420631408691 0.0000000000000000
8.8552236557006836 7.6635155677795410 0.0000000000000000
8.7867145538330078 7.6537914276123047 0.0000000000000000
8.7229928970336914 7.6957168579101562 0.0000000000000000
2.2888894081115723 8.8267679214477539 0.0000000000000000
2.3367531299591064 8.8553037643432617 0.0000000000000000
2.3462586402893066 8.7867269515991211 0.0000000000000000
2.3049314022064209 8.7160625457763672 0.0000000000000000
1.4020879268646240 0.6868595480918884 0.0000000000000000
4.6859540939331055 8.7773723602294922 0.0000000000000000
8.7855739593505859 5.3058190345764160 0.0000000000000000
3.6974632740020752 0.8911522030830383 0.0000000000000000
1.7904899120330811 1.3233990669250488 0.0000000000000000
1.4571111202239990 1.9767999649047852 0.0000000000000000
8.1202383041381836 1.4047631025314331 0.0000000000000000
1.0891103744506836 3.8311131000518799 0.0000000000000000
1.3396538496017456 6.7356786727905273 0.0000000000000000
6.2154898643493652 0.9766009449958801 0.0000000000000000
7.6942787170410156 1.3351544141769409 0.0000000000000000
5.1722283363342285 1.4063630104064941 0.0000000000000000
3.6983990669250488 8.5904903411865234 0.0000000000000000
8.1210651397705078 9.1232109069824219 0.0000000000000000
2.2233991622924805 8.5904903411865234 0.0000000000000000
6.6472282409667969 1.4063630104064941 0.0000000000000000
8.5904903411865234 3.3516008853912354 0.0000000000000000
8.3370256423950195 1.9680664539337158 0.0000000000000000
1.4073364734649658 2.4910295009613037 0.0000000000000000
9.3828945159912109 5.3318586349487305 0.0000000000000000
9.3278207778930664 5.6031169891357422 0.0000000000000000
8.3093652725219727 3.5326559543609619 0.0000000000000000
1.0151095390319824 1.0160022974014282 0.0000000000000000
6.9702219963073730 0.9159033298492432 0.0000000000000000
6.9550437927246094 0.7284415960311890 0.0000000000000000
9.0044517517089844 5.8496508598327637 0.0000000000000000
9.1793737411499023 5.8102512359619141 0.0000000000000000
9.1430501937866211 6.0364193916320801 0.0000000000000000
9.4086799621582031 6.0343847274780273 0.0000000000000000
0.8786683082580566 8.4036712646484375 0.0000000000000000
0.7084254026412964 8.3091783523559570 0.0000000000000000
0.5599709153175354 8.0859241485595703 0.0000000000000000
0.8893212676048279 8.1396541595458984 0.0000000000000000
8.3919248580932617 0.8662925958633423 0.0000000000000000
8.3008785247802734 0.7120221257209778 0.0000000000000000
0.9983586072921753 1.4431136846542358 0.0000000000000000
0.7426190972328186 1.4926205873489380 0.0000000000000000
0.4801868200302124 1.7442580461502075 0.0000000000000000
8.5401945114135742 8.8686504364013672 0.0000000000000000
8.4897089004516602 8.7269458770751953 0.0000000000000000
1.4575279951095581 6.0658254623413086 0.0000000000000000
1.5671712160110474 6.1787862777709961 0.0000000000000000
8.8021707534790039 6.9981460571289062 0.0000000000000000
1.0476112365722656 4.4889473915100098 0.0000000000000000
3.5537219047546387 1.9932440519332886 0.0000000000000000
2.5905199050903320 8.8506355285644531 0.0000000000000000
1.5392124652862549 5.3780775070190430 0.0000000000000000
8.2984094619750977 4.4838929176330566 0.0000000000000000
9.4837636947631836 8.2959117889404297 0.0000000000000000
5.9470415115356445 8.9113368988037109 0.0000000000000000
5.9681186676025391 9.0763330459594727 0.0000000000000000
6.0745854377746582 9.2893476486206055 0.0000000000000000
6.2166080474853516 9.0231456756591797 0.0000000000000000
3.0702846050262451 8.5885400772094727 0.0000000000000000
8.0541925430297852 1.4183272123336792 0.0000000000000000
0.9078435301780701 8.0608882904052734 0.0000000000000000
1.4152581691741943 2.0405449867248535 0.0000000000000000
6.5795907974243164 1.4186472892761230 0.0000000000000000
5.1045908927917480 1.4186472892761230 0.0000000000000000
1.2608880996704102 6.7171564102172852 0.0000000000000000
7.7085518836975098 1.2602453231811523 0.0000000000000000
7.2334818840026855 0.8190184235572815 0.0000000000000000
7.4683241844177246 0.7747663855552673 0.0000000000000000
7.2485504150390625 0.5231720209121704 0.0000000000000000
7.5776576995849609 0.4739277958869934 0.0000000000000000
6.9671545028686523 0.4140006601810455 0.0000000000000000
6.2821960449218750 0.3597750961780548 0.0000000000000000
5.8783335685729980 0.3833560943603516 0.0000000000000000
1.0303697586059570 7.4276585578918457 0.0000000000000000
1.0999479293823242 7.6311836242675781 0.0000000000000000
5.8422460556030273 0.8923215866088867 0.0000000000000000
8.9498910903930664 6.9773635864257812 0.0000000000000000
5.3921890258789062 8.4718141555786133 0.0000000000000000
8.0402259826660156 1.6519327163696289 0.0000000000000000
8.6486663818359375 3.3149945735931396 0.0000000000000000
2.2600057125091553 8.6486635208129883 0.0000000000000000
8.3472929000854492 6.5459184646606445 0.0000000000000000
6.5005364418029785 8.6076040267944336 0.0000000000000000
6.5394701957702637 8.5501995086669922 0.0000000000000000
6.6160321235656738 8.5957183837890625 0.0000000000000000
6.4747548103332520 8.5531988143920898 0.0000000000000000
8.6347093582153320 6.3594355583190918 0.0000000000000000
8.5963869094848633 6.3016295433044434 0.0000000000000000
8.6638059616088867 6.2652397155761719 0.0000000000000000
8.5752124786376953 6.3619875907897949 0.0000000000000000
8.6358270645141602 1.9336464405059814 0.0000000000000000
8.5976915359497070 1.8757088184356689 0.0000000000000000
8.6819057464599609 1.8158360719680786 0.0000000000000000
8.5756978988647461 1.9366456270217896 0.0000000000000000
9.0394573211669922 7.7966566085815430 0.0000000000000000
9.1075782775878906 7.7835960388183594 0.0000000000000000
9.1209735870361328 7.8610434532165527 0.0000000000000000
9.0596971511840820 7.7399563789367676 0.0000000000000000
8.6078834533691406 3.5008864402770996 0.0000000000000000
8.5605659484863281 3.4475300312042236 0.0000000000000000
8.5553283691406250 3.5229299068450928 0.0000000000000000
2.0741136074066162 8.6078834533691406 0.0000000000000000
2.1274700164794922 8.5605659484863281 0.0000000000000000
2.0520701408386230 8.5553283691406250 0.0000000000000000
9.0394649505615234 1.8966300487518311 0.0000000000000000
9.1075792312622070 1.8835916519165039 0.0000000000000000
9.3504886627197266 1.7555105686187744 0.0000000000000000
9.1209735870361328 1.9610425233840942 0.0000000000000000
9.0597200393676758 1.8398803472518921 0.0000000000000000
5.0255365371704102 8.6076040267944336 0.0000000000000000
5.0644698143005371 8.5501995086669922 0.0000000000000000
5.1287055015563965 8.5954904556274414 0.0000000000000000
4.9997549057006836 8.5531988143920898 0.0000000000000000
6.7174210548400879 8.8755235671997070 0.0000000000000000
6.7748045921325684 8.9144678115844727 0.0000000000000000
6.7295098304748535 8.9787054061889648 0.0000000000000000
6.7718710899353027 8.8497171401977539 0.0000000000000000
6.8962078094482422 9.1221065521240234 0.0000000000000000
7.0277891159057617 9.2289018630981445 0.0000000000000000
8.6076040267944336 4.9744634628295898 0.0000000000000000
8.5501995086669922 4.9355301856994629 0.0000000000000000
8.5963973999023438 4.8653101921081543 0.0000000000000000
8.5531988143920898 5.0002450942993164 0.0000000000000000
3.3716299533843994 8.6605348587036133 0.0000000000000000
3.3585915565490723 8.5924205780029297 0.0000000000000000
3.4360425472259521 8.5790262222290039 0.0000000000000000
3.3148803710937500 8.6402797698974609 0.0000000000000000
8.6356773376464844 7.8355751037597656 0.0000000000000000
8.6080999374389648 7.7731723785400391 0.0000000000000000
8.5746307373046875 7.8359279632568359 0.0000000000000000
1.3924211263656616 5.0255231857299805 0.0000000000000000
1.4498047828674316 5.0644679069519043 0.0000000000000000
1.4042817354202271 5.1410317420959473 0.0000000000000000
1.4468712806701660 4.9997172355651855 0.0000000000000000
9.0394668579101562 4.8466253280639648 0.0000000000000000
9.1075801849365234 4.8335909843444824 0.0000000000000000
9.1209735870361328 4.9110422134399414 0.0000000000000000
9.0597238540649414 4.7898674011230469 0.0000000000000000
6.5913534164428711 0.9358273148536682 0.0000000000000000
6.6492910385131836 0.8976919054985046 0.0000000000000000
6.6913046836853027 0.9641175866127014 0.0000000000000000
6.5883541107177734 0.8756976127624512 0.0000000000000000
1.3837174177169800 6.4058313369750977 0.0000000000000000
1.4516512155532837 6.4198336601257324 0.0000000000000000
1.4343893527984619 6.4965119361877441 0.0000000000000000
1.4241147041320801 6.3611927032470703 0.0000000000000000
7.7358274459838867 1.0336464643478394 0.0000000000000000
7.6976919174194336 0.9757087826728821 0.0000000000000000
7.7818946838378906 0.9158560037612915 0.0000000000000000
7.6756978034973145 1.0366456508636475 0.0000000000000000
4.8837299346923828 1.3643689155578613 0.0000000000000000
4.8271040916442871 1.4030596017837524 0.0000000000000000
4.8869414329528809 1.4244920015335083 0.0000000000000000
0.9358273148536682 4.8836464881896973 0.0000000000000000
0.8976919054985046 4.8257088661193848 0.0000000000000000
0.9641175866127014 4.7836952209472656 0.0000000000000000
0.8756976127624512 4.8866457939147949 0.0000000000000000
1.0336464643478394 6.6891727447509766 0.0000000000000000
0.9757087826728821 6.7273082733154297 0.0000000000000000
0.9336951971054077 6.6608824729919434 0.0000000000000000
1.0366456508636475 6.7493023872375488 0.0000000000000000
9.0394573211669922 3.3716568946838379 0.0000000000000000
9.1075782775878906 3.3585960865020752 0.0000000000000000
9.3242254257202148 3.2108380794525146 0.0000000000000000
9.1209735870361328 3.4360432624816895 0.0000000000000000
9.0596971511840820 3.3149564266204834 0.0000000000000000
2.0244636535644531 9.0923967361450195 0.0000000000000000
1.9855300188064575 9.1498003005981445 0.0000000000000000
1.9212945699691772 9.1045093536376953 0.0000000000000000
1.7490503787994385 9.2802562713623047 0.0000000000000000
1.9030973911285400 9.4085016250610352 0.0000000000000000
2.0502452850341797 9.1468009948730469 0.0000000000000000
5.1163535118103027 0.9358273148536682 0.0000000000000000
5.1742911338806152 0.8976919054985046 0.0000000000000000
5.3458352088928223 0.7107446193695068 0.0000000000000000
5.2163047790527344 0.9641175866127014 0.0000000000000000
5.5243391990661621 0.5027053356170654 0.0000000000000000
5.1133542060852051 0.8756976127624512 0.0000000000000000
5.1733193397521973 0.5251348018646240 0.0000000000000000
6.3587298393249512 1.3643689155578613 0.0000000000000000
6.3021039962768555 1.4030596017837524 0.0000000000000000
6.3619413375854492 1.4244920015335083 0.0000000000000000
7.7966566085815430 8.6605434417724609 0.0000000000000000
7.7835960388183594 8.5924215316772461 0.0000000000000000
7.8610434532165527 8.5790262222290039 0.0000000000000000
7.7399563789367676 8.6403036117553711 0.0000000000000000
1.2204037904739380 3.7579376697540283 0.0000000000000000
1.1891926527023315 3.8220520019531250 0.0000000000000000
1.2609319686889648 3.7980980873107910 0.0000000000000000
3.4994635581970215 9.0923967361450195 0.0000000000000000
3.4605300426483154 9.1498003005981445 0.0000000000000000
3.3903102874755859 9.1036033630371094 0.0000000000000000
3.1625103950500488 9.3104534149169922 0.0000000000000000
2.9447686672210693 9.2987184524536133 0.0000000000000000
3.3835880756378174 9.4613523483276367 0.0000000000000000
3.5252451896667480 9.1468009948730469 0.0000000000000000
1.3033431768417358 2.2394571304321289 0.0000000000000000
1.3164038658142090 2.3075783252716064 0.0000000000000000
1.2340843677520752 2.3245642185211182 0.0000000000000000
1.3600435256958008 2.2596967220306396 0.0000000000000000
6.2328515052795410 1.1259033679962158 0.0000000000000000
6.1855611801147461 1.0725324153900146 0.0000000000000000
6.1802382469177246 1.1479777097702026 0.0000000000000000
0.9075789451599121 2.0244767665863037 0.0000000000000000
0.8501952290534973 1.9855322837829590 0.0000000000000000
0.9051086902618408 1.8978334665298462 0.0000000000000000
0.8531287312507629 2.0502827167510986 0.0000000000000000
1.3382533788681030 1.8958483934402466 0.0000000000000000
1.4095829725265503 1.8983601331710815 0.0000000000000000
1.3598569631576538 1.8427475690841675 0.0000000000000000
1.9350677728652954 1.3644590377807617 0.0000000000000000
1.8676654100418091 1.3877557516098022 0.0000000000000000
1.9353213310241699 1.4214491844177246 0.0000000000000000
2.0755362510681152 0.9076036810874939 0.0000000000000000
2.1144700050354004 0.8501993417739868 0.0000000000000000
2.1787054538726807 0.8954907655715942 0.0000000000000000
2.3638048171997070 0.6822987794876099 0.0000000000000000
2.0497548580169678 0.8531988263130188 0.0000000000000000
3.2912826538085938 1.2191685438156128 0.0000000000000000
3.2233486175537109 1.2051662206649780 0.0000000000000000
3.2406105995178223 1.1284881830215454 0.0000000000000000
3.2508852481842041 1.2638075351715088 0.0000000000000000
1.3925774097442627 3.5503673553466797 0.0000000000000000
1.4499663114547729 3.5878903865814209 0.0000000000000000
1.4469529390335083 3.5243608951568604 0.0000000000000000
0.9071494936943054 3.4994540214538574 0.0000000000000000
0.8469445705413818 3.4604606628417969 0.0000000000000000
0.8524569869041443 3.5252294540405273 0.0000000000000000
1.2662702798843384 3.3106310367584229 0.0000000000000000
1.3228958845138550 3.2719404697418213 0.0000000000000000
1.2630585432052612 3.2505080699920654 0.0000000000000000
4.7568407058715820 1.1256376504898071 0.0000000000000000
4.6993408203125000 1.0868828296661377 0.0000000000000000
4.7477064132690430 1.0274606943130493 0.0000000000000000
4.7027921676635742 1.1507946252822876 0.0000000000000000
1.1256339550018311 5.2431521415710449 0.0000000000000000
1.0868822336196899 5.3006577491760254 0.0000000000000000
1.0274606943130493 5.2522935867309570 0.0000000000000000
0.8693630695343018 5.4475331306457520 0.0000000000000000
1.1507841348648071 5.2971882820129395 0.0000000000000000
1.3837174177169800 7.8808312416076660 0.0000000000000000
1.4516512155532837 7.8948335647583008 0.0000000000000000
1.4388960599899292 7.9829874038696289 0.0000000000000000
1.4241147041320801 7.8361926078796387 0.0000000000000000
0.9358273148536682 7.8336462974548340 0.0000000000000000
0.8976919054985046 7.7757086753845215 0.0000000000000000
0.9672449231147766 7.7285132408142090 0.0000000000000000
0.8869455456733704 7.5058946609497070 0.0000000000000000
0.8756976127624512 7.8366456031799316 0.0000000000000000
7.8350677490234375 1.3644590377807617 0.0000000000000000
7.7682065963745117 1.3894350528717041 0.0000000000000000
7.8354296684265137 1.4217851161956787 0.0000000000000000
9.0837173461914062 6.4058313369750977 0.0000000000000000
9.1516513824462891 6.4198336601257324 0.0000000000000000
9.1343889236450195 6.4965119361877441 0.0000000000000000
9.3888607025146484 6.5676808357238770 0.0000000000000000
9.3850440979003906 6.3582935333251953 0.0000000000000000
9.3504514694213867 6.7709212303161621 0.0000000000000000
9.2342443466186523 6.9881067276000977 0.0000000000000000
9.1241149902343750 6.3611927032470703 0.0000000000000000
9.0233993530273438 6.7345099449157715 0.0000000000000000
8.1923961639404297 1.1755363941192627 0.0000000000000000
8.2498006820678711 1.2144699096679688 0.0000000000000000
8.2036027908325195 1.2846896648406982 0.0000000000000000
8.2468013763427734 1.1497547626495361 0.0000000000000000
1.2191902399063110 8.1837348937988281 0.0000000000000000
1.2051699161529541 8.2516546249389648 0.0000000000000000
1.1284887790679932 8.2343902587890625 0.0000000000000000
1.2638689279556274 8.2241649627685547 0.0000000000000000
5.8556180000305176 0.6881632208824158 0.0000000000000000
5.9801993370056152 8.7484407424926758 0.0000000000000000
2.8825628757476807 0.8839346766471863 0.0000000000000000
3.2620320320129395 8.4124364852905273 0.0000000000000000
1.9390559196472168 6.3606352806091309 0.0000000000000000
8.4298477172851562 7.6581788063049316 0.0000000000000000
9.2488155364990234 9.4302730560302734 0.0000000000000000
8.9408607482910156 5.9874248504638672 0.0000000000000000
1.0479819774627686 7.6912875175476074 0.0000000000000000
8.1579999923706055 1.3492997884750366 0.0000000000000000
0.8660494089126587 4.5535969734191895 0.0000000000000000
8.1307563781738281 3.1133377552032471 0.0000000000000000
2.5736329555511475 0.4493280947208405 0.0000000000000000
2.2008707523345947 0.3846104145050049 0.0000000000000000
2.9617993831634521 0.4008226394653320 0.0000000000000000
0.9311265349388123 0.5117834210395813 0.0000000000000000
6.5509595870971680 8.3449697494506836 0.0000000000000000
7.8374319076538086 8.3264617919921875 0.0000000000000000
8.1867904663085938 1.6252374649047852 0.0000000000000000
4.5074071884155273 1.0520172119140625 0.0000000000000000
5.4338479042053223 1.4091726541519165 0.0000000000000000
3.9700329303741455 1.4277588129043579 0.0000000000000000
3.2893905639648438 1.9404999017715454 0.0000000000000000
1.4841656684875488 3.1287798881530762 0.0000000000000000
8.3892755508422852 1.8122206926345825 0.0000000000000000
2.4319896697998047 8.4669647216796875 0.0000000000000000
3.0384151935577393 1.2769210338592529 0.0000000000000000
7.4258117675781250 1.2070595026016235 0.0000000000000000
1.6936261653900146 3.5481579303741455 0.0000000000000000
3.5961496829986572 8.3366270065307617 0.0000000000000000
7.7071032524108887 8.2038259506225586 0.0000000000000000
5.5298562049865723 1.1181319952011108 0.0000000000000000
3.9296505451202393 9.1379165649414062 0.0000000000000000
4.0777955055236816 9.2341861724853516 0.0000000000000000
4.2403559684753418 9.4749622344970703 0.0000000000000000
3.9613921642303467 9.5349998474121094 0.0000000000000000
4.5479736328125000 9.4749965667724609 0.0000000000000000
8.4982042312622070 6.0830249786376953 0.0000000000000000
5.4250140190124512 0.8660148382186890 0.0000000000000000
0.6626513600349426 5.4964804649353027 0.0000000000000000
8.5822238922119141 4.5545840263366699 0.0000000000000000
3.8544645309448242 9.2774858474731445 0.0000000000000000
4.5126481056213379 8.9695882797241211 0.0000000000000000
4.5404114723205566 9.1481218338012695 0.0000000000000000
6.2541236877441406 1.0320278406143188 0.0000000000000000
6.2858257293701172 0.9929592013359070 0.0000000000000000
6.2711348533630371 0.9393378496170044 0.0000000000000000
6.3350448608398438 0.8979603052139282 0.0000000000000000
7.7543282508850098 1.3098075389862061 0.0000000000000000
1.3919327259063721 1.9772374629974365 0.0000000000000000
1.1255335807800293 3.7742090225219727 0.0000000000000000
1.0773071050643921 3.7598712444305420 0.0000000000000000
1.0333893299102783 3.7939636707305908 0.0000000000000000
0.9707042574882507 3.7507531642913818 0.0000000000000000
1.8564821481704712 1.3089166879653931 0.0000000000000000
1.8325192928314209 1.2646772861480713 0.0000000000000000
1.7773578166961670 1.2577298879623413 0.0000000000000000
1.7635871171951294 1.1828503608703613 0.0000000000000000
2.1679723262786865 8.6291236877441406 0.0000000000000000
2.2067370414733887 8.6609678268432617 0.0000000000000000
8.6291236877441406 3.4070277214050293 0.0000000000000000
8.6609687805175781 3.3682632446289062 0.0000000000000000
8.3501062393188477 5.2024264335632324 0.0000000000000000
0.5451411008834839 5.7458500862121582 0.0000000000000000
1.8124101161956787 8.1958723068237305 0.0000000000000000
1.7514810562133789 8.4393634796142578 0.0000000000000000
8.3512430191040039 8.3312549591064453 0.0000000000000000
8.4111537933349609 8.2192506790161133 0.0000000000000000
8.5936374664306641 8.1222276687622070 0.0000000000000000
8.5813531875610352 8.0545911788940430 0.0000000000000000
3.2378726005554199 1.5646814107894897 0.0000000000000000
1.6418241262435913 7.8403801918029785 0.0000000000000000
8.5573329925537109 5.4095244407653809 0.0000000000000000
0.6977933049201965 6.7374324798583984 0.0000000000000000
5.2447338104248047 9.6780738830566406 0.0000000000000000
5.3961591720581055 9.3735666275024414 0.0000000000000000
5.1192989349365234 9.4497566223144531 0.0000000000000000
4.8837833404541016 9.7031173706054688 0.0000000000000000
4.8557252883911133 9.4115943908691406 0.0000000000000000
6.0333151817321777 8.5878171920776367 0.0000000000000000
0.8717198371887207 8.7571668624877930 0.0000000000000000
0.9610401988029480 2.5776629447937012 0.0000000000000000
5.0811266899108887 1.6487029790878296 0.0000000000000000
6.2219386100769043 8.4146070480346680 0.0000000000000000
3.4243247509002686 8.3634376525878906 0.0000000000000000
1.4318449497222900 8.0808591842651367 0.0000000000000000
1.3659046888351440 8.0732498168945312 0.0000000000000000
1.3334513902664185 8.1009330749511719 0.0000000000000000
3.2194244861602783 8.8391504287719727 0.0000000000000000
3.2769632339477539 8.8182449340820312 0.0000000000000000
3.2104394435882568 8.9317846298217773 0.0000000000000000
3.2569379806518555 9.0064334869384766 0.0000000000000000
3.3193116188049316 9.0534601211547852 0.0000000000000000
3.2962439060211182 8.7806072235107422 0.0000000000000000
1.3603131771087646 5.2287554740905762 0.0000000000000000
1.3023042678833008 5.1964912414550781 0.0000000000000000
1.2617275714874268 5.2096471786499023 0.0000000000000000
0.9262539744377136 2.2584030628204346 0.0000000000000000
0.9521570801734924 2.2029342651367188 0.0000000000000000
0.9854027032852173 2.3302583694458008 0.0000000000000000
1.0710664987564087 2.3501636981964111 0.0000000000000000
1.1484241485595703 2.3393113613128662 0.0000000000000000
0.9391771554946899 2.1626870632171631 0.0000000000000000
1.3737460374832153 4.7915968894958496 0.0000000000000000
1.3478429317474365 4.8470659255981445 0.0000000000000000
1.3145972490310669 4.7197413444519043 0.0000000000000000
1.2150878906250000 4.6773624420166016 0.0000000000000000
1.3608229160308838 4.8873128890991211 0.0000000000000000
8.8607988357543945 4.6942691802978516 0.0000000000000000
8.8816108703613281 4.7527580261230469 0.0000000000000000
8.7682085037231445 4.6854171752929688 0.0000000000000000
8.6936321258544922 4.7304601669311523 0.0000000000000000
8.6487674713134766 4.7914824485778809 0.0000000000000000
8.9196958541870117 4.7702445983886719 0.0000000000000000
8.7543563842773438 4.4994688034057617 0.0000000000000000
8.8608493804931641 1.7444244623184204 0.0000000000000000
8.8817548751831055 1.8019630908966064 0.0000000000000000
8.7728719711303711 1.7384816408157349 0.0000000000000000
8.9193925857543945 1.8212438821792603 0.0000000000000000
6.7037553787231445 8.6396865844726562 0.0000000000000000
6.6714911460876465 8.6976957321166992 0.0000000000000000
6.6846475601196289 8.7382726669311523 0.0000000000000000
2.4543962478637695 1.4346880912780762 0.0000000000000000
4.7016386985778809 9.2774209976196289 0.0000000000000000
6.9920454025268555 8.7960166931152344 0.0000000000000000
1.0429803133010864 6.1885442733764648 0.0000000000000000
0.8569496870040894 6.0364193916320801 0.0000000000000000
0.7065156698226929 6.1658368110656738 0.0000000000000000
1.0850478410720825 6.2348232269287109 0.0000000000000000
0.9539864659309387 6.2157788276672363 0.0000000000000000
0.9022428393363953 6.2920818328857422 0.0000000000000000
1.1270309686660767 6.2383561134338379 0.0000000000000000
7.9607095718383789 0.8442766666412354 0.0000000000000000
7.9817018508911133 0.9026024341583252 0.0000000000000000
7.8728461265563965 0.8384693861007690 0.0000000000000000
8.0195007324218750 0.9219557642936707 0.0000000000000000
0.9440991282463074 5.2313733100891113 0.0000000000000000
0.8887905478477478 5.1679587364196777 0.0000000000000000
1.0085852146148682 5.1886997222900391 0.0000000000000000
4.7686266899108887 0.9440991282463074 0.0000000000000000
4.8320412635803223 0.8887905478477478 0.0000000000000000
4.8113002777099609 1.0085852146148682 0.0000000000000000
8.7160997390747070 6.1975851058959961 0.0000000000000000
8.7302560806274414 6.2725887298583984 0.0000000000000000
4.5755572319030762 0.8663962483406067 0.0000000000000000
6.2671642303466797 8.6142625808715820 0.0000000000000000
6.2078695297241211 8.6797723770141602 0.0000000000000000
6.1777601242065430 8.7667465209960938 0.0000000000000000
8.5526714324951172 6.5768022537231445 0.0000000000000000
8.5914449691772461 6.6567125320434570 0.0000000000000000
8.6553134918212891 6.7000174522399902 0.0000000000000000
1.8421645164489746 8.6142625808715820 0.0000000000000000
1.7820625305175781 8.6799621582031250 0.0000000000000000
1.7623267173767090 8.7726554870605469 0.0000000000000000
8.6142625808715820 3.7328355312347412 0.0000000000000000
8.6797723770141602 3.7921304702758789 0.0000000000000000
8.7535543441772461 3.8068668842315674 0.0000000000000000
8.5526714324951172 2.1518020629882812 0.0000000000000000
8.5914525985717773 2.2314748764038086 0.0000000000000000
8.6709833145141602 2.2921171188354492 0.0000000000000000
1.1615858078002930 1.7340426445007324 0.0000000000000000
1.1171061992645264 1.7911573648452759 0.0000000000000000
1.0841616392135620 1.8251830339431763 0.0000000000000000
1.0485825538635254 1.7702159881591797 0.0000000000000000
0.9551007151603699 1.8026235103607178 0.0000000000000000
8.6142625808715820 5.2078356742858887 0.0000000000000000
8.6918325424194336 5.2663636207580566 0.0000000000000000
8.7778711318969727 5.2419347763061523 0.0000000000000000
8.8302297592163086 5.2471599578857422 0.0000000000000000
1.2882579565048218 7.6677722930908203 0.0000000000000000
1.1952714920043945 7.6385302543640137 0.0000000000000000
1.1216275691986084 7.7063651084899902 0.0000000000000000
4.7921643257141113 8.6142625808715820 0.0000000000000000
4.7295389175415039 8.6892089843750000 0.0000000000000000
4.7525105476379395 8.7817201614379883 0.0000000000000000
4.7672114372253418 8.8364439010620117 0.0000000000000000
7.6363463401794434 8.8302698135375977 0.0000000000000000
7.6407408714294434 8.9185199737548828 0.0000000000000000
7.6822881698608398 8.9827260971069336 0.0000000000000000
7.4739003181457520 9.1324949264526367 0.0000000000000000
7.3961920738220215 9.3866910934448242 0.0000000000000000
7.6407380104064941 9.3279447555541992 0.0000000000000000
6.7098588943481445 9.0583562850952148 0.0000000000000000
6.8123464584350586 9.2927436828613281 0.0000000000000000
6.9938769340515137 9.5528402328491211 0.0000000000000000
6.6119804382324219 9.5747480392456055 0.0000000000000000
6.6437082290649414 9.1167364120483398 0.0000000000000000
6.5686669349670410 9.1321802139282227 0.0000000000000000
1.0473799705505371 8.2467155456542969 0.0000000000000000
0.9638756513595581 8.1989364624023438 0.0000000000000000
0.9504590630531311 8.1094627380371094 0.0000000000000000
9.1634006500244141 2.0312602519989014 0.0000000000000000
9.3975019454956055 2.1198663711547852 0.0000000000000000
9.3506183624267578 2.3464114665985107 0.0000000000000000
9.2056722640991211 2.5068807601928711 0.0000000000000000
9.3931751251220703 1.9670349359512329 0.0000000000000000
9.0411548614501953 2.6263835430145264 0.0000000000000000
9.1775741577148438 2.7358033657073975 0.0000000000000000
9.3344631195068359 2.9149765968322754 0.0000000000000000
9.4874944686889648 2.5675973892211914 0.0000000000000000
9.1095104217529297 2.2233991622924805 0.0000000000000000
8.9024124145507812 2.5649650096893311 0.0000000000000000
9.1496353149414062 2.1272172927856445 0.0000000000000000
9.0725345611572266 2.1723182201385498 0.0000000000000000
9.0394506454467773 2.2077651023864746 0.0000000000000000
9.0539207458496094 2.2608070373535156 0.0000000000000000
8.9982671737670898 2.3090677261352539 0.0000000000000000
8.9209280014038086 2.3692336082458496 0.0000000000000000
9.1634006500244141 4.9812602996826172 0.0000000000000000
9.1587486267089844 5.0689058303833008 0.0000000000000000
9.1172780990600586 5.1310439109802246 0.0000000000000000
9.1634006500244141 3.5062603950500488 0.0000000000000000
9.3877964019775391 3.5774004459381104 0.0000000000000000
9.3562231063842773 3.8298954963684082 0.0000000000000000
9.1095104217529297 3.6983990669250488 0.0000000000000000
9.1829786300659180 3.9697995185852051 0.0000000000000000
9.3706998825073242 4.0942273139953613 0.0000000000000000
9.1496353149414062 3.6022174358367920 0.0000000000000000
9.0725345611572266 3.6473183631896973 0.0000000000000000
9.0394506454467773 3.6827652454376221 0.0000000000000000
9.0539207458496094 3.7358069419860840 0.0000000000000000
8.9993572235107422 3.7839977741241455 0.0000000000000000
8.9156188964843750 3.8317272663116455 0.0000000000000000
8.8381423950195312 3.8349378108978271 0.0000000000000000
1.8416432142257690 9.0848588943481445 0.0000000000000000
1.5909749269485474 9.1439294815063477 0.0000000000000000
1.7829581499099731 9.0195941925048828 0.0000000000000000
1.7686697244644165 8.9461965560913086 0.0000000000000000
9.1634006500244141 7.9312605857849121 0.0000000000000000
9.1586179733276367 8.0181503295898438 0.0000000000000000
9.1167373657226562 8.0791311264038086 0.0000000000000000
0.8676269650459290 6.6122465133666992 0.0000000000000000
0.8383846879005432 6.5294919013977051 0.0000000000000000
0.8529266119003296 6.4562268257141113 0.0000000000000000
0.6178309321403503 6.3674645423889160 0.0000000000000000
0.8593787550926208 6.3680109977722168 0.0000000000000000
3.5062603950500488 8.5365991592407227 0.0000000000000000
3.6022174358367920 8.5503644943237305 0.0000000000000000
3.6473183631896973 8.6274652481079102 0.0000000000000000
3.6827652454376221 8.6605491638183594 0.0000000000000000
3.7358069419860840 8.6460800170898438 0.0000000000000000
3.7832136154174805 8.7007207870483398 0.0000000000000000
3.8319487571716309 8.7813043594360352 0.0000000000000000
3.8047044277191162 8.8523969650268555 0.0000000000000000
3.7568690776824951 8.8271627426147461 0.0000000000000000
1.0127536058425903 4.7176270484924316 0.0000000000000000
1.1061152219772339 4.6847853660583496 0.0000000000000000
5.2823729515075684 1.0127536058425903 0.0000000000000000
5.3116283416748047 1.0952087640762329 0.0000000000000000
5.3014078140258789 1.1956673860549927 0.0000000000000000
2.2583568096160889 0.9151414036750793 0.0000000000000000
2.3133010864257812 0.9786267280578613 0.0000000000000000
2.3433806896209717 1.0803370475769043 0.0000000000000000
6.7573728561401367 1.0127536058425903 0.0000000000000000
6.7858114242553711 1.0962492227554321 0.0000000000000000
6.7757844924926758 1.1987570524215698 0.0000000000000000
6.9643373489379883 1.0499223470687866 0.0000000000000000
3.2282843589782715 1.0473799705505371 0.0000000000000000
3.2661230564117432 0.9681863188743591 0.0000000000000000
3.3282158374786377 0.9266485571861267 0.0000000000000000
1.4467157125473022 6.5776200294494629 0.0000000000000000
1.3989360332489014 6.6611242294311523 0.0000000000000000
1.3094625473022461 6.6745409965515137 0.0000000000000000
9.1467161178588867 6.5776200294494629 0.0000000000000000
9.0972776412963867 6.6610050201416016 0.0000000000000000
9.0087862014770508 6.6731677055358887 0.0000000000000000
8.9646558761596680 6.6932554244995117 0.0000000000000000
8.9577255249023438 6.7477970123291016 0.0000000000000000
8.8888731002807617 6.7714390754699707 0.0000000000000000
8.7932443618774414 6.7834901809692383 0.0000000000000000
8.7204370498657227 6.7568073272705078 0.0000000000000000
5.2083568572998047 8.6151418685913086 0.0000000000000000
5.2670416831970215 8.6804056167602539 0.0000000000000000
5.2816557884216309 8.7536678314208984 0.0000000000000000
7.9312605857849121 8.5365991592407227 0.0000000000000000
8.0193166732788086 8.5420942306518555 0.0000000000000000
8.0832986831665039 8.5842361450195312 0.0000000000000000
8.1043529510498047 1.3352260589599609 0.0000000000000000
4.9070253372192383 0.6148295998573303 0.0000000000000000
5.4865803718566895 1.2585394382476807 0.0000000000000000
2.3322262763977051 1.2880464792251587 0.0000000000000000
2.3501217365264893 1.1922435760498047 0.0000000000000000
2.2977390289306641 1.1259592771530151 0.0000000000000000
2.2793259620666504 1.0859571695327759 0.0000000000000000
3.6269505023956299 1.4471777677536011 0.0000000000000000
3.7065038681030273 1.4084261655807495 0.0000000000000000
3.7671127319335938 1.3289792537689209 0.0000000000000000
0.9355129599571228 5.9096970558166504 0.0000000000000000
1.6588010787963867 6.2664952278137207 0.0000000000000000
8.8715877532958984 2.3167109489440918 0.0000000000000000
8.8240489959716797 2.3591094017028809 0.0000000000000000
5.2307720184326172 1.6042594909667969 0.0000000000000000
7.4594602584838867 1.0737479925155640 0.0000000000000000
8.0630340576171875 1.3642696142196655 0.0000000000000000
8.6350641250610352 8.0633258819580078 0.0000000000000000
8.6609354019165039 8.1091136932373047 0.0000000000000000
8.6434259414672852 8.1753053665161133 0.0000000000000000
8.7218809127807617 8.2043056488037109 0.0000000000000000
8.7417001724243164 8.1562156677246094 0.0000000000000000
8.7846431732177734 8.2538948059082031 0.0000000000000000
5.1133260726928711 1.3649356365203857 0.0000000000000000
5.1591138839721680 1.3390650749206543 0.0000000000000000
5.2253050804138184 1.3565737009048462 0.0000000000000000
5.2527766227722168 1.2694162130355835 0.0000000000000000
5.2050299644470215 1.2577103376388550 0.0000000000000000
6.5883259773254395 1.3649356365203857 0.0000000000000000
6.6341137886047363 1.3390650749206543 0.0000000000000000
6.7003049850463867 1.3565737009048462 0.0000000000000000
6.7283287048339844 1.2713907957077026 0.0000000000000000
6.6796503067016602 1.2538303136825562 0.0000000000000000
8.7617883682250977 2.2987527847290039 0.0000000000000000
1.2546761035919189 2.5358381271362305 0.0000000000000000
2.5719859600067139 1.1131536960601807 0.0000000000000000
9.1430501937866211 3.0864191055297852 0.0000000000000000
9.0775642395019531 5.2101230621337891 0.0000000000000000
9.0204963684082031 5.2625317573547363 0.0000000000000000
8.9471302032470703 5.2791996002197266 0.0000000000000000
8.8644046783447266 5.3066921234130859 0.0000000000000000
6.4873323440551758 9.1594915390014648 0.0000000000000000
6.4053325653076172 9.1573429107666016 0.0000000000000000
6.3417882919311523 9.1147527694702148 0.0000000000000000
6.2683215141296387 9.0770492553710938 0.0000000000000000
6.2862052917480469 9.0103321075439453 0.0000000000000000
6.2584929466247559 8.9648704528808594 0.0000000000000000
6.2027759552001953 8.9577178955078125 0.0000000000000000
6.1852545738220215 8.8882560729980469 0.0000000000000000
1.7405085563659668 8.8623323440551758 0.0000000000000000
1.8039562702178955 8.8253965377807617 0.0000000000000000
1.8218923807144165 8.7841386795043945 0.0000000000000000
9.0775642395019531 8.1601228713989258 0.0000000000000000
9.0211076736450195 8.2116661071777344 0.0000000000000000
8.9473915100097656 8.2291679382324219 0.0000000000000000
8.8673343658447266 8.2597827911376953 0.0000000000000000
8.9510097503662109 8.4389142990112305 0.0000000000000000
3.3951692581176758 0.8687865734100342 0.0000000000000000
3.4670450687408447 0.8428098559379578 0.0000000000000000
3.5409903526306152 0.8556799292564392 0.0000000000000000
3.6290578842163086 0.8611410260200500 0.0000000000000000
3.6361434459686279 0.9307323098182678 0.0000000000000000
3.6807467937469482 0.9612041115760803 0.0000000000000000
3.7352161407470703 0.9463430643081665 0.0000000000000000
3.7839832305908203 1.0017700195312500 0.0000000000000000
3.8442335128784180 1.0790716409683228 0.0000000000000000
3.7917108535766602 1.1284120082855225 0.0000000000000000
3.8341095447540283 1.1759512424468994 0.0000000000000000
3.7737469673156738 1.2382023334503174 0.0000000000000000
5.3094916343688965 8.8376674652099609 0.0000000000000000
5.3061971664428711 8.9150791168212891 0.0000000000000000
5.2630620002746582 9.0057239532470703 0.0000000000000000
8.1601228713989258 8.6224365234375000 0.0000000000000000
8.2123508453369141 8.6791028976440430 0.0000000000000000
8.2426776885986328 8.7763862609863281 0.0000000000000000
2.4688539505004883 0.8519329428672791 0.0000000000000000
7.4611635208129883 8.9740953445434570 0.0000000000000000
8.9209413528442383 1.5236165523529053 0.0000000000000000
6.3806099891662598 8.3672389984130859 0.0000000000000000
4.7150821685791016 8.8430805206298828 0.0000000000000000
4.7027664184570312 8.9268140792846680 0.0000000000000000
4.7212624549865723 9.0147600173950195 0.0000000000000000
4.7830381393432617 9.0436725616455078 0.0000000000000000
4.8126835823059082 9.1182880401611328 0.0000000000000000
4.8822360038757324 9.0930929183959961 0.0000000000000000
4.9078040122985840 9.1483097076416016 0.0000000000000000
4.9832372665405273 9.1389150619506836 0.0000000000000000
5.0552825927734375 9.1718921661376953 0.0000000000000000
5.1012606620788574 9.1227254867553711 0.0000000000000000
5.1744227409362793 9.1206579208374023 0.0000000000000000
5.2061076164245605 9.0584630966186523 0.0000000000000000
7.7149076461791992 9.0581893920898438 0.0000000000000000
7.7820076942443848 9.1165380477905273 0.0000000000000000
7.8576207160949707 9.1335010528564453 0.0000000000000000
7.9344429969787598 9.1644134521484375 0.0000000000000000
8.0276784896850586 9.1508131027221680 0.0000000000000000
8.0767202377319336 9.0732831954956055 0.0000000000000000
8.1047077178955078 9.0239048004150391 0.0000000000000000
8.1463212966918945 9.0560369491577148 0.0000000000000000
8.2143983840942383 9.0052175521850586 0.0000000000000000
8.2635993957519531 8.9305944442749023 0.0000000000000000
8.2334814071655273 8.8613967895507812 0.0000000000000000
8.4933328628540039 8.3380098342895508 0.0000000000000000
1.6402049064636230 3.6743214130401611 0.0000000000000000
0.4576637446880341 2.3367750644683838 0.0000000000000000
9.2541608810424805 4.3674764633178711 0.0000000000000000
8.4454050064086914 5.2928857803344727 0.0000000000000000
7.7001705169677734 8.8738441467285156 0.0000000000000000
1.2252341508865356 7.7065548896789551 0.0000000000000000
8.6910934448242188 5.1906018257141113 0.0000000000000000
4.8038740158081055 8.6873579025268555 0.0000000000000000
8.6297988891601562 2.1673560142517090 0.0000000000000000
8.6297874450683594 6.5927286148071289 0.0000000000000000
8.6902046203613281 3.7185168266296387 0.0000000000000000
1.8562376499176025 8.6891584396362305 0.0000000000000000
6.2814831733703613 8.6902046203613281 0.0000000000000000
9.1056566238403320 8.3983144760131836 0.0000000000000000
3.6423914432525635 1.3701664209365845 0.0000000000000000
2.2874937057495117 1.2239811420440674 0.0000000000000000
5.9874186515808105 1.2577331066131592 0.0000000000000000
6.2353844642639160 8.8618412017822266 0.0000000000000000
8.9606389999389648 2.2571392059326172 0.0000000000000000
8.8728370666503906 6.7068691253662109 0.0000000000000000
6.3651685714721680 0.9445202350616455 0.0000000000000000
1.8181308507919312 1.1728371381759644 0.0000000000000000
8.9598312377929688 3.7304797172546387 0.0000000000000000
3.7321224212646484 1.0393685102462769 0.0000000000000000
1.0021920204162598 3.7051045894622803 0.0000000000000000
3.7306890487670898 8.7384347915649414 0.0000000000000000
1.2195112705230713 6.9732632637023926 0.0000000000000000
7.6631722450256348 0.6964657902717590 0.0000000000000000
7.8379068374633789 0.5990134477615356 0.0000000000000000
7.9228191375732422 0.3258984088897705 0.0000000000000000
2.2539873123168945 8.7417907714843750 0.0000000000000000
8.7417945861816406 3.3210132122039795 0.0000000000000000
8.8255081176757812 6.2431664466857910 0.0000000000000000
3.5478370189666748 1.3818691968917847 0.0000000000000000
1.8316217660903931 1.0819928646087646 0.0000000000000000
2.2301044464111328 1.2978079319000244 0.0000000000000000
2.2713947296142578 8.9177942276000977 0.0000000000000000
3.7479586601257324 8.9176340103149414 0.0000000000000000
1.1697450876235962 4.7303256988525391 0.0000000000000000
1.8223114013671875 0.4032435417175293 0.0000000000000000
1.2544686794281006 3.0298085212707520 0.0000000000000000
5.4974398612976074 8.9996500015258789 0.0000000000000000
8.4760503768920898 9.0112228393554688 0.0000000000000000
8.5883617401123047 2.4806439876556396 0.0000000000000000
6.4199342727661133 0.5669130086898804 0.0000000000000000
7.8823661804199219 8.6270418167114258 0.0000000000000000
8.6455917358398438 4.8901433944702148 0.0000000000000000
5.1098313331604004 8.6445198059082031 0.0000000000000000
1.3810001611709595 7.9747014045715332 0.0000000000000000
1.0030570030212402 7.7723007202148438 0.0000000000000000
1.3818691968917847 6.4978370666503906 0.0000000000000000
9.0818691253662109 6.4978370666503906 0.0000000000000000
6.6551046371459961 1.0021920204162598 0.0000000000000000
3.2931308746337891 1.1271629333496094 0.0000000000000000
6.5862207412719727 8.6460361480712891 0.0000000000000000
0.9470455050468445 1.9394001960754395 0.0000000000000000
2.1598312854766846 0.9445202350616455 0.0000000000000000
1.3539636135101318 5.1112208366394043 0.0000000000000000
1.2176337242126465 2.2729585170745850 0.0000000000000000
1.9401687383651733 9.0554800033569336 0.0000000000000000
5.1801047325134277 1.0021920204162598 0.0000000000000000
9.0729589462280273 7.8823661804199219 0.0000000000000000
1.0021920204162598 4.8198952674865723 0.0000000000000000
3.4573662281036377 8.6270418167114258 0.0000000000000000
3.4151687622070312 9.0554800033569336 0.0000000000000000
0.9698954820632935 6.6228079795837402 0.0000000000000000
7.8048114776611328 0.9701890945434570 0.0000000000000000
8.1535205841064453 1.2583113908767700 0.0000000000000000
9.0729589462280273 3.4573662281036377 0.0000000000000000
9.0729589462280273 4.9323663711547852 0.0000000000000000
8.7048120498657227 1.8701843023300171 0.0000000000000000
9.0729589462280273 1.9823662042617798 0.0000000000000000
6.6804800033569336 8.9598312377929688 0.0000000000000000
1.1271629333496094 8.1818695068359375 0.0000000000000000
1.5528306961059570 6.7656664848327637 0.0000000000000000
7.9748077392578125 8.6017017364501953 0.0000000000000000
9.0744152069091797 6.5937080383300781 0.0000000000000000
1.3746123313903809 6.5937223434448242 0.0000000000000000
5.1935939788818359 8.6905803680419922 0.0000000000000000
3.5487918853759766 8.5972404479980469 0.0000000000000000
5.2398858070373535 1.0763314962387085 0.0000000000000000
2.2429046630859375 0.9892857670783997 0.0000000000000000
9.0994148254394531 7.9729804992675781 0.0000000000000000
1.0755387544631958 4.7558755874633789 0.0000000000000000
3.3036298751831055 1.0321497917175293 0.0000000000000000
0.9101350307464600 6.5481996536254883 0.0000000000000000
6.7136058807373047 1.0779614448547363 0.0000000000000000
9.1027603149414062 2.0737919807434082 0.0000000000000000
1.0312778949737549 8.1746120452880859 0.0000000000000000
9.1027603149414062 3.5487918853759766 0.0000000000000000
9.0996189117431641 5.0241646766662598 0.0000000000000000
1.8564059734344482 9.0094203948974609 0.0000000000000000
6.6330318450927734 9.0431156158447266 0.0000000000000000
0.9208192825317383 7.9718642234802246 0.0000000000000000
7.9718198776245117 1.3792941570281982 0.0000000000000000
7.7270412445068359 8.7823657989501953 0.0000000000000000
4.8901686668395996 8.6445198059082031 0.0000000000000000
2.1585154533386230 9.0541839599609375 0.0000000000000000
3.6335153579711914 9.0541839599609375 0.0000000000000000
1.2978079319000244 7.7698955535888672 0.0000000000000000
8.1541833877563477 1.0414845943450928 0.0000000000000000
1.1278824806213379 3.2948317527770996 0.0000000000000000
8.9971141815185547 6.2966070175170898 0.0000000000000000
4.9796333312988281 0.9197432994842529 0.0000000000000000
8.6445198059082031 5.1098313331604004 0.0000000000000000
0.9474609494209290 3.6314158439636230 0.0000000000000000
1.9414845705032349 0.9458163380622864 0.0000000000000000
2.0721175670623779 1.3801681995391846 0.0000000000000000
1.2162523269653320 1.8282278776168823 0.0000000000000000
1.3701025247573853 2.1175036430358887 0.0000000000000000
3.3778860569000244 1.3283928632736206 0.0000000000000000
6.4541931152343750 0.9221547842025757 0.0000000000000000
6.4968199729919434 1.3792941570281982 0.0000000000000000
8.9176473617553711 3.3038883209228516 0.0000000000000000
5.0218195915222168 1.3792941570281982 0.0000000000000000
1.2971140146255493 6.2966070175170898 0.0000000000000000
8.6207056045532227 7.9718198776245117 0.0000000000000000
0.9197432994842529 5.0203666687011719 0.0000000000000000
1.1718643903732300 6.7041807174682617 0.0000000000000000
8.6181306838989258 2.0728371143341064 0.0000000000000000
7.7208194732666016 1.1718643903732300 0.0000000000000000
8.6445198059082031 3.6348311901092529 0.0000000000000000
1.9401687383651733 8.6445198059082031 0.0000000000000000
8.6181306838989258 6.4978370666503906 0.0000000000000000
6.3651685714721680 8.6445198059082031 0.0000000000000000
8.9176473617553711 7.7288885116577148 0.0000000000000000
1.2152100801467896 5.9684171676635742 0.0000000000000000
6.1790852546691895 9.6467895507812500 0.0000000000000000
6.3308396339416504 9.4231548309326172 0.0000000000000000
1.1473801136016846 2.9544069766998291 0.0000000000000000
1.6353123188018799 5.0889058113098145 0.0000000000000000
6.3311076164245605 1.6436831951141357 0.0000000000000000
4.0308980941772461 8.7848157882690430 0.0000000000000000
8.0235347747802734 3.4465067386627197 0.0000000000000000
0.6051557660102844 5.9492630958557129 0.0000000000000000
7.9733963012695312 9.1024580001831055 0.0000000000000000
9.0088243484497070 5.1905827522277832 0.0000000000000000
5.2470679283142090 8.8724565505981445 0.0000000000000000
3.4501447677612305 0.9138495326042175 0.0000000000000000
6.4503159523010254 9.0965776443481445 0.0000000000000000
9.0092906951904297 8.1391630172729492 0.0000000000000000
8.1416082382202148 8.6906499862670898 0.0000000000000000
1.2833337783813477 7.4630999565124512 0.0000000000000000
7.7916245460510254 9.0407094955444336 0.0000000000000000
6.6401019096374512 0.2917943298816681 0.0000000000000000
2.1103069782257080 1.6556216478347778 0.0000000000000000
1.1071065664291382 2.5578348636627197 0.0000000000000000
8.3206882476806641 7.9194355010986328 0.0000000000000000
2.1450738906860352 8.3720312118530273 0.0000000000000000
3.0955047607421875 9.1764030456542969 0.0000000000000000
0.4515768289566040 4.5704135894775391 0.0000000000000000
6.9529900550842285 8.9590625762939453 0.0000000000000000
7.2812509536743164 9.7416801452636719 0.0000000000000000
7.6401185989379883 9.6151704788208008 0.0000000000000000
0.5425451993942261 9.2249622344970703 0.0000000000000000
8.4263839721679688 8.5903072357177734 0.0000000000000000
1.5440542697906494 8.8036870956420898 0.0000000000000000
8.3730154037475586 3.4242982864379883 0.0000000000000000
2.5315055847167969 1.2366007566452026 0.0000000000000000
8.7413864135742188 7.7459836006164551 0.0000000000000000
8.6900348663330078 7.7603669166564941 0.0000000000000000
8.6463317871093750 7.7063913345336914 0.0000000000000000
0.9739441871643066 3.3793380260467529 0.0000000000000000
0.9436229467391968 3.4036762714385986 0.0000000000000000
0.8800475001335144 3.3899614810943604 0.0000000000000000
8.3775634765625000 2.2817294597625732 0.0000000000000000
1.0409449338912964 5.9938821792602539 0.0000000000000000
1.4189569950103760 5.4152693748474121 0.0000000000000000
2.2520010471343994 1.6353843212127686 0.0000000000000000
4.7899079322814941 1.3507089614868164 0.0000000000000000
1.3600920438766479 3.3242909908294678 0.0000000000000000
1.4158307313919067 3.6422910690307617 0.0000000000000000
6.2649078369140625 1.3507089614868164 0.0000000000000000
4.7899436950683594 1.2624876499176025 0.0000000000000000
1.3600561618804932 3.4125123023986816 0.0000000000000000
1.3343100547790527 3.6760194301605225 0.0000000000000000
6.2649440765380859 1.2624876499176025 0.0000000000000000
1.3042999505996704 1.5628900527954102 0.0000000000000000
8.8297328948974609 8.1965065002441406 0.0000000000000000
8.7388334274291992 4.0100946426391602 0.0000000000000000
1.4035266637802124 1.6243165731430054 0.0000000000000000
9.2035131454467773 9.0642490386962891 0.0000000000000000
4.9129905700683594 0.8545346260070801 0.0000000000000000
0.8545346260070801 5.0870094299316406 0.0000000000000000
1.0377812385559082 5.4763092994689941 0.0000000000000000
0.9474523067474365 0.7890335321426392 0.0000000000000000
5.1078357696533203 8.3733205795288086 0.0000000000000000
0.7182025313377380 1.7445728778839111 0.0000000000000000
2.5329084396362305 9.0016469955444336 0.0000000000000000
3.0300564765930176 1.6608463525772095 0.0000000000000000
1.3476518392562866 6.9683818817138672 0.0000000000000000
1.6318320035934448 1.8417755365371704 0.0000000000000000
3.6825296878814697 9.7267885208129883 0.0000000000000000
0.9257441163063049 6.3579559326171875 0.0000000000000000
0.6509522795677185 3.4185423851013184 0.0000000000000000
8.8713521957397461 3.7728991508483887 0.0000000000000000
8.7752866744995117 6.7133684158325195 0.0000000000000000
8.6126604080200195 8.6031255722045898 0.0000000000000000
0.6605226993560791 6.5660066604614258 0.0000000000000000
1.5637366771697998 1.0160523653030396 0.0000000000000000
8.4444217681884766 6.2034120559692383 0.0000000000000000
6.7941193580627441 1.5371534824371338 0.0000000000000000
0.7314964532852173 8.5418090820312500 0.0000000000000000
0.5270521640777588 8.3978786468505859 0.0000000000000000
2.4993832111358643 9.6214065551757812 0.0000000000000000
8.0781030654907227 3.2394313812255859 0.0000000000000000
4.1627869606018066 0.8591986298561096 0.0000000000000000
4.1195793151855469 0.6269451379776001 0.0000000000000000
1.5831401348114014 5.2488479614257812 0.0000000000000000
8.3679733276367188 6.3959112167358398 0.0000000000000000
4.7176980972290039 0.6761095523834229 0.0000000000000000
1.5793840885162354 8.9514751434326172 0.0000000000000000
9.4623107910156250 1.4329001903533936 0.0000000000000000
1.3609424829483032 3.6377511024475098 0.0000000000000000
1.3348926305770874 3.3732624053955078 0.0000000000000000
6.2901072502136230 1.3017374277114868 0.0000000000000000
4.8151073455810547 1.3017374277114868 0.0000000000000000
1.8804695606231689 6.5729360580444336 0.0000000000000000
5.4714326858520508 8.7562265396118164 0.0000000000000000
8.8479204177856445 5.5216751098632812 0.0000000000000000
7.1630573272705078 9.3733787536621094 0.0000000000000000
8.3728580474853516 3.6347239017486572 0.0000000000000000
9.3096103668212891 8.2571020126342773 0.0000000000000000
2.6967077255249023 9.3739681243896484 0.0000000000000000
2.4208507537841797 9.2976741790771484 0.0000000000000000
5.7919316291809082 9.3942956924438477 0.0000000000000000
9.0743818283081055 6.9501762390136719 0.0000000000000000
4.6646280288696289 8.4744930267333984 0.0000000000000000
3.0719814300537109 0.8384238481521606 0.0000000000000000
8.3711013793945312 7.8033227920532227 0.0000000000000000
3.9967787265777588 8.9377269744873047 0.0000000000000000
8.0623140335083008 8.3717985153198242 0.0000000000000000
9.0941848754882812 5.5446286201477051 0.0000000000000000
8.1818695068359375 8.8711214065551758 0.0000000000000000
4.8208518028259277 8.9986286163330078 0.0000000000000000
5.4269638061523438 9.1373481750488281 0.0000000000000000
0.6144149303436279 1.1699877977371216 0.0000000000000000
1.0305438041687012 8.4335517883300781 0.0000000000000000
0.4414283633232117 7.7253432273864746 0.0000000000000000
4.4461522102355957 0.4886924922466278 0.0000000000000000
1.0500706434249878 1.5665953159332275 0.0000000000000000
6.3940634727478027 0.8613886237144470 0.0000000000000000
0.9143308997154236 3.7102222442626953 0.0000000000000000
8.9473724365234375 5.4871029853820801 0.0000000000000000
3.6264119148254395 1.7960985898971558 0.0000000000000000
1.2385159730911255 5.4651341438293457 0.0000000000000000
1.7524735927581787 1.1143547296524048 0.0000000000000000
4.9806985855102539 9.0830917358398438 0.0000000000000000
5.0704236030578613 9.0723772048950195 0.0000000000000000
0.9875708818435669 1.8517166376113892 0.0000000000000000
0.3848427236080170 1.9911102056503296 0.0000000000000000
0.6231475472450256 1.9294404983520508 0.0000000000000000
1.5404583215713501 7.6857190132141113 0.0000000000000000
8.8725147247314453 2.2787029743194580 0.0000000000000000
3.7537031173706055 1.1274856328964233 0.0000000000000000
4.8951435089111328 9.0533485412597656 0.0000000000000000
8.7746791839599609 4.7516994476318359 0.0000000000000000
1.0276850461959839 2.2788352966308594 0.0000000000000000
1.2723150253295898 4.7711648941040039 0.0000000000000000
3.2766993045806885 8.9253215789794922 0.0000000000000000
8.7762994766235352 1.8040692806243896 0.0000000000000000
0.9854360222816467 6.2744784355163574 0.0000000000000000
7.8763046264648438 0.9041009545326233 0.0000000000000000
3.9492976665496826 1.6597559452056885 0.0000000000000000
7.6870532035827637 8.4542551040649414 0.0000000000000000
1.3106675148010254 4.5271682739257812 0.0000000000000000
1.4222565889358521 3.9205157756805420 0.0000000000000000
1.1707319021224976 4.7707891464233398 0.0000000000000000
1.8048908710479736 1.5783405303955078 0.0000000000000000
2.4659049510955811 9.1284017562866211 0.0000000000000000
2.5145661830902100 8.7575922012329102 0.0000000000000000
0.7257574200630188 5.2892317771911621 0.0000000000000000
6.1956915855407715 1.5441781282424927 0.0000000000000000
0.8955557942390442 1.6157513856887817 0.0000000000000000
3.1227679252624512 1.4103382825851440 0.0000000000000000
8.9935216903686523 3.0389499664306641 0.0000000000000000
1.5905388593673706 4.7658419609069824 0.0000000000000000
2.1564211845397949 0.6409709453582764 0.0000000000000000
3.3506977558135986 2.0535047054290771 0.0000000000000000
8.4279003143310547 3.0128779411315918 0.0000000000000000
1.5436340570449829 8.6663188934326172 0.0000000000000000
7.4729156494140625 8.3909835815429688 0.0000000000000000
8.6876745223999023 1.5586613416671753 0.0000000000000000
0.4012295901775360 6.2959628105163574 0.0000000000000000
0.9268612265586853 5.1131782531738281 0.0000000000000000
4.8868217468261719 0.9268612265586853 0.0000000000000000
6.0889110565185547 1.4494730234146118 0.0000000000000000
8.7990894317626953 5.9843587875366211 0.0000000000000000
8.4730396270751953 2.3671629428863525 0.0000000000000000
6.1836390495300293 8.8313407897949219 0.0000000000000000
8.5592222213745117 0.9607208967208862 0.0000000000000000
1.5550497770309448 1.7726211547851562 0.0000000000000000
1.1265162229537964 1.8252779245376587 0.0000000000000000
9.1509494781494141 8.7481517791748047 0.0000000000000000

CELLS 9335 37340
3 4352 994 4354
3 348 3826 3827
3 560 561 4704
3 852 853 4702
3 910 911 4703
3 178 179 4706
3 754 755 4707
3 472 473 4705
3 664 665 4710
3 368 369 4708
3 88 89 4709
3 830 831 4116
3 2561 2562 3512
3 22 23 4713
3 218 219 4712
3 2762 4543 4909
3 19 20 1007
3 991 1294 4901
3 725 726 3396
3 2578 2890 3055
3 583 584 4930
3 392 3976 4533
3 4669 1057 4696
3 870 871 3951
3 347 348 3827
3 975 976 3600
3 3908 821 3999
3 743 744 4774
3 861 862 4773
3 695 696 4775
3 481 482 4776
3 707 708 4783
3 285 286 4777
3 435 436 4778
3 523 524 4781
3 49 50 4779
3 231 232 4782
3 627 628 4784
3 933 934 4780
3 895 896 4786
3 81 82 4789
3 357 358 4787
3 649 650 4790
3 549 550 4788
3 165 166 4785
3 784 2807 4355
3 356 341 3174
3 247 2864 2865
3 970 971 4697
3 2807 784 2992
3 3861 990 3863
3 3938 3849 4699
3 1008 2764 2911
3 4008 3980 4727
3 680 681 4503
3 822 823 4000
3 2815 830 4116
3 2845 3978 4320
3 2878 2880 2882
3 2708 2709 4514
3 2888 591 2889
3 844 845 4833
3 2901 3142 3144
3 683 684 4104
3 3941 1009 3942
3 398 399 2897
3 1263 761 4137
3 1110 511 4286
3 1109 423 4282
3 2867 250 2868
3 848 849 4841
3 3950 970 4697
3 590 591 2888
3 247 248 2864
3 2737 2786 4167
3 930 931 3081
3 899 1058 4109
3 699 1252 4113
3 117 1257 4110
3 803 1253 4114
3 2889 2583 4101
3 2882 2880 2885
3 399 2895 2896
3 3903 977 4047
3 3812 786 4014
3 3804 835 4005
3 3887 401 4043
3 3883 738 4010
3 3838 295 4026
3 3833 250 4022
3 3835 56 4039
3 3822 352 4034
3 3831 63 4030
3 3843 103 4018
3 2890 2889 4101
3 214 215 4663
3 174 175 4628
3 4514 2709 4515
3 726 2836 3396
3 1114 1077 4410
3 1260 1025 4430
3 1229 1221 4419
3 643 4077 4078
3 3073 442 3501
3 4604 246 4663
3 969 970 3949
3 399 2896 2897
3 4477 202 4628
3 980 965 3917
3 260 245 2839
3 1068 1142 4685
3 1345 1343 1347
3 3861 3919 4848
3 2749 2748 4432
3 2401 2871 2872
3 553 554 4834
3 453 454 4835
3 937 938 4838
3 235 236 4836
3 865 866 4839
3 653 654 4837
3 2825 826 2874
3 3974 2749 4432
3 4212 1005 4516
3 2772 4080 4930
3 4241 1356 4243
3 630 631 3280
3 1363 1358 2760
3 917 1364 1365
3 3174 341 4346
3 399 400 2895
3 2862 2577 2944
3 4225 3924 4318
3 2600 2854 2855
3 4020 101 4051
3 965 966 3918
3 1006 18 4910
3 2760 3914 4383
3 3600 976 3988
3 3618 629 3801
3 4482 4254 4947
3 199 200 4512
3 3142 2901 3145
3 4567 1106 4621
3 4573 1107 4626
3 3914 111 4383
3 2909 3950 4697
3 3105 4358 4432
3 1013 4 4091
3 249 250 2867
3 3807 924 4109
3 3809 824 4108
3 3853 632 4111
3 3881 828 4114
3 3840 149 4110
3 3879 728 4113
3 3859 972 4387
3 3868 440 4112
3 2560 3038 4339
3 730 731 2894
3 4620 438 4621
3 4625 630 4626
3 4614 970 4615
3 444 2827 3500
3 1001 4304 4306
3 629 630 3801
3 1024 1268 4634
3 1094 1059 4649
3 1204 1153 4654
3 1096 1215 4638
3 1120 1068 4666
3 1093 1057 4669
3 4435 4141 4958
3 1358 2603 2760
3 582 583 4073
3 2709 2858 4515
3 4452 4197 4960
3 1022 1267 4675
3 1280 1016 4694
3 1288 1020 4496
3 1271 1040 4465
3 1105 1247 4477
3 1237 1087 4474
3 1041 1262 4468
3 3870 635 4870
3 3824 355 4868
3 3851 342 4869
3 3820 443 4867
3 1196 1251 4604
3 941 942 4876
3 884 869 4093
3 4465 685 4987
3 3970 1294 4852
3 1052 1026 4594
3 1147 1277 4551
3 1082 1234 4545
3 1124 1207 4577
3 1144 1107 4573
3 1141 1106 4567
3 1023 1266 4591
3 1155 1063 4505
3 1053 1027 4548
3 1035 1213 4528
3 730 2894 3992
3 2738 4497 4671
3 2890 2144 3055
3 3949 970 3950
3 4326 907 4489
3 364 365 4893
3 750 751 4894
3 711 712 4891
3 682 4105 4826
3 4045 399 4128
3 4053 115 4129
3 164 149 2891
3 984 3789 4227
3 2726 3397 3398
3 3950 2909 4853
3 898 4109 4508
3 148 4110 4367
3 698 4113 4580
3 802 4114 4366
3 2884 4054 4333
3 1065 1158 4688
3 4512 200 4514
3 2798 2833 4351
3 823 4312 4327
3 928 4295 4326
3 3925 354 4341
3 2885 161 4875
3 3908 1349 4988
3 3081 931 3798
3 210 1355 4672
3 1289 7 4381
3 10 991 4936
3 3872 4078 4119
3 2839 245 3909
3 882 4594 4667
3 680 4505 4636
3 966 4548 4647
3 255 4577 4652
3 108 4545 4644
3 500 4591 4664
3 582 4528 4632
3 493 494 2856
3 3863 990 3982
3 161 2885 4938
3 2562 2597 3512
3 18 1344 1346
3 4478 161 4481
3 354 355 4341
3 299 4240 4410
3 153 4247 4419
3 591 4170 4430
3 207 4002 4342
3 4016 784 4460
3 920 921 1360
3 919 1358 1363
3 917 918 1364
3 4032 62 4944
3 4496 876 4686
3 2760 2603 3914
3 1010 3 4934
3 395 396 3797
3 4028 293 4561
3 869 4669 4696
3 59 60 2877
3 3866 3826 3921
3 1364 1363 2761
3 643 644 4077
3 2739 2737 4167
3 988 1 1296
3 3511 2561 3512
3 691 4133 4437
3 535 4181 4412
3 918 4291 4403
3 2355 2559 2762
3 780 3734 3799
3 55 56 3965
3 3873 641 4939
3 3828 348 4940
3 4 5 4699
3 257 4654 4655
3 584 4634 4635
3 682 4638 4639
3 990 3861 4848
3 3924 2796 4124
3 3965 56 4866
3 151 2859 3997
3 164 2891 4889
3 2406 2352 3104
3 1012 10 3796
3 395 3797 3989
3 826 2825 3937
3 2327 2329 2893
3 3942 3943 3944
3 2708 4514 4519
3 493 2856 2903
3 3139 3145 3591
3 4688 874 4689
3 499 500 3955
3 871 872 3952
3 778 3512 4096
3 14 992 3991
3 3800 439 4609
3 1003 1291 3994
3 206 207 4342
3 60 61 2878
3 2865 2560 4339
3 3893 1291 4700
3 777 778 4096
3 307 4558 4559
3 346 4370 4371
3 259 4658 4659
3 60 4374 4375
3 391 4538 4539
3 639 4364 4365
3 776 4585 4586
3 199 4523 4524
3 684 4642 4643
3 2578 2888 2890
3 3909 245 3969
3 4468 779 4588
3 4474 394 4541
3 7 1011 4981
3 968 4649 4650
3 3892 2783 3974
3 499 3955 4126
3 588 589 2862
3 391 392 4533
3 2827 444 3990
3 3941 3942 3952
3 1364 2761 4382
3 255 256 2844
3 3265 253 3266
3 3942 3944 3951
3 2 3 1010
3 733 4551 4553
3 394 395 3113
3 725 3396 3397
3 4304 1001 4305
3 4448 1156 4959
3 2781 2782 3794
3 3942 1009 3943
3 446 4282 4457
3 538 4286 4454
3 783 4137 4460
3 1348 1349 1350
3 245 246 3969
3 2413 2476 2907
3 4338 3498 4597
3 496 3538 4925
3 4409 1077 4957
3 4424 1102 4956
3 4429 1025 4954
3 4418 1221 4955
3 2745 2762 4854
3 4081 4079 4325
3 114 115 3928
3 976 977 3967
3 442 3073 3929
3 3939 3938 4699
3 449 450 4227
3 4287 2808 4882
3 113 3795 3911
3 976 3967 3988
3 4599 4570 4600
3 439 440 4609
3 3921 3826 4892
3 2781 3794 4097
3 734 4445 4552
3 1004 4530 4531
3 2612 2862 2944
3 740 725 3397
3 3905 210 4433
3 3885 302 4406
3 3899 692 4437
3 3891 594 4426
3 3877 548 4421
3 3847 156 4415
3 3818 536 4412
3 1359 919 4403
3 112 113 3911
3 588 2862 4380
3 15 1009 3941
3 2812 4393 4923
3 585 586 3961
3 137 138 4947
3 2401 2872 4887
3 783 784 4355
3 4078 2769 4115
3 4007 834 4450
3 4012 737 4443
3 487 488 4393
3 678 4164 4500
3 596 4185 4526
3 106 4217 4542
3 404 4213 4529
3 212 4156 4509
3 921 4316 4506
3 643 4189 4571
3 731 4208 4549
3 980 4145 4546
3 304 4174 4554
3 543 4204 4563
3 253 4269 4575
3 66 4264 4568
3 451 4224 4565
3 498 4160 4589
3 725 4193 4578
3 880 4233 4592
3 773 4303 4581
3 581 582 3995
3 4000 823 4003
3 1270 4426 4954
3 1241 4415 4955
3 1128 4421 4956
3 1235 4433 4958
3 1191 4406 4957
3 2359 2734 2903
3 495 496 4925
3 438 4338 4597
3 2745 2355 2762
3 1346 1345 1348
3 3978 2823 4320
3 2762 2559 2763
3 3865 541 4881
3 3855 449 4880
3 1217 4443 4959
3 1149 4450 4960
3 1000 3917 3918
3 127 128 4955
3 527 528 4956
3 571 572 4954
3 187 188 4958
3 275 276 4957
3 2846 2577 2862
3 2800 2798 4351
3 826 827 2874
3 204 205 3503
3 713 714 4959
3 811 812 4960
3 443 444 3500
3 452 437 4349
3 346 347 3792
3 4854 2762 4909
3 2726 3398 4322
3 3928 115 4343
3 779 780 3799
3 3097 2582 3223
3 873 874 3954
3 442 443 3501
3 630 3280 3801
3 585 3961 4917
3 253 254 3266
3 3944 3945 3946
3 630 4573 4626
3 438 4567 4621
3 150 151 3997
3 3113 395 3989
3 977 978 2854
3 256 257 2843
3 589 590 2846
3 3941 3952 3953
3 632 633 3095
3 3095 633 3096
3 3918 966 4920
3 778 779 3511
3 1352 1012 3796
3 2878 61 2879
3 3385 4094 4095
3 4041 55 4598
3 4024 249 4602
3 4090 1290 4934
3 2863 690 3981
3 4119 982 4842
3 3944 3946 4092
3 3907 688 4463
3 3889 112 4469
3 3895 396 4472
3 3901 781 4466
3 3897 205 4475
3 3875 496 4490
3 3845 162 4478
3 3857 588 4483
3 3816 931 4487
3 3814 878 4494
3 990 1289 3982
3 4218 3963 4219
3 3999 822 4000
3 103 104 4922
3 2803 2805 3927
3 4560 1130 4562
3 986 987 4332
3 3992 2849 4724
3 872 873 3953
3 823 824 4336
3 4514 200 4519
3 1293 7 4981
3 2875 59 2877
3 4104 2811 4105
3 4354 4396 4441
3 1348 1345 1349
3 15 16 1009
3 2738 2739 4497
3 830 2815 4610
3 778 3511 3512
3 832 4197 4452
3 208 4141 4435
3 159 4254 4482
3 3317 4072 4629
3 4354 994 4395
3 2603 1362 2745
3 2884 4333 4883
3 3842 4902 4922
3 3950 4853 4895
3 972 973 3747
3 1360 1362 2603
3 2877 2878 2882
3 4003 823 4336
3 821 822 3999
3 1195 4481 4947
3 1292 999 4102
3 979 980 2887
3 1010 1290 4076
3 4137 761 4461
3 4286 511 4456
3 4282 423 4459
3 3105 2583 4358
3 3946 3947 3949
3 2871 2401 2918
3 1356 4241 4242
3 4381 7 4832
3 4354 4395 4396
3 985 986 1354
3 287 288 4556
3 897 898 4508
3 375 376 4378
3 95 96 4376
3 657 658 4640
3 359 360 4536
3 558 559 4485
3 167 168 4521
3 317 318 4368
3 239 240 4656
3 147 148 4367
3 470 471 4492
3 33 34 4372
3 842 843 4691
3 615 616 4362
3 801 802 4366
3 908 909 4489
3 745 746 4583
3 697 698 4580
3 869 4092 4093
3 1362 2355 2745
3 3103 2406 3104
3 2352 2777 3104
3 255 2844 4926
3 3927 2805 4037
3 153 154 4844
3 593 3974 4432
3 2329 2856 2893
3 2755 2327 2893
3 7 8 1011
3 207 208 4001
3 3923 452 4349
3 3145 2054 3591
3 3139 3142 3145
3 498 499 3910
3 4510 1006 4513
3 2846 590 2888
3 4360 2799 4361
3 497 3915 3930
3 4002 4000 4003
3 1355 4155 4910
3 2764 1008 3957
3 3947 3948 4711
3 3280 631 4899
3 740 3397 4606
3 2 1010 4333
3 4 4699 4948
3 2762 2763 4543
3 4001 4000 4002
3 4358 592 4432
3 496 497 3930
3 4036 351 4862
3 2476 2904 2907
3 3264 545 4963
3 2908 883 2909
3 201 202 2957
3 2770 4828 4906
3 877 2913 2917
3 3806 2853 4936
3 545 546 4963
3 877 878 2913
3 487 4666 4685
3 1000 2887 3917
3 16 17 4324
3 969 3949 4651
3 115 116 3972
3 300 301 3986
3 2894 2850 3992
3 2870 3260 4942
3 4828 534 4906
3 7 1293 4832
3 3946 3945 3947
3 2914 879 2915
3 2088 2305 2916
3 3260 2870 4098
3 1004 4531 4534
3 2877 60 2878
3 2806 2600 2855
3 204 3503 4863
3 11 12 4852
3 596 581 3994
3 1349 3908 3999
3 4845 973 4927
3 978 979 2855
3 2608 2413 2907
3 514 515 4982
3 426 427 4983
3 207 4001 4002
3 2904 828 2907
3 3963 4218 4543
3 827 828 2904
3 973 974 4927
3 4072 152 4629
3 690 691 3981
3 2734 2799 2903
3 2856 2359 2903
3 632 3097 4899
3 2887 1000 3996
3 631 632 4899
3 1291 1004 4534
3 1091 4471 4646
3 987 988 4331
3 729 3992 4724
3 3910 499 4126
3 4094 739 4095
3 1002 4074 4082
3 727 728 3916
3 68 53 4630
3 547 3103 3104
3 992 993 1356
3 115 3972 4343
3 3951 871 3952
3 3095 2582 3097
3 2735 3097 3223
3 978 977 3903
3 829 828 3881
3 729 728 3879
3 973 972 3859
3 441 440 3868
3 739 738 3883
3 402 401 3887
3 633 632 3853
3 836 835 3804
3 787 786 3812
3 251 250 3833
3 150 149 3840
3 57 56 3835
3 64 63 3831
3 353 352 3822
3 104 103 3843
3 296 295 3838
3 825 824 3809
3 925 924 3807
3 983 984 4121
3 1360 921 1361
3 2541 3094 3096
3 1161 4488 4489
3 1071 4484 4485
3 1070 4491 4492
3 589 2846 2862
3 3976 2784 4533
3 3991 3842 4219
3 201 2957 4519
3 1350 1349 3999
3 3697 4401 4673
3 869 870 4740
3 398 2897 4855
3 494 495 2893
3 3245 54 4440
3 12 13 1008
3 823 822 4312
3 208 207 4141
3 832 831 4197
3 299 298 4240
3 153 152 4247
3 159 158 4254
3 535 534 4181
3 691 690 4133
3 928 927 4295
3 918 917 4291
3 591 590 4170
3 204 4863 4986
3 4938 4089 4971
3 54 3245 4856
3 882 883 2908
3 2607 2714 2917
3 102 101 4020
3 294 293 4028
3 785 784 4016
3 400 399 4045
3 116 115 4053
3 2963 637 3932
3 248 249 2866
3 203 204 4986
3 3747 973 4845
3 3094 3095 3096
3 3526 4321 4402
3 154 155 3938
3 1239 4599 4600
3 6 3866 3921
3 546 547 3104
3 356 3174 3973
3 246 4662 4663
3 202 4608 4628
3 4582 1218 4583
3 4579 1173 4580
3 4535 1031 4536
3 4520 1122 4521
3 4507 1046 4508
3 4555 1030 4556
3 689 3906 4134
3 211 3904 4157
3 979 3902 4146
3 677 3898 4165
3 206 3896 4142
3 397 3894 4149
3 595 3890 4186
3 782 3900 4138
3 113 3888 4152
3 830 3880 4198
3 740 3882 4194
3 303 3884 4175
3 637 3869 4251
3 533 3876 4182
3 730 3878 4209
3 642 3871 4190
3 442 3867 4201
3 297 3836 4244
3 403 3886 4214
3 542 3860 4205
3 974 3858 4178
3 497 3874 4161
3 589 3856 4171
3 344 3850 4237
3 151 3839 4248
3 157 3846 4255
3 163 3844 4258
3 58 3834 4261
3 450 3854 4226
3 252 3832 4270
3 65 3829 4266
3 341 3823 4273
3 349 3825 4276
3 354 3821 4279
3 634 3852 4230
3 537 3817 4288
3 879 3813 4234
3 445 3819 4283
3 105 3841 4220
3 932 3815 4292
3 826 3808 4300
3 926 3805 4297
3 788 3810 4308
3 821 3803 4313
3 920 1357 4317
3 4346 341 4698
3 975 3600 4323
3 996 4503 4825
3 1295 1001 4306
3 1009 16 4324
3 257 258 2842
3 1351 4391 4896
3 878 879 2914
3 637 638 3932
3 3978 2845 4332
3 353 4738 4827
3 3538 496 3930
3 1356 993 4243
3 345 346 3791
3 930 3081 4840
3 8 9 1011
3 996 997 4503
3 4501 680 4503
3 636 635 3870
3 343 342 3851
3 356 355 3824
3 444 443 3820
3 154 4399 4844
3 2856 494 2893
3 2866 249 2867
3 341 342 4698
3 2864 248 2866
3 2583 2889 4358
3 85 86 4645
3 2867 2868 2869
3 3977 68 4630
3 4401 688 4673
3 161 160 4481
3 308 307 4559
3 347 346 4371
3 260 259 4659
3 61 60 4375
3 392 391 4539
3 640 639 4365
3 777 776 4586
3 200 199 4524
3 685 684 4643
3 3751 3966 3971
3 561 1164 4704
3 1071 560 4704
3 1020 852 4702
3 853 1274 4702
3 755 1100 4707
3 911 1101 4703
3 1161 910 4703
3 179 1123 4706
3 473 1163 4705
3 1247 178 4706
3 1070 472 4705
3 665 1261 4710
3 1040 664 4710
3 1262 754 4707
3 369 1092 4708
3 1087 368 4708
3 1091 88 4709
3 89 1085 4709
3 1014 4690 4691
3 993 994 4890
3 977 2854 3967
3 1352 2852 2894
3 929 2847 4122
3 2894 731 4391
3 344 345 3962
3 813 814 4451
3 632 3095 3097
3 3398 3444 4322
3 23 1113 4713
3 1239 22 4713
3 1251 218 4712
3 219 1181 4712
3 982 983 4842
3 3924 4124 4318
3 573 574 4427
3 984 985 3789
3 443 3500 3501
3 1363 2760 2761
3 1365 1364 1366
3 2748 3105 4432
3 2606 2914 2916
3 1345 1347 4988
3 344 3962 3979
3 4166 2786 4849
3 678 4166 4849
3 2977 2915 2978
3 3916 728 4888
3 3602 692 4442
3 544 4097 4328
3 52 21 4600
3 2399 2088 2916
3 2305 2606 2916
3 4444 736 4864
3 775 776 4924
3 2782 3791 3792
3 2457 2455 2912
3 3511 779 3799
3 981 982 4727
3 4825 4105 4923
3 3924 4223 4356
3 4679 4678 4680
3 2606 2913 2914
3 2764 3957 3963
3 3536 4319 4397
3 352 3927 4037
3 1099 743 4774
3 744 1218 4774
3 862 1052 4773
3 1066 861 4773
3 1198 695 4775
3 1211 481 4776
3 696 1173 4775
3 1250 707 4783
3 1282 285 4777
3 708 1147 4783
3 482 1023 4776
3 286 1030 4777
3 1177 435 4778
3 1178 523 4781
3 436 1141 4778
3 524 1154 4781
3 50 1112 4779
3 1224 49 4779
3 232 1124 4782
3 1276 231 4782
3 896 1046 4786
3 628 1144 4784
3 1287 627 4784
3 934 1053 4780
3 1067 933 4780
3 82 1082 4789
3 358 1031 4787
3 1286 895 4786
3 650 1155 4790
3 1188 81 4789
3 1283 357 4787
3 166 1122 4785
3 1069 649 4790
3 550 1035 4788
3 1045 549 4788
3 1081 165 4785
3 4120 983 4121
3 2439 3956 3960
3 715 716 4446
3 762 763 4461
3 512 513 4456
3 424 425 4459
3 828 829 4345
3 821 836 3803
3 920 919 1357
3 788 787 3810
3 826 825 3808
3 926 925 3805
3 879 878 3813
3 974 973 3858
3 297 296 3836
3 341 356 3823
3 537 536 3817
3 252 251 3832
3 349 348 3825
3 589 588 3856
3 354 353 3821
3 58 57 3834
3 65 64 3829
3 932 931 3815
3 151 150 3839
3 445 444 3819
3 163 162 3844
3 157 156 3846
3 344 343 3850
3 637 636 3869
3 303 302 3884
3 442 441 3867
3 450 449 3854
3 542 541 3860
3 830 829 3880
3 634 633 3852
3 533 548 3876
3 206 205 3896
3 740 739 3882
3 113 112 3888
3 397 396 3894
3 642 641 3871
3 730 729 3878
3 595 594 3890
3 105 104 3841
3 497 496 3874
3 677 692 3898
3 782 781 3900
3 403 402 3886
3 979 978 3902
3 211 210 3904
3 689 688 3906
3 4384 2909 4697
3 2901 3144 4075
3 3984 1296 4054
3 2907 828 4345
3 630 629 4573
3 438 437 4567
3 2876 163 4989
3 4570 1112 4601
3 2569 3198 3501
3 3927 353 4827
3 684 685 4103
3 3444 3398 4915
3 4850 998 4851
3 3793 3792 3827
3 536 3613 4865
3 401 2857 2912
3 2874 827 2904
3 2842 986 2843
3 529 530 4422
3 673 674 4438
3 129 130 4416
3 505 506 4413
3 887 888 4404
3 189 190 4434
3 277 278 4407
3 2809 2808 4287
3 2799 2800 4361
3 2714 2738 2917
3 2913 2607 2917
3 3 1013 4934
3 683 4104 4105
3 4054 1296 4333
3 995 996 1353
3 2992 784 4985
3 247 246 4604
3 3397 3396 3398
3 444 445 3990
3 2896 2451 2897
3 686 685 4465
3 203 202 4477
3 4321 304 4402
3 17 1292 4879
3 880 881 4335
3 2860 306 3966
3 545 3264 4097
3 994 995 4395
3 4074 583 4930
3 4516 1005 4517
3 835 834 4006
3 63 62 4031
3 56 55 4040
3 352 351 4035
3 250 249 4023
3 738 737 4011
3 103 102 4019
3 295 294 4027
3 786 785 4015
3 401 400 4044
3 977 976 4048
3 2838 2837 3931
3 101 116 4052
3 4445 1293 4552
3 2763 3963 4543
3 200 201 4519
3 692 3602 3912
3 392 393 3976
3 1007 20 1342
3 825 826 3937
3 1014 844 4833
3 845 1065 4833
3 869 884 4669
3 487 486 4666
3 487 4393 4933
3 2882 2885 4875
3 921 920 4315
3 773 788 4302
3 827 826 4299
3 927 926 4294
3 822 821 4311
3 975 974 4177
3 635 634 4229
3 596 595 4184
3 880 879 4232
3 590 589 4169
3 638 637 4250
3 443 442 4200
3 543 542 4203
3 538 537 4285
3 350 349 4275
3 342 341 4272
3 451 450 4222
3 66 65 4263
3 917 932 4290
3 446 445 4281
3 207 206 4140
3 298 297 4239
3 59 58 4260
3 355 354 4278
3 152 151 4246
3 158 157 4253
3 345 344 4236
3 831 830 4196
3 164 163 4257
3 253 252 4268
3 304 303 4173
3 643 642 4188
3 725 740 4192
3 398 397 4148
3 534 533 4180
3 731 730 4207
3 114 113 4151
3 212 211 4154
3 404 403 4211
3 498 497 4159
3 783 782 4136
3 678 677 4163
3 980 979 4144
3 106 105 4216
3 690 689 4132
3 4335 2576 4348
3 2590 3985 4107
3 538 4287 4882
3 348 347 4940
3 641 640 4939
3 786 4081 4325
3 62 61 4944
3 1158 848 4841
3 849 1288 4841
3 149 150 2892
3 2891 149 2892
3 163 2876 4878
3 734 735 4445
3 2855 2887 3996
3 2897 2899 4855
3 928 929 4122
3 594 3892 3974
3 355 356 3973
3 393 3926 3976
3 258 259 2841
3 2495 3936 3998
3 1230 214 4663
3 215 1196 4663
3 175 1105 4628
3 1190 174 4628
3 439 438 4620
3 631 630 4625
3 971 970 4614
3 3944 3943 3945
3 2857 2457 2912
3 2455 2895 2912
3 870 3951 4740
3 303 2902 4107
3 300 3986 3987
3 2937 782 4898
3 4177 974 4178
3 4184 595 4186
3 4140 206 4142
3 4173 303 4175
3 4250 637 4251
3 4151 113 4152
3 4232 879 4234
3 4169 589 4171
3 4196 830 4198
3 4136 782 4138
3 4154 211 4157
3 4144 979 4146
3 4148 397 4149
3 4192 740 4194
3 4200 442 4201
3 4203 542 4205
3 4236 344 4237
3 4272 341 4273
3 4229 634 4230
3 4285 537 4288
3 4263 65 4266
3 4275 349 4276
3 4222 450 4226
3 4239 297 4244
3 4260 58 4261
3 4253 157 4255
3 4294 926 4297
3 4299 826 4300
3 4246 151 4248
3 4257 163 4258
3 4163 677 4165
3 4278 354 4279
3 4268 252 4270
3 4188 642 4190
3 4180 533 4182
3 4302 788 4308
3 4311 821 4313
3 4281 445 4283
3 4207 730 4209
3 4211 403 4214
3 4290 932 4292
3 4159 497 4161
3 4132 689 4134
3 4315 920 4317
3 4216 105 4220
3 2541 3096 3913
3 2873 1949 4098
3 294 2833 4928
3 3042 4390 4701
3 1019 4016 4460
3 161 162 4875
3 4319 686 4397
3 928 4122 4296
3 3198 3073 3501
3 3500 2569 3501
3 1077 4409 4410
3 1025 4429 4430
3 1221 4418 4419
3 4334 2785 4673
3 4291 1055 4403
3 4181 1135 4412
3 4133 1216 4437
3 2806 3996 4307
3 3837 4353 4359
3 2578 2846 2888
3 4344 3411 4972
3 2904 2476 3471
3 2874 2904 3471
3 2957 2708 4519
3 3782 932 4389
3 595 596 3893
3 3264 2781 4097
3 2888 2889 2890
3 2849 3116 4724
3 3919 543 4328
3 4080 4079 4081
3 3966 307 3971
3 2810 2809 4381
3 2806 2855 3996
3 109 4854 4909
3 2895 400 2912
3 5 6 3940
3 3103 547 4974
3 1213 553 4834
3 1266 453 4835
3 938 1094 4838
3 554 1024 4834
3 1027 937 4838
3 454 1120 4835
3 1207 235 4836
3 236 1204 4836
3 866 1093 4839
3 654 1096 4837
3 1026 865 4839
3 1063 653 4837
3 493 492 4675
3 871 870 4694
3 692 677 4442
3 2914 2915 4979
3 2841 1354 2842
3 4073 583 4074
3 4080 4074 4930
3 350 351 3975
3 1156 4448 4891
3 252 4344 4972
3 1210 4677 4678
3 2867 2869 2870
3 2869 2868 2871
3 1102 4424 4736
3 306 2860 4347
3 541 540 4881
3 449 448 4880
3 1008 2911 4852
3 932 3782 4950
3 3934 640 4742
3 4534 2784 4700
3 2814 2740 4886
3 1342 981 3980
3 4674 493 4675
3 4693 871 4694
3 3311 3968 4964
3 1365 1366 1367
3 3613 536 4943
3 1344 1343 1345
3 1 2 4333
3 3038 3969 4339
3 2936 4130 4907
3 302 303 4107
3 883 882 4667
3 681 680 4636
3 967 966 4647
3 256 255 4652
3 109 108 4644
3 485 500 4664
3 583 582 4632
3 103 4922 4967
3 4559 1130 4560
3 4659 1265 4660
3 4524 1056 4525
3 4539 1132 4540
3 4586 1272 4587
3 1343 1342 3980
3 3956 2892 3960
3 2847 929 4840
3 355 3973 4341
3 12 1008 4852
3 1348 1350 3993
3 1142 4684 4685
3 3512 2597 4096
3 4064 4299 4366
3 4061 4236 4368
3 4063 4250 4362
3 4068 4151 4376
3 4059 4257 4367
3 4058 4260 4372
3 4070 4148 4378
3 2805 3940 4037
3 1351 1352 4391
3 3701 4002 4003
3 2897 2451 2898
3 1044 4681 4682
3 2916 2914 4979
3 1142 4683 4684
3 4337 446 4462
3 110 111 3914
3 1033 4679 4680
3 2830 2839 3909
3 1007 1342 1343
3 924 925 4085
3 2909 883 4853
3 998 3954 4851
3 1349 1345 4988
3 3985 302 4107
3 2978 880 4335
3 2905 2906 4937
3 998 3941 3954
3 2144 2890 4101
3 2866 2867 4942
3 3096 633 4829
3 1290 2886 4076
3 1011 1012 1351
3 447 446 4457
3 539 538 4454
3 784 783 4460
3 390 391 4531
3 3968 343 4964
3 1949 2873 4976
3 2800 4354 4361
3 2870 2869 2873
3 2871 2868 2872
3 4005 835 4006
3 4039 56 4040
3 4030 63 4031
3 4034 352 4035
3 4022 250 4023
3 4026 295 4027
3 4010 738 4011
3 4018 103 4019
3 4014 786 4015
3 4047 977 4048
3 4043 401 4044
3 306 307 3966
3 1367 1366 1368
3 4051 101 4052
3 2913 878 2914
3 537 3614 4943
3 2897 2898 2899
3 876 875 4686
3 3186 3787 3788
3 2837 636 4714
3 400 401 2912
3 210 209 4433
3 302 301 4406
3 692 691 4437
3 594 593 4426
3 548 547 4421
3 156 155 4415
3 536 535 4412
3 919 918 4403
3 834 833 4450
3 737 736 4443
3 4242 4241 4847
3 994 4352 4353
3 3942 3951 3952
3 2867 2870 4942
3 1368 1366 2581
3 1367 1368 1369
3 2899 2898 2900
3 874 873 4689
3 4092 869 4740
3 3734 780 4130
3 1367 1369 1370
3 2899 2900 2901
3 1370 1369 1371
3 3783 2704 3784
3 2854 978 2855
3 2326 2706 3781
3 2706 3779 3781
3 3787 2918 3788
3 1370 1371 1988
3 1371 1369 1372
3 1370 1988 2326
3 1371 1372 1373
3 3773 3609 3778
3 3775 2296 3777
3 2326 1988 2706
3 1373 1372 1374
3 2299 3773 3778
3 2299 3770 3776
3 1373 1374 1375
3 1374 1372 2063
3 2705 3775 3777
3 1373 1375 1376
3 1374 2063 2064
3 3773 2299 3776
3 2064 2063 2179
3 1376 1375 1377
3 2179 2063 2553
3 1377 1375 1378
3 2064 2179 2298
3 1377 1380 3768
3 1376 1377 3768
3 1377 1378 1379
3 2298 2179 2299
3 2064 2298 2551
3 1377 1379 1380
3 2551 2298 2705
3 1382 1379 3767
3 1379 1378 3767
3 1380 1379 1381
3 1381 1379 1382
3 1381 1382 1383
3 3017 1964 3392
3 3015 1964 3017
3 2466 3018 3393
3 2920 2306 3062
3 1964 3015 3207
3 3015 3013 3207
3 3263 1929 3675
3 2990 2164 2991
3 3013 1590 3207
3 2621 3491 3638
3 1629 1642 2926
3 2931 1691 3028
3 3017 3392 3393
3 2306 2920 3063
3 1929 3641 3675
3 1576 1547 3497
3 1381 1383 1384
3 2617 2920 3062
3 1383 1382 2099
3 2549 3566 3745
3 3010 1590 3013
3 3761 2099 3764
3 2486 2931 3028
3 3018 3017 3393
3 2979 2549 3443
3 2990 2921 3090
3 2164 2990 3090
3 2935 3456 3698
3 2371 3657 3715
3 1385 1383 3760
3 1642 1748 2926
3 1636 1616 2930
3 2921 1622 3090
3 1692 2979 3443
3 2922 1748 2927
3 1590 3010 3019
3 2924 2486 3028
3 2621 2928 3491
3 1748 2922 2926
3 2621 3638 3660
3 1543 1554 3393
3 2486 2924 3088
3 2991 2164 3497
3 1622 2921 2929
3 2621 2610 2928
3 2364 2366 2927
3 1391 1394 3365
3 3643 2931 3693
3 3719 2697 3733
3 3657 2613 3715
3 2954 2528 3490
3 3741 1857 3757
3 3638 2611 3660
3 1929 3263 3434
3 3005 1588 3019
3 2928 2610 2938
3 2366 2922 2927
3 2925 2954 3490
3 1629 2926 3688
3 1394 2967 3365
3 2932 1914 3047
3 3024 3023 3717
3 1616 1622 2930
3 2193 3504 3525
3 3641 2923 3675
3 2927 3643 3693
3 1547 1536 3497
3 2335 3719 3733
3 3094 2541 3248
3 2967 1394 3181
3 3003 1588 3005
3 2211 3094 3248
3 2164 1576 3497
3 2935 2368 3286
3 2373 2374 2952
3 2925 1390 3365
3 3007 3005 3019
3 2985 1920 3577
3 2368 2108 3286
3 2611 2612 2944
3 1920 3432 3577
3 2230 2981 3065
3 2949 3438 3549
3 2312 2563 3043
3 2544 3687 3721
3 1390 2925 3490
3 3456 2930 3698
3 2461 2946 3414
3 2946 2480 3414
3 2932 2617 3062
3 2949 1977 3438
3 3756 3014 3758
3 2933 1928 3076
3 1554 2466 3393
3 2636 2967 3181
3 1914 2932 3021
3 3443 2549 3745
3 3684 2308 3697
3 2304 2306 3063
3 2322 2934 3408
3 1691 2931 3643
3 2505 2950 3469
3 1636 2930 3456
3 3023 2025 3717
3 2218 2217 3575
3 3185 2124 3362
3 2386 2939 2981
3 2372 2312 3043
3 1588 3003 3480
3 2950 2163 3469
3 2368 2935 3698
3 2948 3076 3214
3 2942 1878 2970
3 3010 3007 3019
3 2926 2923 3688
3 2042 3756 3758
3 2627 2948 3431
3 2951 1809 3486
3 2611 2944 3660
3 2374 2377 2952
3 2604 2304 3063
3 2047 3662 3708
3 2620 2942 2970
3 3141 3179 3441
3 3202 2445 3601
3 2732 2941 3129
3 1574 1629 3688
3 1390 1391 3365
3 2939 2386 2968
3 2618 2619 2964
3 3003 2999 3480
3 1692 1451 3744
3 2334 2707 2936
3 2182 2602 2986
3 3392 1543 3393
3 2230 2938 2981
3 2995 2123 3259
3 3184 3370 3496
3 2007 2009 3327
3 3386 3080 3428
3 3632 3669 3724
3 1928 2933 3362
3 3201 2670 3337
3 1622 2929 2930
3 3470 1688 3472
3 2379 2381 3645
3 2643 2962 3535
3 1588 1567 3019
3 3027 3029 3346
3 2373 2952 2989
3 2642 2085 3407
3 3041 2372 3042
3 2108 2106 3286
3 3101 2406 3103
3 1517 3201 3337
3 1592 1625 3505
3 2642 3407 3408
3 1567 1590 3019
3 1917 1916 3593
3 3076 1928 3214
3 3119 2636 3181
3 2230 2229 2938
3 1517 3337 3625
3 3709 2696 3716
3 2987 2960 3629
3 1645 1651 3362
3 2397 2578 3055
3 2184 2186 2975
3 2962 1728 3535
3 2099 1382 2702
3 2260 2506 3620
3 3044 2246 3622
3 3056 1396 3244
3 2163 2950 3358
3 3220 3418 3520
3 2678 3056 3244
3 2924 2371 3715
3 3504 2512 3525
3 1384 1383 1385
3 2952 2951 3486
3 1941 2388 3030
3 2050 2397 2993
3 3060 2861 3148
3 3149 3525 3526
3 3358 2950 3494
3 2097 2182 2986
3 2188 2242 3537
3 2229 2928 2938
3 3117 1600 3236
3 1933 2987 3629
3 2996 3399 3599
3 3042 2372 3043
3 3304 3454 3457
3 2106 2104 3644
3 2953 1710 2994
3 1826 2948 3214
3 2384 2382 3510
3 3666 2524 3673
3 3454 1957 3457
3 3438 1549 3549
3 1639 1712 2973
3 2984 2995 3259
3 2991 3741 3757
3 2948 1826 3431
3 1595 1603 2984
3 2400 3067 3389
3 1998 2057 3408
3 3472 3202 3601
3 2378 2716 3561
3 3270 3434 3749
3 3469 3470 3472
3 2315 2314 3415
3 2989 2952 3486
3 1749 2955 3031
3 2386 2385 2968
3 2964 2619 2965
3 2981 2939 3065
3 2672 3552 3556
3 2994 3437 3467
3 1392 1389 3025
3 2190 2048 3417
3 3526 2512 3690
3 3410 2396 3551
3 2672 3342 3552
3 1992 2172 3285
3 2337 3471 3528
3 3382 3201 3547
3 1710 2953 2983
3 3048 1888 3465
3 2008 2246 3044
3 2615 2932 3047
3 2244 2393 3544
3 1858 1860 3049
3 2955 1749 2972
3 3098 2626 3522
3 3516 3492 3689
3 3217 2448 3253
3 2701 2539 3729
3 2158 3301 3343
3 2776 2964 2965
3 3127 3085 3590
3 1865 1914 3020
3 3122 2509 3580
3 3166 2427 3170
3 2931 2360 3693
3 3050 3325 3523
3 3167 3166 3170
3 1622 1596 3090
3 2101 2644 3292
3 2087 1996 3064
3 1625 3031 3505
3 2947 2121 3224
3 2861 3060 3149
3 2297 2178 3152
3 2400 2230 3065
3 2626 3236 3522
3 3552 3256 3556
3 1733 3167 3170
3 1962 3200 3568
3 2933 3185 3362
3 2314 2715 3415
3 3069 1465 3402
3 3020 3021 3495
3 3399 2962 3599
3 2985 2627 3431
3 2973 1712 2974
3 2942 2697 3719
3 2242 2755 3537
3 1941 3030 3084
3 2505 3469 3472
3 2626 3117 3236
3 3455 3167 3494
3 3021 3064 3495
3 2518 2636 3119
3 2452 2454 3680
3 2834 2564 2992
3 1388 2945 3025
3 3565 3130 3617
3 2286 3709 3716
3 2124 3185 3685
3 3241 3331 3374
3 1798 1796 3130
3 2009 2207 3327
3 1875 2008 3044
3 1625 1627 3031
3 1728 2962 3399
3 2968 2385 2969
3 1815 2980 3647
3 3163 2100 3182
3 1408 3499 3543
3 3413 2496 3449
3 1627 1749 3031
3 2688 3587 3621
3 1651 1928 3362
3 3070 3069 3402
3 1569 1570 3034
3 3074 3451 3571
3 3466 2501 3670
3 2092 2100 3163
3 3283 2123 3626
3 2462 2463 3306
3 2940 2375 2941
3 2982 2509 3122
3 1860 2150 3049
3 3442 3220 3520
3 2400 3065 3066
3 3033 1583 3034
3 3502 1681 3509
3 2265 3074 3336
3 1392 3025 3032
3 1977 2949 3382
3 2307 3666 3673
3 2492 2461 3414
3 2400 3066 3067
3 1847 1850 3046
3 2988 2987 3583
3 1605 1583 3033
3 1861 3079 3435
3 2923 3641 3688
3 3027 3346 3636
3 3286 2106 3644
3 2243 2241 2971
3 2406 3101 3294
3 2100 3150 3182
3 3040 2969 3100
3 1607 1615 2994
3 2479 3024 3248
3 1870 2293 3098
3 2210 3118 3223
3 2724 2723 2963
3 3677 1750 3683
3 2698 2384 3510
3 3337 2665 3625
3 3108 3410 3551
3 3067 1834 3389
3 1383 2099 3760
3 1596 1581 3090
3 3022 1921 3089
3 3060 2193 3525
3 2215 2583 3105
3 3353 2972 3594
3 1878 2942 2943
3 1914 1871 3047
3 3151 3173 3174
3 2301 2732 3129
3 3359 3128 3474
3 2246 3491 3622
3 3071 3048 3465
3 1603 1710 2984
3 3080 3079 3428
3 1995 1994 2976
3 1796 1897 3130
3 2610 1917 3593
3 1756 2989 3486
3 1828 1813 3132
3 2679 2678 3032
3 2645 3215 3339
3 2431 3184 3496
3 3391 2988 3583
3 3020 1914 3021
3 2456 2708 2957
3 3151 3172 3173
3 2953 2994 3467
3 1976 1951 3567
3 2510 2509 2982
3 3185 2635 3685
3 1811 3122 3580
3 1749 1639 2973
3 2463 3204 3306
3 2516 3263 3675
3 2189 2007 3327
3 2672 2270 3635
3 3059 3060 3148
3 1922 2025 3089
3 2979 1692 3744
3 1811 1650 3650
3 1859 1760 3495
3 1896 2050 2993
3 3407 1998 3408
3 2938 2610 3593
3 3101 3045 3294
3 1921 1922 3089
3 2402 3048 3071
3 1595 2984 3259
3 3342 2038 3552
3 2408 2023 3156
3 2217 2370 3575
3 1732 1870 3098
3 1975 1976 3092
3 2964 2218 3575
3 3636 1600 3704
3 2143 3136 3194
3 3239 1696 3242
3 1710 1607 2994
3 2110 2368 3087
3 2123 2995 3626
3 2325 2189 3041
3 3394 3254 3514
3 2178 2191 3152
3 2369 2921 2990
3 2424 2489 2959
3 2568 2829 3038
3 3258 3435 3463
3 2670 2265 3336
3 2941 2375 3129
3 1813 1812 3132
3 2120 2389 3273
3 2020 1881 3059
3 1583 1569 3034
3 2987 1933 3583
3 2059 1879 3404
3 2969 3099 3100
3 3026 2391 3027
3 2223 1995 2976
3 3370 2481 3496
3 1766 2134 3171
3 3141 3441 3553
3 3275 1718 3329
3 2167 2391 3026
3 1759 1865 3020
3 2269 3527 3695
3 2934 2642 3408
3 3032 2678 3244
3 2997 2026 2998
3 2566 2215 3105
3 2687 3521 3548
3 3368 3058 3507
3 3147 3574 3615
3 1389 1388 3025
3 1967 2400 3389
3 3373 2663 3416
3 3215 1737 3339
3 1957 2966 3457
3 2377 2951 2952
3 3201 1517 3547
3 2539 2171 3524
3 3151 3150 3172
3 2020 3059 3148
3 2041 3036 3199
3 3085 2506 3590
3 3426 2668 3619
3 1707 3093 3216
3 2172 2543 3285
3 3054 3573 3627
3 1405 1408 3188
3 2387 2120 3273
3 2484 2482 3651
3 3514 3254 3585
3 2124 1645 3362
3 3179 1716 3441
3 1915 1840 3147
3 2223 2976 2977
3 2645 3093 3215
3 3491 2246 3638
3 2980 2674 3647
3 1781 2042 3121
3 2017 3192 3195
3 2969 2385 3099
3 1753 1470 3083
3 1752 2026 2997
3 2048 1987 3417
3 2381 2620 3645
3 2662 3074 3571
3 3002 3022 3089
3 3087 2394 3123
3 3409 2124 3685
3 3665 3070 3745
3 3521 2278 3548
3 3055 2144 3419
3 2448 3109 3247
3 2029 3217 3253
3 2474 2684 3597
3 3183 3413 3449
3 3126 1946 3476
3 3206 1934 3320
3 2996 2238 3163
3 3079 1861 3428
3 3534 2146 3623
3 2375 2181 3129
3 2506 3085 3620
3 1697 1707 3462
3 3068 3070 3665
3 1641 1766 3171
3 2980 1815 3637
3 3080 3386 3642
3 2306 2087 3064
3 2238 2092 3163
3 3114 2330 3310
3 2549 2282 3566
3 3584 1729 3633
3 1850 1980 3046
3 3028 1691 3120
3 2620 2970 3645
3 3045 2002 3271
3 3150 2100 3172
3 3517 2271 3598
3 2411 2408 3156
3 3273 2985 3577
3 3039 2969 3040
3 3344 3293 3464
3 3024 2479 3285
3 3654 1976 3664
3 2240 3727 3730
3 3140 3138 3559
3 2302 2722 3061
3 1947 1637 3239
3 1691 1690 3120
3 2927 1748 3643
3 2403 3114 3310
3 2968 2969 3039
3 1946 3126 3447
3 1615 1648 3437
3 2682 2679 3032
3 1404 1405 3188
3 3062 2306 3064
3 3051 3732 3737
3 1686 3058 3368
3 1635 1619 3178
3 2704 2297 3152
3 1921 3022 3035
3 3027 2391 3029
3 1628 3040 3100
3 1816 3426 3619
3 1888 3423 3465
3 2765 2349 3086
3 3021 2932 3062
3 2935 1698 3456
3 3109 2448 3217
3 3153 3154 3180
3 3190 2017 3195
3 2388 2260 3620
3 2238 2996 3599
3 2380 2378 3561
3 3587 1927 3621
3 2293 2626 3098
3 1564 1592 3505
3 2333 2196 3400
3 3187 3206 3320
3 1792 1794 3176
3 3118 2409 3223
3 3141 3137 3179
3 3074 2662 3336
3 1805 1807 3035
3 3048 2643 3535
3 1575 1579 3082
3 1855 1753 3083
3 2036 1805 3035
3 2121 2947 3467
3 3334 3315 3420
3 1920 1829 3432
3 2067 2002 3045
3 2619 2006 3226
3 2993 2397 3055
3 2588 2589 3281
3 2262 3440 3572
3 2695 2292 2943
3 1637 1680 3239
3 2637 2640 2967
3 1840 1837 3147
3 3218 2029 3219
3 3030 2388 3544
3 2534 3667 3705
3 3370 3565 3617
3 2279 3304 3515
3 3213 3517 3598
3 3237 3238 3318
3 1690 1738 3120
3 1794 1797 3176
3 2389 2985 3273
3 1540 1564 3634
3 2057 2322 3408
3 2972 1749 2973
3 2214 2580 3356
3 2396 3381 3551
3 2254 2487 3077
3 2492 2958 3382
3 2644 3120 3292
3 3093 1707 3215
3 3418 1649 3520
3 1704 1941 3084
3 2999 2026 3480
3 2473 2190 3417
3 2618 2964 3575
3 3061 2619 3226
3 2154 2373 3631
3 3451 3132 3571
3 1710 2983 2984
3 1386 1387 3490
3 3388 1731 3558
3 2385 1895 3099
3 2511 3167 3455
3 2376 2375 2940
3 2095 2615 3047
3 1458 2468 3131
3 2276 2344 3075
3 1847 3046 3461
3 1506 1492 3068
3 2109 2112 3506
3 2313 2198 3072
3 2422 2420 3250
3 3532 2262 3572
3 2564 2316 2992
3 2468 1456 3409
3 2994 1615 3437
3 1681 3180 3509
3 1733 3358 3494
3 3064 1996 3495
3 2394 2228 3123
3 2632 2635 3185
3 2716 2376 2940
3 1437 1434 3235
3 1779 1781 3121
3 3025 2682 3032
3 2955 2956 3031
3 2300 2153 3608
3 3356 2580 3589
3 1909 2101 3292
3 2018 1992 3285
3 2543 3024 3285
3 2110 3087 3123
3 1695 1694 3279
3 2269 3344 3464
3 3342 2672 3635
3 3018 2466 3754
3 3301 2470 3343
3 2507 3278 3448
3 1694 2149 3279
3 1871 1919 3047
3 2717 2484 3037
3 3111 1553 3112
3 2402 3071 3191
3 3049 3050 3523
3 2504 3455 3494
3 3021 3062 3064
3 3175 3195 3196
3 1553 1521 3112
3 2630 2933 3076
3 3188 1408 3543
3 2966 1957 3360
3 2496 2507 3449
3 2710 2525 3536
3 3682 3111 3710
3 1523 2038 3162
3 3437 2121 3467
3 2148 3377 3463
3 2321 2318 3586
3 2349 2345 3086
3 2213 2568 3038
3 1582 1686 3368
3 3030 2668 3084
3 3550 1580 3569
3 1977 3382 3547
3 2381 2380 2382
3 3224 2415 3630
3 3432 3067 3577
3 3331 1686 3374
3 1881 1883 3059
3 1440 1437 3235
3 2635 3640 3685
3 3162 2038 3342
3 1646 3475 3579
3 3489 3348 3502
3 2989 1756 3659
3 2582 2210 3223
3 1545 1528 3207
3 3381 2396 3554
3 3136 3133 3194
3 2489 2422 3250
3 2785 3684 3697
3 3178 3359 3474
3 2330 3114 3311
3 1425 3177 3328
3 2132 2156 3191
3 3386 1486 3642
3 1500 1498 3274
3 1590 1545 3207
3 1659 1635 3178
3 3130 2157 3617
3 2158 2268 3301
3 2377 2379 2951
3 1494 1523 3162
3 3258 1861 3435
3 2497 2244 3544
3 2373 2989 3631
3 2646 2647 3333
3 3270 1505 3434
3 2356 2729 3081
3 2302 3061 3226
3 2591 2588 3281
3 1384 1385 1386
3 2313 3072 3073
3 1669 2143 3194
3 2250 2673 3357
3 3217 2029 3218
3 2480 2946 3574
3 3237 1936 3305
3 3045 3271 3294
3 2975 2186 3537
3 3036 2392 3199
3 3278 3277 3448
3 1677 3153 3180
3 1793 2084 3508
3 3175 3190 3195
3 1926 1468 3131
3 3167 1733 3494
3 2079 3085 3127
3 3106 1442 3247
3 1490 1505 3270
3 1555 1553 3111
3 1589 3255 3322
3 1743 3373 3416
3 3242 1696 3462
3 2397 2577 2578
3 1570 1563 3347
3 2948 2628 3076
3 3187 2428 3206
3 1475 2141 3309
3 1521 1493 3112
3 1933 1421 3583
3 3276 2059 3404
3 1768 2284 3153
3 3158 2539 3524
3 2958 2670 3201
3 2673 3338 3357
3 3238 3315 3318
3 1996 1859 3495
3 2303 2557 3498
3 3471 3156 3528
3 3075 2344 3387
3 2198 2216 3072
3 1688 3202 3472
3 2456 2455 2457
3 1647 1614 3307
3 1628 1611 3040
3 1717 1685 3100
3 2965 2619 3061
3 1780 1767 3137
3 2314 2085 2642
3 2524 2315 2525
3 3200 3056 3568
3 1936 1618 3305
3 1799 2037 3051
3 3493 2192 3529
3 2305 2604 2605
3 1920 2985 3431
3 1925 1775 3186
3 3142 3143 3144
3 1471 1465 3069
3 1756 3595 3659
3 1958 1792 3176
3 3153 2284 3154
3 2817 2816 2908
3 1674 1677 3180
3 2098 2058 3627
3 1517 1516 3547
3 2967 2640 3365
3 1396 3056 3200
3 1757 1758 3298
3 1891 1981 3321
3 1947 3239 3240
3 3079 3077 3435
3 3160 3161 3406
3 3229 3228 3230
3 1940 1647 3307
3 1655 3325 3595
3 1700 1731 3388
3 2670 3336 3337
3 2684 3324 3597
3 2972 2973 3594
3 1476 1442 3106
3 1724 1727 3169
3 1842 1915 3057
3 1934 3128 3359
3 1474 1494 3162
3 2294 2699 3678
3 1439 1441 3247
3 2142 1496 3231
3 1872 1746 3155
3 1424 1426 3391
3 2543 3023 3024
3 1612 3039 3040
3 2382 2561 3510
3 2393 3030 3544
3 2197 2196 2331
3 2524 2710 3673
3 3727 2691 3730
3 3315 3238 3420
3 3304 3250 3515
3 3325 1684 3523
3 1707 3216 3462
3 2112 2446 3506
3 2959 2489 3457
3 1820 1819 3351
3 3492 3516 3647
3 2095 2613 2614
3 1600 1573 3236
3 2156 2402 3191
3 3372 2477 3446
3 1416 1952 3367
3 1916 2386 3593
3 2951 2379 3645
3 3574 2946 3615
3 3175 3173 3190
3 1685 1628 3100
3 2015 2017 3190
3 2721 2325 3041
3 2505 2504 2950
3 1462 2163 3358
3 2660 3546 3555
3 2448 1444 3253
3 1761 1734 3350
3 3128 1934 3206
3 3257 1938 3303
3 1815 1736 3637
3 2518 2530 2531
3 1413 1416 3367
3 3082 1579 3368
3 1966 2158 3343
3 3537 2755 3538
3 2275 2276 3075
3 2611 2325 2612
3 2754 2440 3227
3 2519 2521 3570
3 1976 3567 3664
3 3329 2145 3340
3 2500 2334 2936
3 1604 1575 3082
3 2200 2337 3528
3 3001 2999 3003
3 2617 2863 2920
3 3275 3329 3340
3 1666 1669 3194
3 1948 2034 3272
3 3255 3256 3322
3 2133 2132 3191
3 3435 2487 3463
3 2793 2724 2794
3 2528 1386 3490
3 1950 2405 3345
3 2293 2292 2527
3 3714 2681 3722
3 3306 3654 3664
3 2029 1457 3219
3 1712 3375 3427
3 2256 3353 3594
3 2440 2436 3227
3 3115 3210 3369
3 2280 2474 3157
3 3029 1549 3346
3 2270 1855 3083
3 1909 1989 2014
3 2148 3352 3363
3 2569 2212 3483
3 2663 3373 3399
3 1775 1769 3186
3 1408 1409 3499
3 1456 1454 3409
3 1648 1719 3437
3 1777 1718 3275
3 2160 2491 3205
3 3401 2252 3425
3 3150 2404 3182
3 1934 1504 3320
3 2348 2347 3429
3 2519 3570 3605
3 1507 1500 3274
3 2622 1698 2935
3 3077 2487 3435
3 1882 1820 3351
3 2428 3187 3251
3 2644 2924 3028
3 3192 2655 3195
3 3227 3228 3229
3 1529 1507 3168
3 2234 2968 3039
3 2335 2288 3611
3 2455 2453 2895
3 3169 3394 3514
3 2215 2194 2583
3 2407 2409 3118
3 2392 2139 3199
3 1853 2079 3127
3 2113 2115 3524
3 3124 2529 3125
3 3082 3368 3507
3 3261 3731 3746
3 2359 2733 2734
3 3174 3173 3175
3 1612 1974 3039
3 2102 2014 2307
3 2316 2311 2807
3 1888 3048 3535
3 1900 2051 3271
3 2327 2328 2329
3 3109 3106 3247
3 1498 2142 3274
3 1687 3135 3364
3 1791 1789 3355
3 1981 2170 3321
3 2998 2026 2999
3 2330 3311 3332
3 2709 2457 2857
3 2650 2652 3233
3 1932 2041 3199
3 2746 2566 2747
3 2003 2259 3254
3 2011 2403 3310
3 3377 3258 3463
3 2431 2201 3115
3 2615 2616 2617
3 3441 1894 3553
3 2024 2449 2450
3 2221 2176 2222
3 2082 1979 3268
3 2345 2343 3086
3 3000 2999 3001
3 3208 3209 3390
3 1581 2164 3090
3 3122 1811 3650
3 1873 2004 3189
3 1417 1419 3232
3 2090 2089 3172
3 2615 2617 2932
3 2191 2319 3152
3 1812 1944 3132
3 1858 3049 3523
3 2369 2228 2394
3 1632 1605 1633
3 1877 1869 3323
3 2196 2019 3400
3 2174 2173 2296
3 2421 2423 3412
3 2647 2650 3333
3 1919 2095 3047
3 2587 2341 2588
3 1999 1924 3052
3 2525 2585 3536
3 3161 3193 3406
3 3375 3205 3427
3 1682 1768 3153
3 2210 2012 3118
3 2034 2262 3272
3 2413 2411 2476
3 1722 1724 3169
3 1884 1786 3222
3 2024 2450 2452
3 2418 2419 3473
3 2493 3489 3502
3 2945 2682 3025
3 2233 2189 2325
3 2337 2874 3471
3 2973 2974 3594
3 1401 1939 3378
3 2009 2206 2207
3 2071 2066 2194
3 3309 2141 3448
3 2163 3468 3469
3 2645 2691 3093
3 1427 1425 3328
3 2037 1801 3349
3 2563 2316 2564
3 2925 2641 2954
3 3193 3161 3423
3 3267 1703 3284
3 2514 2529 3124
3 1468 1460 3131
3 3256 2261 3556
3 2525 2315 2584
3 2366 2515 2922
3 2607 2713 2714
3 1897 2019 2157
3 1967 2230 2400
3 3172 2089 3173
3 3115 2140 3210
3 2405 2518 3119
3 2565 2566 2746
3 2664 3075 3604
3 1626 2123 3283
3 1641 1714 1766
3 1671 1668 3133
3 2207 2312 2372
3 2950 2504 3494
3 1441 2448 3247
3 2207 2311 2312
3 2268 2462 2469
3 2512 2221 3690
3 2359 2358 2733
3 2423 2496 3412
3 2476 2411 3156
3 2756 2757 2771
3 3212 3296 3308
3 2150 2464 3049
3 2239 3053 3054
3 2426 2424 2959
3 1942 1770 3290
3 2304 2087 2306
3 3272 2262 3532
3 2754 3227 3229
3 1610 3338 3482
3 1909 2014 2101
3 2665 2445 3202
3 3326 2661 3338
3 1971 2160 3205
3 2452 2450 2453
3 1962 1400 3200
3 1460 1458 3131
3 1786 1863 3222
3 2012 1823 3091
3 2249 1855 2270
3 1970 1873 3189
3 1899 1900 3271
3 2327 2243 2328
3 3423 3161 3465
3 1897 2157 3130
3 2361 2232 2362
3 1419 1933 3232
3 1489 1497 3314
3 1850 1979 1980
3 1974 2234 3039
3 2154 2181 2373
3 2503 2502 2509
3 2521 2522 2523
3 1863 3221 3222
3 3603 1915 3615
3 1937 3254 3394
3 2171 2113 3524
3 2131 2428 3251
3 2177 2178 2297
3 1457 1459 3219
3 1496 1495 3231
3 1552 2131 3251
3 1653 1703 3267
3 1980 2286 3046
3 2261 2028 3295
3 2277 2039 3252
3 2184 2185 2186
3 2575 2574 2816
3 3139 3138 3140
3 1851 1555 3111
3 1770 1739 3290
3 3192 2017 3371
3 2536 2171 2539
3 2748 2566 3105
3 3325 3050 3595
3 2039 1965 3252
3 2232 2074 3293
3 2187 2185 2289
3 1918 1866 3464
3 2006 1990 3226
3 1994 1996 2049
3 2239 1999 3052
3 2483 2485 2753
3 1502 3386 3428
3 1785 1743 3416
3 1759 1864 1865
3 1947 3241 3374
3 2089 2015 3190
3 2334 2335 2707
3 2501 3502 3509
3 3058 3053 3507
3 1875 1913 2007
3 2056 2220 3249
3 2667 2270 2672
3 2350 2601 3429
3 1862 2471 3211
3 2117 2645 3339
3 2374 2181 2375
3 2334 2288 2335
3 1847 1844 1849
3 1930 3160 3406
3 2216 2775 3072
3 2545 2282 2549
3 3222 2646 3333
3 2930 2929 3698
3 1462 1461 1465
3 2432 1499 3291
3 1799 1801 2037
3 2005 1872 3155
3 1883 1984 2193
3 2472 1940 3307
3 2320 2356 2552
3 2420 3164 3250
3 2794 2724 2795
3 2922 2923 2926
3 2117 2020 2118
3 2192 2056 3249
3 2322 2097 2986
3 2188 2240 2241
3 2861 2336 3148
3 2350 2554 2601
3 2431 3115 3184
3 2628 2629 2630
3 1936 3237 3318
3 2714 2737 2738
3 1497 2432 3314
3 1546 1547 1574
3 1667 1670 2147
3 1896 1917 2050
3 1939 1962 1963
3 2222 2176 2919
3 2302 2225 2303
3 2650 3233 3333
3 1952 1422 1953
3 2101 2014 2102
3 2318 2317 3586
3 1721 3193 3423
3 1991 1992 2018
3 2008 2189 2233
3 2150 2152 2464
3 2154 2180 2181
3 2446 2171 2536
3 2372 3041 3327
3 3211 2471 3212
3 2949 2492 3382
3 2516 3262 3263
3 3661 2701 3729
3 3138 3137 3141
3 1696 1697 3462
3 3338 2673 3482
3 1392 3032 3244
3 2466 1561 3563
3 2310 2067 3045
3 2191 2318 2319
3 2414 2608 2609
3 1641 1628 1685
3 1979 2043 3268
3 2158 2159 2268
3 2161 3405 3672
3 2416 2418 3237
3 2419 2417 2420
3 2756 2564 2757
3 2694 3603 3615
3 2714 2736 2737
3 3233 3192 3371
3 1421 1420 1423
3 1719 1757 2121
3 1778 1908 1909
3 2070 2398 3366
3 2984 2983 2995
3 1939 1400 1962
3 1927 1430 3297
3 1515 1517 3625
3 1732 1784 1870
3 3155 1746 3283
3 1841 1840 1842
3 2043 2044 2167
3 2078 2077 2104
3 1682 1699 1768
3 3271 2051 3294
3 2213 2567 2568
3 2485 2717 2718
3 1432 1927 3159
3 1490 1471 1492
3 1531 1510 1532
3 1585 1562 1586
3 2195 2118 2336
3 2337 2825 2874
3 2585 2787 2788
3 3390 3209 3477
3 1384 1386 2294
3 2147 1670 3348
3 1687 1671 3133
3 1739 1730 1744
3 1758 1818 3298
3 1875 2007 2008
3 2162 2339 3260
3 2305 2304 2604
3 2429 3128 3206
3 2731 2456 2957
3 2630 2631 2632
3 2947 3224 3630
3 1422 1417 3232
3 1421 1423 1424
3 2134 1779 3121
3 1850 1890 1979
3 1631 1481 3257
3 1774 1743 1785
3 1943 1761 3350
3 1935 2261 3255
3 1450 1452 1733
3 1611 1612 3040
3 1858 1760 1859
3 1827 1829 1920
3 1919 2075 2095
3 1950 1975 2405
3 2004 2005 2069
3 2070 2005 2398
3 2245 2139 2254
3 2167 2169 2391
3 2191 2317 2318
3 2584 2315 3415
3 2425 2424 2426
3 2666 3313 3335
3 3134 3133 3136
3 1560 1551 3324
3 2618 2006 2619
3 3573 2255 3627
3 1548 1542 1556
3 3208 1580 3209
3 2009 1913 2052
3 2373 2181 2374
3 2229 2625 2928
3 2332 2752 3037
3 1638 1626 3283
3 1968 1752 2997
3 1903 2023 2407
3 1998 1999 2057
3 2049 2088 2399
3 2430 2133 3191
3 2211 2582 3094
3 2734 2733 2797
3 1593 1595 3259
3 1823 1822 3091
3 1825 1879 1891
3 2086 2085 2314
3 2293 2540 2626
3 3065 2387 3066
3 2497 3545 3557
3 2680 2679 2681
3 2960 2966 3629
3 1419 1418 1420
3 1664 1663 1665
3 1745 1862 3211
3 2256 2257 3353
3 2295 2282 2545
3 2320 2321 2356
3 2391 2458 3029
3 2471 3401 3425
3 2543 2542 2544
3 2630 2632 2933
3 3009 3011 3012
3 1442 1439 3247
3 1518 1514 3424
3 1939 1963 3459
3 2061 2302 3226
3 2200 2323 2337
3 2560 2213 3038
3 2220 2572 3249
3 2347 2345 2349
3 2483 2484 2485
3 2524 2525 2710
3 1617 1616 1636
3 1649 1753 1754
3 2084 1791 3355
3 1803 1805 2036
3 2118 2020 3148
3 2331 2196 2333
3 2382 2380 2383
3 3066 2387 3273
3 2414 2413 2608
3 2662 2445 2665
3 2607 2605 2713
3 1907 1777 1924
3 1871 1918 1919
3 2517 1975 3092
3 2078 2104 2105
3 2389 2103 2390
3 2836 2473 3395
3 3338 2661 3357
3 3584 2664 3604
3 1687 3133 3134
3 1697 1695 1701
3 1751 1752 1889
3 1788 1789 1790
3 1883 2193 3059
3 1980 2082 2083
3 2116 2114 2228
3 2254 2139 2392
3 2207 2372 3327
3 2214 2565 2580
3 2361 2362 2363
3 2363 2533 3165
3 2409 2410 2735
3 3492 2680 3689
3 3102 3101 3103
3 3663 3168 3668
3 1897 1795 1997
3 1967 2229 2230
3 2356 2357 2729
3 1387 1389 1390
3 1432 1430 1927
3 1433 1432 1434
3 2427 1446 3170
3 1455 1457 2029
3 1475 1477 2141
3 3168 1507 3274
3 1651 1734 1735
3 1660 1662 3288
3 1726 1725 1728
3 1807 1823 1921
3 1952 1953 1954
3 1954 1955 1956
3 1956 1955 1960
3 2053 1970 2062
3 2009 2052 2206
3 2061 2225 2302
3 3254 2259 3585
3 2644 2371 2924
3 2374 2376 2377
3 2410 2411 2412
3 2418 2417 2419
3 2666 3267 3284
3 2777 2778 3264
3 1396 1393 3244
3 1413 1414 1415
3 1566 1545 1567
3 1797 1799 3051
3 2031 1932 3199
3 2057 2097 2322
3 2157 2196 2197
3 2214 2194 2215
3 2263 2666 3284
3 2323 2324 3576
3 3218 3219 3220
3 3178 1619 3359
3 1904 1780 3137
3 1891 1898 1981
3 2195 2336 2579
3 2268 2469 2669
3 2416 3237 3305
3 1431 1430 1432
3 1455 1454 1456
3 1852 1476 3106
3 1607 1614 1615
3 1719 1705 1720
3 1825 1891 1978
3 1919 1918 2073
3 1992 2161 2172
3 2180 2300 2301
3 2216 2217 2218
3 2234 2387 2939
3 2272 2275 2508
3 2498 2277 3252
3 2301 2300 2574
3 2723 2556 2837
3 2681 2679 2682
3 3009 3007 3010
3 3110 3217 3218
3 1741 1776 3284
3 1832 2032 2033
3 3313 1863 3335
3 2624 2514 3124
3 2747 2566 2748
3 3436 1571 3482
3 1613 1611 1628
3 1880 1881 2020
3 1926 3640 3713
3 2049 1996 2087
3 2477 2495 3446
3 2518 2531 2636
3 1450 1733 3170
3 1634 1657 1763
3 1721 1665 3193
3 1731 1730 1739
3 1734 1811 3350
3 1768 2166 2283
3 1812 1943 1944
3 2405 1975 2517
3 2415 2006 2618
3 2557 2793 3498
3 2628 2630 3076
3 1582 1581 1596
3 1718 1643 3329
3 1644 1690 1691
3 1704 1940 1941
3 1745 1856 1862
3 1848 1875 3044
3 1991 1886 1992
3 2062 1970 3189
3 2183 2255 3671
3 2602 2184 2975
3 2405 3119 3345
3 2715 2642 2934
3 3195 2655 3196
3 1413 1411 1414
3 1452 1451 1461
3 1617 1636 1637
3 1617 1637 1947
3 1694 1679 1698
3 2974 1712 3427
3 1828 3132 3451
3 1838 1845 1967
3 1844 1842 3057
3 2079 1855 2249
3 1865 1866 1871
3 2128 1945 2129
3 2011 2395 2403
3 2212 2062 3483
3 2071 2194 2214
3 2182 2183 2184
3 2253 2228 2369
3 2961 2960 2987
3 1386 1385 1387
3 1618 1634 3305
3 1673 1671 1687
3 1786 1742 1863
3 1807 1822 1823
3 1991 2477 3372
3 2008 2007 2189
3 2276 2342 2343
3 2313 3073 3198
3 2568 2828 2829
3 1435 1445 1446
3 1446 1449 1450
3 1535 1536 1546
3 1574 1575 1604
3 2149 1698 2622
3 1705 1704 3084
3 1714 1716 3179
3 1739 1744 3290
3 1762 1812 1813
3 1803 1802 1804
3 1971 2094 2160
3 2068 2067 2203
3 2203 2067 2310
3 2150 2151 2152
3 2188 2187 2240
3 2216 2218 2775
3 3255 2261 3256
3 2293 2527 2540
3 2329 2328 2358
3 2860 2336 2861
3 2489 3304 3457
3 2634 2996 3163
3 3006 3005 3007
3 1395 1393 1396
3 1426 1428 1429
3 1441 1444 2448
3 1556 1542 1961
3 1612 1973 1974
3 1701 1695 3279
3 1948 1959 2034
3 2043 2167 2168
3 2095 2614 2615
3 2346 2348 2519
3 2409 2735 3223
3 3071 2430 3191
3 2623 2514 2624
3 2590 2591 2592
3 2620 2697 2942
3 2830 2828 2831
3 3230 3493 3529
3 1552 1559 2131
3 1578 1580 3208
3 1609 1591 1621
3 1627 1639 1749
3 1702 1701 1736
3 1794 1793 1795
3 2012 3091 3118
3 2303 2225 2556
3 2301 2574 2575
3 2774 2404 3150
3 2652 2655 3192
3 3014 3015 3016
3 1435 1427 1445
3 1429 1430 1431
3 1448 1454 1455
3 1541 1532 3258
3 1682 1683 1699
3 1769 1706 1867
3 1879 1824 3404
3 1931 1854 1932
3 1868 1867 1869
3 2027 1889 3341
3 1949 1948 3272
3 2283 2166 2285
3 2339 2864 2866
3 2369 2394 2921
3 2377 2378 2379
3 1438 1437 1439
3 1479 1481 1631
3 1505 1492 1506
3 1494 1521 1522
3 1499 1501 3291
3 1525 1506 1526
3 1522 1521 1543
3 1540 1532 1541
3 1532 1861 3258
3 1651 1735 1928
3 1667 1666 1668
3 1677 1675 1678
3 1725 1723 1888
3 1794 1796 1797
3 1839 1837 1840
3 1873 1872 2004
3 2002 1899 3271
3 1903 2022 2023
3 1969 1970 1971
3 2208 2065 2209
3 2201 2140 3115
3 2703 2297 2704
3 2442 2646 3221
3 2474 2499 2684
3 2795 2724 2963
3 1568 1569 1573
3 1779 1780 1781
3 1788 1787 1789
3 1959 1877 3323
3 2075 2073 3088
3 2649 2648 2859
3 2656 2654 2657
3 1425 1423 3177
3 1433 1434 1436
3 1487 1486 1488
3 1538 1537 1550
3 1585 1586 1611
3 1585 1611 1613
3 1592 1593 1624
3 1598 1599 1618
3 3058 1686 3331
3 1703 1741 3284
3 1771 1770 1824
3 1772 1773 1892
3 1986 1987 2047
3 2254 2475 2487
3 2312 2311 2316
3 2343 2751 3086
3 2688 2510 2689
3 2677 2678 2679
3 3008 3007 3009
3 1402 1403 1404
3 1924 1777 3275
3 1843 1842 1844
3 1862 1912 2471
3 1876 1877 1910
3 1965 2278 3252
3 2112 2111 2113
3 2117 2118 2119
3 2402 2643 3048
3 3119 1398 3345
3 1424 1425 1426
3 1459 1458 1460
3 1479 1631 3183
3 1491 1490 3270
3 1490 1492 1505
3 1599 1504 1934
3 1546 1536 1547
3 1601 1583 1605
3 1661 1659 1930
3 1722 1721 1723
3 1763 2081 2416
3 1768 2283 2284
3 1824 1770 1942
3 1818 1887 1923
3 1870 1878 2292
3 1966 2040 2158
3 2117 2119 2645
3 2493 2277 2494
3 2295 2546 3158
3 2308 2307 2719
3 2552 2356 3081
3 2370 2947 3630
3 2685 2392 3036
3 2421 2420 2422
3 2438 2436 2440
3 2585 2788 2789
3 2593 2591 2826
3 2637 2638 2639
3 2637 2639 2640
3 2654 3316 3317
3 1394 1393 1395
3 1534 1810 3197
3 1579 1576 1581
3 1822 1903 3091
3 1829 1830 1831
3 1846 1847 3461
3 1951 3188 3567
3 1974 2120 2234
3 2362 2232 3293
3 2287 2288 2334
3 2976 2399 2977
3 2640 2925 3365
3 2778 2779 2780
3 1358 920 1360
3 1611 1586 1612
3 2011 1901 2122
3 2177 2048 2178
3 2097 2098 2182
3 2250 2155 2673
3 2543 2544 3023
3 2744 2657 2801
3 3380 3450 3551
3 1417 1415 1418
3 1424 1423 1425
3 1632 1684 3325
3 1684 1633 1689
3 1684 1689 1713
3 1732 1715 1755
3 2143 1722 3169
3 1774 1899 1937
3 1900 1785 1901
3 1838 1837 1839
3 1853 1855 2079
3 1903 2407 3091
3 2013 2210 2211
3 2478 2018 2479
3 2138 2031 2139
3 2178 2190 2191
3 2197 2332 2481
3 2344 2343 2345
3 2378 2376 2716
3 2428 2429 3206
3 2454 2453 2455
3 3205 2491 3427
3 2554 2555 2727
3 1426 1425 1427
3 1450 1451 1452
3 1485 1487 3334
3 1525 1535 1929
3 1615 1614 1647
3 1745 1786 1856
3 1893 1773 1895
3 1895 1773 3099
3 1803 1804 1805
3 1827 1828 1829
3 1838 1967 3389
3 1870 2292 2293
3 1916 1895 2385
3 2294 2528 2699
3 2694 2459 3319
3 2511 2510 2688
3 2568 2827 2828
3 3149 3060 3525
3 1538 1550 1551
3 3296 1609 3308
3 1672 1673 1674
3 1681 1674 3180
3 1680 1694 1695
3 1716 1685 1717
3 1853 1753 1855
3 3224 1757 3298
3 1818 1885 1887
3 1831 1833 1834
3 2010 1901 2011
3 2260 1940 2472
3 1991 2018 2477
3 2092 2090 2100
3 2132 2155 2156
3 2508 2275 2664
3 3281 2589 3282
3 1609 1640 3308
3 1700 1729 1730
3 1769 1867 1868
3 1848 1874 1875
3 2267 1867 3269
3 1868 1869 1876
3 1876 1910 2021
3 1948 1877 1959
3 1910 1948 1949
3 2047 1987 2048
3 2001 2000 2066
3 2381 2384 2620
3 1489 1495 1496
3 1497 1496 1498
3 1499 1498 1500
3 1501 1500 1503
3 1503 1507 1508
3 1593 1565 1594
3 1653 1654 1703
3 1773 1717 3099
3 1771 1824 1825
3 1869 1867 2267
3 1950 1951 1975
3 2125 2035 2126
3 2219 2055 2401
3 2191 2190 2317
3 2204 2271 3517
3 2403 2404 2773
3 2757 2564 2834
3 2623 2955 2972
3 2821 2712 2822
3 2778 2780 2781
3 3440 2974 3572
3 3124 3126 3476
3 1464 1460 1468
3 1495 1488 1502
3 1489 1496 1497
3 1501 1503 1504
3 1814 1529 3168
3 1531 1540 1946
3 1593 1594 1595
3 1641 1685 1714
3 1751 1889 1935
3 1892 1773 1893
3 1899 1785 1900
3 1862 1911 1912
3 1884 3233 3371
3 1897 1997 2019
3 1947 3240 3241
3 1990 2061 3226
3 2291 2027 3341
3 2263 2433 2666
3 2389 2627 2985
3 2426 2960 2961
3 2436 2435 3227
3 3302 3257 3303
3 1557 1556 1563
3 1558 1560 1571
3 1561 1562 1585
3 1640 1653 1708
3 1781 1783 2042
3 2011 2122 2395
3 2051 2065 2208
3 2209 2065 2330
3 2131 2132 2133
3 2188 2241 2242
3 2346 2345 2347
3 2410 2412 3280
3 2437 2436 2438
3 2499 3460 3530
3 2654 2651 3316
3 2656 2657 2743
3 3006 3007 3008
3 1766 1779 2134
3 1821 1771 3225
3 1842 1840 1915
3 2004 1872 2005
3 1980 2083 2286
3 3173 2089 3190
3 2336 2118 3148
3 2370 2444 2947
3 2389 2390 2627
3 2429 2658 3128
3 2601 3385 3429
3 2693 2674 2980
3 1584 1578 1591
3 1632 1633 1684
3 1640 1709 3308
3 1776 2263 3284
3 2001 2071 2165
3 2069 2005 2070
3 2231 2074 2232
3 2285 2166 2692
3 2175 2176 2221
3 2527 2292 2695
3 2412 2411 2413
3 2572 2573 3245
3 2647 2648 2649
3 1402 1404 1950
3 1405 1403 1406
3 1409 1407 1410
3 1409 1411 1412
3 1469 1473 1474
3 1495 1502 1509
3 1513 1514 1515
3 1534 1520 1810
3 1558 1551 1560
3 1562 1555 1851
3 1690 1643 1718
3 1648 1705 1719
3 1930 1659 3178
3 1672 1671 1673
3 1674 1673 1675
3 1738 1718 1777
3 1737 1764 1765
3 1740 1770 1771
3 1751 1935 3255
3 1889 1752 1968
3 1870 1784 1878
3 3221 1863 3313
3 1935 2028 2261
3 1994 2049 2976
3 2028 2497 3295
3 2198 2070 2199
3 2428 2133 2429
3 2175 2174 2176
3 2204 2203 2226
3 2220 2571 2572
3 2664 2275 3075
3 2442 2443 2646
3 2689 2510 2982
3 2622 2935 3286
3 2652 3192 3233
3 3128 2658 3474
3 3469 3468 3470
3 2056 2055 2219
3 2129 2130 2236
3 2332 2331 2752
3 2347 2350 3429
3 2350 2351 2554
3 2729 2357 2730
3 3672 2526 3692
3 2572 2571 2573
3 3124 3125 3126
3 1409 1410 1411
3 1412 1411 1413
3 1501 1504 1598
3 1530 1529 1537
3 3187 1530 3251
3 1548 1556 1557
3 1598 1618 1936
3 1722 1723 1724
3 1724 1725 1726
3 1776 1906 2263
3 1838 1839 1845
3 1989 2085 2086
3 2034 2125 2262
3 2096 2213 2560
3 2125 2126 2256
3 2147 3348 3489
3 2360 2232 2361
3 2573 2571 2711
3 2572 3246 3249
3 2681 2682 2683
3 3088 2924 3715
3 1405 1407 1408
3 1649 1470 1753
3 1498 1496 2142
3 1497 1499 2432
3 1630 1604 2145
3 1669 1665 1721
3 1881 1882 1883
3 1896 1916 1917
3 1952 2470 3367
3 2041 3127 3590
3 2050 2205 2397
3 2069 2070 2198
3 2160 2094 2162
3 2168 2167 3026
3 2216 2199 2217
3 2513 2280 3157
3 2281 2514 2623
3 2350 2349 2351
3 2403 2395 2404
3 2434 2435 2436
3 1390 1389 1391
3 1391 1392 1393
3 1398 1397 1399
3 1434 3159 3235
3 1438 1475 3309
3 1441 1443 1444
3 1463 1460 1464
3 1470 1464 3518
3 1483 1485 1938
3 1487 1489 3314
3 1497 1498 1499
3 1598 1504 1599
3 1527 1524 1528
3 1527 1528 1544
3 1566 1567 1587
3 1568 1573 1600
3 1618 1599 1619
3 1633 1605 3033
3 1631 3257 3302
3 1634 1635 1657
3 1667 2147 3289
3 1677 1678 1682
3 1762 1813 1826
3 1789 2054 3355
3 1792 1793 1794
3 1796 1795 1897
3 1797 1798 1799
3 1923 2006 2415
3 1954 1953 1955
3 1956 1965 1966
3 2150 1995 2151
3 2003 2002 2067
3 2030 2031 2137
3 2081 2080 2686
3 2252 2093 2660
3 2128 2129 2445
3 2237 2130 2502
3 2429 2133 2430
3 2200 2140 2201
3 2162 2338 2339
3 2220 2570 2571
3 2236 2504 2505
3 2257 2280 2281
3 2550 2297 2703
3 2403 2773 3114
3 2405 2517 2518
3 2416 2417 2418
3 2666 2433 3313
3 2442 2439 2443
3 2646 2443 2647
3 2643 2671 2962
3 2652 2653 2655
3 1950 1404 1951
3 1552 1551 1558
3 1702 1736 1737
3 1765 1819 1820
3 1792 1791 1793
3 1809 2951 3645
3 1919 2073 2075
3 2572 3245 3246
3 1417 1418 1419
3 1495 1509 3231
3 1543 1521 1553
3 1528 1524 1964
3 1540 1541 1564
3 1602 2148 3363
3 1639 1638 1711
3 1656 1715 1732
3 1932 1854 2041
3 1865 1871 1914
3 1937 2003 3254
3 1990 2060 2061
3 2200 2201 2323
3 2244 2291 2393
3 2303 2556 2557
3 2366 2365 2367
3 2433 2434 3312
3 2434 2436 2437
3 2441 2586 2741
3 1405 1406 1407
3 1416 1415 1417
3 2488 1474 3162
3 1494 1522 1523
3 1544 1545 1566
3 1663 1661 3406
3 1724 1723 1725
3 1848 1846 1874
3 2156 2155 2250
3 2160 2490 2491
3 3041 2189 3327
3 2208 2209 2352
3 2637 2531 2638
3 1462 1466 2163
3 1463 1470 1649
3 1469 1474 2488
3 1477 1478 1479
3 1485 1486 1487
3 1938 1485 3334
3 1487 1488 1489
3 1526 1506 1857
3 1508 1529 1530
3 1532 1510 1861
3 1861 1510 3428
3 1574 1547 1575
3 1566 1587 1589
3 1597 1616 1617
3 1637 1679 1680
3 1648 1704 1705
3 1709 1742 1745
3 1747 1872 1873
3 1750 3277 3278
3 1760 1759 3020
3 1763 2080 2081
3 1782 1780 1904
3 1781 1782 1783
3 1807 1921 3035
3 1818 1817 1885
3 1881 1820 1882
3 1862 1856 1911
3 1876 1869 1877
3 1884 3222 3333
3 3052 1924 3275
3 2030 1932 2031
3 1956 1960 1965
3 1966 1965 2039
3 1993 2056 2192
3 2407 2023 2408
3 2137 2031 2138
3 2040 2039 2274
3 2079 2690 3085
3 2109 2111 2112
3 2128 2445 2662
3 2490 2162 3260
3 2402 2251 2643
3 2281 2280 2513
3 2361 2363 2364
3 2419 2420 2421
3 2741 2586 2818
3 2727 2728 2758
3 2819 2818 2875
3 3078 3077 3079
3 1402 1401 1403
3 1528 1964 3207
3 1543 1553 1554
3 1567 1545 1590
3 1609 1621 1640
3 1634 1619 1635
3 1653 1621 1654
3 1660 1661 1662
3 1662 1663 1664
3 3288 1662 3289
3 1724 1726 1727
3 1732 1755 1784
3 1794 1795 1796
3 1983 1882 1985
3 1952 1954 2470
3 1955 1953 1957
3 1986 1982 1987
3 2096 2062 2212
3 2100 2090 3172
3 2120 2103 2389
3 2266 2265 2670
3 2494 2277 2498
3 2514 2513 2529
3 2573 2711 2712
3 2661 2660 3357
3 2741 2818 2819
3 3031 2956 3505
3 3211 3212 3308
3 1410 3681 3696
3 1552 1558 1559
3 1667 1668 1670
3 1670 1671 1672
3 1740 1739 1770
3 1825 1824 1879
3 1912 2015 2016
3 2003 2067 2068
3 2272 2227 2273
3 2433 2264 2434
3 2305 2605 2606
3 2659 2430 3071
3 2437 2442 3312
3 2441 2440 2586
3 2953 2465 2983
3 2650 2649 2651
3 3107 3109 3110
3 1473 1468 1926
3 1581 1576 2164
3 2121 1757 3224
3 1776 1905 1906
3 1789 1787 2054
3 1992 1886 2161
3 1990 1887 2060
3 2035 1959 2447
3 1971 1970 2053
3 2156 2251 2402
3 2221 2222 2340
3 2377 2376 2378
3 2573 2712 2820
3 2573 2820 3245
3 3160 2659 3161
3 1499 1500 1501
3 1539 1548 1549
3 1563 1556 3347
3 1579 1581 1582
3 1626 1624 2123
3 1836 1833 3458
3 1937 2002 2003
3 2034 1959 2035
3 2459 2169 3319
3 2271 2272 3203
3 2281 2513 2514
3 2407 2408 2409
3 3023 2544 3721
3 2675 2676 2677
3 3166 2688 3621
3 3110 3534 3623
3 918 919 1363
3 1544 1528 1545
3 1961 1542 3197
3 1660 1659 1661
3 1666 1665 1669
3 1769 1868 3186
3 1880 1820 1881
3 1922 1823 2012
3 1837 1836 3147
3 1869 2267 3323
3 1923 1990 2006
3 1941 1940 2260
3 2058 1999 2239
3 2046 2173 2174
3 2056 2219 2220
3 2177 2297 2550
3 2358 2328 3542
3 2347 2349 2350
3 3237 2418 3238
3 2442 3221 3312
3 2647 2443 2648
3 2729 2730 2847
3 3002 3000 3022
3 1391 1389 1392
3 1703 1706 1741
3 1909 1908 1989
3 1938 3334 3420
3 2139 2031 3199
3 2033 2265 2266
3 2091 2090 2092
3 2256 2126 2257
3 2324 2201 2431
3 2424 2422 2489
3 2441 2741 2891
3 2650 2651 2652
3 1423 1420 1652
3 2132 1559 2155
3 1577 1584 1610
3 1591 1578 3208
3 1584 1609 3296
3 1656 1655 1715
3 1709 1745 3211
3 3099 1717 3100
3 1799 1800 1801
3 2051 2010 2065
3 2199 2070 3366
3 2105 2104 2106
3 2257 2126 2258
3 2323 2201 2324
3 2370 2235 2444
3 2434 2264 2435
3 2807 2311 3384
3 2586 2440 2754
3 2444 2465 2953
3 2525 2584 2585
3 2652 2651 2653
3 2653 2651 2654
3 1416 1417 1422
3 1462 1465 1466
3 2163 1466 3468
3 1575 1547 1576
3 1551 1550 3324
3 1577 1578 1584
3 1610 1584 3296
3 1637 1636 1679
3 1680 1679 1694
3 1709 1708 1742
3 1719 1720 1757
3 1738 1777 1778
3 1741 1769 1775
3 1745 1742 1786
3 1754 1753 1853
3 1801 1802 1803
3 1818 1923 3298
3 1834 3067 3432
3 1866 2269 3464
3 1900 2010 2051
3 3159 1927 3587
3 1944 1945 2128
3 2013 2012 2210
3 2053 2062 2096
3 2081 2686 3164
3 2391 2169 2458
3 2182 2184 2602
3 2203 2310 3541
3 2234 2939 2968
3 2777 2353 2778
3 2437 2439 2442
3 2461 2694 2946
3 2647 2649 2650
3 2657 2654 3317
3 2683 2682 2945
3 3054 3053 3058
3 1404 1403 1405
3 1510 1502 3428
3 1568 1600 3636
3 1629 1604 1630
3 1607 1606 1614
3 1640 1621 1653
3 1642 1643 1644
3 1690 1718 1738
3 1741 1706 1769
3 3290 1744 3605
3 1762 1826 3214
3 1905 1775 1925
3 3210 1804 3369
3 1883 1983 1984
3 1903 1902 2022
3 1907 1924 1998
3 2015 1911 2017
3 1993 1925 2055
3 2028 2027 2244
3 2093 2092 2238
3 2547 2243 2971
3 2320 2318 2321
3 2339 2338 2864
3 2773 2404 2774
3 1446 1445 1449
3 1467 1453 1620
3 1457 1458 1459
3 1466 1465 1471
3 1523 1527 2038
3 1571 1560 1572
3 1603 1607 1710
3 1629 1630 1642
3 1642 1630 1643
3 1768 1699 2166
3 1790 1789 1791
3 1829 1828 1830
3 1841 1842 1843
3 2244 2027 2291
3 2249 2270 2667
3 2254 2392 2475
3 2280 2258 2474
3 3252 2278 3521
3 2393 2291 2526
3 2409 2408 2410
3 2565 2746 3113
3 2597 2598 2599
3 2820 2712 2821
3 3009 3010 3011
3 1410 1407 3299
3 1478 1476 1852
3 1508 1530 3187
3 1537 1529 1814
3 1538 1551 1552
3 1564 1541 1565
3 1711 1638 1746
3 1677 1682 3153
3 1682 1678 1683
3 1727 1743 1774
3 1776 1775 1905
3 1974 2103 2120
3 2416 2081 2417
3 2113 2111 2114
3 2160 2162 2490
3 2220 2219 2570
3 2266 2670 2958
3 2588 2341 2589
3 2485 2484 2717
3 2617 2616 2863
3 2634 2663 2996
3 2653 2654 2656
3 3267 2666 3335
3 2677 2676 2678
3 3004 3005 3006
3 3527 3033 3695
3 1395 1397 1398
3 1422 3232 3360
3 1434 1432 3159
3 1750 1433 3277
3 1438 1442 1475
3 1441 1440 1443
3 1452 1461 1462
3 1459 1460 1463
3 1472 1471 1490
3 1483 1484 1485
3 1489 1488 1495
3 1505 1506 1525
3 1508 1507 1529
3 1509 1510 1531
3 1523 1522 1524
3 1523 1524 1527
3 1587 1567 1588
3 1592 1624 1625
3 1645 1620 1650
3 1625 1626 1627
3 1658 1635 1659
3 1645 1650 1651
3 1662 1664 3289
3 1735 1734 1761
3 1839 1840 1841
3 1883 1882 1983
3 1885 1886 1991
3 1889 1968 3341
3 1896 1895 1916
3 1900 1901 2010
3 1905 1993 3330
3 2167 2044 2169
3 2046 2045 2173
3 2068 2203 2204
3 2096 2212 2213
3 2109 2110 2111
3 2113 2114 2115
3 2192 3249 3529
3 2204 2226 2227
3 2213 2212 2567
3 2274 2277 2493
3 2352 2353 2777
3 2735 2410 3280
3 2468 3409 3685
3 1391 1393 1394
3 1393 1392 3244
3 1429 1428 1430
3 1469 1468 1473
3 1522 1543 3392
3 1571 1572 1577
3 1737 1736 1764
3 1781 1780 1782
3 1783 1782 1787
3 1802 1800 1808
3 1905 1925 1993
3 2050 2072 2205
3 2091 2092 2093
3 2204 2227 2271
3 2597 2596 2598
3 2658 2659 3160
3 2677 2679 2680
3 919 920 1358
3 1435 1446 2427
3 1444 1447 1448
3 1449 1445 2135
3 1448 1453 1454
3 1461 1451 1692
3 1457 1456 1458
3 1503 1500 1507
3 1549 3029 3549
3 1589 1751 3255
3 1856 1884 3371
3 1969 1971 3205
3 1993 2192 3330
3 2686 2080 2687
3 2231 2232 2360
3 2239 3052 3053
3 2302 2303 2722
3 2346 2347 2348
3 2381 2382 2384
3 2404 2395 3182
3 2609 2767 2768
3 2640 2641 2925
3 1402 1950 3345
3 1951 1404 3188
3 1438 1439 1442
3 1477 1476 1478
3 1483 1482 1484
3 1485 1484 1486
3 1512 1491 2136
3 1531 1532 1540
3 1651 1650 1734
3 1658 1660 1676
3 1665 1663 3193
3 1664 1666 1667
3 1759 1689 1864
3 1747 1873 1969
3 1790 1792 1958
3 2263 1906 2264
3 1965 1960 2278
3 2066 2000 2144
3 2030 2137 2146
3 2131 2133 2428
3 2519 2348 2521
3 3091 2407 3118
3 2623 2624 2955
3 1519 1520 1533
3 1561 1555 1562
3 1578 1572 1580
3 1670 1668 1671
3 1669 1722 2143
3 1766 1714 1767
3 1774 1785 1899
3 1797 1796 1798
3 1849 1844 3057
3 1860 1994 1995
3 1937 1899 2002
3 1912 1911 2015
3 2129 1945 2130
3 1966 2039 2040
3 1971 2053 2094
3 2016 2015 2089
3 2158 2040 2159
3 2236 2130 2237
3 2211 2210 2582
3 2237 2502 2503
3 2252 2660 2661
3 2576 2300 3608
3 2477 2478 2495
3 2523 2522 2725
3 2636 2637 2967
3 2673 3436 3482
3 1399 1397 1400
3 3233 1884 3333
3 2156 2250 2251
3 2217 2235 2370
3 2317 2473 2792
3 2537 2369 2990
3 2423 2425 2496
3 3014 3013 3015
3 3240 3239 3242
3 3484 3288 3488
3 1436 1437 1438
3 3083 1470 3518
3 1479 1478 1480
3 1484 1482 1693
3 3068 1492 3069
3 1514 1512 3424
3 1525 1526 1535
3 1566 1589 3322
3 1610 3326 3338
3 1703 1654 1706
3 1674 1675 1677
3 1747 1746 1872
3 1856 1786 1884
3 2022 1902 2140
3 1963 1962 2076
3 2061 2224 2225
3 2276 2273 2342
3 2585 2584 2787
3 2955 2624 2956
3 3155 3283 3626
3 3299 1406 3300
3 1446 1450 3170
3 1533 1520 1534
3 1697 1702 1707
3 1713 1759 1760
3 1740 1771 1821
3 1832 1830 2032
3 1846 1844 1847
3 1980 1979 2082
3 2162 2094 2338
3 2352 2209 2353
3 2257 2258 2280
3 2461 2459 2694
3 3016 3015 3017
3 3107 3106 3109
3 1395 1396 1397
3 1423 1652 3177
3 1857 1506 3068
3 1623 1605 1632
3 1921 1823 1922
3 1835 1836 1837
3 1969 1873 1970
3 1941 2260 2388
3 2057 1999 2058
3 2265 2032 3074
3 2395 2122 2634
3 2658 2430 2659
3 2437 2438 2439
3 2933 2632 3185
3 2649 2859 3316
3 2801 2657 3317
3 1670 1672 3348
3 1672 1674 1681
3 1772 1717 1773
3 1825 1978 3225
3 1834 1833 1835
3 1998 1924 1999
3 1943 3350 3383
3 2152 2153 2154
3 3059 2193 3060
3 2775 2218 2776
3 2231 2360 2486
3 2337 2323 2825
3 2351 2349 2765
3 2438 2440 2441
3 2632 2631 2633
3 2632 2633 2635
3 2651 2649 3316
3 2876 2875 2877
3 3314 3315 3334
3 1519 1533 1977
3 1539 1534 1542
3 1603 1606 1607
3 1766 1767 1779
3 1795 1793 3508
3 1806 1804 3210
3 1822 1806 1902
3 1935 2027 2028
3 2028 2244 2497
3 2049 2399 2976
3 2678 2676 3056
3 2819 2875 2876
3 1428 1427 1435
3 1433 1436 3277
3 1444 1443 1447
3 1454 1453 1467
3 1569 1563 1570
3 1574 1604 1629
3 1595 1594 1602
3 1603 1602 1606
3 1642 1644 1748
3 1648 1647 1704
3 1700 1683 1729
3 1826 1813 1827
3 1935 1889 2027
3 1978 1891 3321
3 2140 1902 3210
3 2072 1917 2610
3 2447 1959 3323
3 1963 2077 2078
3 2173 2045 2548
3 2061 2060 2224
3 2111 2110 3123
3 2236 2237 2504
3 2272 2273 2275
3 2574 2300 2576
3 2363 2362 2533
3 3314 2432 3315
3 3228 2435 3421
3 2523 2725 2726
3 1621 1591 3361
3 1610 3296 3326
3 1640 1708 1709
3 1708 1653 3267
3 1860 1859 1994
3 2024 1997 2449
3 2091 2093 2252
3 2107 2108 2109
3 2247 2674 2693
3 2434 2437 3312
3 1387 1388 1389
3 1399 1400 1401
3 1439 1440 1441
3 1472 1491 1511
3 1477 1479 3183
3 1481 1483 3257
3 1535 1526 1536
3 1592 1565 1593
3 1589 1608 1751
3 1627 1638 1639
3 1657 1635 1658
3 1639 1711 1712
3 1658 1659 1660
3 1664 1665 1666
3 1755 1715 1756
3 1731 1739 1740
3 1754 1854 1931
3 1765 1820 1880
3 2077 2076 2247
3 2268 2159 2462
3 2420 2417 3164
3 3221 2646 3222
3 2981 2938 3593
3 1515 1516 1517
3 1542 1534 3197
3 1554 1555 1561
3 1612 1586 1973
3 3133 1668 3194
3 1801 1800 1802
3 1822 1902 1903
3 1910 1877 1948
3 2034 2035 2125
3 2474 2258 2499
3 2263 2264 2433
3 2725 2522 3385
3 2774 3150 3151
3 1387 1385 1388
3 1407 1406 3299
3 1475 1476 1477
3 1511 1491 1512
3 2131 1559 2132
3 1568 1563 1569
3 1584 1591 1609
3 1758 1816 1817
3 1832 2033 3458
3 1967 1845 2229
3 3303 1938 3420
3 1987 1982 2202
3 1984 2045 2046
3 1993 2055 2056
3 2151 1995 2223
3 2477 2018 2478
3 2138 2139 2245
3 3352 2148 3463
3 2172 2542 2543
3 2366 2367 2515
3 2460 2492 2949
3 2644 3028 3120
3 3383 3350 3580
3 1538 1552 3251
3 1564 3505 3634
3 1577 1572 1578
3 1614 1606 1646
3 1742 1708 3335
3 1805 1804 1806
3 2019 2024 3400
3 2119 2118 2195
3 2829 2828 2830
3 3189 3433 3483
3 1426 1427 1428
3 1595 1602 1603
3 1613 1641 3171
3 1699 1683 1700
3 1741 1775 1776
3 1801 1803 3349
3 1923 1887 1990
3 1906 1905 3330
3 2010 2011 3310
3 2178 2048 2190
3 2051 2208 3294
3 2634 2122 2663
3 2184 2183 2185
3 2252 2661 3425
3 2579 2336 2860
3 2792 2473 2836
3 2623 2972 3353
3 2630 2629 2631
3 3180 3154 3509
3 1807 1806 1822
3 1974 1973 2103
3 2069 2198 2313
3 2104 2077 3287
3 2268 2669 3301
3 2316 2807 2992
3 2521 2348 2522
3 3544 2388 3545
3 1447 2127 3234
3 1530 1537 1538
3 1680 1696 3239
3 1709 3211 3308
3 1799 1798 1800
3 1831 1832 1833
3 1858 1859 1860
3 1871 1866 1918
3 2172 2161 2532
3 2197 2331 2332
3 2534 2362 3293
3 2364 2363 2365
3 2458 2459 2460
3 3220 3219 3418
3 1589 1587 1608
3 1618 1619 1634
3 1625 1624 1626
3 1627 1626 1638
3 1656 1732 3098
3 1763 1657 2080
3 1902 1806 3210
3 1843 1846 1848
3 1893 1895 1896
3 1975 1951 1976
3 2241 2240 3730
3 2515 2367 2516
3 2587 2588 2590
3 2743 2657 2744
3 2692 3388 3558
3 1408 1407 1409
3 1464 1468 1469
3 1474 1493 1494
3 1554 1553 1555
3 1557 1563 1568
3 2207 2206 2311
3 2628 2390 2629
3 1448 1447 1453
3 1458 1456 2468
3 1554 1561 2466
3 1575 1576 1579
3 1694 1698 2149
3 1730 1729 3584
3 1754 1853 1854
3 1922 2012 2013
3 1944 1943 1945
3 1984 1983 2045
3 2462 2159 2463
3 2186 2187 2188
3 2317 2190 2473
3 2284 2283 2520
3 2446 2536 2700
3 2826 2591 3281
3 1564 1565 1592
3 2060 3372 3446
3 2107 2109 3506
3 2110 2108 2368
3 2209 2330 3332
3 2242 2243 2327
3 2910 2358 3542
3 2379 2380 2381
3 2939 2387 3065
3 2460 2461 2492
3 3068 3069 3070
3 1687 3134 3135
3 2275 2273 2276
3 2778 2353 2779
3 3296 3212 3326
3 1509 1502 1510
3 1530 1538 3251
3 1615 1647 1648
3 3184 1808 3370
3 1989 1908 2085
3 2471 1912 3401
3 2036 3035 3487
3 2294 1386 2528
3 1403 1401 3378
3 1431 1433 1750
3 1474 1473 1493
3 2141 1477 3183
3 1494 1493 1521
3 1513 1512 1514
3 1573 1583 1601
3 1669 1721 1722
3 1808 3184 3369
3 2073 2074 2231
3 2109 2108 2110
3 2115 2282 2295
3 2262 2125 3440
3 2154 2153 2180
3 2233 2325 2611
3 2276 2343 2344
3 2929 2394 3087
3 2423 2424 2425
3 2460 2459 2461
3 1790 1791 1792
3 2258 2126 3460
3 2311 2206 3384
3 2533 2362 2534
3 2562 2383 2595
3 3227 2435 3228
3 2634 3163 3182
3 2822 2712 3265
3 3363 3352 3475
3 1511 1512 1513
3 1533 1534 1539
3 1582 1597 1686
3 1616 1596 1622
3 1661 1930 3406
3 1680 1695 1696
3 1716 1717 1772
3 1802 1808 3369
3 2016 2089 2090
3 2234 2120 2387
3 2463 2159 3466
3 2172 2532 2542
3 2274 2493 2501
3 2393 2668 3030
3 2419 2421 2467
3 2494 3484 3488
3 3546 2671 3555
3 2767 2766 2815
3 1419 1421 1933
3 1757 1720 1758
3 1778 1777 1907
3 1835 1833 1836
3 3378 1939 3459
3 1654 1621 3361
3 1867 1706 3269
3 1765 1764 1819
3 2003 2068 2259
3 2016 2090 2091
3 2101 2371 2644
3 2674 2248 2675
3 2364 2365 2366
3 2421 2422 2423
3 2433 3312 3313
3 2503 2509 2510
3 2712 2711 3265
3 1708 3267 3335
3 1772 1892 1894
3 1831 1830 1832
3 1860 1995 2150
3 2022 2140 2200
3 2217 2199 2235
3 2565 2215 2566
3 2661 3326 3425
3 3004 3003 3005
3 1413 1415 1416
3 1620 1453 3234
3 1539 1542 1548
3 1734 1650 1811
3 1668 1666 3194
3 1678 1675 1972
3 1812 1761 1943
3 1850 1849 1890
3 1985 1882 3351
3 1922 2013 2025
3 2278 1960 2279
3 2398 2005 3155
3 3036 2041 3590
3 2047 2048 2177
3 2088 2087 2304
3 2198 2199 2216
3 2245 2254 3077
3 2675 2248 2676
3 2511 2688 3166
3 2557 2724 2793
3 3011 3010 3013
3 3360 3232 3629
3 1447 1443 2127
3 1450 1449 1451
3 2038 1527 3479
3 1594 1565 3377
3 1704 1647 1940
3 3642 1693 3658
3 1758 1817 1818
3 1827 1813 1828
3 1894 2000 2001
3 2511 3166 3167
3 3084 2668 3426
3 1387 1390 3490
3 1697 1701 1702
3 1865 1864 1866
3 1982 1898 3444
3 2645 2119 2691
3 2271 2227 2272
3 2522 2348 3429
3 3238 2418 3473
3 2429 2430 2658
3 2708 2457 2709
3 2578 2577 2846
3 3146 3140 3559
3 1419 1420 1421
3 1852 3106 3107
3 2105 2107 2290
3 2228 2114 3123
3 2776 2218 2964
3 2643 2251 2671
3 2356 2321 2357
3 2357 2321 2742
3 3011 3013 3014
3 3570 3290 3605
3 1483 1938 3257
3 1582 1596 1597
3 1591 3208 3361
3 3183 1631 3413
3 1706 1654 3269
3 1778 1907 1908
3 1793 1791 2084
3 1805 1806 1807
3 1835 1837 1838
3 2057 2058 2097
3 2115 2295 3524
3 2137 2138 2396
3 2260 2472 2506
3 2478 2479 2541
3 2609 2608 2766
3 1644 1643 1690
3 1696 1695 1697
3 1702 1737 3215
3 1764 1736 1815
3 2107 2106 2108
3 2208 2352 2406
3 2450 2449 2451
3 3139 3140 3142
3 1401 1400 1939
3 1472 1490 1491
3 1479 1480 1481
3 1481 1482 1483
3 1662 1661 1663
3 1713 1689 1759
3 1727 1726 1743
3 1863 1742 3335
3 1981 1898 1982
3 2076 1962 3568
3 2033 2266 2480
3 2483 2482 2484
3 3301 2669 3596
3 3142 3140 3143
3 3277 3309 3448
3 1455 1456 1457
3 1602 1594 2148
3 1751 1608 1752
3 1735 1761 1762
3 1931 2030 3442
3 2274 2039 2277
3 2247 2076 2248
3 2751 2342 2770
3 2475 2392 2685
3 2778 2781 3264
3 1399 1401 1402
3 1475 1442 1476
3 1463 1464 1470
3 1481 1480 1482
3 1487 3314 3334
3 1516 1514 1518
3 1519 1518 1520
3 1711 1746 1747
3 1762 1761 1812
3 2017 1911 3371
3 1931 1932 2030
3 1981 1982 1986
3 2183 2098 2255
3 2137 2396 3410
3 2284 2520 3204
3 2312 2316 2563
3 2612 2325 2721
3 2329 2358 2359
3 2343 2342 2751
3 2367 2365 2535
3 2395 2634 3182
3 2686 2687 3548
3 3649 2696 3709
3 2961 2987 2988
3 1911 1856 3371
3 2033 2032 2265
3 2319 2318 2320
3 2568 2567 2827
3 2627 2628 2948
3 1501 1598 3291
3 1714 1685 1716
3 1771 1825 3225
3 1783 1787 1788
3 1963 2078 3459
3 2267 3390 3477
3 2496 2425 2507
3 2534 3293 3344
3 2606 2607 2913
3 3016 3017 3018
3 3110 3109 3217
3 1713 1760 1858
3 2229 1845 2625
3 2206 2052 2309
3 2501 3509 3670
3 3422 3235 3646
3 1399 1402 3345
3 1673 1687 3364
3 1758 1720 1816
3 1885 1817 1886
3 2050 1917 2072
3 3089 2025 3721
3 2159 2040 3466
3 2454 2455 2456
3 1426 1429 3391
3 1513 1515 1688
3 1623 1632 1655
3 1779 1767 1780
3 3189 2004 3433
3 2307 2014 3666
3 2128 2662 3571
3 2295 2545 2546
3 3198 2569 3483
3 3662 2699 3708
3 2145 1604 3082
3 1969 3205 3375
3 2019 1997 2024
3 2640 2639 2641
3 2157 2019 2196
3 2444 2235 2465
3 2328 2243 2547
3 1436 1434 1437
3 1541 3258 3377
3 1558 1571 3436
3 2123 1624 3259
3 1994 1859 1996
3 1893 1896 2993
3 1981 1986 2170
3 2072 2610 2621
3 2242 2241 2243
3 1416 1422 1952
3 1466 1471 1472
3 1467 1620 1645
3 1729 1683 3379
3 1843 1844 1846
3 1891 1879 1898
3 1904 3137 3138
3 1955 1957 3454
3 2214 2215 2565
3 2664 3584 3633
3 1623 1655 1656
3 1931 3442 3520
3 2091 2252 3401
3 2523 2726 3276
3 3001 3003 3004
3 3228 3421 3493
3 1847 1849 1850
3 2043 1890 2044
3 2344 2345 2346
3 2452 2453 2454
3 2557 2723 2724
3 2658 3160 3474
3 1598 1936 3291
3 1894 1892 2000
3 1912 2016 3401
3 1963 2076 2077
3 2016 2091 3401
3 2247 2248 2674
3 3054 3331 3573
3 1394 1395 3181
3 1515 1514 1516
3 1601 1605 1623
3 1664 1667 3289
3 1898 1879 2059
3 1880 2020 2117
3 3154 2284 3204
3 2415 3224 3298
3 3135 3134 3213
3 3669 3632 3676
3 1956 1966 3343
3 2567 2212 2569
3 2627 2390 2628
3 1614 1646 3307
3 1784 1755 1809
3 1852 3107 3108
3 2536 2539 2701
3 1445 1427 3328
3 1613 1628 1641
3 2125 2256 3440
3 2253 2369 2537
3 2310 3101 3102
3 2554 2351 2555
3 2921 2394 2929
3 2727 2555 2728
3 1597 1596 1616
3 1676 1660 3288
3 1901 1785 3416
3 2097 2058 2098
3 2626 2540 3117
3 3184 3115 3369
3 3312 3221 3313
3 1737 1765 3339
3 1760 3020 3495
3 2007 1913 2009
3 2998 3000 3002
3 2148 1594 3377
3 1752 1608 2026
3 3037 2484 3651
3 1439 1437 1440
3 1516 1518 1519
3 1746 1638 3283
3 1675 1673 3364
3 2008 2233 2246
3 2330 2065 3310
3 2079 2249 2690
3 2115 2116 2282
3 2836 3395 3396
3 2960 2959 2966
3 3078 3079 3080
3 3667 1570 3705
3 2592 2591 2593
3 1467 1645 2124
3 1573 1601 3236
3 1700 1730 1731
3 2287 2083 2288
3 2285 3676 3694
3 2324 2431 2482
3 3460 2447 3530
3 2454 2731 3680
3 2684 3550 3569
3 1926 3131 3640
3 2309 2052 2696
3 2112 2113 2171
3 2458 2169 2459
3 2487 2475 3352
3 2958 2492 3414
3 2636 2531 2637
3 918 1363 1364
3 1412 1413 3367
3 1804 1802 3369
3 2340 2587 2902
3 1546 1574 3688
3 2620 2384 2697
3 2998 2999 3000
3 3433 3198 3483
3 1579 1582 3368
3 3516 1815 3647
3 2231 2486 3088
3 2779 2353 3332
3 1658 1676 3445
3 2503 2510 2511
3 2518 2517 2530
3 2562 2595 2596
3 2624 3124 3476
3 1606 1602 3363
3 1617 1947 3374
3 3269 1654 3361
3 1725 1888 3535
3 2193 1984 3504
3 2095 2075 2613
3 2687 2080 3445
3 2417 2081 3164
3 2112 2171 2446
3 2340 2341 2587
3 2502 3383 3580
3 2993 3055 3419
3 2374 2375 2376
3 2545 2549 2979
3 2590 2588 2591
3 3357 2660 3555
3 3450 3108 3551
3 3307 1646 3579
3 1972 1675 3364
3 1684 1713 3523
3 1979 1890 2043
3 2169 2044 3319
3 2344 2346 3387
3 1672 1681 3348
3 1678 1972 3379
3 1997 1795 3508
3 1797 3051 3176
3 1841 3376 3531
3 1898 2059 3444
3 3681 2700 3696
3 1431 1432 1433
3 3293 2074 3464
3 3575 2370 3630
3 2426 2959 2960
3 2456 2457 2708
3 1409 1412 3499
3 2085 1908 3407
3 2046 2174 2175
3 2609 2766 2767
3 2049 2087 2088
3 2242 2327 2755
3 2080 1657 3445
3 3193 1663 3406
3 2104 3287 3644
3 2116 2228 2253
3 3094 2582 3095
3 2974 3440 3594
3 3230 3228 3493
3 1841 1843 3376
3 2126 2035 3460
3 2257 2281 3353
3 2410 2408 2411
3 2827 2567 3500
3 2966 3360 3629
3 3410 3108 3623
3 1463 1649 3418
3 1977 1533 3438
3 1573 1569 1583
3 2101 2102 2371
3 3289 2147 3488
3 2393 2526 2668
3 2432 3291 3318
3 3212 2471 3425
3 2537 2990 2991
3 2086 2315 2524
3 2423 2422 2424
3 2983 2465 3588
3 3278 2507 3582
3 1875 1874 1913
3 2001 2066 2071
3 1713 1858 3523
3 1854 1853 3127
3 2071 2214 3356
3 2272 2508 3203
3 2541 2479 3248
3 1440 3235 3422
3 3057 1915 3603
3 2182 2098 2183
3 2115 2114 2116
3 3340 2145 3507
3 3204 2520 3306
3 3326 3212 3425
3 3421 3330 3493
3 1524 1522 3392
3 2186 2185 2187
3 1565 1541 3377
3 1973 1586 3430
3 1650 1620 3650
3 1693 3380 3381
3 2499 2258 3460
3 2310 3045 3101
3 2557 2556 2723
3 3322 3256 3479
3 3405 3619 3672
3 1878 1784 2970
3 2054 1787 3591
3 1810 1520 3354
3 2033 2480 3458
3 2489 3250 3304
3 2995 2983 3588
3 2338 2094 3452
3 2562 2596 2597
3 1839 1841 3531
3 2615 2614 2616
3 1723 1721 3423
3 1784 1809 2970
3 2281 2623 3353
3 2412 2413 2414
3 3126 3125 3656
3 1580 1572 3569
3 2065 2010 3310
3 2435 2264 3421
3 2073 1918 2074
3 2253 2537 2538
3 3295 2497 3557
3 3445 1676 3485
3 2206 2309 3384
3 2563 2564 2756
3 2956 2624 3476
3 2958 3201 3382
3 2025 3023 3721
3 1464 1469 3518
3 1679 1636 3456
3 3364 3135 3564
3 1646 1606 3363
3 2486 2360 2931
3 2721 3041 3042
3 2397 2205 2577
3 3049 2464 3050
3 2639 3738 3750
3 2186 2188 3537
3 2606 2605 2607
3 2714 2713 2736
3 2122 1901 3416
3 2324 2482 2483
3 2467 2421 3412
3 3385 2522 3429
3 3671 3243 3718
3 2136 1491 3270
3 1866 1864 2269
3 2690 2249 3557
3 3412 2496 3413
3 1973 3430 3519
3 2208 2406 3294
3 1444 1448 3253
3 1874 1846 3461
3 2152 2151 2153
3 2341 2222 3609
3 3157 2474 3597
3 2516 3261 3262
3 1398 1399 3345
3 1435 2427 3297
3 1845 1839 3531
3 2105 2106 2107
3 2180 2153 2300
3 2382 2383 2561
3 2419 2467 3473
3 2446 2700 3540
3 1765 1880 3339
3 2353 2209 3332
3 1430 1428 3297
3 1505 1525 3434
3 1560 3324 3569
3 1928 1735 3214
3 2041 1854 3127
3 2047 2177 3662
3 2062 3189 3483
3 2255 3243 3671
3 3588 2398 3626
3 3000 3001 3487
3 1559 1558 3436
3 1634 1763 3305
3 3323 2267 3477
3 2687 3445 3485
3 2235 2199 3366
3 2733 2358 2910
3 2447 3323 3477
3 1469 2488 3518
3 1655 1632 3325
3 2465 2235 3366
3 2245 3077 3078
3 3525 2512 3526
3 3354 1518 3424
3 1848 3044 3376
3 1904 3138 3139
3 2035 2447 3460
3 2567 2569 3500
3 3475 2685 3579
3 1424 3391 3583
3 1774 1937 3394
3 1916 2385 2386
3 2074 1918 3464
3 3381 3554 3658
3 1586 1562 3430
3 2663 2122 3416
3 2970 1809 3645
3 3361 3208 3390
3 1644 1691 3643
3 2286 2083 2287
3 2175 2221 2512
3 2329 2359 2856
3 1544 1566 3322
3 1719 2121 3437
3 1798 3130 3565
3 2040 2274 3466
3 2301 2575 2732
3 3380 1480 3450
3 2501 2493 3502
3 2922 2515 2923
3 1508 3187 3320
3 1715 1655 3595
3 1698 1679 3456
3 2825 2323 3576
3 2324 2483 3576
3 3499 2669 3543
3 1712 1711 3375
3 2058 2239 3627
3 2088 2304 2305
3 2102 2307 2308
3 2580 2565 3113
3 2096 2560 3452
3 2287 2334 2500
3 3352 2475 3475
3 3138 3141 3559
3 1833 1832 3458
3 3687 2544 3703
3 2996 2663 3399
3 1683 1678 3379
3 2255 2098 3627
3 2685 3036 3606
3 2966 2959 3457
3 2195 2579 3740
3 1803 2036 3349
3 2222 2919 3609
3 2722 2303 3498
3 1923 2415 3298
3 2673 2155 3436
3 3330 2192 3493
3 2340 2222 2341
3 2483 2753 3576
3 1906 3330 3421
3 2093 2238 3546
3 1453 1447 3234
3 2480 2266 3414
3 1964 1524 3392
3 3120 1738 3292
3 3291 1936 3318
3 3319 2044 3513
3 2697 2384 2698
3 1504 1503 3320
3 1657 1658 3445
3 1763 2416 3305
3 1894 2001 3553
3 2202 1982 3444
3 2094 2053 3452
3 1428 1435 3297
3 1455 2029 3253
3 2526 2291 3692
3 3135 3213 3598
3 2004 2069 3433
3 1843 1848 3376
3 2053 2096 3452
3 2346 2519 3387
3 3518 2488 3635
3 2734 2798 2799
3 2988 3677 3683
3 2146 2137 3410
3 3196 2655 3478
3 1398 3119 3181
3 1686 1597 3374
3 2310 3102 3541
3 1676 3288 3484
3 2313 3198 3433
3 1562 1851 3430
3 1880 2117 3339
3 2669 3499 3596
3 1624 1593 3259
3 2060 1887 3372
3 3315 2432 3318
3 3564 3203 3624
3 1473 1926 3439
3 1643 1630 3329
3 2479 2018 3285
3 2146 3410 3623
3 3160 1930 3474
3 3143 3146 3589
3 1852 3108 3450
3 2069 2313 3433
3 3136 2143 3514
3 2488 3162 3342
3 3628 3422 3646
3 1577 1610 3482
3 3136 3514 3585
3 1358 1360 2603
3 1406 1403 3378
3 3304 2279 3454
3 2475 2685 3475
3 2043 2168 3268
3 2226 2203 3541
3 1512 2136 3424
3 1527 1544 3479
3 1619 1599 3359
3 1711 1747 3375
3 1888 1723 3423
3 3203 2508 3624
3 3213 3134 3585
3 2224 2060 3446
3 1646 3363 3475
3 1747 1969 3375
3 1945 1943 3383
3 2114 2111 3123
3 2616 2614 2785
3 3218 3220 3534
3 2161 1886 3405
3 1892 1893 3419
3 2267 3269 3390
3 2975 3537 3538
3 2507 3448 3449
3 1599 1934 3359
3 2467 3302 3303
3 2770 2342 3481
3 2444 2953 3467
3 1421 1424 3583
3 2077 2247 3287
3 2470 3301 3596
3 2653 2656 3478
3 1699 1700 3388
3 2044 1890 3513
3 2365 2363 3165
3 2454 2456 2731
3 2711 2571 3411
3 3147 1836 3574
3 3366 2398 3588
3 2635 2633 3713
3 1929 1535 3641
3 3108 3107 3623
3 3269 3361 3390
3 1486 1484 3642
3 2655 2653 3478
3 1556 1961 3347
3 2153 2151 3608
3 1448 1455 3253
3 1531 1946 3447
3 3054 3058 3331
3 3143 3140 3146
3 3110 3218 3534
3 3241 3240 3243
3 2487 3352 3463
3 3447 3126 3656
3 1571 1577 3482
3 2073 2231 3088
3 2742 2321 3586
3 2491 3532 3572
3 3373 1728 3399
3 3744 2135 3752
3 2274 2501 3466
3 2264 1906 3421
3 1633 3033 3527
3 1949 3272 3533
3 3324 2684 3569
3 3288 3289 3488
3 2482 2431 3496
3 2314 2642 2715
3 3545 2388 3620
3 3169 1727 3394
3 2282 2116 3566
3 2227 2226 3481
3 1652 1420 3661
3 2135 1445 3328
3 3370 1808 3565
3 2470 1954 3343
3 2561 2383 2562
3 2571 2570 3411
3 2157 2197 3617
3 1849 3057 3513
3 2535 2365 3165
3 2463 3466 3670
3 2290 2107 3506
3 2509 2502 3580
3 3306 2520 3654
3 3248 3024 3717
3 2676 2248 3568
3 2155 1559 3436
3 2995 3588 3626
3 2577 2205 2944
3 3220 3442 3534
3 2956 3476 3634
3 1482 1480 3380
3 3231 1509 3447
3 1608 1587 3480
3 1597 1617 3374
3 1728 1725 3535
3 2152 2154 3631
3 1693 1482 3380
3 2144 2000 3419
3 1509 1531 3447
3 2030 2146 3442
3 2247 2693 3287
3 2500 2936 2937
3 3209 1580 3550
3 2078 2105 3560
3 2734 2797 2798
3 3134 3136 3585
3 3141 3553 3559
3 3434 3263 3749
3 1835 1838 3389
3 1587 1588 3480
3 2342 2273 3481
3 2752 2331 3562
3 1503 1508 3320
3 2684 2499 3550
3 2521 2523 3403
3 3231 3447 3656
3 1436 1438 3309
3 1466 1472 3468
3 1954 1956 3343
3 1735 1762 3214
3 2000 1892 3419
3 2278 2279 3548
3 1953 1422 3360
3 1946 1540 3634
3 3164 2686 3515
3 3093 2691 3727
3 2499 3530 3550
3 1400 1397 3200
3 2105 2290 3560
3 3249 3246 3529
3 2026 1608 3480
3 1985 3714 3722
3 2460 2949 3549
3 1930 3178 3474
3 2500 2937 3649
3 3027 3636 3704
3 1550 1537 3581
3 1829 1831 3432
3 1972 3364 3564
3 2250 3357 3555
3 1731 1740 3558
3 1890 1849 3513
3 1525 1929 3434
3 1550 3581 3597
3 3297 2427 3621
3 2699 3662 3678
3 1744 1730 3584
3 3476 1946 3634
3 3656 3125 3668
3 3272 3532 3533
3 3539 2285 3694
3 3112 1493 3439
3 2086 2314 2315
3 2379 2378 2380
3 1492 1471 3069
3 3348 1681 3502
3 3156 2023 3528
3 3022 3000 3487
3 1630 2145 3329
3 3277 1436 3309
3 2273 2227 3481
3 2427 3166 3621
3 2360 2361 3693
3 2507 2425 3582
3 3035 3022 3487
3 3420 3238 3473
3 2631 3612 3682
3 3146 3356 3589
3 1502 1488 3386
3 2138 2245 3554
3 2449 1997 3508
3 3754 2134 3759
3 1707 1702 3215
3 1885 1991 3372
3 1957 1953 3360
3 2660 2093 3546
3 2493 2494 3489
3 2259 3213 3585
3 2472 3307 3579
3 1744 3604 3605
3 3395 2473 3417
3 1834 1835 3389
3 3367 2470 3596
3 2497 3544 3545
3 2962 2671 3599
3 3628 2982 3652
3 3250 3164 3515
3 2447 3477 3530
3 3427 2491 3572
3 1397 1396 3200
3 3300 1406 3378
3 3219 1459 3418
3 1987 2202 3417
3 2396 2138 3554
3 1907 1998 3407
3 3302 2467 3412
3 2490 3260 3533
3 3545 2690 3557
3 3319 3513 3603
3 1561 1585 3563
3 3381 3380 3551
3 1395 1398 3181
3 3053 3340 3507
3 2629 2390 3519
3 2249 2667 3557
3 1736 1701 3637
3 2103 1973 3519
3 1459 1463 3418
3 2143 3169 3514
3 3481 2226 3607
3 2415 2618 3630
3 1983 1985 3592
3 1493 1473 3439
3 2251 2250 3555
3 2248 2076 3568
3 2502 2130 3383
3 2494 2498 3484
3 2947 2444 3467
3 3204 2463 3670
3 1740 1821 3558
3 1887 1885 3372
3 3595 3050 3659
3 2513 3157 3616
3 3350 1811 3580
3 2696 2052 3578
3 2127 3628 3652
3 3640 2635 3713
3 3036 3590 3606
3 2127 1443 3422
3 1572 1560 3569
3 3488 2147 3489
3 2245 3078 3554
3 2295 3158 3524
3 2149 3674 3679
3 2498 3252 3521
3 1414 3723 3735
3 2013 2211 3717
3 2694 3319 3603
3 2687 3485 3521
3 3616 1814 3663
3 3300 3378 3459
3 1520 1518 3354
3 1972 3564 3624
3 3344 2269 3695
3 2309 2696 3649
3 3074 2032 3451
3 2390 2103 3519
3 2707 2335 3733
3 2928 2625 3491
3 3111 3112 3710
3 3702 3006 3732
3 2317 2792 3586
3 3579 2685 3606
3 1693 3381 3658
3 2270 3083 3635
3 3154 3204 3670
3 1915 3147 3615
3 2695 3610 3691
3 3168 3274 3668
3 1488 1486 3386
3 1927 3297 3621
3 1908 1907 3407
3 2068 2204 3517
3 3125 3663 3668
3 1904 3139 3591
3 1516 1519 3547
3 3531 3376 3622
3 3506 2446 3540
3 1729 3379 3633
3 2165 3146 3559
3 3213 2259 3517
3 2491 2490 3532
3 2605 2604 3602
3 2024 2452 3400
3 2425 2426 3582
3 2671 2251 3555
3 2677 2680 3492
3 1465 1461 3402
3 2145 3082 3507
3 2929 3087 3698
3 3303 3420 3473
3 3657 2308 3684
3 2625 1845 3531
3 1537 1814 3581
3 2445 2129 3601
3 3442 2146 3534
3 3137 1767 3179
3 2674 2675 3647
3 3637 3279 3679
3 1656 3098 3522
3 2149 2622 3674
3 2045 1983 3592
3 2386 2981 3593
3 2665 3202 3625
3 3236 1601 3522
3 1944 2128 3571
3 1830 1828 3451
3 2037 3702 3732
3 2506 2472 3606
3 3581 3157 3597
3 3056 2676 3568
3 2980 3637 3679
3 1727 1774 3394
3 2467 3303 3473
3 2259 2068 3517
3 2622 3286 3644
3 2770 3481 3607
3 2494 3488 3489
3 3354 3736 3746
3 2505 3472 3601
3 3566 2538 3745
3 3400 2452 3680
3 3532 2490 3533
3 2141 3183 3449
3 3376 3044 3622
3 3157 3581 3616
3 3726 3216 3727
3 2974 3427 3572
3 2476 3156 3471
3 3510 2561 3511
3 3263 3262 3749
3 1585 1613 3563
3 1772 1894 3441
3 1705 3084 3426
3 2542 2532 3699
3 2633 3682 3710
3 1816 1720 3426
3 2175 2512 3504
3 2211 3248 3717
3 3131 2468 3640
3 2688 2689 3587
3 1808 1800 3565
3 2279 1960 3454
3 2692 2166 3388
3 2575 2816 2817
3 1787 1782 3591
3 2667 3295 3557
3 3564 3135 3598
3 1544 3322 3479
3 3448 2141 3449
3 2398 3155 3626
3 2523 3276 3403
3 1716 1772 3441
3 2364 2927 3693
3 3161 2659 3465
3 3070 3402 3443
3 3554 3078 3658
3 1443 1440 3422
3 1743 1726 3373
3 2279 3515 3548
3 3590 2506 3606
3 1893 2993 3419
3 1472 1511 3468
3 2668 2526 3619
3 3083 3518 3635
3 1676 3484 3485
3 1726 1728 3373
3 3459 2078 3560
3 2693 2980 3679
3 2116 2253 3566
3 2426 2961 3582
3 3080 3642 3658
3 2481 2332 3651
3 3403 3276 3404
3 1480 1478 3450
3 1960 1955 3454
3 1986 2047 3708
3 1452 1462 3358
3 1454 1467 3409
3 3146 2165 3356
3 2508 2664 3633
3 1782 1904 3591
3 2052 1913 3578
3 3513 3057 3603
3 2001 2165 3553
3 2488 3342 3635
3 2946 2694 3615
3 3687 3002 3721
3 2465 3366 3588
3 2671 3546 3599
3 3324 1550 3597
3 2659 3071 3465
3 3477 3209 3530
3 1778 1909 3292
3 2585 2789 3536
3 2032 1830 3451
3 2046 2175 3504
3 3440 2256 3594
3 1800 1798 3565
3 1733 1452 3358
3 3379 1972 3624
3 3519 3430 3612
3 3107 3110 3623
3 2695 2943 3611
3 3243 2255 3573
3 3468 1511 3470
3 3612 1851 3682
3 2533 2534 3705
3 2675 2677 3492
3 1827 1920 3431
3 1984 2046 3504
3 2328 2547 3542
3 1431 1750 3677
3 1744 3584 3604
3 1478 1852 3450
3 2531 2530 3632
3 1613 3171 3563
3 1738 1778 3292
3 1836 3458 3574
3 3546 2238 3599
3 2631 2629 3612
3 2253 2538 3566
3 1756 1715 3595
3 2130 1945 3383
3 2181 2180 3129
3 2261 3295 3556
3 3001 3004 3639
3 2681 2683 3722
3 3132 1944 3571
3 3553 2165 3559
3 2482 3496 3651
3 2271 3203 3598
3 2613 3657 3684
3 3053 3052 3340
3 2516 2367 3261
3 2717 3037 3503
3 1831 1834 3432
3 3530 3209 3550
3 3499 1412 3596
3 1913 1874 3578
3 1824 1942 3404
3 3648 2289 3718
3 2458 2460 3549
3 2934 2322 3686
3 3092 1976 3654
3 2689 2982 3628
3 2662 2665 3336
3 2226 3541 3607
3 2529 2513 3616
3 3046 2286 3716
3 2503 2511 3455
3 3674 2693 3679
3 3349 2036 3639
3 3610 2082 3691
3 1620 3234 3650
3 3725 3177 3742
3 1819 3516 3689
3 1817 1816 3405
3 1513 1688 3470
3 2239 3054 3627
3 2292 1878 2943
3 1420 1418 3661
3 3034 1570 3667
3 2669 2469 3543
3 3430 1851 3612
3 2625 3531 3622
3 2166 1699 3388
3 3581 1814 3616
3 2529 3616 3663
3 1467 2124 3409
3 1484 1693 3642
3 3485 2498 3521
3 3491 2625 3622
3 3052 3275 3340
3 2289 3671 3718
3 2520 3539 3654
3 3235 3159 3646
3 1511 1513 3470
3 1631 3302 3413
3 1767 1714 3179
3 2351 2765 3613
3 2331 2333 3562
3 1689 1633 3527
3 2142 3231 3656
3 2332 3037 3651
3 1826 1827 3431
3 3484 2498 3485
3 2548 2045 3592
3 3331 3241 3573
3 1623 1656 3522
3 3560 2290 3655
3 1412 3367 3596
3 3029 2458 3549
3 1535 1546 3641
3 2285 2692 3676
3 2290 3540 3655
3 2667 2672 3556
3 2633 3710 3713
3 1748 1644 3643
3 1814 3168 3663
3 2589 2341 3609
3 1750 3278 3683
3 3405 1816 3619
3 2036 3487 3639
3 1720 1705 3426
3 1461 1692 3402
3 3234 2127 3652
3 3302 3412 3413
3 3328 3177 3725
3 2464 2152 3631
3 1701 3279 3637
3 1601 1623 3522
3 3075 3387 3604
3 2180 2301 3129
3 3232 1933 3629
3 3539 3092 3654
3 2692 3669 3676
3 2472 3579 3606
3 2629 3519 3612
3 3125 2529 3663
3 3487 3001 3639
3 3649 2937 3720
3 2982 3122 3652
3 2185 2183 3671
3 2469 2462 3664
3 3336 2665 3337
3 2202 3395 3417
3 3354 3424 3736
3 2555 2351 3613
3 2713 2605 3602
3 1958 3748 3753
3 2290 3506 3540
3 3458 2480 3574
3 3505 2956 3634
3 3188 3543 3567
3 2638 2531 3632
3 2638 3632 3724
3 2177 2550 3662
3 3696 2700 3723
3 3078 3080 3658
3 3278 3582 3683
3 2086 2524 3666
3 2462 3306 3664
3 1557 1568 3636
3 3346 1557 3636
3 2022 2200 3528
3 3300 3459 3560
3 3165 2533 3706
3 3203 3564 3598
3 2170 3743 3755
3 2690 3545 3620
3 2038 3479 3552
3 2414 2609 3618
3 3479 3256 3552
3 2269 1864 3527
3 3462 3216 3648
3 1942 3403 3404
3 1809 1755 3486
3 3515 2686 3548
3 3604 3387 3605
3 1649 1754 3520
3 2988 3391 3677
3 3650 3234 3652
3 2082 3268 3691
3 2521 3403 3570
3 2689 3628 3646
3 1886 1817 3405
3 2037 3349 3702
3 3159 3587 3646
3 3379 3624 3633
3 2127 3422 3628
3 3669 1821 3724
3 2266 2958 3414
3 2072 2621 3660
3 1549 1548 3346
3 1600 3117 3704
3 3012 3453 3753
3 3287 2693 3674
3 3391 1429 3677
3 3655 3540 3681
3 3299 3300 3655
3 3624 2508 3633
3 3008 3009 3748
3 3176 3051 3737
3 2618 3575 3630
3 2532 2161 3672
3 3274 2142 3668
3 3085 2690 3620
3 1874 3461 3578
3 2367 2535 3261
3 2289 2185 3671
3 3676 2530 3694
3 3050 2464 3659
3 2532 3672 3692
3 2997 3687 3703
3 3300 3560 3655
3 2504 2237 3455
3 1989 2086 3666
3 2165 2071 3356
3 1857 3068 3665
3 2142 3656 3668
3 3242 3648 3718
3 2532 3692 3699
3 2633 2631 3682
3 1985 3351 3714
3 1519 1977 3547
3 3644 3287 3674
3 3729 3158 3742
3 3496 2481 3651
3 2023 2022 3528
3 3631 2989 3659
3 2700 2536 3723
3 1819 1764 3516
3 2481 3370 3617
3 2333 3400 3680
3 3279 2149 3679
3 3707 2168 3711
3 2283 2285 3539
3 3295 2667 3556
3 3582 2961 3683
3 2197 2481 3617
3 3561 2716 3600
3 3243 3240 3718
3 3026 3027 3704
3 3587 2689 3646
3 1755 1756 3486
3 1429 1431 3677
3 3026 3704 3711
3 2719 2307 3673
3 3509 3154 3670
3 3122 3650 3652
3 1764 1815 3516
3 2538 3665 3745
3 2622 3644 3674
3 3037 2752 3503
3 2520 2283 3539
3 3540 2700 3681
3 2464 3631 3659
3 2205 2072 3660
3 1942 3290 3570
3 1754 1931 3520
3 2680 2681 3714
3 3242 3462 3648
3 2944 2205 3660
3 2151 2223 3608
3 1410 3299 3681
3 3241 3243 3573
3 3387 2519 3605
3 2042 1783 3453
3 3349 3639 3702
3 1864 1689 3527
3 1411 1410 3696
3 3092 3539 3694
3 3738 1978 3750
3 3351 1819 3689
3 2609 2768 3618
3 1548 1557 3346
3 2240 3726 3727
3 2961 2988 3683
3 2014 1989 3666
3 3619 2526 3672
3 3728 3197 3731
3 1783 1788 3453
3 2170 1986 3708
3 2675 3492 3647
3 2696 3578 3716
3 3268 2168 3707
3 2544 2542 3703
3 2236 2505 3601
3 3740 2579 3751
3 3661 1418 3735
3 2237 2503 3455
3 3087 2368 3698
3 2731 3653 3680
3 2542 3699 3703
3 2129 2236 3601
3 1539 1549 3438
3 2309 3649 3720
3 2119 2195 3739
3 3002 3089 3721
3 3403 1942 3570
3 1851 3111 3682
3 3691 3268 3707
3 3402 1692 3443
3 3567 2469 3664
3 3171 2134 3754
3 3732 3008 3737
3 2383 2380 3561
3 2707 3733 3734
3 3543 2469 3567
3 1533 1539 3438
3 1968 2997 3703
3 3667 3344 3695
3 2595 2383 3561
3 1688 1515 3625
3 2168 3026 3711
3 2371 2102 3657
3 2102 2308 3657
3 3632 2530 3676
3 3158 2546 3742
3 2539 3158 3729
3 2075 3088 3715
3 3299 3655 3681
3 3610 2695 3611
3 3639 3004 3702
3 3578 3461 3716
3 2534 3344 3667
3 1414 1411 3696
3 3562 2333 3653
3 2308 2719 3697
3 3640 2468 3685
3 3067 3066 3577
3 2291 3341 3692
3 2025 2013 3717
3 3262 3261 3746
3 3453 1788 3753
3 3033 3034 3695
3 3112 3439 3710
3 2943 2942 3719
3 1961 3197 3728
3 3731 1810 3746
3 3699 1968 3703
3 2546 3725 3742
3 3341 1968 3699
3 3653 2333 3680
3 2187 2289 3726
3 2991 3497 3741
3 2701 3661 3735
3 2288 3610 3611
3 3262 3736 3749
3 3648 3216 3726
3 1415 1414 3735
3 1570 3347 3705
3 3662 2550 3678
3 3723 2701 3735
3 3034 3667 3695
3 2500 3649 3709
3 2530 2517 3694
3 3704 3117 3711
3 3439 1926 3713
3 3461 3046 3716
3 3004 3006 3702
3 2287 2500 3709
3 2540 3707 3711
3 2221 2340 3690
3 1451 1449 3744
3 2527 2695 3691
3 2641 2639 3750
3 2527 3691 3707
3 3700 2718 3701
3 2083 2082 3610
3 2540 2527 3707
3 3689 2680 3714
3 3066 3273 3577
3 2233 2611 3638
3 2288 2083 3610
3 3384 2309 3720
3 3006 3008 3732
3 3202 1688 3625
3 3165 3706 3728
3 2979 3744 3752
3 2286 2287 3709
3 3225 1978 3738
3 3497 1536 3741
3 2997 2998 3687
3 2535 3728 3731
3 2517 3092 3694
3 1857 3665 3757
3 1821 3225 3724
3 1414 3696 3723
3 3710 3439 3713
3 3197 1810 3731
3 2614 2613 3684
3 2998 3002 3687
3 3117 2540 3711
3 2528 2954 3743
3 3733 2698 3734
3 2246 2233 3638
3 3692 3341 3699
3 2692 3558 3669
3 3762 2548 3764
3 2042 3453 3756
3 1652 3661 3729
3 3240 3242 3718
3 2548 3592 3712
3 2613 2075 3715
3 2289 3648 3726
3 3051 2037 3732
3 3558 1821 3669
3 2639 2638 3738
3 2971 2241 3730
3 3216 3093 3727
3 3748 3012 3753
3 2785 2614 3684
3 2135 3328 3725
3 2536 2701 3723
3 3592 1985 3722
3 2335 3611 3719
3 2361 2364 3693
3 2240 2187 3726
3 2322 2986 3686
3 3351 3689 3714
3 2683 3712 3722
3 2595 3561 3600
3 3641 1546 3688
3 2697 2698 3733
3 3706 1961 3728
3 1536 1526 3741
3 2535 3165 3728
3 3736 3262 3746
3 3347 1961 3706
3 3743 2954 3755
3 3014 3016 3758
3 2170 3708 3743
3 2515 2516 3675
3 2753 2485 3700
3 1418 1415 3735
3 3712 3592 3722
3 3453 3012 3756
3 2340 2902 3690
3 2099 2702 3764
3 2954 2641 3755
3 1380 1381 3765
3 2533 3705 3706
3 3611 2943 3719
3 3758 3016 3759
3 1958 3176 3737
3 1652 3729 3742
3 3012 3011 3756
3 2466 3563 3754
3 2641 3750 3755
3 2538 2537 3757
3 1790 1958 3753
3 2691 2119 3739
3 3261 2535 3731
3 2485 2718 3700
3 2923 2515 3675
3 2136 3270 3749
3 3737 3008 3748
3 2699 2528 3743
3 3018 3754 3759
3 3730 2691 3739
3 2546 2545 3752
3 2638 3724 3738
3 3424 2136 3736
3 3016 3018 3759
3 3762 2702 3763
3 3009 3012 3748
3 1388 1385 3760
3 3665 2538 3757
3 3177 1652 3742
3 2135 3725 3752
3 3070 3443 3745
3 3739 2195 3740
3 1526 1857 3741
3 1810 3354 3746
3 2971 3730 3739
3 1449 2135 3744
3 3725 2546 3752
3 2547 2971 3740
3 3705 3347 3706
3 3724 3225 3738
3 1978 3321 3750
3 1788 1790 3753
3 2545 2979 3752
3 3321 2170 3755
3 3708 2699 3743
3 2547 3740 3751
3 3542 2547 3751
3 3011 3014 3756
3 3750 3321 3755
3 3563 3171 3754
3 2537 2991 3757
3 1958 3737 3748
3 3736 2136 3749
3 2971 3739 3740
3 2575 2817 3747
3 3121 2042 3758
3 2732 2575 3747
3 3712 2683 3761
3 2173 2548 3762
3 2945 1388 3760
3 3121 3758 3759
3 2134 3121 3759
3 2945 3760 3761
3 3760 2099 3761
3 2683 2945 3761
3 3712 3761 3764
3 2702 3762 3764
3 2296 3762 3763
3 2296 2173 3762
3 2548 3712 3764
3 3765 3678 3766
3 1381 1384 3765
3 2294 3678 3765
3 2550 2703 3766
3 1380 3765 3766
3 1384 2294 3765
3 3678 2550 3766
3 2702 1382 3767
3 3763 2702 3767
3 1380 3766 3768
3 3766 2703 3768
3 1376 3768 3769
3 3768 2703 3769
3 3770 2553 3771
3 2703 2704 3769
3 2179 2553 3770
3 2299 2179 3770
3 3609 2919 3778
3 2705 2919 3775
3 1375 1374 3772
3 1374 2064 3772
3 2589 3609 3773
3 2064 2551 3772
3 2706 3783 3784
3 1378 1375 3772
3 2919 2705 3778
3 3763 3767 3774
3 2919 2176 3775
3 2174 2296 3775
3 2296 3763 3777
3 3772 2551 3774
3 3282 2589 3773
3 1378 3772 3774
3 2705 2298 3778
3 3767 1378 3774
3 2176 2174 3775
3 3763 3774 3777
3 2551 2705 3777
3 3282 3773 3776
3 2298 2299 3778
3 3774 2551 3777
3 2319 2320 3779
3 2320 2552 3779
3 1369 1368 3785
3 1988 1371 3780
3 1376 3769 3780
3 1371 1373 3780
3 1365 1367 3790
3 1373 1376 3780
3 2319 3779 3784
3 3769 2704 3783
3 2326 3781 3782
3 2704 3152 3784
3 3779 2706 3784
3 3779 2552 3781
3 3780 3769 3783
3 1988 3780 3783
3 2706 1988 3783
3 3152 2319 3784
3 208 209 4980
3 2553 2063 3785
3 1372 1369 3785
3 2063 1372 3785
3 2798 2797 2833
3 1013 4090 4934
3 4525 4607 4608
3 4660 4661 4662
3 2978 4335 4348
3 3771 2553 3786
3 2021 2918 3787
3 2918 2401 3788
3 1925 3186 3788
3 1876 2021 3787
3 3186 1868 3787
3 2401 2055 3788
3 1354 986 2842
3 1368 2581 3786
3 4390 587 4701
3 3355 2900 4903
3 3785 1368 3786
3 3614 537 4882
3 2553 3785 3786
3 351 350 4862
3 205 206 4071
3 1868 1876 3787
3 2055 1925 3788
3 441 442 3929
3 1367 1370 3790
3 2326 3782 3790
3 3503 205 4071
3 942 1281 4876
3 1059 941 4876
3 2854 2598 3967
3 883 884 4853
3 3936 2838 3998
3 53 68 4570
3 3144 3143 3797
3 4008 834 4088
3 2552 3081 3798
3 3782 3781 3798
3 258 257 4655
3 585 584 4635
3 683 682 4639
3 2831 3990 4337
3 2899 2901 4075
3 1370 2326 3790
3 974 975 4323
3 2885 4089 4938
3 1351 4552 4981
3 2737 2736 2786
3 2603 2745 4978
3 2892 150 3997
3 1294 11 4852
3 3510 3511 3799
3 3734 2698 3799
3 3061 2722 3800
3 2414 3618 3801
3 3280 2412 3801
3 679 678 4500
3 581 596 4526
3 107 106 4542
3 389 404 4529
3 197 212 4509
3 922 921 4506
3 644 643 4571
3 732 731 4549
3 965 980 4546
3 305 304 4554
3 254 253 4575
3 544 543 4563
3 67 66 4568
3 452 451 4565
3 499 498 4589
3 726 725 4578
3 881 880 4592
3 774 773 4581
3 689 4334 4673
3 2893 495 4925
3 2601 2554 3802
3 6 3921 3940
3 3771 3786 3795
3 4853 4093 4895
3 4347 3149 4402
3 836 3908 4087
3 2934 3686 3910
3 4130 781 4907
3 246 245 4662
3 202 201 4608
3 365 1237 4893
3 1132 364 4893
3 751 1041 4894
3 1272 750 4894
3 3145 2901 4831
3 1277 711 4891
3 712 1156 4891
3 2604 3063 3912
3 3786 2581 3795
3 3143 3589 3797
3 2478 2541 3913
3 110 109 4471
3 2911 3970 4852
3 342 343 3968
3 3781 2552 3798
3 2782 3793 3794
3 691 692 3912
3 3686 2986 3915
3 1348 3993 4672
3 734 733 4553
3 488 489 4394
3 681 682 4826
3 3957 14 3963
3 779 778 4588
3 394 393 4541
3 249 248 4602
3 55 54 4598
3 3586 2792 3916
3 3978 4265 4670
3 1022 4675 4676
3 1280 4694 4695
3 493 2903 4360
3 4089 4090 4971
3 688 687 4463
3 112 111 4469
3 396 395 4472
3 781 780 4466
3 205 204 4475
3 496 495 4490
3 162 161 4478
3 588 587 4483
3 931 930 4487
3 878 877 4494
3 2698 3510 3799
3 3961 586 4390
3 2965 3061 3800
3 2808 2728 3614
3 2412 2414 3801
3 639 640 3934
3 2818 2586 3920
3 782 2937 4907
3 2891 2892 3956
3 969 968 4650
3 2554 2727 3802
3 2764 2559 2911
3 2719 3673 3922
3 2656 2743 3925
3 2836 726 4772
3 1350 4000 4001
3 2829 2830 3909
3 3770 3771 3928
3 1350 3999 4000
3 548 533 3958
3 253 3265 4344
3 3072 2775 3929
3 2975 3538 3930
3 633 634 4829
3 2225 2224 3931
3 2837 2556 3931
3 2715 2934 3910
3 2859 151 4072
3 2784 2783 4700
3 4071 206 4342
3 2816 2574 3935
3 3602 2604 3912
3 4357 4287 4969
3 3931 2224 3998
3 3397 2726 4606
3 2833 294 4350
3 2495 2478 3913
3 2901 2900 4831
3 2746 2747 3926
3 2730 2357 3116
3 2357 2742 3116
3 308 2910 3971
3 3576 2753 3937
3 2597 2599 4096
3 3912 3063 3981
3 997 998 4850
3 2986 2602 3915
3 1344 1345 1346
3 4243 993 4890
3 492 493 4360
3 2957 202 4741
3 2787 2584 3955
3 2720 2806 4307
3 1011 9 1012
3 2441 2891 3956
3 2439 2438 3956
3 2728 2555 3614
3 2555 3613 3614
3 2837 2838 4984
3 546 3104 4963
3 3795 2581 3911
3 3607 3541 3958
3 3937 2753 4127
3 4445 4444 4832
3 2443 2439 3960
3 3613 2765 4865
3 3043 2563 3961
3 2742 3586 3916
3 2886 1290 4089
3 2857 401 4973
3 2849 2730 3116
3 305 306 4347
3 4605 4444 4864
3 4177 1264 4858
3 3529 3246 3965
3 307 308 3971
3 3043 3961 4390
3 2782 3792 3793
3 2761 2760 4383
3 3751 2579 3966
3 3311 3114 3968
3 56 57 4843
3 2822 3265 3266
3 3940 3975 4037
3 3915 2602 3930
3 4543 108 4909
3 690 2863 4334
3 485 486 4739
3 3542 3751 3971
3 4396 490 4441
3 57 58 3920
3 4002 3701 4342
3 2865 2864 4961
3 2560 2865 4961
3 4324 17 4879
3 299 300 4847
3 2826 3281 3972
3 3174 3175 3973
3 4049 976 4859
3 489 490 4396
3 997 4502 4503
3 2586 2754 3920
3 3332 3311 3979
3 691 3912 3981
3 448 447 4458
3 540 539 4455
3 2920 2863 3981
3 540 3863 4969
3 56 4843 4866
3 3673 2710 3922
3 1290 1010 4934
3 3478 2656 3925
3 2595 3600 3988
3 352 353 3927
3 4462 447 4908
3 4090 1013 4091
3 3911 2761 4383
3 2876 2877 2882
3 874 875 4499
3 3776 3770 3928
3 638 639 3933
3 774 775 4306
3 881 3935 4335
3 684 4103 4104
3 247 2865 4339
3 2451 2896 4977
3 2896 2895 4977
3 972 3747 4385
3 3073 3072 3929
3 2602 2975 3930
3 2556 2225 3931
3 3385 2601 4094
3 3607 3958 4828
3 2580 3113 3989
3 259 260 2840
3 3792 347 3827
3 2831 2828 3990
3 4307 775 4924
3 3791 2780 3962
3 345 3791 3962
3 2829 3909 3969
3 4905 2905 4937
3 2838 3931 3998
3 18 1346 4910
3 4503 681 4826
3 450 4223 4227
3 974 4323 4927
3 2574 2576 3935
3 3446 2495 3998
3 3929 2775 4400
3 2859 2648 3997
3 542 543 3919
3 2717 3503 4071
3 3317 3316 4072
3 2868 250 4388
3 4471 109 4644
3 4444 2810 4832
3 3797 3589 3989
3 3990 445 4337
3 2977 2978 4348
3 3697 2719 4401
3 882 2908 4929
3 53 4570 4599
3 2825 3576 3937
3 2809 4357 4381
3 4090 4091 4885
3 1007 1343 1344
3 2725 3385 4095
3 2722 3498 4338
3 825 3937 4127
3 1949 3533 4098
3 2761 3911 4382
3 2765 3086 4100
3 2066 2144 4101
3 2583 2194 4101
3 260 2839 2840
3 2584 3415 3955
3 3910 3686 4884
3 2783 3892 4700
3 2587 2590 4107
3 2812 2791 4739
3 2908 2816 4929
3 3791 346 3792
3 394 3113 4877
3 2900 3355 4831
3 917 1365 4389
3 2438 2441 3956
3 3747 2817 4385
3 62 3983 4897
3 202 203 4741
3 2936 2707 4130
3 440 441 4400
3 4540 1132 4893
3 4587 1272 4894
3 4824 2758 4864
3 2898 2451 4329
3 3986 2594 3987
3 929 930 4840
3 154 3938 4399
3 636 2837 4984
3 2795 2963 3932
3 4330 987 4331
3 1242 4479 4990
3 3526 3690 4321
3 1210 4678 4679
3 544 545 4097
3 3541 3102 3958
3 3411 2570 3959
3 198 199 4511
3 2747 2750 3926
3 833 832 4452
3 736 735 4447
3 3444 2059 4322
3 3276 2726 4322
3 3600 2716 4323
3 301 300 4408
3 209 208 4435
3 547 546 4423
3 593 592 4428
3 155 154 4417
3 3916 2792 4772
3 4121 4225 4318
3 2648 2443 3960
3 2818 3920 4966
3 925 3806 4085
3 970 969 4617
3 4116 831 4725
3 2600 2598 2854
3 3508 2084 4329
3 2451 2449 4329
3 342 3968 4698
3 982 4118 4727
3 1215 657 4640
3 1046 897 4508
3 1031 359 4536
3 1122 167 4521
3 1218 745 4583
3 1028 95 4376
3 1038 375 4378
3 1030 287 4556
3 1233 317 4368
3 1189 147 4367
3 1174 801 4366
3 843 1014 4691
3 1153 239 4656
3 1255 33 4372
3 559 1071 4485
3 1111 615 4362
3 1173 697 4580
3 909 1161 4489
3 471 1070 4492
3 2616 2785 4334
3 2747 2748 2749
3 2563 2756 3961
3 834 835 4088
3 2791 2788 3964
3 971 972 4385
3 301 302 3985
3 440 4400 4609
3 735 734 4448
3 160 159 4482
3 2780 2779 3962
3 2711 3411 4344
3 63 64 3984
3 2885 2886 4089
3 2910 308 4830
3 2495 3913 3936
3 3151 3174 4346
3 686 687 4397
3 2861 3149 4347
3 300 299 4409
3 592 591 4429
3 546 545 4424
3 154 153 4418
3 2223 2977 4348
3 2576 3608 4348
3 3384 3720 4355
3 1002 4073 4074
3 498 3910 4884
3 4458 1209 4983
3 4455 1212 4982
3 4660 1265 4661
3 4525 1056 4607
3 3230 3529 3965
3 3720 2937 4898
3 4552 1351 4896
3 2902 303 4321
3 4120 3934 4742
3 737 738 4824
3 2915 2977 4979
3 209 3993 4980
3 112 3911 4383
3 4167 4166 4501
3 2848 2730 2849
3 441 3929 4400
3 2797 4830 4928
3 640 641 4742
3 2814 4886 4967
3 3958 533 4828
3 2579 2860 3966
3 2598 2596 3967
3 2715 3910 4126
3 3114 2773 3968
3 494 493 4055
3 684 683 4106
3 929 928 4123
3 586 585 4056
3 391 390 4532
3 259 258 4057
3 828 827 4064
3 60 59 4058
3 440 439 4065
3 149 164 4059
3 199 198 4518
3 639 638 4063
3 728 727 4062
3 346 345 4061
3 307 306 4066
3 632 631 4069
3 776 775 4309
3 399 398 4070
3 115 114 4068
3 872 871 4067
3 924 923 4086
3 824 823 4060
3 972 971 4386
3 3964 485 4739
3 824 825 4127
3 491 490 4678
3 308 293 4830
3 3038 2829 3969
3 3962 2779 3979
3 1346 1348 1355
3 293 308 4560
3 245 260 4660
3 393 392 4540
3 201 200 4525
3 778 777 4587
3 2710 3536 4397
3 3398 3396 4915
3 2740 2593 4099
3 2736 2713 4442
3 1366 1364 4382
3 489 488 4682
3 488 487 4684
3 2910 3542 3971
3 4122 2851 4296
3 593 594 3974
3 490 489 4680
3 2747 2749 2750
3 1008 13 3957
3 880 2978 4962
3 1272 4586 4717
3 1056 4524 4716
3 1132 4539 4720
3 1265 4659 4721
3 1130 4559 4723
3 727 3916 4772
3 3920 58 4966
3 4105 4825 4826
3 2723 2837 4714
3 305 4347 4402
3 738 3802 4824
3 3281 3282 3972
3 4569 1112 4570
3 1091 4470 4471
3 2731 2957 4741
3 824 4127 4336
3 3175 3196 3973
3 3902 978 3903
3 3803 836 3804
3 3880 829 3881
3 3888 112 3889
3 3900 781 3901
3 3810 787 3812
3 3894 396 3895
3 3878 729 3879
3 3858 973 3859
3 3860 541 3865
3 3867 441 3868
3 3852 633 3853
3 3906 688 3907
3 3832 251 3833
3 3839 150 3840
3 3825 348 3828
3 3896 205 3897
3 3844 162 3845
3 3834 57 3835
3 3829 64 3831
3 3882 739 3883
3 3821 353 3822
3 3886 402 3887
3 3854 449 3855
3 3856 588 3857
3 3815 931 3816
3 3871 641 3873
3 3805 925 3807
3 3808 825 3809
3 3841 104 3843
3 3836 296 3838
3 3813 878 3814
3 3874 496 3875
3 2788 2787 3964
3 4060 4595 4611
3 994 4353 4890
3 3967 2596 3988
3 877 2917 4671
3 547 548 4974
3 2797 2733 4830
3 3081 2729 4840
3 2779 3332 3979
3 2732 3747 4845
3 2727 2758 4824
3 2599 2720 4125
3 4561 4560 4562
3 492 491 4676
3 870 869 4695
3 2355 2558 2559
3 1044 4682 4683
3 3503 2752 4863
3 629 3618 4574
3 3063 2920 3981
3 2826 3972 4968
3 876 877 4671
3 2219 2401 4887
3 2891 2741 4889
3 2450 2451 4977
3 2895 2453 4977
3 1910 1949 4976
3 1355 1348 4672
3 4564 1154 4736
3 110 3914 4978
3 2084 3355 4903
3 3952 872 3953
3 2864 2338 4961
3 3452 2560 4961
3 924 4086 4109
3 824 4060 4108
3 632 4069 4111
3 149 4059 4110
3 828 4064 4114
3 440 4065 4112
3 728 4062 4113
3 972 4386 4387
3 922 4083 4935
3 3396 3395 4915
3 2202 3444 4915
3 3911 2581 4382
3 2759 2728 2808
3 3260 2339 4942
3 3790 3782 4389
3 976 975 4859
3 204 203 4476
3 587 586 4484
3 930 929 4488
3 687 686 4464
3 877 876 4495
3 495 494 4491
3 395 394 4473
3 111 110 4470
3 780 779 4467
3 968 967 4648
3 682 681 4637
3 257 256 4653
3 884 883 4668
3 486 485 4665
3 584 583 4633
3 248 247 4603
3 54 53 4599
3 3862 3919 4328
3 2906 4908 4937
3 540 541 3863
3 775 774 4582
3 727 726 4579
3 882 881 4593
3 733 732 4550
3 437 452 4566
3 545 544 4564
3 255 254 4576
3 68 67 4569
3 306 305 4555
3 629 644 4572
3 500 499 4590
3 923 922 4507
3 966 965 4547
3 390 389 4535
3 108 107 4544
3 582 581 4527
3 198 197 4520
3 680 679 4504
3 687 3922 4397
3 138 1195 4947
3 1256 137 4947
3 873 872 4690
3 875 874 4687
3 1033 4680 4681
3 401 402 4973
3 4287 539 4969
3 3960 2892 3997
3 2590 2592 3985
3 2596 2595 3988
3 2965 3800 4609
3 4741 203 4986
3 157 158 4949
3 1011 1351 4981
3 449 4227 4596
3 3113 2746 4877
3 3478 3925 4341
3 2873 2869 4340
3 548 3958 4974
3 689 690 4334
3 3776 3928 4343
3 3928 3771 4846
3 3892 3893 4700
3 4064 827 4299
3 4063 638 4250
3 4061 345 4236
3 4058 59 4260
3 4059 164 4257
3 4068 114 4151
3 4070 398 4148
3 3955 3415 4126
3 4091 4 4948
3 4511 199 4512
3 572 1270 4954
3 128 1241 4955
3 1221 127 4955
3 1102 527 4956
3 528 1128 4956
3 1025 571 4954
3 1077 275 4957
3 1176 187 4958
3 188 1235 4958
3 276 1191 4957
3 151 152 4072
3 714 1217 4959
3 812 1149 4960
3 1258 811 4960
3 1156 713 4959
3 2751 2770 4906
3 4097 3794 4328
3 2783 2749 3974
3 4447 4448 4959
3 3837 4243 4890
3 303 304 4321
3 738 739 4094
3 2878 2879 2880
3 3589 2580 3989
3 2819 2876 4989
3 2828 2827 3990
3 2794 3923 4349
3 923 924 4084
3 4031 62 4032
3 4040 55 4041
3 4019 102 4020
3 4023 249 4024
3 4027 294 4028
3 4044 400 4045
3 4015 785 4016
3 4052 116 4053
3 4497 876 4671
3 968 4651 4711
3 1296 3984 4737
3 2736 4442 4849
3 4299 1174 4366
3 4236 1233 4368
3 4151 1028 4376
3 4257 1189 4367
3 4260 1255 4372
3 4250 1111 4362
3 4148 1038 4378
3 4488 4123 4489
3 4484 4056 4485
3 4491 4055 4492
3 2885 2880 2886
3 921 4315 4316
3 822 4311 4312
3 207 4140 4141
3 596 4184 4185
3 831 4196 4197
3 212 4154 4156
3 404 4211 4213
3 298 4239 4240
3 678 4163 4164
3 543 4203 4204
3 773 4302 4303
3 304 4173 4174
3 451 4222 4224
3 66 4263 4264
3 731 4207 4208
3 152 4246 4247
3 158 4253 4254
3 253 4268 4269
3 927 4294 4295
3 534 4180 4181
3 980 4144 4145
3 643 4188 4189
3 725 4192 4193
3 917 4290 4291
3 106 4216 4217
3 590 4169 4170
3 498 4159 4160
3 690 4132 4133
3 880 4232 4233
3 1288 4496 4686
3 2918 2021 4340
3 2871 2918 4340
3 2847 2730 2848
3 246 247 4339
3 4351 4350 4359
3 3954 4499 4851
3 875 876 4497
3 4930 584 4941
3 4683 488 4684
3 4408 4409 4957
3 4428 4429 4954
3 4423 4424 4956
3 4417 4418 4955
3 1101 3816 4487
3 1163 3875 4490
3 1242 3845 4478
3 1092 3895 4472
3 1085 3889 4469
3 1274 3814 4494
3 1100 3901 4466
3 1164 3857 4483
3 1123 3897 4475
3 1261 3907 4463
3 4681 489 4682
3 2862 2612 4380
3 4682 488 4683
3 1113 4041 4598
3 1181 4024 4602
3 399 4070 4128
3 2750 2784 3976
3 115 4068 4129
3 1065 4688 4689
3 4680 489 4681
3 2790 2788 2791
3 59 2875 4966
3 2744 2802 2803
3 57 3920 4843
3 2757 2834 4079
3 1268 4486 4635
3 685 686 4319
3 104 3842 4922
3 2744 2803 4827
3 4233 1066 4592
3 4193 1198 4578
3 4269 1276 4575
3 4189 1287 4571
3 4185 1045 4526
3 4303 1099 4581
3 4264 1224 4568
3 4213 1283 4529
3 4217 1188 4542
3 4224 1177 4565
3 4204 1178 4563
3 4316 1286 4506
3 4160 1211 4589
3 4208 1250 4549
3 4145 1067 4546
3 4174 1282 4554
3 4156 1081 4509
3 4164 1069 4500
3 3920 2754 4843
3 2224 3446 3998
3 3884 302 3885
3 3898 692 3899
3 3869 636 3870
3 3904 210 3905
3 3876 548 3877
3 3890 594 3891
3 3846 156 3847
3 3823 356 3824
3 3850 343 3851
3 3817 536 3818
3 1357 919 1359
3 3819 444 3820
3 1360 1361 1362
3 3802 738 4094
3 160 4938 4971
3 2721 3042 4701
3 4515 2858 4516
3 2718 2717 4071
3 3316 2859 4072
3 3116 2742 4888
3 4457 1209 4458
3 4454 1212 4455
3 4060 823 4327
3 4123 928 4326
3 2786 2736 4849
3 2594 2593 2740
3 3827 3826 3866
3 729 730 3992
3 2782 2780 3791
3 884 4093 4853
3 3972 3282 4343
3 2801 3317 4629
3 3973 3196 4341
3 4103 2790 4104
3 780 781 4130
3 3246 3245 4440
3 3498 2793 4597
3 114 3928 4846
3 350 3975 4892
3 2848 2851 4122
3 1096 4637 4837
3 1094 4648 4838
3 1204 4653 4836
3 1024 4633 4834
3 1120 4665 4835
3 1093 4668 4839
3 668 669 1297
3 960 961 1305
3 192 193 1306
3 758 759 1307
3 676 645 1333
3 182 183 1301
3 576 577 1300
3 372 373 1302
3 92 93 1303
3 384 385 1310
3 280 281 1335
3 722 723 1309
3 806 807 1313
3 702 703 1325
3 532 501 1304
3 612 613 1336
3 622 623 1320
3 476 477 1299
3 414 415 1314
3 518 519 1315
3 950 951 1317
3 606 607 1329
3 314 315 1316
3 564 565 1298
3 430 431 1311
3 132 133 1318
3 144 145 1322
3 120 121 1321
3 226 227 1331
3 30 31 1319
3 76 77 1308
3 44 45 1324
3 268 269 1312
3 324 325 1323
3 340 309 1330
3 334 335 1326
3 420 421 1327
3 508 509 1328
3 914 915 1334
3 856 857 1332
3 770 771 1337
3 798 799 1338
3 902 903 1339
3 820 789 1341
3 890 891 1340
3 4333 1010 4883
3 4309 4582 4583
3 4062 4579 4580
3 4086 4507 4508
3 4066 4555 4556
3 4532 4535 4536
3 4518 4520 4521
3 62 63 3983
3 3996 1295 4307
3 533 534 4828
3 3972 116 4968
3 2744 2801 2802
3 784 785 4985
3 2870 2873 4098
3 4676 491 4677
3 4695 869 4696
3 4552 1293 4981
3 3963 3991 4219
3 586 587 4390
3 3949 3947 4651
3 4426 4428 4954
3 4415 4417 4955
3 4406 4408 4957
3 4433 4435 4958
3 4421 4423 4956
3 4633 1024 4634
3 4648 1094 4649
3 4653 1204 4654
3 4637 1096 4638
3 4665 1120 4666
3 4668 1093 4669
3 2601 3802 4094
3 739 740 4095
3 3965 3246 4440
3 4443 4447 4959
3 4450 4452 4960
3 669 670 4131
3 645 646 4162
3 77 78 4215
3 193 194 4153
3 385 386 4210
3 961 962 4143
3 703 704 4206
3 477 478 4158
3 501 502 4179
3 183 184 4139
3 373 374 4147
3 623 624 4187
3 269 270 4238
3 577 578 4183
3 807 808 4195
3 93 94 4150
3 121 122 4245
3 145 146 4256
3 281 282 4172
3 31 32 4259
3 227 228 4267
3 133 134 4252
3 759 760 4135
3 431 432 4221
3 335 336 4277
3 891 892 4314
3 315 316 4235
3 45 46 4262
3 415 416 4199
3 519 520 4202
3 723 724 4191
3 325 326 4274
3 613 614 4249
3 421 422 4280
3 309 310 4271
3 607 608 4228
3 915 916 4289
3 789 790 4310
3 509 510 4284
3 565 566 4168
3 799 800 4298
3 903 904 4293
3 857 858 4231
3 771 772 4301
3 951 952 4176
3 64 3830 3984
3 3934 4121 4318
3 1234 85 4645
3 4045 1076 4729
3 4020 1187 4734
3 4024 1181 4731
3 4032 1223 4732
3 4041 1113 4733
3 4028 1259 4735
3 4016 1019 4730
3 3948 3947 4991
3 4053 1073 4728
3 4089 1290 4090
3 2789 2788 2790
3 2787 3955 4916
3 3968 2773 4698
3 1020 4495 4496
3 1040 4464 4465
3 1247 4476 4477
3 1262 4467 4468
3 1087 4473 4474
3 2848 2850 2851
3 3959 2570 4887
3 2872 3959 4887
3 1149 813 4451
3 3533 3260 4098
3 1251 4603 4604
3 538 539 4287
3 735 736 4444
3 835 836 4087
3 3086 2751 4100
3 4306 775 4307
3 2194 2066 4101
3 3958 3102 4974
3 251 3959 4388
3 1270 573 4427
3 4722 1254 4940
3 4718 1172 4939
3 1362 2354 2355
3 2599 2598 2600
3 4006 834 4007
3 4035 351 4036
3 4011 737 4012
3 4048 976 4049
3 3230 3965 4866
3 3961 2756 4917
3 1295 4306 4307
3 2908 2909 4384
3 538 4285 4286
3 446 4281 4282
3 783 4136 4137
3 4677 491 4678
3 4719 1223 4944
3 2718 4071 4342
3 1217 715 4446
3 4495 1020 4702
3 4470 1091 4709
3 4488 1161 4703
3 4464 1040 4710
3 4484 1071 4704
3 4473 1087 4708
3 4491 1070 4705
3 4476 1247 4706
3 4467 1262 4707
3 491 492 4361
3 2850 2849 3992
3 2813 2814 4921
3 2847 2848 4122
3 4603 1251 4712
3 4599 1239 4713
3 2889 591 4358
3 635 4229 4870
3 443 4200 4867
3 342 4272 4869
3 355 4278 4868
3 2830 2832 2839
3 2902 2587 4107
3 3991 992 4902
3 438 439 4338
3 2835 2831 4337
3 3975 351 4037
3 2593 2826 4099
3 1052 4593 4773
3 1082 4544 4789
3 1122 4520 4785
3 1046 4507 4786
3 1031 4535 4787
3 1053 4547 4780
3 1144 4572 4784
3 1030 4555 4777
3 1218 4582 4774
3 1124 4576 4782
3 1112 4569 4779
3 1154 4564 4781
3 1141 4566 4778
3 1173 4579 4775
3 1035 4527 4788
3 1023 4590 4776
3 1155 4504 4790
3 1147 4550 4783
3 927 928 4296
3 766 767 4013
3 956 957 4046
3 380 381 4042
3 264 265 4025
3 72 73 4017
3 718 719 4009
3 816 817 4004
3 330 331 4033
3 100 69 4050
3 222 223 4021
3 26 27 4038
3 40 41 4029
3 999 3918 4102
3 4090 4885 4971
3 922 923 4083
3 2599 2600 2720
3 4593 1052 4594
3 4572 1144 4573
3 4566 1141 4567
3 4576 1124 4577
3 4550 1147 4551
3 4547 1053 4548
3 4544 1082 4545
3 4590 1023 4591
3 4504 1155 4505
3 4527 1035 4528
3 1354 2841 4905
3 2781 2780 2782
3 4690 1014 4833
3 1048 4615 4616
3 1140 4626 4627
3 4621 1106 4622
3 1139 4621 4622
3 4626 1107 4627
3 4615 1281 4616
3 4687 1158 4841
3 1055 887 4404
3 1135 505 4413
3 1241 129 4416
3 1128 529 4422
3 1191 277 4407
3 1216 673 4438
3 1235 189 4434
3 3807 1058 4791
3 3809 1061 4792
3 3814 1274 4793
3 3804 1032 4798
3 3816 1101 4797
3 3843 1049 4795
3 3812 1072 4800
3 3838 1050 4796
3 3875 1163 4794
3 3822 1208 4799
3 3855 1171 4801
3 3828 1254 4803
3 3831 1186 4804
3 3835 1168 4805
3 3833 1231 4808
3 3845 1242 4806
3 3840 1257 4807
3 3857 1164 4802
3 3853 1246 4810
3 3873 1172 4809
3 3859 1015 4814
3 3868 1245 4812
3 3865 1202 4815
3 3887 1238 4811
3 3883 1098 4813
3 3879 1252 4816
3 3897 1123 4817
3 3881 1253 4818
3 3895 1092 4819
3 3889 1085 4820
3 3901 1100 4821
3 3907 1261 4822
3 3903 1275 4823
3 2899 4075 4855
3 4690 4067 4691
3 4481 160 4482
3 3415 2715 4126
3 21 1239 4600
3 1352 2894 4391
3 2592 2593 2594
3 2753 3700 4127
3 250 251 4388
3 2707 3734 4130
3 252 253 4344
3 932 917 4389
3 4115 4116 4117
3 1347 3980 4088
3 4105 2811 4923
3 4096 2599 4125
3 637 2963 4714
3 3536 2789 4319
3 2835 4337 4462
3 836 821 3908
3 3690 2902 4321
3 3917 965 3918
3 786 787 4081
3 2852 2850 2894
3 2821 3977 4630
3 2709 2857 2858
3 763 1019 4461
3 513 1212 4456
3 425 1209 4459
3 351 352 4037
3 2059 3276 4322
3 2612 2721 4380
3 2716 2940 4323
3 4166 679 4501
3 687 688 4401
3 2977 2399 4979
3 2648 3960 3997
3 3618 2768 4574
3 982 4117 4118
3 4127 3700 4336
3 3932 638 3933
3 1000 1295 3996
3 3830 4331 4737
3 1353 4825 4923
3 534 535 4906
3 945 946 4613
3 601 602 4624
3 409 410 4619
3 1200 4861 4862
3 4095 740 4606
3 256 2843 2844
3 2449 3508 4329
3 2903 2799 4360
3 3149 3526 4402
3 1158 4687 4688
3 162 163 4878
3 2869 2871 4340
3 3925 2743 4738
3 2608 2907 4345
3 2758 2728 2759
3 2863 2616 4334
3 2726 2725 4606
3 301 3985 3986
3 3985 2592 3986
3 3926 2750 3976
3 4225 984 4227
3 101 102 4886
3 3700 3701 4336
3 1351 1012 1352
3 445 446 4337
3 3800 2722 4338
3 3995 582 4073
3 4481 4482 4947
3 3701 4003 4336
3 105 106 4219
3 3196 3478 4341
3 2755 2893 4925
3 3701 2718 4342
3 3282 3776 4343
3 3104 2777 4963
3 2559 2558 2911
3 4854 110 4978
3 4403 1055 4404
3 4412 1135 4413
3 4415 1241 4416
3 4421 1128 4422
3 4406 1191 4407
3 4433 1235 4434
3 4437 1216 4438
3 4715 1271 4987
3 2833 2797 4928
3 1066 4233 4743
3 1099 4303 4749
3 1219 4295 4747
3 1055 4291 4746
3 1260 4170 4744
3 1198 4193 4748
3 1211 4160 4745
3 1276 4269 4751
3 1256 4254 4753
3 1224 4264 4754
3 1287 4189 4750
3 1177 4224 4758
3 1229 4247 4756
3 1178 4204 4760
3 1135 4181 4755
3 1282 4174 4761
3 1067 4145 4759
3 1054 4312 4765
3 1250 4208 4763
3 1188 4217 4757
3 1216 4133 4752
3 1258 4197 4764
3 1114 4240 4762
3 1283 4213 4766
3 1045 4185 4767
3 1286 4316 4771
3 1081 4156 4769
3 1176 4141 4768
3 1069 4164 4770
3 3265 2711 4344
3 2766 2608 4345
3 58 59 4966
3 4103 685 4319
3 2789 4103 4319
3 2774 3151 4346
3 2860 2861 4347
3 3144 3797 4919
3 3608 2223 4348
3 2793 2794 4349
3 2807 3384 4355
3 3955 500 4916
3 594 595 3892
3 427 1171 4983
3 1212 514 4982
3 515 1202 4982
3 1209 426 4983
3 2880 2881 2886
3 4426 1270 4427
3 591 592 4358
3 2906 2835 4462
3 967 968 4711
3 785 786 4325
3 2354 1361 2824
3 4331 3830 4975
3 2887 980 3917
3 636 637 4714
3 988 1296 4737
3 737 4824 4864
3 968 969 4651
3 2844 2845 4926
3 439 3800 4338
3 1022 4676 4677
3 1280 4695 4696
3 2735 3280 4899
3 4443 1217 4446
3 3245 2820 4856
3 3993 209 4672
3 832 833 4726
3 4345 829 4610
3 3797 396 4919
3 300 3987 4847
3 776 777 4125
3 55 3965 4440
3 1242 4478 4479
3 4450 833 4452
3 4443 736 4447
3 2581 1366 4382
3 107 108 4543
3 1019 4460 4461
3 1209 4457 4459
3 1212 4454 4456
3 2855 979 2887
3 953 954 4858
3 2872 2868 4388
3 111 112 4383
3 4450 1149 4451
3 2817 2908 4384
3 733 4552 4896
3 4406 301 4408
3 4433 209 4435
3 4421 547 4423
3 4426 593 4428
3 4415 155 4417
3 635 636 4984
3 4087 1347 4088
3 3922 687 4401
3 4531 391 4533
3 726 727 4772
3 4350 295 4359
3 297 298 4243
3 3926 393 4877
3 2838 4970 4984
3 4830 293 4928
3 3355 2054 4831
3 447 4457 4458
3 539 4454 4455
3 4623 4069 4624
3 4618 4065 4619
3 4612 4386 4613
3 3042 3043 4390
3 4355 3720 4898
3 4329 2084 4903
3 1347 1343 3980
3 4594 1026 4667
3 4577 1207 4652
3 4548 1027 4647
3 4591 1266 4664
3 4545 1234 4644
3 4505 1063 4636
3 4528 1213 4632
3 2766 4345 4610
3 418 419 4871
3 338 339 4872
3 312 313 4873
3 610 611 4874
3 4330 3978 4332
3 3934 4120 4121
3 354 3925 4738
3 2774 4346 4698
3 393 394 4877
3 2803 3927 4827
3 1365 3790 4389
3 2824 1361 4935
3 2719 3922 4401
3 592 593 4432
3 2775 2776 4400
3 2355 2354 2558
3 304 305 4402
3 4133 1036 4752
3 4164 1121 4770
3 4217 1037 4757
3 4156 1138 4769
3 4185 1143 4767
3 4160 1034 4745
3 4213 1079 4766
3 4208 1225 4763
3 4145 1162 4759
3 4141 1236 4768
3 4181 1197 4755
3 4170 1080 4744
3 4189 1118 4750
3 4247 1194 4756
3 4240 1029 4762
3 4174 1078 4761
3 4224 1116 4758
3 4197 1226 4764
3 4269 1232 4751
3 4254 1206 4753
3 4204 1117 4760
3 4264 1220 4754
3 4193 1145 4748
3 4316 1285 4771
3 4291 1150 4746
3 4312 1284 4765
3 4233 1159 4743
3 4295 1160 4747
3 4303 1064 4749
3 2054 3145 4831
3 688 689 4673
3 3935 2576 4335
3 4393 488 4394
3 54 55 4440
3 288 289 4557
3 318 319 4369
3 240 241 4657
3 34 35 4373
3 616 617 4363
3 168 169 4522
3 360 361 4537
3 658 659 4641
3 746 747 4584
3 4323 2940 4927
3 4493 4492 4674
3 4692 4691 4693
3 3980 981 4727
3 2771 2757 2772
3 644 629 4574
3 829 830 4610
3 3953 873 3954
3 2915 879 4962
3 4400 2776 4609
3 3983 3984 4054
3 2713 3602 4442
3 2832 2831 2835
3 3795 113 4846
3 678 679 4166
3 376 377 4379
3 96 97 4377
3 4218 107 4543
3 543 544 4328
3 349 350 4892
3 2594 2813 3987
3 4424 4564 4736
3 437 438 4597
3 2873 4340 4976
3 4512 4514 4515
3 2917 2738 4671
3 1259 4028 4561
3 1294 3970 4398
3 587 588 4701
3 2776 2965 4609
3 2811 2812 4923
3 2815 2766 4610
3 2750 2783 2784
3 1129 4053 4728
3 1273 4016 4730
3 1108 4028 4735
3 1133 4045 4729
3 1083 4020 4734
3 1203 4024 4731
3 1167 4041 4733
3 1279 4032 4732
3 3793 3827 3864
3 152 153 4629
3 2820 2821 4630
3 4711 3948 4920
3 2848 2849 2850
3 3936 4829 4970
3 1195 4480 4481
3 2881 2879 2883
3 881 882 4929
3 2785 3697 4673
3 3959 2872 4388
3 2773 2774 4698
3 574 575 4431
3 1296 1 4333
3 4078 4115 4117
3 3842 105 4219
3 3959 251 4972
3 2739 4167 4918
3 4391 732 4896
3 4393 2812 4933
3 2765 4100 4865
3 2794 2796 3923
3 3936 3913 4829
3 2963 2723 4714
3 4393 1353 4923
3 971 4385 4697
3 728 729 4724
3 353 354 4738
3 787 3811 4081
3 4118 4116 4725
3 4485 4056 4486
3 4970 635 4984
3 3653 2731 4741
3 396 397 4919
3 4724 3116 4888
3 1288 4686 4841
3 3969 246 4339
3 1294 4398 4900
3 2808 3614 4882
3 2792 2836 4772
3 2821 2822 2823
3 1065 4689 4833
3 86 87 4646
3 2759 2809 2810
3 4320 3266 4926
3 2795 3932 4124
3 781 782 4907
3 3922 2710 4397
3 3266 254 4926
3 4922 2814 4967
3 3771 3795 4846
3 1097 3907 4822
3 1043 3903 4823
3 1051 3897 4817
3 1060 3901 4821
3 1249 3895 4819
3 1095 3875 4794
3 1243 3889 4820
3 1089 3883 4813
3 1088 3887 4811
3 1193 3873 4809
3 1148 3881 4818
3 1183 3868 4812
3 1146 3879 4816
3 1269 3857 4802
3 1062 3859 4814
3 1184 3865 4815
3 1248 3838 4796
3 1192 3855 4801
3 1175 3845 4806
3 1228 3840 4807
3 1185 3853 4810
3 1179 3835 4805
3 1227 3831 4804
3 1151 3833 4808
3 1169 3828 4803
3 1042 3814 4793
3 1244 3822 4799
3 1201 3843 4795
3 1090 3816 4797
3 1240 3809 4792
3 1222 3807 4791
3 1165 3812 4800
3 1278 3804 4798
3 4886 102 4967
3 2794 2795 2796
3 4353 4351 4359
3 2886 2881 4076
3 3863 3982 4969
3 2770 3607 4828
3 4885 159 4971
3 2720 4307 4924
3 257 2842 2843
3 4666 1068 4685
3 4509 1081 4785
3 4526 1045 4788
3 4571 1287 4784
3 4500 1069 4790
3 4546 1067 4780
3 4506 1286 4786
3 4529 1283 4787
3 4549 1250 4783
3 4575 1276 4782
3 4563 1178 4781
3 4542 1188 4789
3 4568 1224 4779
3 4554 1282 4777
3 4565 1177 4778
3 4578 1198 4775
3 4589 1211 4776
3 4592 1066 4773
3 4581 1099 4774
3 2743 2744 4827
3 2733 2910 4830
3 2880 2879 2881
3 1048 4613 4614
3 1140 4624 4625
3 1139 4619 4620
3 3097 2735 4899
3 497 498 4884
3 2729 2847 4840
3 1113 4598 4713
3 1181 4602 4712
3 2978 2915 4962
3 3994 581 3995
3 814 815 4453
3 1100 4466 4707
3 1123 4475 4706
3 1261 4463 4710
3 1085 4469 4709
3 1092 4472 4708
3 1163 4490 4705
3 1101 4487 4703
3 1164 4483 4704
3 1274 4494 4702
3 4516 2858 4631
3 1048 4614 4615
3 1140 4625 4626
3 1139 4620 4621
3 2754 3229 4843
3 3949 3950 4895
3 685 4643 4987
3 2592 2594 3986
3 337 338 4912
3 609 610 4913
3 311 312 4911
3 417 418 4914
3 1041 4468 4588
3 1237 4474 4541
3 294 295 4350
3 4117 982 4119
3 4497 2739 4498
3 2803 2804 2805
3 2941 2732 4845
3 397 398 4855
3 4649 1059 4650
3 209 210 4672
3 4442 677 4849
3 2813 2740 2814
3 113 114 4846
3 4092 3946 4093
3 347 4371 4940
3 640 4365 4939
3 447 448 4908
3 2767 2815 4115
3 677 678 4849
3 4843 3229 4866
3 61 4375 4944
3 2851 2853 4296
3 2759 2808 2809
3 402 403 4631
3 2879 61 4897
3 2803 2802 2804
3 4118 4726 4727
3 2768 2767 2769
3 53 54 4856
3 2883 2879 4897
3 833 4008 4726
3 2768 4077 4574
3 4077 644 4574
3 2752 3562 4863
3 736 737 4864
3 2851 2850 2852
3 535 536 4865
3 3229 3230 4866
3 4512 4515 4517
3 4551 1277 4553
3 3653 4741 4986
3 3802 2727 4824
3 3893 596 3994
3 733 734 4552
3 535 4100 4906
3 2763 2559 2764
3 2911 2558 3970
3 966 967 4920
3 293 4560 4561
3 350 4275 4862
3 3686 3915 4884
3 109 110 4854
3 2941 4845 4927
3 2570 2219 4887
3 716 717 4449
3 4223 3924 4225
3 2741 2819 4889
3 3794 3862 4328
3 2800 4351 4352
3 584 585 4941
3 3872 4119 4842
3 1346 1355 4910
3 190 191 4436
3 278 279 4411
3 530 531 4425
3 674 675 4439
3 130 131 4420
3 506 507 4414
3 888 889 4405
3 2812 4739 4933
3 4860 4036 4861
3 1003 3994 3995
3 2738 2737 2739
3 4099 101 4886
3 3913 3096 4829
3 4644 1234 4645
3 782 783 4898
3 3837 297 4243
3 4559 1074 4723
3 4371 1115 4722
3 4659 1166 4721
3 4375 1205 4719
3 4365 1214 4718
3 4524 1104 4716
3 4539 1075 4720
3 4643 1017 4715
3 4586 1018 4717
3 3614 3613 4943
3 2900 2898 4903
3 537 538 4882
3 4265 67 4670
3 995 1353 4392
3 2937 2936 4907
3 2800 4352 4354
3 3935 881 4929
3 4087 3908 4988
3 4863 3562 4986
3 1362 1361 2354
3 3915 497 4884
3 2830 2831 2832
3 1281 4615 4617
3 3395 2202 4915
3 500 485 4916
3 2399 2916 4979
3 2756 2771 4917
3 4001 208 4980
3 343 344 4964
3 2852 1352 3796
3 2789 2790 4103
3 4850 4498 4918
3 732 733 4896
3 4829 634 4970
3 4079 2834 4325
3 3538 2755 4925
3 163 164 4989
3 4265 4331 4975
3 251 252 4972
3 2759 2810 4605
3 2810 4444 4605
3 2816 3935 4929
3 3932 3933 4124
3 2940 2941 4927
3 293 294 4928
3 3946 3949 4895
3 879 880 4962
3 785 4325 4985
3 4325 2834 4985
3 2838 3936 4970
3 490 491 4441
3 3979 3311 4964
3 65 66 4975
3 2799 2798 2800
3 3940 3921 3975
3 2821 2823 3977
3 4399 2802 4844
3 967 4711 4920
3 931 932 4950
3 777 4096 4125
3 2750 2749 2783
3 2339 2866 4942
3 536 537 4943
3 3948 4102 4920
3 975 4177 4859
3 491 4361 4441
3 1350 4001 4980
3 3782 3798 4950
3 558 4485 4486
3 470 4492 4493
3 842 4691 4692
3 2746 3926 4877
3 2338 3452 4961
3 2777 3264 4963
3 2875 2818 4966
3 4223 451 4356
3 3943 1009 4324
3 116 101 4968
3 634 635 4970
3 3102 3103 4974
3 2021 1910 4976
3 2453 2450 4977
3 259 2840 2841
3 2834 2992 4985
3 3562 3653 4986
3 837 838 4931
3 465 466 4932
3 735 4444 4445
3 201 4525 4608
3 245 4660 4662
3 4115 2815 4116
3 258 2841 2842
3 3951 3944 4740
3 3982 4357 4969
3 446 447 4462
3 4638 1215 4639
3 4634 1268 4635
3 4654 1153 4655
3 4170 1260 4430
3 4247 1229 4419
3 4240 1114 4410
3 158 4885 4949
3 4083 4084 4900
3 108 109 4909
3 2817 4384 4385
3 4102 3918 4920
3 731 732 4391
3 5 3939 4699
3 3939 5 3940
3 1187 4020 4051
3 2811 2791 2812
3 4678 490 4680
3 4117 4116 4118
3 2876 2882 4878
3 308 4559 4560
3 260 4659 4660
3 392 4539 4540
3 777 4586 4587
3 200 4524 4525
3 3993 1350 4980
3 254 255 4926
3 2790 2811 4104
3 2742 3916 4888
3 451 452 4356
3 1032 3804 4005
3 1049 3843 4018
3 1208 3822 4034
3 1186 3831 4030
3 1168 3835 4039
3 1231 3833 4022
3 1050 3838 4026
3 1072 3812 4014
3 1098 3883 4010
3 1238 3887 4043
3 1275 3903 4047
3 3794 3793 3862
3 2804 3938 3939
3 3798 931 4950
3 3947 3945 4991
3 4486 4056 4635
3 1021 4049 4857
3 1170 4036 4860
3 1058 3807 4109
3 1061 3809 4108
3 1246 3853 4111
3 1257 3840 4110
3 1245 3868 4112
3 1015 3859 4387
3 1252 3879 4113
3 1253 3881 4114
3 4340 2021 4976
3 4331 988 4737
3 1076 4045 4128
3 1073 4053 4129
3 2905 2835 2906
3 461 462 4945
3 2809 4287 4357
3 459 460 4946
3 2822 3266 4320
3 866 867 1093
3 87 88 1091
3 367 368 1087
3 383 384 1088
3 279 280 1086
3 456 457 1068
3 561 562 1164
3 652 653 1063
3 769 770 1165
3 665 666 1261
3 282 283 1078
3 578 579 1143
3 99 100 1129
3 473 474 1163
3 694 695 1198
3 962 963 1162
3 753 754 1262
3 765 766 1273
3 710 711 1277
3 650 651 1155
3 858 859 1159
3 853 854 1274
3 944 945 1048
3 864 865 1026
3 672 673 1216
3 744 745 1218
3 466 467 1022
3 554 555 1024
3 69 70 1187
3 365 366 1237
3 936 937 1027
3 173 174 1190
3 261 262 1259
3 194 195 1138
3 656 657 1215
3 482 483 1023
3 570 571 1025
3 381 382 1238
3 411 412 1245
3 531 532 1136
3 179 180 1123
3 847 848 1158
3 386 387 1079
3 899 900 1058
3 186 187 1176
3 760 761 1263
3 661 662 1271
3 82 83 1082
3 434 435 1177
3 522 523 1178
3 795 796 1061
3 515 516 1202
3 957 958 1275
3 952 953 1264
3 749 750 1272
3 274 275 1077
3 916 885 1150
3 724 693 1145
3 708 709 1147
3 812 813 1149
3 97 98 1073
3 819 820 1278
3 361 362 1075
3 377 378 1076
3 860 861 1066
3 772 741 1064
3 91 92 1243
3 458 459 1142
3 803 804 1253
3 419 420 1125
3 507 508 1126
3 617 618 1214
3 460 461 1044
3 117 118 1257
3 432 433 1116
3 520 521 1117
3 704 705 1225
3 416 417 1134
3 938 939 1094
3 598 599 1107
3 504 505 1135
3 624 625 1118
3 608 609 1137
3 48 49 1224
3 913 914 1090
3 800 801 1174
3 712 713 1156
3 80 81 1188
3 699 700 1252
3 721 722 1089
3 904 905 1160
3 454 455 1120
3 646 647 1121
3 696 697 1173
3 122 123 1194
3 528 529 1128
3 600 601 1140
3 886 887 1055
3 413 414 1183
3 289 290 1074
3 427 428 1171
3 408 409 1139
3 46 47 1220
3 843 844 1014
3 169 170 1104
3 706 707 1250
3 429 430 1192
3 955 956 1021
3 942 943 1281
3 71 72 1083
3 502 503 1197
3 23 24 1113
3 851 852 1020
3 119 120 1228
3 526 527 1102
3 331 332 1208
3 223 224 1231
3 406 407 1106
3 763 764 1019
3 319 320 1115
3 934 935 1053
3 171 172 1056
3 663 664 1040
3 675 676 1119
3 236 237 1204
3 425 426 1209
3 513 514 1212
3 517 518 1184
3 901 902 1222
3 471 472 1070
3 29 30 1179
3 41 42 1186
3 143 144 1175
3 215 216 1196
3 128 129 1241
3 219 220 1181
3 146 147 1189
3 25 26 1167
3 263 264 1108
3 39 40 1279
3 138 139 1195
3 175 176 1105
3 480 481 1211
3 575 576 1039
3 225 226 1151
3 329 330 1170
3 838 839 1280
3 94 95 1028
3 559 560 1071
3 136 137 1256
3 810 811 1258
3 849 850 1288
3 32 33 1255
3 808 809 1226
3 221 222 1203
3 484 453 1266
3 572 573 1270
3 792 793 1054
3 815 816 1103
3 313 314 1152
3 719 720 1098
3 896 897 1046
3 241 242 1166
3 134 135 1206
3 892 893 1285
3 35 36 1205
3 234 235 1207
3 717 718 1157
3 614 615 1111
3 701 702 1146
3 217 218 1251
3 911 912 1101
3 124 125 1229
3 316 317 1233
3 339 340 1182
3 43 44 1227
3 27 28 1168
3 184 185 1236
3 321 322 1254
3 336 337 1131
3 166 167 1122
3 228 229 1232
3 232 233 1124
3 37 38 1223
3 141 142 1242
3 323 324 1169
3 648 649 1069
3 73 74 1049
3 628 597 1144
3 131 132 1180
3 436 405 1141
3 862 863 1052
3 363 364 1132
3 379 380 1133
3 611 612 1127
3 126 127 1221
3 291 292 1130
3 21 22 1239
3 213 214 1230
3 243 244 1265
3 230 231 1276
3 188 189 1235
3 333 334 1244
3 78 79 1037
3 310 311 1199
3 276 277 1191
3 238 239 1153
3 326 327 1200
3 422 423 1109
3 510 511 1110
3 603 604 1246
3 580 549 1045
3 374 375 1038
3 524 525 1154
3 84 85 1234
3 817 818 1032
3 619 620 1172
3 894 895 1286
3 805 806 1148
3 270 271 1029
3 909 910 1161
3 478 479 1034
3 868 837 1057
3 889 890 1047
3 659 660 1017
3 790 791 1284
3 50 51 1112
3 468 469 1267
3 747 748 1018
3 358 359 1031
3 556 557 1268
3 563 564 1269
3 196 165 1081
3 654 655 1096
3 670 671 1036
3 286 287 1030
3 742 743 1099
3 462 463 1033
3 550 551 1035
3 568 569 1260
3 272 273 1114
3 267 268 1248
3 755 756 1100
3 566 567 1080
3 181 182 1051
3 371 372 1249
3 667 668 1097
3 284 285 1282
3 177 178 1247
3 605 606 1185
3 797 798 1240
3 621 622 1193
3 714 715 1217
3 626 627 1287
3 845 846 1065
3 464 465 1210
3 552 553 1213
3 906 907 1219
3 757 758 1060
3 89 90 1085
3 369 370 1092
3 75 76 1201
3 947 948 1015
3 388 357 1283
3 475 476 1095
3 964 933 1067
3 940 941 1059
3 949 950 1062
3 840 841 1016
3 751 752 1041
3 855 856 1042
3 767 768 1072
3 959 960 1043
3 191 192 1084
3 265 266 1050
3 1127 3870 4874
3 1152 3851 4873
3 1182 3824 4872
3 1125 3820 4871
3 3983 2883 4897
3 486 487 4933
3 2771 4930 4941
3 4242 2813 4921
3 172 173 4951
3 244 213 4952
3 4617 969 4650
3 4615 970 4617
3 463 464 4953
3 485 3964 4916
3 3964 2787 4916
3 2772 2757 4079
3 61 62 4897
3 4742 3872 4842
3 2791 3964 4739
3 4556 288 4557
3 4362 616 4363
3 4656 240 4657
3 4372 34 4373
3 4368 318 4369
3 4536 360 4537
3 4521 168 4522
3 4640 658 4641
3 4583 746 4584
3 160 161 4938
3 3892 595 3893
3 525 526 4965
3 4738 2743 4827
3 2793 4349 4597
3 4349 437 4597
3 4212 4516 4631
3 1039 3891 4431
3 1103 4007 4453
3 158 159 4885
3 4378 376 4379
3 4376 96 4377
3 4111 4069 4623
3 4387 4386 4612
3 4112 4065 4618
3 2851 2852 2853
3 1157 4012 4449
3 391 4532 4538
3 307 4066 4558
3 346 4061 4370
3 259 4057 4658
3 60 4058 4374
3 776 4309 4585
3 639 4063 4364
3 199 4518 4523
3 684 4106 4642
3 4353 3837 4890
3 452 3923 4356
3 3938 2804 4399
3 666 667 4822
3 948 949 4814
3 74 75 4795
3 474 475 4794
3 562 563 4802
3 266 267 4796
3 958 959 4823
3 90 91 4820
3 370 371 4819
3 720 721 4813
3 428 429 4801
3 516 517 4815
3 620 621 4809
3 756 757 4821
3 382 383 4811
3 854 855 4793
3 604 605 4810
3 900 901 4791
3 804 805 4818
3 912 913 4797
3 118 119 4807
3 700 701 4816
3 322 323 4803
3 412 413 4812
3 142 143 4806
3 42 43 4804
3 332 333 4799
3 224 225 4808
3 28 29 4805
3 180 181 4817
3 796 797 4792
3 768 769 4800
3 818 819 4798
3 2758 4605 4864
3 943 944 4616
3 407 408 4622
3 599 600 4627
3 671 672 4752
3 479 480 4745
3 79 80 4757
3 283 284 4761
3 647 648 4770
3 195 196 4769
3 271 272 4762
3 705 706 4763
3 185 186 4768
3 625 626 4750
3 809 810 4764
3 791 792 4765
3 47 48 4754
3 135 136 4753
3 433 434 4758
3 123 124 4756
3 521 522 4760
3 503 504 4755
3 229 230 4751
3 567 568 4744
3 905 906 4747
3 579 580 4767
3 893 894 4771
3 859 860 4743
3 387 388 4766
3 741 742 4749
3 885 886 4746
3 693 694 4748
3 963 964 4759
3 378 379 4729
3 262 263 4735
3 220 221 4731
3 70 71 4734
3 24 25 4733
3 764 765 4730
3 38 39 4732
3 98 99 4728
3 4921 2814 4922
3 4108 4060 4611
3 4295 1219 4326
3 4312 1054 4327
3 403 4212 4631
3 67 68 4670
3 2725 4095 4606
3 679 680 4501
3 290 291 4723
3 242 243 4721
3 36 37 4719
3 320 321 4722
3 618 619 4718
3 362 363 4720
3 170 171 4716
3 660 661 4715
3 748 749 4717
3 2740 4099 4886
3 106 107 4218
3 1084 3905 4436
3 1119 3899 4439
3 1136 3877 4425
3 1086 3885 4411
3 1180 3847 4420
3 1126 3818 4414
3 1047 1359 4405
3 4083 2824 4935
3 4060 4327 4595
3 4223 4225 4227
3 102 103 4967
3 397 4075 4919
3 1010 4076 4883
3 2898 4329 4903
3 2768 2769 4077
3 4739 486 4933
3 155 3849 3938
3 539 540 4969
3 4502 997 4850
3 159 160 4971
3 4667 1026 4839
3 4664 1266 4835
3 4652 1207 4836
3 4647 1027 4838
3 4632 1213 4834
3 4636 1063 4837
3 4639 1215 4640
3 4655 1153 4656
3 3963 14 3991
3 298 299 4241
3 4132 1036 4133
3 4163 1121 4164
3 4216 1037 4217
3 4154 1138 4156
3 4211 1079 4213
3 4140 1236 4141
3 4144 1162 4145
3 4207 1225 4208
3 4239 1029 4240
3 4196 1226 4197
3 4180 1197 4181
3 4173 1078 4174
3 4315 1285 4316
3 4184 1143 4185
3 4246 1194 4247
3 4188 1118 4189
3 4222 1116 4224
3 4159 1034 4160
3 4203 1117 4204
3 4253 1206 4254
3 4311 1284 4312
3 4268 1232 4269
3 4263 1220 4264
3 4192 1145 4193
3 4290 1150 4291
3 4169 1080 4170
3 4302 1064 4303
3 4294 1160 4295
3 4232 1159 4233
3 2758 2759 4605
3 4596 3789 4908
3 492 4360 4361
3 1353 996 4825
3 3914 2603 4978
3 4394 489 4396
3 292 261 4562
3 4631 2858 4973
3 783 4355 4898
3 4121 984 4225
3 921 922 4935
3 1273 4015 4016
3 1133 4044 4045
3 1083 4019 4020
3 1108 4027 4028
3 1203 4023 4024
3 1279 4031 4032
3 1167 4040 4041
3 1129 4052 4053
3 410 411 4618
3 602 603 4623
3 946 947 4612
3 3970 2558 4398
3 793 794 4595
3 139 140 4480
3 841 842 4692
3 557 558 4486
3 469 470 4493
3 1097 3906 3907
3 1043 3902 3903
3 1060 3900 3901
3 1243 3888 3889
3 1249 3894 3895
3 1148 3880 3881
3 1146 3878 3879
3 1088 3886 3887
3 1051 3896 3897
3 1089 3882 3883
3 1184 3860 3865
3 1183 3867 3868
3 1062 3858 3859
3 1185 3852 3853
3 1193 3871 3873
3 1175 3844 3845
3 1228 3839 3840
3 1192 3854 3855
3 1151 3832 3833
3 1201 3841 3843
3 1269 3856 3857
3 1179 3834 3835
3 1227 3829 3831
3 1169 3825 3828
3 1095 3874 3875
3 1244 3821 3822
3 1165 3810 3812
3 1248 3836 3838
3 1090 3815 3816
3 1278 3803 3804
3 1042 3813 3814
3 1222 3805 3807
3 1240 3808 3809
3 140 141 4990
3 4684 487 4685
3 4630 53 4856
3 2820 4630 4856
3 1267 4674 4675
3 1016 4693 4694
3 985 1354 4937
3 4607 1190 4608
3 4661 1230 4662
3 4075 397 4855
3 4558 1074 4559
3 4370 1115 4371
3 4658 1166 4659
3 4374 1205 4375
3 4364 1214 4365
3 4538 1075 4539
3 4523 1104 4524
3 4585 1018 4586
3 4642 1017 4643
3 954 955 4857
3 328 329 4860
3 66 67 4265
3 2594 2740 2813
3 3933 639 3934
3 4067 871 4693
3 4055 493 4674
3 4100 535 4865
3 4265 3978 4330
3 641 3872 4742
3 2881 2883 2884
3 794 795 4611
3 4686 875 4687
3 4908 3789 4937
3 875 4497 4499
3 4471 4644 4645
3 2720 2600 2806
3 588 4380 4701
3 295 296 4359
3 344 3979 4964
3 2354 2824 4398
3 4675 492 4676
3 4694 870 4695
3 1297 669 4131
3 1333 645 4162
3 1306 193 4153
3 1301 183 4139
3 1305 961 4143
3 1300 577 4183
3 1302 373 4147
3 1335 281 4172
3 1303 93 4150
3 1310 385 4210
3 1313 807 4195
3 1307 759 4135
3 1304 501 4179
3 1325 703 4206
3 1336 613 4249
3 1314 415 4199
3 1315 519 4202
3 1298 565 4168
3 1320 623 4187
3 1309 723 4191
3 1312 269 4238
3 1308 77 4215
3 1299 477 4158
3 1311 431 4221
3 1321 121 4245
3 1316 315 4235
3 1319 31 4259
3 1322 145 4256
3 1318 133 4252
3 1329 607 4228
3 1317 951 4176
3 1324 45 4262
3 1331 227 4267
3 1323 325 4274
3 1326 335 4277
3 1330 309 4271
3 1328 509 4284
3 1327 421 4280
3 1334 915 4289
3 1332 857 4231
3 1341 789 4310
3 1338 799 4298
3 1339 903 4293
3 1337 771 4301
3 1340 891 4314
3 2771 2772 4930
3 52 4600 4601
3 4385 4384 4697
3 1280 4696 4931
3 4677 1210 4932
3 4696 1057 4931
3 1022 4677 4932
3 4177 4858 4859
3 4689 873 4690
3 4531 4533 4534
3 3411 3959 4972
3 773 774 4304
3 450 451 4223
3 2772 4079 4080
3 787 788 3811
3 51 52 4601
3 3848 157 4949
3 197 198 4510
3 3987 2813 4242
3 4699 3848 4948
3 2802 2801 4844
3 3983 63 3984
3 327 328 4861
3 4380 2721 4701
3 831 832 4725
3 929 4123 4488
3 586 4056 4484
3 494 4055 4491
3 883 4667 4668
3 681 4636 4637
3 256 4652 4653
3 485 4664 4665
3 967 4647 4648
3 583 4632 4633
3 4275 1200 4862
3 2853 3796 4936
3 4085 991 4901
3 389 390 4530
3 1273 766 4013
3 1021 956 4046
3 1133 380 4042
3 1103 816 4004
3 1108 264 4025
3 1157 718 4009
3 1083 72 4017
3 1203 222 4021
3 1170 330 4033
3 1167 26 4038
3 1279 40 4029
3 1129 100 4050
3 2804 2802 4399
3 670 1036 4131
3 78 1037 4215
3 478 1034 4158
3 760 1263 4135
3 646 1121 4162
3 962 1162 4143
3 194 1138 4153
3 502 1197 4179
3 386 1079 4210
3 374 1038 4147
3 624 1118 4187
3 704 1225 4206
3 94 1028 4150
3 184 1236 4139
3 724 1145 4191
3 122 1194 4245
3 270 1029 4238
3 146 1189 4256
3 432 1116 4221
3 916 1150 4289
3 228 1232 4267
3 134 1206 4252
3 282 1078 4172
3 316 1233 4235
3 32 1255 4259
3 566 1080 4168
3 416 1134 4199
3 336 1131 4277
3 808 1226 4195
3 422 1109 4280
3 520 1117 4202
3 46 1220 4262
3 608 1137 4228
3 326 1200 4274
3 310 1199 4271
3 510 1110 4284
3 858 1159 4231
3 578 1143 4183
3 614 1111 4249
3 952 1264 4176
3 800 1174 4298
3 772 1064 4301
3 904 1160 4293
3 892 1285 4314
3 790 1284 4310
3 2883 3983 4054
3 4825 4503 4826
3 4080 4081 4082
3 68 3977 4670
3 992 1356 4902
3 4499 4498 4851
3 4309 775 4582
3 4062 727 4579
3 4086 923 4507
3 4066 306 4555
3 4532 390 4535
3 4518 198 4520
3 4645 86 4646
3 4427 574 4431
3 679 4500 4504
3 581 4526 4527
3 197 4509 4520
3 107 4542 4544
3 389 4529 4535
3 644 4571 4572
3 965 4546 4547
3 922 4506 4507
3 254 4575 4576
3 732 4549 4550
3 544 4563 4564
3 67 4568 4569
3 452 4565 4566
3 305 4554 4555
3 499 4589 4590
3 726 4578 4579
3 881 4592 4593
3 774 4581 4582
3 4136 1263 4137
3 4281 1109 4282
3 4285 1110 4286
3 2790 2791 2811
3 1047 890 1340
3 1222 902 1339
3 1240 798 1338
3 1042 856 1332
3 1278 820 1341
3 1165 770 1337
3 1269 564 1298
3 1126 508 1328
3 1125 420 1327
3 1090 914 1334
3 1248 268 1312
3 1192 430 1311
3 1169 324 1323
3 1201 76 1308
3 1227 44 1324
3 1095 476 1299
3 1182 340 1330
3 1244 334 1326
3 1179 30 1319
3 1175 144 1322
3 1228 120 1321
3 1180 132 1318
3 1152 314 1316
3 1151 226 1331
3 1136 532 1304
3 1184 518 1315
3 1185 606 1329
3 1183 414 1314
3 1062 950 1317
3 1193 622 1320
3 1088 384 1310
3 1148 806 1313
3 1089 722 1309
3 1039 576 1300
3 1146 702 1325
3 1243 92 1303
3 1051 182 1301
3 1249 372 1302
3 1127 612 1336
3 1086 280 1335
3 1060 758 1307
3 1119 676 1333
3 1043 960 1305
3 1084 192 1306
3 1097 668 1297
3 2763 2764 3963
3 4392 1353 4393
3 2805 3939 3940
3 4726 4008 4727
3 4084 924 4085
3 4418 153 4419
3 4429 591 4430
3 4409 299 4410
3 1084 3904 3905
3 1119 3898 3899
3 1086 3884 3885
3 1039 3890 3891
3 1127 3869 3870
3 1136 3876 3877
3 1180 3846 3847
3 1152 3850 3851
3 1182 3823 3824
3 1125 3819 3820
3 1126 3817 3818
3 1047 1357 1359
3 835 4087 4088
3 4167 4501 4502
3 872 4067 4690
3 403 404 4212
3 1171 3855 4880
3 1202 3865 4881
3 4075 3144 4919
3 1021 4048 4049
3 1157 4011 4012
3 1103 4006 4007
3 1170 4035 4036
3 1033 4681 4945
3 4681 1044 4945
3 833 834 4008
3 4683 1142 4946
3 1044 4683 4946
3 4451 814 4453
3 541 542 3861
3 402 4631 4973
3 987 4330 4332
3 4607 1056 4951
3 1230 4661 4952
3 1190 4607 4951
3 4661 1265 4952
3 2796 2795 4124
3 4598 54 4599
3 4602 248 4603
3 3945 4879 4991
3 1210 4679 4953
3 4679 1033 4953
3 2558 2354 4398
3 3945 3943 4879
3 817 1032 4004
3 73 1049 4017
3 719 1098 4009
3 69 1187 4050
3 41 1186 4029
3 27 1168 4038
3 223 1231 4021
3 331 1208 4033
3 265 1050 4025
3 381 1238 4042
3 957 1275 4046
3 767 1072 4013
3 4472 395 4473
3 4469 111 4470
3 4466 780 4467
3 4463 687 4464
3 4475 204 4476
3 4490 495 4491
3 4483 587 4484
3 4487 930 4488
3 4494 877 4495
3 2832 2835 2905
3 155 156 3849
3 1267 4493 4674
3 1016 4692 4693
3 3826 349 4892
3 1271 4465 4987
3 4100 2751 4906
3 2881 2884 4076
3 1048 945 4613
3 1140 601 4624
3 1139 409 4619
3 64 65 3830
3 1291 4534 4700
3 1102 4736 4965
3 4736 1154 4965
3 4398 2824 4900
3 4530 390 4531
3 4687 874 4688
3 4502 4850 4918
3 4650 1059 4876
3 104 105 3842
3 925 926 3806
3 211 212 4155
3 4081 3811 4082
3 1041 4588 4894
3 1237 4541 4893
3 4083 923 4084
3 448 449 4596
3 641 642 3872
3 4109 4086 4508
3 4110 4059 4367
3 4113 4062 4580
3 4114 4064 4366
3 4446 716 4449
3 348 349 3826
3 2810 4381 4832
3 4553 1277 4891
3 611 1127 4874
3 339 1182 4872
3 419 1125 4871
3 313 1152 4873
3 1281 4617 4876
3 1361 921 4935
3 156 157 3848
3 66 4265 4975
3 4871 3820 4914
3 4872 3824 4912
3 4873 3851 4911
3 4874 3870 4913
3 4434 190 4436
3 4438 674 4439
3 4422 530 4425
3 4416 130 4420
3 4407 278 4411
3 4413 506 4414
3 4404 888 4405
3 4533 2784 4534
3 1264 953 4858
3 659 1017 4641
3 747 1018 4584
3 169 1104 4522
3 361 1075 4537
3 617 1214 4363
3 35 1205 4373
3 241 1166 4657
3 319 1115 4369
3 289 1074 4557
3 377 1076 4379
3 97 1073 4377
3 296 297 3837
3 4065 439 4620
3 4069 631 4625
3 4386 971 4614
3 4498 2739 4918
3 4123 4326 4489
3 4371 4722 4940
3 4365 4718 4939
3 582 4527 4528
3 680 4504 4505
3 108 4544 4545
3 629 4572 4573
3 500 4590 4591
3 966 4547 4548
3 255 4576 4577
3 733 4550 4551
3 437 4566 4567
3 882 4593 4594
3 101 4099 4968
3 4099 2826 4968
3 4375 4719 4944
3 2824 4083 4900
3 4665 4664 4835
3 4633 4632 4834
3 4637 4636 4837
3 4653 4652 4836
3 4668 4667 4839
3 4648 4647 4838
3 2840 4904 4905
3 68 4569 4570
3 2906 4462 4908
3 575 1039 4431
3 4265 4330 4331
3 946 4612 4613
3 602 4623 4624
3 410 4618 4619
3 4624 4069 4625
3 4619 4065 4620
3 4613 4386 4614
3 4875 162 4878
3 4352 4351 4353
3 1317 4176 4178
3 1301 4139 4142
3 1305 4143 4146
3 1300 4183 4186
3 1307 4135 4138
3 1303 4150 4152
3 1306 4153 4157
3 1335 4172 4175
3 1336 4249 4251
3 1309 4191 4194
3 1332 4231 4234
3 1302 4147 4149
3 1313 4195 4198
3 1298 4168 4171
3 1314 4199 4201
3 1315 4202 4205
3 1316 4235 4237
3 1333 4162 4165
3 1330 4271 4273
3 1312 4238 4244
3 1320 4187 4190
3 1304 4179 4182
3 1328 4284 4288
3 1318 4252 4255
3 1324 4262 4266
3 1319 4259 4261
3 1311 4221 4226
3 1323 4274 4276
3 1321 4245 4248
3 1322 4256 4258
3 1329 4228 4230
3 1331 4267 4270
3 1297 4131 4134
3 1326 4277 4279
3 1325 4206 4209
3 1327 4280 4283
3 1339 4293 4297
3 1338 4298 4300
3 1310 4210 4214
3 1299 4158 4161
3 1337 4301 4308
3 1334 4289 4292
3 1341 4310 4313
3 1308 4215 4220
3 1340 4314 4317
3 1223 4032 4944
3 3982 1289 4357
3 4093 3946 4895
3 4361 4354 4441
3 4603 247 4604
3 1057 837 4931
3 1210 465 4932
3 466 1022 4932
3 838 1280 4931
3 3923 2796 3924
3 4948 3848 4949
3 4498 4850 4851
3 87 1091 4646
3 4473 394 4474
3 4464 686 4465
3 4467 779 4468
3 4476 203 4477
3 4495 876 4496
3 4304 774 4306
3 2805 2804 3939
3 1137 609 4913
3 1131 337 4912
3 1199 311 4911
3 1134 417 4914
3 1254 3828 4940
3 1172 3873 4939
3 3975 3921 4892
3 4662 1230 4663
3 4608 1190 4628
3 2841 2840 4905
3 296 3837 4359
3 2858 2857 4973
3 1044 461 4945
3 462 1033 4945
3 460 1044 4946
3 1142 459 4946
3 173 1190 4951
3 1265 244 4952
3 1056 172 4951
3 213 1230 4952
3 4084 4085 4901
3 1033 463 4953
3 464 1210 4953
3 1261 666 4822
3 819 1278 4798
3 1163 474 4794
3 1164 562 4802
3 1092 370 4819
3 1085 90 4820
3 797 1240 4792
3 901 1222 4791
3 1100 756 4821
3 75 1201 4795
3 267 1248 4796
3 1123 180 4817
3 1072 768 4800
3 913 1090 4797
3 1245 412 4812
3 1171 428 4801
3 1202 516 4815
3 855 1042 4793
3 383 1088 4811
3 721 1089 4813
3 1253 804 4818
3 225 1151 4808
3 333 1244 4799
3 949 1062 4814
3 621 1193 4809
3 1172 620 4809
3 701 1146 4816
3 1246 604 4810
3 605 1185 4810
3 1015 948 4814
3 1254 322 4803
3 1168 28 4805
3 43 1227 4804
3 1275 958 4823
3 143 1175 4806
3 119 1228 4807
3 1257 118 4807
3 1186 42 4804
3 1242 142 4806
3 323 1169 4803
3 29 1179 4805
3 1252 700 4816
3 959 1043 4823
3 1231 224 4808
3 805 1148 4818
3 1208 332 4799
3 1274 854 4793
3 413 1183 4812
3 517 1184 4815
3 429 1192 4801
3 1101 912 4797
3 1238 382 4811
3 769 1165 4800
3 1098 720 4813
3 757 1060 4821
3 1058 900 4791
3 1061 796 4792
3 181 1051 4817
3 91 1243 4820
3 371 1249 4819
3 1050 266 4796
3 1049 74 4795
3 475 1095 4794
3 563 1269 4802
3 1032 818 4798
3 667 1097 4822
3 526 1102 4965
3 1154 525 4965
3 1281 943 4616
3 1107 599 4627
3 408 1139 4622
3 1106 407 4622
3 600 1140 4627
3 944 1048 4616
3 1285 893 4771
3 568 1260 4744
3 672 1216 4752
3 1284 791 4765
3 1121 647 4770
3 480 1211 4745
3 1150 885 4746
3 1029 271 4762
3 1037 79 4757
3 706 1250 4763
3 284 1282 4761
3 1064 741 4749
3 860 1066 4743
3 580 1045 4767
3 504 1135 4755
3 1160 905 4747
3 1226 809 4764
3 1079 387 4766
3 522 1178 4760
3 434 1177 4758
3 1138 195 4769
3 1232 229 4751
3 694 1198 4748
3 1145 693 4748
3 1118 625 4750
3 1206 135 4753
3 186 1176 4768
3 1220 47 4754
3 964 1067 4759
3 136 1256 4753
3 196 1081 4769
3 124 1229 4756
3 1194 123 4756
3 388 1283 4766
3 48 1224 4754
3 1162 963 4759
3 742 1099 4749
3 810 1258 4764
3 230 1276 4751
3 1116 433 4758
3 1117 521 4760
3 906 1219 4747
3 1225 705 4763
3 1143 579 4767
3 626 1287 4750
3 1197 503 4755
3 1078 283 4761
3 1236 185 4768
3 886 1055 4746
3 1159 859 4743
3 80 1188 4757
3 272 1114 4762
3 1034 479 4745
3 1036 671 4752
3 792 1054 4765
3 1080 567 4744
3 648 1069 4770
3 894 1286 4771
3 379 1133 4729
3 71 1083 4734
3 263 1108 4735
3 1113 24 4733
3 39 1279 4732
3 25 1167 4733
3 1181 220 4731
3 1223 38 4732
3 221 1203 4731
3 1019 764 4730
3 1259 262 4735
3 765 1273 4730
3 1187 70 4734
3 1076 378 4729
3 99 1129 4728
3 1073 98 4728
3 2845 2844 4332
3 4357 1289 4381
3 418 4871 4914
3 312 4873 4911
3 338 4872 4912
3 610 4874 4913
3 884 4668 4669
3 486 4665 4666
3 584 4633 4634
3 257 4653 4654
3 968 4648 4649
3 682 4637 4638
3 815 1103 4453
3 4470 110 4471
3 2769 2767 4115
3 171 1056 4716
3 363 1132 4720
3 1214 618 4718
3 291 1130 4723
3 749 1272 4717
3 1166 242 4721
3 1115 320 4722
3 1205 36 4719
3 37 1223 4719
3 321 1254 4722
3 1017 660 4715
3 243 1265 4721
3 1074 290 4723
3 1018 748 4717
3 661 1271 4715
3 619 1172 4718
3 1075 362 4720
3 1104 170 4716
3 4309 4583 4584
3 4532 4536 4537
3 4106 4640 4641
3 4518 4521 4522
3 4063 4362 4363
3 4058 4372 4373
3 4061 4368 4369
3 4057 4656 4657
3 4066 4556 4557
3 4643 4715 4987
3 4070 4378 4379
3 4068 4376 4377
3 4128 4070 4379
3 4129 4068 4377
3 1359 4403 4404
3 3885 4406 4407
3 3818 4412 4413
3 3847 4415 4416
3 3877 4421 4422
3 3905 4433 4434
3 3899 4437 4438
3 788 773 4305
3 675 1119 4439
3 279 1086 4411
3 191 1084 4436
3 131 1180 4420
3 889 1047 4405
3 531 1136 4425
3 507 1126 4414
3 717 1157 4449
3 3977 2823 3978
3 1171 4880 4983
3 1202 4881 4982
3 3830 65 4975
3 540 4455 4881
3 448 4458 4880
3 4861 4036 4862
3 3944 4092 4740
3 4502 4501 4503
3 3861 542 3919
3 3891 4426 4427
3 3864 3827 3866
3 728 4724 4888
3 954 4857 4858
3 4510 198 4511
3 2823 2822 4320
3 4227 3789 4596
3 4424 545 4564
3 141 1242 4990
3 4857 4049 4858
3 4480 4479 4481
3 4490 4491 4705
3 4472 4473 4708
3 4494 4495 4702
3 4469 4470 4709
3 4466 4467 4707
3 4487 4488 4703
3 4475 4476 4706
3 4483 4484 4704
3 4463 4464 4710
3 261 1259 4562
3 1130 292 4562
3 4602 4603 4712
3 4598 4599 4713
3 212 197 4513
3 4056 585 4635
3 4057 258 4655
3 4106 683 4639
3 411 1245 4618
3 603 1246 4623
3 947 1015 4612
3 2884 2883 4054
3 1054 793 4595
3 1195 139 4480
3 4454 4286 4456
3 4457 4282 4459
3 4460 4137 4461
3 1016 841 4692
3 1268 557 4486
3 1267 469 4493
3 4590 4589 4776
3 4520 4509 4785
3 4547 4546 4780
3 4576 4575 4782
3 4572 4571 4784
3 4579 4578 4775
3 4569 4568 4779
3 4566 4565 4778
3 4527 4526 4788
3 4593 4592 4773
3 4564 4563 4781
3 4555 4554 4777
3 4544 4542 4789
3 4535 4529 4787
3 4507 4506 4786
3 4550 4549 4783
3 4582 4581 4774
3 4504 4500 4790
3 156 3848 3849
3 4629 153 4844
3 2801 4629 4844
3 773 4304 4305
3 4012 4443 4446
3 4689 4690 4833
3 3811 788 4305
3 4686 4687 4841
3 2882 4875 4878
3 955 1021 4857
3 329 1170 4860
3 4007 4450 4451
3 4532 4537 4538
3 4066 4557 4558
3 4309 4584 4585
3 4061 4369 4370
3 4057 4657 4658
3 4058 4373 4374
3 4518 4522 4523
3 4063 4363 4364
3 4106 4641 4642
3 3984 3830 4737
3 795 1061 4611
3 4077 2769 4078
3 4013 4014 4015
3 4025 4026 4027
3 4004 4005 4006
3 4046 4047 4048
3 4042 4043 4044
3 4033 4034 4035
3 4009 4010 4011
3 4021 4022 4023
3 4038 4039 4040
3 4017 4018 4019
3 4029 4030 4031
3 4050 4051 4052
3 4078 4117 4119
3 2786 4166 4167
3 3923 3924 4356
3 3919 3862 4848
3 1354 4905 4937
3 3977 3978 4670
3 1112 51 4601
3 4124 3933 4318
3 197 4510 4513
3 776 4125 4924
3 4125 2720 4924
3 1200 327 4861
3 4447 735 4448
3 541 3861 3863
3 3987 4242 4847
3 4511 4512 4517
3 4408 300 4409
3 4428 592 4429
3 4423 546 4424
3 4417 154 4418
3 2853 2852 3796
3 2839 2832 4904
3 4480 140 4990
3 1293 4445 4832
3 3862 3793 3864
3 4858 4049 4859
3 4641 1017 4642
3 4584 1018 4585
3 4537 1075 4538
3 4522 1104 4523
3 4363 1214 4364
3 4373 1205 4374
3 4657 1166 4658
3 4369 1115 4370
3 4557 1074 4558
3 4395 4394 4396
3 2833 4350 4351
3 585 4917 4941
3 4902 1356 4921
3 4900 4084 4901
3 4867 1134 4914
3 4868 1131 4912
3 4869 1199 4911
3 4870 1137 4913
3 4595 794 4611
3 3943 4324 4879
3 1047 1340 1357
3 1278 1341 3803
3 1222 1339 3805
3 1240 1338 3808
3 1165 1337 3810
3 1042 1332 3813
3 1125 1327 3819
3 1126 1328 3817
3 1090 1334 3815
3 1201 1308 3841
3 1269 1298 3856
3 1169 1323 3825
3 1244 1326 3821
3 1182 1330 3823
3 1248 1312 3836
3 1227 1324 3829
3 1179 1319 3834
3 1151 1331 3832
3 1228 1321 3839
3 1175 1322 3844
3 1180 1318 3846
3 1152 1316 3850
3 1192 1311 3854
3 1095 1299 3874
3 1185 1329 3852
3 1184 1315 3860
3 1062 1317 3858
3 1183 1314 3867
3 1136 1304 3876
3 1148 1313 3880
3 1193 1320 3871
3 1127 1336 3869
3 1089 1309 3882
3 1146 1325 3878
3 1039 1300 3890
3 1243 1303 3888
3 1051 1301 3896
3 1088 1310 3886
3 1086 1335 3884
3 1249 1302 3894
3 1060 1307 3900
3 1119 1333 3898
3 1043 1305 3902
3 1084 1306 3904
3 1097 1297 3906
3 4131 1036 4132
3 4158 1034 4159
3 4135 1263 4136
3 4215 1037 4216
3 4143 1162 4144
3 4162 1121 4163
3 4187 1118 4188
3 4153 1138 4154
3 4147 1038 4148
3 4179 1197 4180
3 4206 1225 4207
3 4150 1028 4151
3 4210 1079 4211
3 4139 1236 4140
3 4191 1145 4192
3 4168 1080 4169
3 4238 1029 4239
3 4289 1150 4290
3 4221 1116 4222
3 4172 1078 4173
3 4228 1137 4229
3 4245 1194 4246
3 4267 1232 4268
3 4256 1189 4257
3 4252 1206 4253
3 4235 1233 4236
3 4231 1159 4232
3 4199 1134 4200
3 4280 1109 4281
3 4259 1255 4260
3 4202 1117 4203
3 4262 1220 4263
3 4277 1131 4278
3 4274 1200 4275
3 4195 1226 4196
3 4284 1110 4285
3 4271 1199 4272
3 4176 1264 4177
3 4301 1064 4302
3 4293 1160 4294
3 4298 1174 4299
3 4249 1111 4250
3 4183 1143 4184
3 4314 1285 4315
3 4310 1284 4311
3 1273 4013 4015
3 1021 4046 4048
3 1103 4004 4006
3 1133 4042 4044
3 1157 4009 4011
3 1108 4025 4027
3 1083 4017 4019
3 1203 4021 4023
3 1170 4033 4035
3 1279 4029 4031
3 1167 4038 4040
3 1129 4050 4052
3 3862 3864 4848
3 4497 4498 4499
3 164 4889 4989
3 4155 212 4513
3 4200 1134 4867
3 4278 1131 4868
3 4272 1199 4869
3 4229 1137 4870
3 1292 3948 4991
3 4004 1032 4005
3 4038 1168 4039
3 4029 1186 4030
3 4009 1098 4010
3 4021 1231 4022
3 4033 1208 4034
3 4017 1049 4018
3 4025 1050 4026
3 4042 1238 4043
3 4046 1275 4047
3 4013 1072 4014
3 4050 1187 4051
3 106 4218 4219
3 328 4860 4861
3 4492 4055 4674
3 4691 4067 4693
3 2840 2839 4904
3 778 4587 4588
3 393 4540 4541
3 4131 4132 4134
3 4153 4154 4157
3 4162 4163 4165
3 4139 4140 4142
3 4183 4184 4186
3 4143 4144 4146
3 4147 4148 4149
3 4195 4196 4198
3 4172 4173 4175
3 4238 4239 4244
3 4187 4188 4190
3 4249 4250 4251
3 4199 4200 4201
3 4206 4207 4209
3 4210 4211 4214
3 4202 4203 4205
3 4179 4180 4182
3 4150 4151 4152
3 4191 4192 4194
3 4135 4136 4138
3 4168 4169 4171
3 4221 4222 4226
3 4245 4246 4248
3 4235 4236 4237
3 4158 4159 4161
3 4259 4260 4261
3 4256 4257 4258
3 4228 4229 4230
3 4252 4253 4255
3 4262 4263 4266
3 4176 4177 4178
3 4267 4268 4270
3 4274 4275 4276
3 4271 4272 4273
3 4277 4278 4279
3 4284 4285 4288
3 4215 4216 4220
3 4280 4281 4283
3 4298 4299 4300
3 4289 4290 4292
3 4231 4232 4234
3 4293 4294 4297
3 4310 4311 4313
3 4301 4302 4308
3 4314 4315 4317
3 4076 2884 4883
3 298 4241 4243
3 4725 832 4726
3 4241 299 4847
3 3858 1317 4178
3 3902 1305 4146
3 3888 1303 4152
3 3900 1307 4138
3 3896 1301 4142
3 3884 1335 4175
3 3890 1300 4186
3 3904 1306 4157
3 3869 1336 4251
3 3882 1309 4194
3 3813 1332 4234
3 3894 1302 4149
3 3880 1313 4198
3 3856 1298 4171
3 3867 1314 4201
3 3860 1315 4205
3 3850 1316 4237
3 3898 1333 4165
3 3823 1330 4273
3 3876 1304 4182
3 3846 1318 4255
3 3817 1328 4288
3 3834 1319 4261
3 3829 1324 4266
3 3854 1311 4226
3 3836 1312 4244
3 3871 1320 4190
3 3825 1323 4276
3 3839 1321 4248
3 3844 1322 4258
3 3852 1329 4230
3 3832 1331 4270
3 3821 1326 4279
3 3906 1297 4134
3 3878 1325 4209
3 3819 1327 4283
3 3886 1310 4214
3 3805 1339 4297
3 3808 1338 4300
3 3810 1337 4308
3 3874 1299 4161
3 3815 1334 4292
3 3803 1341 4313
3 3841 1308 4220
3 1357 1340 4317
3 4917 2771 4941
3 4091 4948 4949
3 3849 3848 4699
3 2845 4320 4926
3 4118 4725 4726
3 1356 4242 4921
3 4889 2819 4989
3 4617 4650 4876
3 448 4596 4908
3 1347 4087 4988
3 4885 4091 4949
3 4392 4394 4395
3 2745 4854 4978
3 4879 1292 4991
3 1259 4561 4562
3 3820 4867 4914
3 3824 4868 4912
3 3851 4869 4911
3 3870 4870 4913
3 4448 734 4553
3 3933 3934 4318
3 4588 4587 4894
3 4541 4540 4893
3 4904 2905 4905
3 4600 4570 4601
3 4120 4742 4842
3 4106 4639 4640
3 4057 4655 4656
3 2832 2905 4904
3 4167 4502 4918
3 3796 10 4936
3 3864 989 4848
3 4902 4921 4922
3 4448 4553 4891
3 4327 1054 4595
3 4479 4480 4990
3 995 4392 4395
3 1245 4112 4618
3 1246 4111 4623
3 1015 4387 4612
3 1061 4108 4611
3 4880 4458 4983
3 4881 4455 4982
3 989 3864 3866
3 4471 4645 4646
3 1294 4900 4901
3 3789 985 4937
3 4392 4393 4394
3 1073 4129 4377
3 1076 4128 4379
3 1359 4404 4405
3 3818 4413 4414
3 3847 4416 4420
3 3877 4422 4425
3 3885 4407 4411
3 3899 4438 4439
3 3905 4434 4436
3 3891 4427 4431
3 4012 4446 4449
3 4007 4451 4453
3 983 4120 4842
3 3 4 1013
3 6 989 3866
3 9 10 1012
3 991 11 1294
3 13 14 3957
3 998 15 3941
3 17 999 1292
3 20 981 1342
3 989 990 4848
3 999 1000 3918
3 1002 3995 4073
3 1003 1004 1291
3 1005 1006 4517
3 981 20 0
3 990 7 1289
3 18 19 1344
3 19 1007 1344
3 83 84 1234
3 1082 83 1234
3 148 117 4110
3 125 126 1221
3 125 1221 1229
3 176 177 1247
3 1105 176 1247
3 210 211 1355
3 1355 211 4155
3 216 217 1251
3 1196 216 1251
3 233 234 1207
3 1124 233 1207
3 237 238 1153
3 237 1153 1204
3 273 274 1077
3 273 1077 1114
3 366 367 1237
3 367 1087 1237
3 404 389 4530
3 4212 404 4530
3 405 406 1106
3 405 1106 1141
3 423 424 4459
3 455 456 1068
3 455 1068 1120
3 457 458 1142
3 1068 457 1142
3 467 468 1267
3 1022 467 1267
3 483 484 1266
3 1023 483 1266
3 511 512 4456
3 551 552 1213
3 1035 551 1213
3 555 556 1268
3 1024 555 1268
3 569 570 1260
3 570 1025 1260
3 597 598 1144
3 598 1107 1144
3 642 643 4078
3 3872 642 4078
3 651 652 1155
3 652 1063 1155
3 655 656 1096
3 1096 656 1215
3 662 663 1271
3 663 1040 1271
3 682 683 4105
3 698 699 4113
3 709 710 1277
3 1147 709 1277
3 752 753 1262
3 1041 752 1262
3 761 762 4461
3 802 803 4114
3 839 840 1016
3 839 1016 1280
3 846 847 1158
3 1065 846 1158
3 850 851 1288
3 851 1020 1288
3 863 864 1052
3 864 1026 1052
3 867 868 1057
3 867 1057 1093
3 3954 874 4499
3 898 899 4109
3 907 908 4489
3 1219 907 4326
3 926 927 2853
3 926 2853 3806
3 2853 927 4296
3 935 936 1027
3 935 1027 1053
3 939 940 1059
3 939 1059 1094
3 2843 986 2844
3 2844 986 4332
3 991 4085 4936
3 1000 1001 1295
3 1001 1002 4082
3 1001 4082 4305
3 1002 1003 3995
3 1004 1005 4530
3 1005 4212 4530
3 1006 4155 4513
3 4155 1006 4910
3 1006 4510 4511
3 1006 4511 4517
3 1105 4477 4628
3 4141 1176 4958
3 1196 4604 4663
3 4254 1256 4947
3 4197 1258 4960
3 1291 3893 3994
3 3948 1292 4102
3 4085 3806 4936
3 4082 3811 4305
3 3842 3991 4902
3 3941 3953 3954
3 4651 3947 4711
3 3980 4008 4088
3 4074 4080 4082
3 4479 4478 4481
3 4515 4516 4517

CELL_TYPES 9335
5
5
5
5
5
5
5
5
5
5
5
5
5
5
5
5
5
5
5
5
5
5
5
5
5
5
5
5
5
5
5
5
5
5
5
5
5
5
5
5
5
5
5
5
5
5
5
5
5
5
5
5
5
5
5
5
5
5
5
5
5
5
5
5
5
5
5
5
5
5
5
5
5
5
5
5
5
5
5
5
5
5
5
5
5
5
5
5
5
5
5
5
5
5
5
5
5
5
5
5
5
5
5
5
5
5
5
5
5
5
5
5
5
5
5
5
5
5
5
5
5
5
5
5
5
5
5
5
5
5
5
5
5
5
5
5
5
5
5
5
5
5
5
5
5
5
5
5
5
5
5
5
5
5
5
5
5
5
5
5
5
5
5
5
5
5
5
5
5
5
5
5
5
5
5
5
5
5
5
5
5
5
5
5
5
5
5
5
5
5
5
5
5
5
5
5
5
5
5
5
5
5
5
5
5
5
5
5
5
5
5
5
5
5
5
5
5
5
5
5
5
5
5
5
5
5
5
5
5
5
5
5
5
5
5
5
5
5
5
5
5
5
5
5
5
5
5
5
5
5
5
5
5
5
5
5
5
5
5
5
5
5
5
5
5
5
5
5
5
5
5
5
5
5
5
5
5
5
5
5
5
5
5
5
5
5
5
5
5
5
5
5
5
5
5
5
5
5
5
5
5
5
5
5
5
5
5
5
5
5
5
5
5
5
5
5
5
5
5
5
5
5
5
5
5
5
5
5
5
5
5
5
5
5
5
5
5
5
5
5
5
5
5
5
5
5
5
5
5
5
5
5
5
5
5
5
5
5
5
5
5
5
5
5
5
5
5
5
5
5
5
5
5
5
5
5
5
5
5
5
5
5
5
5
5
5
5
5
5
5
5
5
5
5
5
5
5
5
5
5
5
5
5
5
5
5
5
5
5
5
5
5
5
5
5
5
5
5
5
5
5
5
5
5
5
5
5
5
5
5
5
5
5
5
5
5
5
5
5
5
5
5
5
5
5
5
5
5
5
5
5
5
5
5
5
5
5
5
5
5
5
5
5
5
5
5
5
5
5
5
5
5
5
5
5
5
5
5
5
5
5
5
5
5
5
5
5
5
5
5
5
5
5
5
5
5
5
5
5
5
5
5
5
5
5
5
5
5
5
5
5
5
5
5
5
5
5
5
5
5
5
5
5
5
5
5
5
5
5
5
5
5
5
5
5
5
5
5
5
5
5
5
5
5
5
5
5
5
5
5
5
5
5
5
5
5
5
5
5
5
5
5
5
5
5
5
5
5
5
5
5
5
5
5
5
5
5
5
5
5
5
5
5
5
5
5
5
5
5
5
5
5
5
5
5
5
5
5
5
5
5
5
5
5
5
5
5
5
5
5
5
5
5
5
5
5
5
5
5
5
5
5
5
5
5
5
5
5
5
5
5
5
5
5
5
5
5
5
5
5
5
5
5
5
5
5
5
5
5
5
5
5
5
5
5
5
5
5
5
5
5
5
5
5
5
5
5
5
5
5
5
5
5
5
5
5
5
5
5
5
5
5
5
5
5
5
5
5
5
5
5
5
5
5
5
5
5
5
5
5
5
5
5
5
5
5
5
5
5
5
5
5
5
5
5
5
5
5
5
5
5
5
5
5
5
5
5
5
5
5
5
5
5
5
5
5
5
5
5
5
5
5
5
5
5
5
5
5
5
5
5
5
5
5
5
5
5
5
5
5
5
5
5
5
5
5
5
5
5
5
5
5
5
5
5
5
5
5
5
5
5
5
5
5
5
5
5
5
5
5
5
5
5
5
5
5
5
5
5
5
5
5
5
5
5
5
5
5
5
5
5
5
5
5
5
5
5
5
5
5
5
5
5
5
5
5
5
5
5
5
5
5
5
5
5
5
5
5
5
5
5
5
5
5
5
5
5
5
5
5
5
5
5
5
5
5
5
5
5
5
5
5
5
5
5
5
5
5
5
5
5
5
5
5
5
5
5
5
5
5
5
5
5
5
5
5
5
5
5
5
5
5
5
5
5
5
5
5
5
5
5
5
5
5
5
5
5
5
5
5
5
5
5
5
5
5
5
5
5
5
5
5
5
5
5
5
5
5
5
5
5
5
5
5
5
5
5
5
5
5
5
5
5
5
5
5
5
5
5
5
5
5
5
5
5
5
5
5
5
5
5
5
5
5
5
5
5
5
5
5
5
5
5
5
5
5
5
5
5
5
5
5
5
5
5
5
5
5
5
5
5
5
5
5
5
5
5
5
5
5
5
5
5
5
5
5
5
5
5
5
5
5
5
5
5
5
5
5
5
5
5
5
5
5
5
5
5
5
5
5
5
5
5
5
5
5
5
5
5
5
5
5
5
5
5
5
5
5
5
5
5
5
5
5
5
5
5
5
5
5
5
5
5
5
5
5
5
5
5
5
5
5
5
5
5
5
5
5
5
5
5
5
5
5
5
5
5
5
5
5
5
5
5
5
5
5
5
5
5
5
5
5
5
5
5
5
5
5
5
5
5
5
5
5
5
5
5
5
5
5
5
5
5
5
5
5
5
5
5
5
5
5
5
5
5
5
5
5
5
5
5
5
5
5
5
5
5
5
5
5
5
5
5
5
5
5
5
5
5
5
5
5
5
5
5
5
5
5
5
5
5
5
5
5
5
5
5
5
5
5
5
5
5
5
5
5
5
5
5
5
5
5
5
5
5
5
5
5
5
5
5
5
5
5
5
5
5
5
5
5
5
5
5
5
5
5
5
5
5
5
5
5
5
5
5
5
5
5
5
5
5
5
5
5
5
5
5
5
5
5
5
5
5
5
5
5
5
5
5
5
5
5
5
5
5
5
5
5
5
5
5
5
5
5
5
5
5
5
5
5
5
5
5
5
5
5
5
5
5
5
5
5
5
5
5
5
5
5
5
5
5
5
5
5
5
5
5
5
5
5
5
5
5
5
5
5
5
5
5
5
5
5
5
5
5
5
5
5
5
5
5
5
5
5
5
5
5
5
5
5
5
5
5
5
5
5
5
5
5
5
5
5
5
5
5
5
5
5
5
5
5
5
5
5
5
5
5
5
5
5
5
5
5
5
5
5
5
5
5
5
5
5
5
5
5
5
5
5
5
5
5
5
5
5
5
5
5
5
5
5
5
5
5
5
5
5
5
5
5
5
5
5
5
5
5
5
5
5
5
5
5
5
5
5
5
5
5
5
5
5
5
5
5
5
5
5
5
5
5
5
5
5
5
5
5
5
5
5
5
5
5
5
5
5
5
5
5
5
5
5
5
5
5
5
5
5
5
5
5
5
5
5
5
5
5
5
5
5
5
5
5
5
5
5
5
5
5
5
5
5
5
5
5
5
5
5
5
5
5
5
5
5
5
5
5
5
5
5
5
5
5
5
5
5
5
5
5
5
5
5
5
5
5
5
5
5
5
5
5
5
5
5
5
5
5
5
5
5
5
5
5
5
5
5
5
5
5
5
5
5
5
5
5
5
5
5
5
5
5
5
5
5
5
5
5
5
5
5
5
5
5
5
5
5
5
5
5
5
5
5
5
5
5
5
5
5
5
5
5
5
5
5
5
5
5
5
5
5
5
5
5
5
5
5
5
5
5
5
5
5
5
5
5
5
5
5
5
5
5
5
5
5
5
5
5
5
5
5
5
5
5
5
5
5
5
5
5
5
5
5
5
5
5
5
5
5
5
5
5
5
5
5
5
5
5
5
5
5
5
5
5
5
5
5
5
5
5
5
5
5
5
5
5
5
5
5
5
5
5
5
5
5
5
5
5
5
5
5
5
5
5
5
5
5
5
5
5
5
5
5
5
5
5
5
5
5
5
5
5
5
5
5
5
5
5
5
5
5
5
5
5
5
5
5
5
5
5
5
5
5
5
5
5
5
5
5
5
5
5
5
5
5
5
5
5
5
5
5
5
5
5
5
5
5
5
5
5
5
5
5
5
5
5
5
5
5
5
5
5
5
5
5
5
5
5
5
5
5
5
5
5
5
5
5
5
5
5
5
5
5
5
5
5
5
5
5
5
5
5
5
5
5
5
5
5
5
5
5
5
5
5
5
5
5
5
5
5
5
5
5
5
5
5
5
5
5
5
5
5
5
5
5
5
5
5
5
5
5
5
5
5
5
5
5
5
5
5
5
5
5
5
5
5
5
5
5
5
5
5
5
5
5
5
5
5
5
5
5
5
5
5
5
5
5
5
5
5
5
5
5
5
5
5
5
5
5
5
5
5
5
5
5
5
5
5
5
5
5
5
5
5
5
5
5
5
5
5
5
5
5
5
5
5
5
5
5
5
5
5
5
5
5
5
5
5
5
5
5
5
5
5
5
5
5
5
5
5
5
5
5
5
5
5
5
5
5
5
5
5
5
5
5
5
5
5
5
5
5
5
5
5
5
5
5
5
5
5
5
5
5
5
5
5
5
5
5
5
5
5
5
5
5
5
5
5
5
5
5
5
5
5
5
5
5
5
5
5
5
5
5
5
5
5
5
5
5
5
5
5
5
5
5
5
5
5
5
5
5
5
5
5
5
5
5
5
5
5
5
5
5
5
5
5
5
5
5
5
5
5
5
5
5
5
5
5
5
5
5
5
5
5
5
5
5
5
5
5
5
5
5
5
5
5
5
5
5
5
5
5
5
5
5
5
5
5
5
5
5
5
5
5
5
5
5
5
5
5
5
5
5
5
5
5
5
5
5
5
5
5
5
5
5
5
5
5
5
5
5
5
5
5
5
5
5
5
5
5
5
5
5
5
5
5
5
5
5
5
5
5
5
5
5
5
5
5
5
5
5
5
5
5
5
5
5
5
5
5
5
5
5
5
5
5
5
5
5
5
5
5
5
5
5
5
5
5
5
5
5
5
5
5
5
5
5
5
5
5
5
5
5
5
5
5
5
5
5
5
5
5
5
5
5
5
5
5
5
5
5
5
5
5
5
5
5
5
5
5
5
5
5
5
5
5
5
5
5
5
5
5
5
5
5
5
5
5
5
5
5
5
5
5
5
5
5
5
5
5
5
5
5
5
5
5
5
5
5
5
5
5
5
5
5
5
5
5
5
5
5
5
5
5
5
5
5
5
5
5
5
5
5
5
5
5
5
5
5
5
5
5
5
5
5
5
5
5
5
5
5
5
5
5
5
5
5
5
5
5
5
5
5
5
5
5
5
5
5
5
5
5
5
5
5
5
5
5
5
5
5
5
5
5
5
5
5
5
5
5
5
5
5
5
5
5
5
5
5
5
5
5
5
5
5
5
5
5
5
5
5
5
5
5
5
5
5
5
5
5
5
5
5
5
5
5
5
5
5
5
5
5
5
5
5
5
5
5
5
5
5
5
5
5
5
5
5
5
5
5
5
5
5
5
5
5
5
5
5
5
5
5
5
5
5
5
5
5
5
5
5
5
5
5
5
5
5
5
5
5
5
5
5
5
5
5
5
5
5
5
5
5
5
5
5
5
5
5
5
5
5
5
5
5
5
5
5
5
5
5
5
5
5
5
5
5
5
5
5
5
5
5
5
5
5
5
5
5
5
5
5
5
5
5
5
5
5
5
5
5
5
5
5
5
5
5
5
5
5
5
5
5
5
5
5
5
5
5
5
5
5
5
5
5
5
5
5
5
5
5
5
5
5
5
5
5
5
5
5
5
5
5
5
5
5
5
5
5
5
5
5
5
5
5
5
5
5
5
5
5
5
5
5
5
5
5
5
5
5
5
5
5
5
5
5
5
5
5
5
5
5
5
5
5
5
5
5
5
5
5
5
5
5
5
5
5
5
5
5
5
5
5
5
5
5
5
5
5
5
5
5
5
5
5
5
5
5
5
5
5
5
5
5
5
5
5
5
5
5
5
5
5
5
5
5
5
5
5
5
5
5
5
5
5
5
5
5
5
5
5
5
5
5
5
5
5
5
5
5
5
5
5
5
5
5
5
5
5
5
5
5
5
5
5
5
5
5
5
5
5
5
5
5
5
5
5
5
5
5
5
5
5
5
5
5
5
5
5
5
5
5
5
5
5
5
5
5
5
5
5
5
5
5
5
5
5
5
5
5
5
5
5
5
5
5
5
5
5
5
5
5
5
5
5
5
5
5
5
5
5
5
5
5
5
5
5
5
5
5
5
5
5
5
5
5
5
5
5
5
5
5
5
5
5
5
5
5
5
5
5
5
5
5
5
5
5
5
5
5
5
5
5
5
5
5
5
5
5
5
5
5
5
5
5
5
5
5
5
5
5
5
5
5
5
5
5
5
5
5
5
5
5
5
5
5
5
5
5
5
5
5
5
5
5
5
5
5
5
5
5
5
5
5
5
5
5
5
5
5
5
5
5
5
5
5
5
5
5
5
5
5
5
5
5
5
5
5
5
5
5
5
5
5
5
5
5
5
5
5
5
5
5
5
5
5
5
5
5
5
5
5
5
5
5
5
5
5
5
5
5
5
5
5
5
5
5
5
5
5
5
5
5
5
5
5
5
5
5
5
5
5
5
5
5
5
5
5
5
5
5
5
5
5
5
5
5
5
5
5
5
5
5
5
5
5
5
5
5
5
5
5
5
5
5
5
5
5
5
5
5
5
5
5
5
5
5
5
5
5
5
5
5
5
5
5
5
5
5
5
5
5
5
5
5
5
5
5
5
5
5
5
5
5
5
5
5
5
5
5
5
5
5
5
5
5
5
5
5
5
5
5
5
5
5
5
5
5
5
5
5
5
5
5
5
5
5
5
5
5
5
5
5
5
5
5
5
5
5
5
5
5
5
5
5
5
5
5
5
5
5
5
5
5
5
5
5
5
5
5
5
5
5
5
5
5
5
5
5
5
5
5
5
5
5
5
5
5
5
5
5
5
5
5
5
5
5
5
5
5
5
5
5
5
5
5
5
5
5
5
5
5
5
5
5
5
5
5
5
5
5
5
5
5
5
5
5
5
5
5
5
5
5
5
5
5
5
5
5
5
5
5
5
5
5
5
5
5
5
5
5
5
5
5
5
5
5
5
5
5
5
5
5
5
5
5
5
5
5
5
5
5
5
5
5
5
5
5
5
5
5
5
5
5
5
5
5
5
5
5
5
5
5
5
5
5
5
5
5
5
5
5
5
5
5
5
5
5
5
5
5
5
5
5
5
5
5
5
5
5
5
5
5
5
5
5
5
5
5
5
5
5
5
5
5
5
5
5
5
5
5
5
5
5
5
5
5
5
5
5
5
5
5
5
5
5
5
5
5
5
5
5
5
5
5
5
5
5
5
5
5
5
5
5
5
5
5
5
5
5
5
5
5
5
5
5
5
5
5
5
5
5
5
5
5
5
5
5
5
5
5
5
5
5
5
5
5
5
5
5
5
5
5
5
5
5
5
5
5
5
5
5
5
5
5
5
5
5
5
5
5
5
5
5
5
5
5
5
5
5
5
5
5
5
5
5
5
5
5
5
5
5
5
5
5
5
5
5
5
5
5
5
5
5
5
5
5
5
5
5
5
5
5
5
5
5
5
5
5
5
5
5
5
5
5
5
5
5
5
5
5
5
5
5
5
5
5
5
5
5
5
5
5
5
5
5
5
5
5
5
5
5
5
5
5
5
5
5
5
5
5
5
5
5
5
5
5
5
5
5
5
5
5
5
5
5
5
5
5
5
5
5
5
5
5
5
5
5
5
5
5
5
5
5
5
5
5
5
5
5
5
5
5
5
5
5
5
5
5
5
5
5
5
5
5
5
5
5
5
5
5
5
5
5
5
5
5
5
5
5
5
5
5
5
5
5
5
5
5
5
5
5
5
5
5
5
5
5
5
5
5
5
5
5
5
5
5
5
5
5
5
5
5
5
5
5
5
5
5
5
5
5
5
5
5
5
5
5
5
5
5
5
5
5
5
5
5
5
5
5
5
5
5
5
5
5
5
5
5
5
5
5
5
5
5
5
5
5
5
5
5
5
5
5
5
5
5
5
5
5
5
5
5
5
5
5
5
5
5
5
5
5
5
5
5
5
5
5
5
5
5
5
5
5
5
5
5
5
5
5
5
5
5
5
5
5
5
5
5
5
5
5
5
5
5
5
5
5
5
5
5
5
5
5
5
5
5
5
5
5
5
5
5
5
5
5
5
5
5
5
5
5
5
5
5
5
5
5
5
5
5
5
5
5
5
5
5
5
5
5
5
5
5
5
5
5
5
5
5
5
5
5
5
5
5
5
5
5
5
5
5
5
5
5
5
5
5
5
5
5
5
5
5
5
5
5
5
5
5
5
5
5
5
5
5
5
5
5
5
5
5
5
5
5
5
5
5
5
5
5
5
5
5
5
5
5
5
5
5
5
5
5
5
5
5
5
5
5
5
5
5
5
5
5
5
5
5
5
5
5
5
5
5
5
5
5
5
5
5
5
5
5
5
5
5
5
5
5
5
5
5
5
5
5
5
5
5
5
5
5
5
5
5
5
5
5
5
5
5
5
5
5
5
5
5
5
5
5
5
5
5
5
5
5
5
5
5
5
5
5
5
5
5
5
5
5
5
5
5
5
5
5
5
5
5
5
5
5
5
5
5
5
5
5
5
5
5
5
5
5
5
5
5
5
5
5
5
5
5
5
5
5
5
5
5
5
5
5
5
5
5
5
5
5
5
5
5
5
5
5
5
5
5
5
5
5
5
5
5
5
5
5
5
5
5
5
5
5
5
5
5
5
5
5
5
5
5
5
5
5
5
5
5
5
5
5
5
5
5
5
5
5
5
5
5
5
5
5
5
5
5
5
5
5
5
5
5
5
5
5
5
5
5
5
5
5
5
5
5
5
5
5
5
5
5
5
5
5
5
5
5
5
5
5
5
5
5
5
5
5
5
5
5
5
5
5
5
5
5
5
5
5
5
5
5
5
5
5
5
5
5
5
5
5
5
5
5
5
5
5
5
5
5
5
5
5
5
5
5
5
5
5
5
5
5
5
5
5
5
5
5
5
5
5
5
5
5
5
5
5
5
5
5
5
5
5
5
5
5
5
5
5
5
5
5
5
5
5
5
5
5
5
5
5
5
5
5
5
5
5
5
5
5
5
5
5
5
5
5
5
5
5
5
5
5
5
5
5
5
5
5
5
5
5
5
5
5
5
5
5
5
5
5
5
5
5
5
5
5
5
5
5
5
5
5
5
5
5
5
5
5
5
5
5
5
5
5
5
5
5
5
5
5
5
5
5
5
5
5
5
5
5
5
5
5
5
5
5
5
5
5
5
5
5
5
5
5
5
5
5
5
5
5
5
5
5
5
5
5
5
5
5
5
5
5
5
5
5
5
5
5
5
5
5
5
5
5
5
5
5
5
5
5
5
5
5
5
5
5
5
5
5
5
5
5
5
5
5
5
5
5
5
5
5
5
5
5
5
5
5
5
5
5
5
5
5
5
5
5
5
5
5
5
5
5
5
5
5
5
5
5
5
5
5
5
5
5
5
5
5
5
5
5
5
5
5
5
5
5
5
5
5
5
5
5
5
5
5
5
5
5
5
5
5
5
5
5
5
5
5
5
5
5
5
5
5
5
5
5
5
5
5
5
5
5
5
5
5
5
5
5
5
5
5
5
5
5
5
5
5
5
5
5
5
5
5
5
5
5
5
5
5
5
5
5
5
5
5
5
5
5
5
5
5
5
5
5
5
5
5
5
5
5
5
5
5
5
5
5
5
5
5
5
5
5
5
5
5
5
5
5
5
5
5
5
5
5
5
5
5
5
5
5
5
5
5
5
5
5
5
5
5
5
5
5
5
5
5
5
5
5
5
5
5
5
5
5
5
5
5
5
5
5
5
5
5
5
5
5
5
5
5
5
5
5
5
5
5
5
5
5
5
5
5
5
5
5
5
5
5
5
5
5
5
5
5
5
5
5
5
5
5
5
5
5
5
5
5
5
5
5
5
5
5
5
5
5
5
5
5
5
5
5
5
5
5
5
5
5
5
5
5
5
5
5
5
5
5
5
5
5
5
5
5
5
5
5
5
5
5
5
5
5
5
5
5
5
5
5
5
5
5
5
5
5
5
5
5
5
5
5
5
5
5
5
5
5
5
5
5
5
5
5
5
5
5
5
5
5
5
5
5
5
5
5
5
5
5
5
5
5
5
5
5
5
5
5
5
5
5
5
5
5
5
5
5
5
5
5
5
5
5
5
5
5
5
5
5
5
5
5
5
5
5
5
5
5
5
5
5
5
5
5
5
5
5
5
5
5
5
5
5
5
5
5
5
5
5
5
5
5
5
5
5
5
5
5
5
5
5
5
5
5
5
5
5
5
5
5
5
5
5
5
5
5
5
5
5
5
5
5
5
5
5
5
5
5
5
5
5
5
5
5
5
5
5
5
5
5
5
5
5
5
5
5
5
5
5
5
5
5
5
5
5
5
5
5
5
5
5
5
5
5
5
5
5
5
5
5
5
5
5
5
5
5
5
5
5
5
5
5
5
5
5
5
5
5
5
5
5
5
5
5
5
5
5
5
5
5
5
5
5
5
5
5
5
5
5
5
5
5
5
5
5
5
5
5
5
5
5
5
5
5
5
5
5
5
5
5
5
5
5
5
5
5
5
5
5
5
5
5
5
5
5
5
5
5
5
5
5
5
5
5
5
5
5
5
5
5
5
5
5
5
5
5
5
5
5
5
5
5
5
5
5
5
5
5
5
5
5
5
5
5
5
5
5
5
5
5
5
5
5
5
5
5
5
5
5
5
5
5
5
5
5
5
5
5
5
5
5
5
5
5
5
5
5
5
5
5
5
5
5
5
5
5
5
5
5
5
5
5
5
5
5
5
5
5
5
5
5
5
5
5
5
5
5
5
5
5
5
5
5
5
5
5
5
5
5
5
5
5
5
5
5
5
5
5
5
5
5
5
5
5
5
5
5
5
5
5
5
5
5
5
5
5
5
5
5
5
5
5
5
5
5
5
5
5
5
5
5
5
5
5
5
5
5
5
5
5
5
5
5
5
5
5
5
5
5
5
5
5
5
5
5
5
5
5
5
5
5
5
5
5
5
5
5
5
5
5
5
5
5
5
5
5
5
5
5
5
5
5
5
5
5
5
5
5
5
5
5
5
5
5
5
5
5
5
5
5
5
5
5
5
5
5
5
5
5
5
5
5
5
5
5
5
5
5
5
5
5
5
5
5
5
5
5
5
5
5
5
5
5
5
5
5
5
5
5
5
5
5
5
5
5
5
5
5
5
5
5
5
5
5
5
5
5
5
5
5
5
5
5
5
5
5
5
5
5
5
5
5
5
5
5
5
5
5
5
5
5
5
5
5
5
5
5
5
5
5
5
5
5
5
5
5
5
5
5
5
5
5
5
5
5
5
5
5
5
5
5
5
5
5
5
5
5
5
5
5
5
5
5
5
5
5
5
5
5
5
5
5
5
5
5
5
5
5
5
5
5
5
5
5
5
5
5
5
5
5
5
5
5
5
5
5
5
5
5
5
5
5
5
5
5
5
5
5
5
5
5
5
5
5
5
5
5
5
5
5
5
5
5
5
5
5
5
5
5
5
5
5
5
5
5
5
5
5
5
5
5
5
5
5
5
5
5
5
5
5
5
5
5
5
5
5
5
5
5
5
5
5
5
5
5
5
5
5
5
5
5
5
5
5
5
5
5
5
5
5
5
5
5
5
5
5
5
5
5
5
5
5
5
5
5
5
5
5
5
5
5
5
5
5
5
5
5
5
5
5
5
5
5
5
5
5
5
5
5
5
5
5
5
5
5
5
5
5
5
5
5
5
5
5
5
5
5
5
5
5
5
5
5
5
5
5
5
5
5
5
5
5
5
5
5
5
5
5
5
5
5
5
5
5
5
5
5
5
5
5
5
5
5
5
5
5
5
5
5
5
5
5
5
5
5
5
5
5
5
5
5
5
5
5
5
5
5
5
5
5
5
5
5
5
5
5
5
5
5
5
5
5
5
5
5
5
5
5
5
5
5
5
5
5
5
5
5
5
5
5
5
5
5
5
5
5
5
5
5
5
5
5
5
5
5
5
5
5
5
5
5
5
5
5
5
5
5
5
5
5
5
5
5
5
5
5
5
5
5
5
5
5
5
5
5
5
5
5
5
5
5
5
5
5
5
5
5
5
5
5
5
5
5
5
5
5
5
5
5
5
5
5
5
5
5
5
5
5
5
5
5
5
5
5
5
5
5
5
5
5
5
5
5
5
5
5
5
5
5
5
5
5
5
5
5
5
5
5
5
5
5
5
5
5
5
5
5
5
5
5
5
5
5
5
5
5
5
5
5
5
5
5
5
5
5
5
5
5
5
5
5
5
5
5
5
5
5
5
5
5
5
5
5
5
5
5
5
5
5
5
5
5
5
5
5
5
5
5
5
5
5
5
5
5
5
5
5
5
5
5
5
5
5
5
5
5
5
5
5
5
5
5
5
5
5
5
5
5
5
5
5
5
5
5
5
5
5
5
5
5
5
5
5
5
5
5
5
5
5
5
5
5
5
5
5
5
5
5
5
5
5
5
5
5
5
5
5
5
5
5
5
5
5
5
5
5
5
5
5
5
5
5
5
5
5
5
5
5
5
5
5
5
5
5
5
5
5
5
5
5
5
5
5
5
5
5
5
5
5
5
5
5
5
5
5
5
5
5
5
5
5
5
5
5
5
5
5
5
5
5
5
5
5
5
5
5
5
5
5
5
5
5
5
5
5
5
5
5
5
5
5
5
5
5
5
5
5
5
5
5
5
5
5
5
5
5
5
5
5
5
5
5
5
5
5
5
5
5
5
5
5
5
5
5
5
5
5
5
5
5
5
5
5
5
5
5
5
5
5
5
5
5
5
5
5
5
5
5
5
5
5
5
5
5
5
5
5
5
5
5
5
5
5
5
5
5
5
5
5
5
5
5
5
5
5
5
5
5
5
5
5
5
5
5
5
5
5
5
5
5
5
5
5
5
5
5
5
5
5
5
5
5
5
5
5
5
5
5
5
5
5
5
5
5
5
5
5
5
5
5
5
5
5
5
5
5
5
5
5
5
5
5
5
5
5
5
5
5
5
5
5
5
5
5
5
5
5
5
5
5
5
5
5
5
5
5
5
5
5
5
5
5
5
5
5
5
5
5
5
5
5
5
5
5
5
5
5
5
5
5
5
5
5
5
5
5
5
5
5
5
5
5
5
5
5
5
5
5
5
5
5
5
5
5
5
5
5
5
5
5
5
5
5
5
5
5
5
5
5
5
5
5
5
5
5
5
5
5
5
5
5
5
5
5
5
5
5
5
5
5
5
5
5
5
5
5
5
5
5
5
5
5
5
5
5
5
5
5
5
5
5
5
5
5
5
5
5
5
5
5
5
5
5
5
5
5
5
5
5
5
5
5
5
5
5
5
5
5
5
5
5
5
5
5
5
5
5
5
5
5
5
5
5
5
5
5
5
5
5
5
5
5
5
5
5
5
5
5
5
5
5
5
5
5
5
5
5
5
5
5
5
5
5
5
5
5
5
5
5
5
5
5
5
5
5
5
5
5
5
5
5
5
5
5
5
5
5
5
5
5
5
5
5
5
5
5
5
5
5
5
5
5
5
5
5
5
5
5
5
5
5
5
5
5
5
5
5
5
5
5
5
5
5
5
5
5
5
5
5
5
5
5
5
5
5
5
5
5
5
5
5
5
5
5
5
5
5
5
5
5
5
5
5
5
5
5
5
5
5
5
5
5
5
5
5
5
5
5
5
5
5
5
5
5
5
5
5
5
5
5
5
5
5
5
5
5
5
5
5
5
5
5
5
5
5
5
5
5
5
5
5
5
5
5
5
5
5
5
5
5
5
5
5
5
5
5
5
5
5
5
5
5
5
5
5
5
5
5
5
5
5
5
5
5
5
5
5
5
5
5
5
5
5
5
5
5
5
5
5
5
5
5
5
5
5
5
5
5
5
5
5
5
5
5
5
5
5
5
5
5
5
5
5
5
5
5
5
5
5
5
5
5
5
5
5
5
5
5
5
5
5
5
5
5
5
5
5
5
5
5
5
5
5
5
5
5
5
5
5
5
5
5
5
5
5
5
5
5
5
5
5
5
5
5
5
5
5
5
5
5
5
5
5
5
5
5
5
5
5
5
5
5
5
5
5
5
5
5
5
5
5
5
5
5
5
5
5
5
5
5
5
5
5
5
5
5
5
5
5
5
5
5
5
5
5
5
5
5
5
5
5
5
5
5
5
5
5
5
5
5
5
5
5
5
5
5
5
5
5
5
5
5
5
5
5
5
5
5
5
5
5
5
5
5
5
5
5
5
5
5
5
5
5
5
5
5
5
5
5
5
5
5
5
5
5
5
5
5
5
5
5
5
5
5
5
5
5
5
5
5
5
5
5
5
5
5
5
5
5
5
5
5
5
5
5
5
5
5
5
5
5
5
5
5
5
5
5
5
5
5
5
5
5
5
5
5
5
5
5
5
5
5
5
5
5
5
5
5
5
5
5
5
5
5
5
5
5
5
5
5
5
5
5
5
5
5
5
5
5
5
5
5
5
5
5
5
5
5
5
5
5
5
5
5
5
5
5
5
5
5
5
5
5
5
5
5
5
5
5
5
5
5
5
5
5
5
5
5
5
5
5
5
5
5
5
5
5
5
5
5
5
5
5
5
5
5
5
5
5
5
5
5
5
5
5
5
5
5
5
5
5
5
5
5
5
5
5
5
5
5
5
5
5
5
5
5
5
5
5
5
5
5
5
5
5
5
5
5
5
5
5
5
5
5
5
5
5
5
5
5
5
5
5
5
5
5
5
5
5
5
5
5
5
5
5
5
5
5
5
5
5
5
5
5
5
5
5
5
5
5
5
5
5
5
5
5
5
5
5
5
5
5
5
5
5
5
5
5
5
5
5
5
5
5
5
5
5
5
5
5
5
5
5
5
5
5
5
5
5
5
5
5
5
5
5
5
5
5
5
5
5
5
5
5
5
5
5
5
5
5
5
5
5
5
5
5
5
5
5
5
5
5
5
5
5
5
5
5
5
5
5
5
5
5
5
5
5
5
5
5
5
5
5
5
5
5
5
5
5
5
5
5
5
5
5
5
5
5
5
5
5
5
5
5
5
5
5
5
5
5
5
5
5
5
5
5
5
5
5
5
5
5
5
5
5
5
5
5
5
5
5
5
5
5
5
5
5
5
5
5
5
5
5
5
5
5
5
5
5
5
5
5
5
5
5
5
5
5
5
5
5
5
5
5
5
5
5
5
5
5
5
5
5
5
5
5
5
5
5
5
5
5
5
5
5
5
5
5
5
5
5
5
5
5
5
5
5
5
5
5
5
5
5
5
5
5
5
5
5
5
5
5
5
5
5
5
5
5
5
5
5
5
5
5
5
5
5
5
5
5
5
5
5
5
5
5
5
5
5
5
5
5
5
5
5
5
5
5
5
5
5
5
5
5
5
5
5
5
5
5
5
5
5
5
5
5
5
5
5
5
5
5
5
5
5
5
5
5
5
5
5
5
5
5
5
5
5
5
5
5
5
5
5
5
5
5
5
5
5
5
5
5
5
5
5
5
5
5
5
5
5
5
5
5
5
5
5
5
5
5
5
5
5
5
5
5
5
5
5
5
5
5
5
5
5
5
5
5
5
5
5
5
5
5
5
5
5
5
5
5
5
5
5
5
5
5
5
5
5
5
5
5
5
5
5
5
5
5
5
5
5
5
5
5
5
5
5
5
5
5
5
5
5
5
5
5
5
5
5
5
5
5
5
5
5
5
5
5
5
5
5
5
5
5
5
5
5
5
5
5
5
5
5
5
5
5
5
5
5
5
5
5
5
5
5
5
5
5
5
5
5
5
5
5
5
5
5
5
5
5
5
5
5
5
5
5
5
5
5
5
5
5
5
5
5
5
5
5
5
5
5
5
5
5
5
5
5
5
5
5
5
5
5
5
5
5
5
5
5
5
5
5
5
5
5
5
5
5
5
5
5
5
5
5
5
5
5
5
5
5
5
5
5
5
5
5
5
5
5
5
5
5
5
5
5
5
5
5
5
5
5
5
5
5
5
5
5
5
5
5
5
5
5
5
5
5
5
5
5
5
5
5
5
5
5
5
5
5
5
5
5
5
5
5
5
5
5
5
5
5
5
5
5
5
5
5
5
5
5
5
5
5
5
5
5
5
5
5
5
5
5
5
5
5
5
5
5
5
5
5
5
5
5
5
5
5
5
5
5
5
5
5
5
5
5
5
5
5
5
5
5
5
5
5
5
5
5
5
5
5
5
5
5
5
5
5
5
5
5
5
5
5
5
5
5
5
5
5
5
5
5
5
5
5
5
5
5
5
5
5
5
5
5
5
5
5
5
5
5
5
5
5
5
5
5
5
5
5
5
5
5
5
5
5
5
5
5
5
5
5
5
5
5
5
5
5
5
5
5
5
5
5
5
5
5
5
5
5
5
5
5
5
5
5
5
5
5
5
5
5
5
5
5
5
5
5
5
5
5
5
5
5
5
5
5
5
5
5
5
5
5
5
5
5
5
5
5
5
5
5
5
5
5
5
5
5
5
5
5
5
5
5
5
5
5
5
5
5
5
5
5
5
5
5
5
5
5
5
5
5
5
5
5
5
5
5
5
5
5
5
5
5
5
5
5
5
5
5
5
5
5
5
5
5
5
5
5
5
5
5
5
5
5
5
5
5
5
5
5
5
5
5
5
5
5
5
5
5
5
5
5
5
5
5
5
5
5
5
5
5
5
5
5
5
5
5
5
5
5
5
5
5
5
5
5
5
5
5
5
5
5
5
5
5
5
5
5
5
5
5
5
5
5
5
5
5
5
5
5
5
5
5
5
5
5
5
5
5
5
5
5
5
5
5
5
5
5
5
5
5
5
5
5
5
5
5
5
5
5
5
5
5
5
5
5
5
5
5
5
5
5
5
5
5
5
5
5
5
5
5
5
5
5
5
5
5
5
5
5
5
5
5
5
5
5
5
5
5
5
5
5
5
5
5
5
5
5
5
5
5
5
5
5
5
5
5
5
5
5
5
5
5
5
5
5
5
5
5
5
5
5
5
5
5
5
5
5
5
5
5
5
5
5
5
5
5
5
5
5
5
5
5
5
5
5
5
5
5
5
5
5
5
5
5
5
5
5
5
5
5
5
5
5
5
5
5
5
5
5
5
5
5
5
5
5
5
5
5
5
5
5
5
5
5
5
5
5
5
5
5
5
5
5
5
5
5
5
5
5
5
5
5
5
5
5
5
5
5
5
5
5
5
5
5
5
5
5
5
5
5
5
5
5
5
5
5
5
5
5
5
5
5
5
5
5
5
5
5
5
5
5
5
5
5
5
5
5
5
5
5
5
5
5
5
5
5
5
5
5
5
5
5
5
5
5
5
5
5
5
5
5
5
5
5
5
5
5
5
5
5
5
5
5
5
5
5
5
5
5
5
5
5
5
5
5
5
5
5
5
5
5
5
5
5
5
5
5
5
5
5
5
5
5
5
5
5
5
5
5
5
5
5
5
5
5
5
5
5
5
5
5
5
5
5
5
5
5
5
5
5
5
5
5
5
5
5
5
5
5
5
5
5
5
5
5
5
5
5
5
5
5
5
5
5
5
5
5
5
5
5
5
5
5
5
5
5
5
5
5
5
5
5
5
5
5
5
5
5
5
5
5
5
5
5
5
5
5
5
5
5
5
5
5
5
5
5
5
5
5
5
5
5
5
5
5
5
5
5
5
5
5
5
5
5
5
5
5
5
5
5
5
5
5
5
5
5
5
5
5
5
5
5
5
5
5
5
5
5
5
5
5
5
5
5
5
5
5
5
5
5
5
5
5
5
5
5
5
5
5
5
5
5
5
5
5
5
5
5
5
5
5
5
5
5
5
5
5
5
5
5
5
5
5
5
5
5
5
5
5
5
5
5
5
5
5
5
5
5
5
5
5
5
5
5
5
5
5
5
5
5
5
5
5
5
5
5
5
5
5
5
5
5
5
5
5
5
5
5
5
5
5
5
5
5
5
5
5
5
5
5
5
5
5
5
5
5
5
5
5
5
5
5
5
5
5
5
5
5
5
5
5
5
5
5
5
5
5
5
5
5
5
5
5
5
5
5
5
5
5
5
5
5
5
5
5
5
5
5
5
5
5
5
5
5
5
5
5
5
5
5
5
5
5
5
5
5
5
5
5
5
5
5
5
5
5
5
5
5
5
5
5
5
5
5
5
5
5
5
5
5
5
5
5
5
5
5
5
5
5
5
5
5
5
5
5
5
5
5
5
5
5
5
5
5
5
5
5
5
5
5
5
5
5
5
5
5
5
5
5
5
5
5
5
5
5
5
5
5
5
5
5
5
5
5
5
5
5
5
5
5
5
5
5
5
5
5
5
5
5
5
5
5
5
5
5
5
5
5
5
5
5
5
5
5
5
5
5
5
5
5
5
5
5
5
5
5
5
5
5
5
5
5
5
5
5
5
5
5
5
5
5
5
5
5
5
5
5
5
5
5
5
5
5
5
5
5
5
5
5
5
5
5
5
5
5
5
5
5
5
5
5
5
5
5
5
5
5
5
5
5
5
5
5
5
5
5
5
5
5
5
5
5
5
5
5
5
5
5
5
5
5
5
5
5
5
5
5
5
5
5
5
5
5
5
5
5
5
5
5
5
5
5
5
5
5
5
5
5
5
5
5
5
5
5
5
5
5
5
5
5
5
5
5
5
5
5
5
5
5
5
5
5
5
5
5
5
5
5
5
5
5
5
5
5
5
5
5
5
5
5
5
5
5
5
5
5
5
5
5
5
5
5
5
5
5
5
5
5
5
5
5
5
5
5
5
5
5
5
5
5
5
5
5
5
5
5
5
5
5
5
5
5
5
5
5
5
5
5
5
5
5
5
5
5
5
5
5
5
5
5
5
5
5
5
5
5
5
5
5
5
5
5
5
5
5
5
5
5
5
5
5
5
5
5
5
5
5
5
5
5
5
5
5
5
5
5
5
5
5
5
5
5
5
5
5
5
5
5
5
5
5
5
5
5
5
5
5
5
5
5
5
5
5
5
5
5
5
5
5
5
5
5
5
5
5
5
5
5
5
5
5
5
5
5
5
5
5
5
5
5
5
5
5
5
5
5
5
5
5
5
5
5
5
5
5
5
5
5
5
5
5
5
5
5
5
5
5
5
5
5
5
5
5
5
5
5
5
5
5
5
5
5
5
5
5
5
5
5
5
5
5
5
5
5
5
5
5
5
5
5
5
5
5
5
5
5
5
5
5
5
5
5
5
5
5
5
5
5
5
5
5
5
5
5
5
5
5
5
5
5
5
5
5
5
5
5
5
5
5
5
5
5
5
5
5
5
5
5
5
5
5
5
5
5
5
5
5
5
5
5
5
5
5
5
5
5
5
5
5
5
5
5
5
5
5
5
5
5
5
5
5
5
5
5
5
5
5
5
5
5
5
5
5
5
5
5
5
5
5
5
5
5
5
5
5
5
5
5
5
5
5
5
5
5
5
5
5
5
5
5
5
5
5
5
5
5
5
5
5
5
5
5
5
5
5
5
5
5
5
5
5
5
5
5
5
5
5
5
5
5
5
5
5
5
5
5
5
5
5
5
5
5
5
5
5
5
5
5
5
5
5
5
5
5
5
5
5
5
5
5
5
5
5
5
5
5
5
5
5
5
5
5
5
5
5
5
5
5
5
5
5
5
5
5
5
5
5
5
5
5
5
5
5
5
5
5
5
5
5
5
5
5
5
5
5
5
5
5
5
5
5
5
5
5
5
5
5
5
5
5
5
5
5
5
5
5
5
5
5
5
5
5
5
5
5
5
5
5
5
5
5
5
5
5
5
5
5
5
5
5
5
5
5
5
5
5
5
5
5
5
5
5
5
5
5
5
5
5
5
5
5
5
5
5
5
5
5
5
5
5
5
5
5
5
5
5
5
5
5
5
5
5
5
5
5
5
5
5
5
5
5
5
5
5
5
5
5
5
5
5
5
5
5
5
5
5
5
5
5
5
5
5
5
5
5
5
5
5
5
5
5
5
5
5
5
5
5
5
5
5
5
5
5
5
5
5
5
5
5
5
5
5
5
5
5
5
5
5
5
5
5
5
5
5
5
5
5
5
5
5
5
5
5
5
5
5
5
5
5
5
5
5
5
5
5
5
5
5
5
5
5
5
5
5
5
5
5
5
5
5
5
5
5
5
5
5
5
5
5
5
5
5
5
5
5
5
5
5
5
5
5
5
5
5
5
5
5
5
5
5
5
5
5
5
5
5
5
5
5
5
5
5
5
5
5
5
5
5
5
5
5
5
5
5
5
5
5
5
5
5
5
5
5
5
5
5
5
5
5
5
5
5
5
5
5
5
5
5
5
5
5
5
5
5
5
5
5
5
5
5
5
5
5
5
5
5
5
5
5
5
5
5
5
5
5
5
5
5
5
5
5
5
5
5
5
5
5
5
5
5
5
5
5
5
5
5
5
5
5
5
5
5
5
5
5
5
5
5
5
5
5
5
5
5
5
5
5
5
5
5
5
5
5
5
5
5
5
5
5
5
5
5
5
5
5
5
5
5
5
5
5
5
5
5
5
5
5
5
5
5
5
5
5
5
5
5
5
5
5
5
5
5
5
5
5
5
5
5
5
5
5
5
5
5
5
5
5
5
5
5
5
5
5
5
5
5
5
5
5
5
5
5
5
5
5
5
5
5
5
5
5
5
5
5
5
5
5
5
5
5
5
5
5
5
5
5
5
5
5
5
5
5
5
5
5
5
5
5
5
5
5
5
5
5
5
5
5
5
5
5
5
5
5
5
5
5
5
5
5
5
5
5
5
5
5
5
5
5
5
5
5
5
5
5
5
5
5
5
5
5
5
5
5
5
5
5
5
5
5
5
5
5
5
5
5
5
5
5
5
5
5
5
5
5
5
5
5
5
5
5
5
5
5
5
5
5
5
5
5
5
5
5
5
5
5
5
5
5
5
5
5
5
5
5
5
5
5
5
5
5
5
5
5
5
5
5
5
5
5
5
5
5
5
5
5
5
5
5
5
5
5
5
5
5
5
5
5
5
5
5
5
5
5
5
5
5
5
5
5
5

POINT_DATA 4992
SCALARS v:bnd int 1
LOOKUP_TABLE default
4
4
4
4
4
4
4
4
4
4
4
4
4
4
4
4
4
4
4
4
4
4
4
4
4
4
4
4
4
4
4
4
4
4
4
4
4
4
141
141
141
141
141
141
141
141
141
141
141
141
141
141
141
4
4
4
4
4
4
4
4
4
4
4
4
4
4
4
4
4
142
142
142
142
142
142
142
142
142
142
142
142
142
142
142
142
4
4
4
4
4
4
4
4
4
4
4
4
4
4
4
4
4
4
4
4
4
4
4
4
4
4
4
4
4
4
4
4
4
4
4
4
4
4
4
4
131
131
131
131
131
131
131
131
131
131
131
131
131
131
131
131
4
4
4
4
4
4
4
4
4
4
4
4
4
4
4
4
4
4
4
4
4
4
4
132
132
132
132
132
132
132
132
132
4
4
4
4
4
4
4
4
4
4
4
4
4
4
4
4
132
132
132
132
132
132
132
4
4
4
4
4
4
4
4
4
4
4
4
4
4
4
4
4
4
4
4
4
4
4
4
4
4
4
4
4
4
4
4
4
141
141
141
141
141
141
141
141
141
141
141
141
141
141
141
4
4
4
4
4
4
4
4
4
4
4
4
4
4
4
4
4
142
142
142
142
142
142
142
142
142
142
142
142
142
142
142
142
4
4
4
4
4
4
4
4
4
4
4
4
4
4
4
4
4
4
4
4
4
4
4
4
4
4
4
4
4
4
4
4
4
4
4
4
4
4
4
4
131
131
131
131
131
131
131
131
131
131
131
131
131
131
131
131
4
4
4
4
4
4
4
4
4
4
4
4
4
4
4
4
4
4
4
4
4
4
4
132
132
132
132
132
132
132
132
132
4
4
4
4
4
4
4
4
4
4
4
4
4
4
4
4
132
132
132
132
132
132
132
4
4
4
4
4
4
4
4
4
4
4
4
4
4
4
4
4
4
4
4
4
4
4
4
4
4
4
4
4
4
4
4
4
141
141
141
141
141
141
141
141
141
141
141
141
141
141
141
4
4
4
4
4
4
4
4
4
4
4
4
4
4
4
4
4
142
142
142
142
142
142
142
142
142
142
142
142
142
142
142
142
4
4
4
4
4
4
4
4
4
4
4
4
4
4
4
4
4
4
4
4
4
4
4
4
4
4
4
4
4
4
4
4
4
4
4
4
4
4
4
4
131
131
131
131
131
131
131
131
131
131
131
131
131
131
131
131
4
4
4
4
4
4
4
4
4
4
4
4
4
4
4
4
4
4
4
4
4
4
4
132
132
132
132
132
132
132
132
132
4
4
4
4
4
4
4
4
4
4
4
4
4
4
4
4
132
132
132
132
132
132
132
4
4
4
4
4
4
4
4
4
4
4
4
4
4
4
4
4
4
4
4
4
4
4
4
4
4
4
4
4
4
4
4
4
141
141
141
141
141
141
141
141
141
141
141
141
141
141
141
4
4
4
4
4
4
4
4
4
4
4
4
4
4
4
4
4
142
142
142
142
142
142
142
142
142
142
142
142
142
142
142
142
4
4
4
4
4
4
4
4
4
4
4
4
4
4
4
4
4
4
4
4
4
4
4
4
4
4
4
4
4
4
4
4
4
4
4
4
4
4
4
4
131
131
131
131
131
131
131
131
131
131
131
131
131
131
131
131
4
4
4
4
4
4
4
4
4
4
4
4
4
4
4
4
4
4
4
4
4
4
4
132
132
132
132
132
132
132
132
132
4
4
4
4
4
4
4
4
4
4
4
4
4
4
4
4
132
132
132
132
132
132
132
4
4
4
4
4
4
4
4
4
4
4
4
4
4
4
4
4
4
4
4
4
4
4
4
4
4
4
4
4
4
4
4
4
141
141
141
141
141
141
141
141
141
141
141
141
141
141
141
4
4
4
4
4
4
4
4
4
4
4
4
4
4
4
4
4
142
142
142
142
142
142
142
142
142
142
142
142
142
142
142
142
4
4
4
4
4
4
4
4
4
4
4
4
4
4
4
4
4
4
4
4
4
4
4
4
4
4
4
4
4
4
4
4
4
4
4
4
4
4
4
4
131
131
131
131
131
131
131
131
131
131
131
131
131
131
131
131
4
4
4
4
4
4
4
4
4
4
4
4
4
4
4
4
4
4
4
4
4
4
4
132
132
132
132
132
132
132
132
132
4
4
4
4
4
4
4
4
4
4
4
4
4
4
4
4
132
132
132
132
132
132
132
4
4
4
4
4
4
4
4
4
4
4
4
4
4
4
4
4
4
4
4
4
4
4
4
4
4
4
4
4
4
4
4
4
4
4
4
4
4
4
4
4
4
4
4
4
4
4
4
4
4
4
4
4
4
4
4
4
4
4
4
4
4
4
4
4
4
4
4
4
4
4
4
4
4
4
4
4
4
4
4
4
4
4
4
4
4
4
4
4
4
4
4
4
4
4
4
4
4
4
4
4
4
4
4
4
4
4
4
4
4
4
4
4
4
4
4
4
4
4
4
4
4
4
4
4
4
4
4
4
4
4
4
4
4
4
4
4
4
4
4
4
4
4
4
4
4
4
4
4
4
4
4
4
4
4
4
4
4
4
4
4
4
4
4
4
4
4
4
4
4
4
4
4
4
4
4
4
4
4
4
4
4
4
4
4
4
4
4
4
4
4
4
4
4
4
4
4
4
4
4
4
4
4
4
4
4
4
4
4
4
4
4
4
4
4
4
4
4
4
4
4
4
4
4
4
4
4
4
4
4
4
4
4
4
4
4
4
4
4
4
4
4
4
4
4
4
4
4
4
4
4
4
4
4
4
4
4
4
4
4
4
4
4
4
4
4
4
4
4
4
4
4
4
4
4
4
4
4
4
4
4
4
4
4
4
4
4
4
4
4
4
4
4
4
4
4
4
4
4
4
4
4
4
4
4
4
4
4
4
4
4
4
4
4
4
4
4
4
4
4
4
4
4
4
4
4
4
4
4
4
4
4
4
4
4
4
4
4
4
4
4
4
4
4
4
4
4
4
4
4
4
4
4
4
4
4
4
4
4
4
4
4
4
4
4
4
4
4
4
4
4
4
4
4
4
4
4
4
4
4
4
4
4
4
4
4
4
4
4
4
4
4
4
4
4
4
4
4
4
4
4
4
4
4
4
4
4
4
4
4
4
4
4
4
4
4
4
4
4
4
4
4
4
4
4
4
4
4
4
4
4
4
4
4
4
4
4
4
4
4
4
4
4
4
4
4
4
4
4
4
4
4
4
4
4
4
4
4
4
4
4
4
4
4
4
4
4
4
4
4
4
4
4
4
4
4
4
4
4
4
4
4
4
4
4
4
4
4
4
4
4
4
4
4
4
4
4
4
4
4
4
4
4
4
4
4
4
4
4
4
4
4
4
4
4
4
4
4
4
4
4
4
4
4
4
4
4
4
4
4
4
4
4
4
4
4
4
4
4
4
4
4
4
4
4
4
4
4
4
4
4
4
4
4
4
4
4
4
4
4
4
4
4
4
4
4
4
4
4
4
4
4
4
4
4
4
4
4
4
4
4
4
4
4
4
4
4
4
4
4
4
4
4
4
4
4
4
4
4
4
4
4
4
4
4
4
4
4
4
4
4
4
4
4
4
4
4
4
4
4
4
4
4
4
4
4
4
4
4
4
4
4
4
4
4
4
4
4
4
4
4
4
4
4
4
4
4
4
4
4
4
4
4
4
4
4
4
4
4
4
4
4
4
4
4
4
4
4
4
4
4
4
4
4
4
4
4
4
4
4
4
4
4
4
4
4
4
4
4
4
4
4
4
4
4
4
4
4
4
4
4
4
4
4
4
4
4
4
4
4
4
4
4
4
4
4
4
4
4
4
4
4
4
4
4
4
4
4
4
4
4
4
4
4
4
4
4
4
4
4
4
4
4
4
4
4
4
4
4
4
4
4
4
4
4
4
4
4
4
4
4
4
4
4
4
4
4
4
4
4
4
4
4
4
4
4
4
4
4
4
4
4
4
4
4
4
4
4
4
4
4
4
4
4
4
4
4
4
4
4
4
4
4
4
4
4
4
4
4
4
4
4
4
4
4
4
4
4
4
4
4
4
4
4
4
4
4
4
4
4
4
4
4
4
4
4
4
4
4
4
4
4
4
4
4
4
4
4
4
4
4
4
4
4
4
4
4
4
4
4
4
4
4
4
4
4
4
4
4
4
4
4
4
4
4
4
4
4
4
4
4
4
4
4
4
4
4
4
4
4
4
4
4
4
4
4
4
4
4
4
4
4
4
4
4
4
4
4
4
4
4
4
4
4
4
4
4
4
4
4
4
4
4
4
4
4
4
4
4
4
4
4
4
4
4
4
4
4
4
4
4
4
4
4
4
4
4
4
4
4
4
4
4
4
4
4
4
4
4
4
4
4
4
4
4
4
4
4
4
4
4
4
4
4
4
4
4
4
4
4
4
4
4
4
4
4
4
4
4
4
4
4
4
4
4
4
4
4
4
4
4
4
4
4
4
4
4
4
4
4
4
4
4
4
4
4
4
4
4
4
4
4
4
4
4
4
4
4
4
4
4
4
4
4
4
4
4
4
4
4
4
4
4
4
4
4
4
4
4
4
4
4
4
4
4
4
4
4
4
4
4
4
4
4
4
4
4
4
4
4
4
4
4
4
4
4
4
4
4
4
4
4
4
4
4
4
4
4
4
4
4
4
4
4
4
4
4
4
4
4
4
4
4
4
4
4
4
4
4
4
4
4
4
4
4
4
4
4
4
4
4
4
4
4
4
4
4
4
4
4
4
4
4
4
4
4
4
4
4
4
4
4
4
4
4
4
4
4
4
4
4
4
4
4
4
4
4
4
4
4
4
4
4
4
4
4
4
4
4
4
4
4
4
4
4
4
4
4
4
4
4
4
4
4
4
4
4
4
4
4
4
4
4
4
4
4
4
4
4
4
4
4
4
4
4
4
4
4
4
4
4
4
4
4
4
4
4
4
4
4
4
4
4
4
4
4
4
4
4
4
4
4
4
4
4
4
4
4
4
4
4
4
4
4
4
4
4
4
4
4
4
4
4
4
4
4
4
4
4
4
4
4
4
4
4
4
4
4
4
4
4
4
4
4
4
4
4
4
4
4
4
4
4
4
4
4
4
4
4
4
4
4
4
4
4
4
4
4
4
4
4
4
4
4
4
4
4
4
4
4
4
4
4
4
4
4
4
4
4
4
4
4
4
4
4
4
4
4
4
4
4
4
4
4
4
4
4
4
4
4
4
4
4
4
4
4
4
4
4
4
4
4
4
4
4
4
4
4
4
4
4
4
4
4
4
4
4
4
4
4
4
4
4
4
4
4
4
4
4
4
4
4
4
4
4
4
4
4
4
4
4
4
4
4
4
4
4
4
4
4
4
4
4
4
4
4
4
4
4
4
4
4
4
4
4
4
4
4
4
4
4
4
4
4
4
4
4
4
4
4
4
4
4
4
4
4
4
4
4
4
4
4
4
4
4
4
4
4
4
4
4
4
4
4
4
4
4
4
4
4
4
4
4
4
4
4
4
4
4
4
4
4
4
4
4
4
4
4
4
4
4
4
4
4
4
4
4
4
4
4
4
4
4
4
4
4
4
4
4
4
4
4
4
4
4
4
4
4
4
4
4
4
4
4
4
4
4
4
4
4
4
4
4
4
4
4
4
4
4
4
4
4
4
4
4
4
4
4
4
4
4
4
4
4
4
4
4
4
4
4
4
4
4
4
4
4
4
4
4
4
4
4
4
4
4
4
4
4
4
4
4
4
4
4
4
4
4
4
4
4
4
4
4
4
4
4
4
4
4
4
4
4
4
4
4
4
4
4
4
4
4
4
4
4
4
4
4
4
4
4
4
4
4
4
4
4
4
4
4
4
4
4
4
4
4
4
4
4
4
4
4
4
4
4
4
4
4
4
4
4
4
4
4
4
4
4
4
4
4
4
4
4
4
4
4
4
4
4
4
4
4
4
4
4
4
4
4
4
4
4
4
4
4
4
4
4
4
4
4
4
4
4
4
4
4
4
4
4
4
4
4
4
4
4
4
4
4
4
4
4
4
4
4
4
4
4
4
4
4
4
4
4
4
4
4
4
4
4
4
4
4
4
4
4
4
4
4
4
4
4
4
4
4
4
4
4
4
4
4
4
4
4
4
4
4
4
4
4
4
4
4
4
4
4
4
4
4
4
4
4
4
4
4
4
4
4
4
4
4
4
4
4
4
4
4
4
4
4
4
4
4
4
4
4
4
4
4
4
4
4
4
4
4
4
4
4
4
4
4
4
4
4
4
4
4
4
4
4
4
4
4
4
4
4
4
4
4
4
4
4
4
4
4
4
4
4
4
4
4
4
4
4
4
4
4
4
4
4
4
4
4
4
4
4
4
4
4
4
4
4
4
4
4
4
4
4
4
4
4
4
4
4
4
4
4
4
4
4
4
4
4
4
4
4
4
4
4
4
4
4
4
4
4
4
4
4
4
4
4
4
4
4
4
4
4
4
4
4
4
4
4
4
4
4
4
4
4
4
4
4
4
4
4
4
4
4
4
4
4
4
4
4
4
4
4
4
4
4
4
4
4
4
4
4
4
4
4
4
4
4
4
4
4
4
4
4
4
4
4
4
4
4
4
4
4
4
4
4
4
4
4
4
4
4
4
4
4
4
4
4
4
4
4
4
4
4
4
4
4
4
4
4
4
4
4
4
4
4
4
4
4
4
4
4
4
4
4
4
4
4
4
4
4
4
4
4
4
4
4
4
4
4
4
4
4
4
4
4
4
4
4
4
4
4
4
4
4
4
4
4
4
4
4
4
4
4
4
4
4
4
4
4
4
4
4
4
4
4
4
4
4
4
4
4
4
4
4
4
4
4
4
4
4
4
4
4
4
4
4
4
4
4
4
4
4
4
4
4
4
4
4
4
4
4
4
4
4
4
4
4
4
4
4
4
4
4
4
4
4
4
4
4
4
4
4
4
4
4
4
4
4
4
4
4
4
4
4
4
4
4
4
4
4
4
4
4
4
4
4
4
4
4
4
4
4
4
4
4
4
4
4
4
4
4
4
4
4
4
4
4
4
4
4
4
4
4
4
4
4
4
4
4
4
4
4
4
4
4
4
4
4
4
4
4
4
4
4
4
4
4
4
4
4
4
4
4
4
4
4
4
4
4
4
4
4
4
4
4
4
4
4
4
4
4
4
4
4
4
4
4
4
4
4
4
4
4
4
4
4
4
4
4
4
4
4
4
4
4
4
4
4
4
4
4
4
4
4
4
4
4
4
4
4
4
4
4
4
4
4
4
4
4
4
4
4
4
4
4
4
4
4
4
4
4
4
4
4
4
4
4
4
4
4
4
4
4
4
4
4
4
4
4
4
4
4
4
4
4
4
4
4
4
4
4
4
4
4
4
4
4
4
4
4
4
4
4
4
4
4
4
4
4
4
4
4
4
4
4
4
4
4
4
4
4
4
4
4
4
4
4
4
4
4
4
4
4
4
4
4
4
4
4
4
4
4
4
4
4
4
4
4
4
4
4
4
4
4
4
4
4
4
4
4
4
4
4
4
4
4
4
4
4
4
4
4
4
4
4
4
4
4
4
4
4
4
4
4
4
4
4
4
4
4
4
4
4
4
4
4
4
4
4
4
4
4
4
4
4
4
4
4
4
4
4
4
4
4
4
4
4
4
4
4
4
4
4
4
4
4
4
4
4
4
4
4
4
4
4
4
4
4
4
4
4
4
4
4
4
4
4
4
4
4
4
4
4
4
4
4
4
4
4
4
4
4
4
4
4
4
4
4
4
4
4
4
4
4
4
4
4
4
4
4
4
4
4
4
4
4
4
4
4
4
4
4
4
4
4
4
4
4
4
4
4
4
4
4
4
4
4
4
4
4
4
4
4
4
4
4
4
4
4
4
4
4
4
4
4
4
4
4
4
4
4
4
4
4
4
4
4
4
4
4
4
4
4
4
4
4
4
4
4
4
4
4
4
4
4
4
4
4
4
4
4
4
4
4
4
4
4
4
4
4
4
4
4
4
4
4
4
4
4
4
4
4
4
4
4
4
4
4
4
4
4
4
4
4
4
4
4
4
4
4
4
4
4
4
4
4
4
4
4
4
4
4
4
4
4
4
4
4
4
4
4
4
4
4
4
4
4
4
4
4
4
4
4
4
4
4
4
4
4
4
4
4
4
4
4
4
4
4
4
4
4
4
4
4
4
4
4
4
4
4
4
4
4
4
4
4
4
4
4
4
4
4
4
4
4
4
4
4
4
4
4
4
4
4
4
4
4
4
4
4
4
4
4
4
4
4
4
4
4
4
4
4
4
4
4
4
4
4
4
4
4
4
4
4
4
4
4
4
4
4
4
4
4
4
4
4
4
4
4
4
4
4
4
4
4
4
4
4
4
4
4
4
4
4
4
4
4
4
4
4
4
4
4
4
4
4
4
4
4
4
4
4
4
4
4
4
4
4
4
4
4
4
4
4
4
4
4
4
4
4
4
4
4
4
4
4
4
4
4
4
4
4
4
4
4
4
4
4
4
4
4
4
4
4
4
4
4
4
4
4
4
4
4
4
4
4
4
4
4
4
4
4
4
4
4
4
4
4
4
4
4
4
4
4
4
4
4
4
4
4
4
4
4
4
4
4
4
4
4
4
4
4
4
4
4
4
4
4
4
4
4
4
4
4
4
4
4
4
4
4
4
4
4
4
4
4
4
4
4
4
4
4
4
4
4
4
4
4
4
4
4
4
4
4
4
4
4
4
4
4
4
4
4
4
4
4
4
4
4
4
4
4
4
4
4
4
4
4
4
4
4
4
4
4
4
4
4
4
4
4
4
4
4
4
4
4
4
4
4
4
4
4
4
4
4
4
4
4
4
4
4
4
4
4
4
4
4
4
4
4
4
4
4
4
4
4
4
4
4
4
4
4
4
4
4
4
4
4
4
4
4
4
4
4
4
4
4
4
4
4
4
4
4
4
4
4
4
4
4
4
4
4
4
4
4
4
4
4
4
4
4
4
4
4
4
4
4
4
4
4
4
4
4
4
4
4
4
4
4
4
4
4
4
4
4
4
4
4
4
4
4
4
4
4
4
4
4
4
4
4
4
4
4
4
4
4
4
4
4
4
4
4
4
4
4
4
4
4
4
4
4
4
4
4
4
4
4
4
4
4
4
4
4
4
4
4
4
4
4
4
4
4
4
4
4
4
4
4
4
4
4
4
4
4
4
4
4
4
4
4
4
4
4
4
4
4
4
4
4
4
4
4
4
4
4
4
4
4
4
4
4
4
4
4
4
4
4
4
4
4
4
4
4
4
4
4
4
4
4
4
4
4
4
4
4
4
4
4
4
4
4
4
4
4
4
4
4
4
4
4
4
4
4
4
4
4
4
4
4
4
4
4
4
4
4
4
4
4
4
4
4
4
4
4
4
4
4
4
4
4
4
4
4
4
4
4
4
4
4
4
4
4
4
4
4
4
4
4
4
4
4
4
4
4
4
4
4
4
4
4
4
4
4
4
4
4
4
4
4
4
4
4
4
4
4
4
4
4
4
4
4
4
4
4
4
4
4
4
4
4
4
4
4
4
4
4
4
4
4
4
4
4
4
4
4
4
4
4
4
4
4
4
4
4
4
4
4
4
4
4
4
4
4
4
4
4
4
4
4
4
4
4
4
4
4
4
4
4
4
4
4
4
4
4
4
4
4
4
4
4
4
4
4
4
4
4
4
4
4
4
4
4
4
4
4
4
4
4
4
4
4
4
4
4
4
4
4
4
4
4
4
4
4
4
4
4
4
4
4
4
4
4
4
4
4
4
4
4
4
4
4
4
4
4
4
4
4
4
4
4
4
4
4
4
4
4
4
4
4
4
4
4
4
4
4
4
4
4
4
4
4
4
4
4
4
4
4
4
4
4
4
4
4
4
4
4
4
4
4
4
4
4
4
4
4
4
4
4
4
4
4
4
4
4
4
4
4
4
4
4
4
4
4
4
4
4
4
4
4
4
4
4
4
4
4
4
4
4
4
4
4
4
4
4
4
4
4
4
4
4
4
4
4
4
4
4
4
4
4
4
4
4
4
4
4
4
4
4
4
4
4
4
4
4
4
4
4
4
4
4
4
4
4
4
4
4
4
4
4
4
4
4
4
4
4
4
4
4
4
4
4
4
4
4
4
4
4
4
4
4
4
4
4
4
4
4
4
4
4
4
4
4
4
4
4
4
4
4
4
4
4
4
4
4
4
4
4
4
4
4
4
4
4
4
4
4
4
4
4
4
4
4
4
4
4
4
4
4
4
4
4
4
4
4
4
4
4
4
4
4
4
4
4
4
4
4
4
4
4
4
4
4
4
4
4
4
4
4
4
4
4
4
4
4
4
4
4
4
4
4
4
4
4
4
4
4
4
4
4
4
4
4
4
4
4
4
4
4
4
4
4
4
4
4
4
4
4
4
4
4
4
4
4
4
4
4
4
4
4
4
4
4
4
4
4
4
4
4
4
4
4
4
4
4
4
4
4
4
4
4
4
4
4
4
4
4
4
4
4
4
4
4
4
4
4
4
4
4
4
4
4
4
4
4
4
4
4
4
4
4
4
4
4
4
4
4
4
4
4
4
4
4
4
4
4
4
4
4
4
4
4
4
4
4
4
4
4
4
4
4
4
4
4
4
4
4
4
4
4
4
4
4
4
4
4
4
4
4
4
4
4
4
4
4
4
4
4
4
4
4
4
4
4
4
4
4
4
4
4
4
4
4
4
4
4
4
4
4
4
4
4
4
4
4
4
4
4
4
4
4
4
4
4
4
4
4
4
4
4
4
4
4
4
4
4
4
4
4
4
4
4
4
4
4
4
4
4
4
4
4
4
4
4
4
4
4
4
4
4
4
4
4
4
4
4
4
4
4
4
4
4
4
4
4
4
4
4
4
4
4
4
4
4
4
4
4
4
4
4
4
4
4
4
4
4
4
4
4
4
4
4
4
4
4
4
4
4
4
4
4
4
4
4
4
4
4
4
4
4
4
4
4
4
4
4
4
4
4
4
4
4
4
4
4
4
4
4
4
4
4
4
4
4
4
4
4
4
4
4
4
4
4
4
4
4
4
4
4
4
4
4
4
4
4
4
4
4
4
4
4
4
4
4
4
4
4
4
4
4
4
4
4
4
4
4
4
4
4
4
4
4
4
4
4
4
4
4
4
4
4
4
4
4
4
4
4
4
4
4
4
4
4
4
4
4
4
4
4
4
4
4
4
4
4
4
4
4
4
4
4
4
4
4
4
4
4
4
4
4
4
4
4
4
4

SCALARS v:bnd_sim int 1
LOOKUP_TABLE default
4
4
4
4
4
4
4
4
4
4
4
4
4
4
4
4
4
4
4
4
4
4
4
4
4
4
4
4
4
4
4
4
4
4
4
4
4
4
14
14
14
14
14
14
14
14
14
14
14
14
14
14
14
4
4
4
4
4
4
4
4
4
4
4
4
4
4
4
4
4
14
14
14
14
14
14
14
14
14
14
14
14
14
14
14
14
4
4
4
4
4
4
4
4
4
4
4
4
4
4
4
4
4
4
4
4
4
4
4
4
4
4
4
4
4
4
4
4
4
4
4
4
4
4
4
4
13
13
13
13
13
13
13
13
13
13
13
13
13
13
13
13
4
4
4
4
4
4
4
4
4
4
4
4
4
4
4
4
4
4
4
4
4
4
4
13
13
13
13
13
13
13
13
13
4
4
4
4
4
4
4
4
4
4
4
4
4
4
4
4
13
13
13
13
13
13
13
4
4
4
4
4
4
4
4
4
4
4
4
4
4
4
4
4
4
4
4
4
4
4
4
4
4
4
4
4
4
4
4
4
14
14
14
14
14
14
14
14
14
14
14
14
14
14
14
4
4
4
4
4
4
4
4
4
4
4
4
4
4
4
4
4
14
14
14
14
14
14
14
14
14
14
14
14
14
14
14
14
4
4
4
4
4
4
4
4
4
4
4
4
4
4
4
4
4
4
4
4
4
4
4
4
4
4
4
4
4
4
4
4
4
4
4
4
4
4
4
4
13
13
13
13
13
13
13
13
13
13
13
13
13
13
13
13
4
4
4
4
4
4
4
4
4
4
4
4
4
4
4
4
4
4
4
4
4
4
4
13
13
13
13
13
13
13
13
13
4
4
4
4
4
4
4
4
4
4
4
4
4
4
4
4
13
13
13
13
13
13
13
4
4
4
4
4
4
4
4
4
4
4
4
4
4
4
4
4
4
4
4
4
4
4
4
4
4
4
4
4
4
4
4
4
14
14
14
14
14
14
14
14
14
14
14
14
14
14
14
4
4
4
4
4
4
4
4
4
4
4
4
4
4
4
4
4
14
14
14
14
14
14
14
14
14
14
14
14
14
14
14
14
4
4
4
4
4
4
4
4
4
4
4
4
4
4
4
4
4
4
4
4
4
4
4
4
4
4
4
4
4
4
4
4
4
4
4
4
4
4
4
4
13
13
13
13
13
13
13
13
13
13
13
13
13
13
13
13
4
4
4
4
4
4
4
4
4
4
4
4
4
4
4
4
4
4
4
4
4
4
4
13
13
13
13
13
13
13
13
13
4
4
4
4
4
4
4
4
4
4
4
4
4
4
4
4
13
13
13
13
13
13
13
4
4
4
4
4
4
4
4
4
4
4
4
4
4
4
4
4
4
4
4
4
4
4
4
4
4
4
4
4
4
4
4
4
14
14
14
14
14
14
14
14
14
14
14
14
14
14
14
4
4
4
4
4
4
4
4
4
4
4
4
4
4
4
4
4
14
14
14
14
14
14
14
14
14
14
14
14
14
14
14
14
4
4
4
4
4
4
4
4
4
4
4
4
4
4
4
4
4
4
4
4
4
4
4
4
4
4
4
4
4
4
4
4
4
4
4
4
4
4
4
4
13
13
13
13
13
13
13
13
13
13
13
13
13
13
13
13
4
4
4
4
4
4
4
4
4
4
4
4
4
4
4
4
4
4
4
4
4
4
4
13
13
13
13
13
13
13
13
13
4
4
4
4
4
4
4
4
4
4
4
4
4
4
4
4
13
13
13
13
13
13
13
4
4
4
4
4
4
4
4
4
4
4
4
4
4
4
4
4
4
4
4
4
4
4
4
4
4
4
4
4
4
4
4
4
14
14
14
14
14
14
14
14
14
14
14
14
14
14
14
4
4
4
4
4
4
4
4
4
4
4
4
4
4
4
4
4
14
14
14
14
14
14
14
14
14
14
14
14
14
14
14
14
4
4
4
4
4
4
4
4
4
4
4
4
4
4
4
4
4
4
4
4
4
4
4
4
4
4
4
4
4
4
4
4
4
4
4
4
4
4
4
4
13
13
13
13
13
13
13
13
13
13
13
13
13
13
13
13
4
4
4
4
4
4
4
4
4
4
4
4
4
4
4
4
4
4
4
4
4
4
4
13
13
13
13
13
13
13
13
13
4
4
4
4
4
4
4
4
4
4
4
4
4
4
4
4
13
13
13
13
13
13
13
4
4
4
4
4
4
4
4
4
4
4
4
4
4
4
4
4
4
4
4
4
4
4
4
4
4
4
4
4
4
4
4
4
4
4
4
4
4
4
4
4
4
4
4
4
4
4
4
4
4
4
4
4
4
4
4
4
4
4
4
4
4
4
4
4
4
4
4
4
4
4
4
4
4
4
4
4
4
4
4
4
4
4
4
4
4
4
4
4
4
4
4
4
4
4
4
4
4
4
4
4
4
4
4
4
4
4
4
4
4
4
4
4
4
4
4
4
4
4
4
4
4
4
4
4
4
4
4
4
4
4
4
4
4
4
4
4
4
4
4
4
4
4
4
4
4
4
4
4
4
4
4
4
4
4
4
4
4
4
4
4
4
4
4
4
4
4
4
4
4
4
4
4
4
4
4
4
4
4
4
4
4
4
4
4
4
4
4
4
4
4
4
4
4
4
4
4
4
4
4
4
4
4
4
4
4
4
4
4
4
4
4
4
4
4
4
4
4
4
4
4
4
4
4
4
4
4
4
4
4
4
4
4
4
4
4
4
4
4
4
4
4
4
4
4
4
4
4
4
4
4
4
4
4
4
4
4
4
4
4
4
4
4
4
4
4
4
4
4
4
4
4
4
4
4
4
4
4
4
4
4
4
4
4
4
4
4
4
4
4
4
4
4
4
4
4
4
4
4
4
4
4
4
4
4
4
4
4
4
4
4
4
4
4
4
4
4
4
4
4
4
4
4
4
4
4
4
4
4
4
4
4
4
4
4
4
4
4
4
4
4
4
4
4
4
4
4
4
4
4
4
4
4
4
4
4
4
4
4
4
4
4
4
4
4
4
4
4
4
4
4
4
4
4
4
4
4
4
4
4
4
4
4
4
4
4
4
4
4
4
4
4
4
4
4
4
4
4
4
4
4
4
4
4
4
4
4
4
4
4
4
4
4
4
4
4
4
4
4
4
4
4
4
4
4
4
4
4
4
4
4
4
4
4
4
4
4
4
4
4
4
4
4
4
4
4
4
4
4
4
4
4
4
4
4
4
4
4
4
4
4
4
4
4
4
4
4
4
4
4
4
4
4
4
4
4
4
4
4
4
4
4
4
4
4
4
4
4
4
4
4
4
4
4
4
4
4
4
4
4
4
4
4
4
4
4
4
4
4
4
4
4
4
4
4
4
4
4
4
4
4
4
4
4
4
4
4
4
4
4
4
4
4
4
4
4
4
4
4
4
4
4
4
4
4
4
4
4
4
4
4
4
4
4
4
4
4
4
4
4
4
4
4
4
4
4
4
4
4
4
4
4
4
4
4
4
4
4
4
4
4
4
4
4
4
4
4
4
4
4
4
4
4
4
4
4
4
4
4
4
4
4
4
4
4
4
4
4
4
4
4
4
4
4
4
4
4
4
4
4
4
4
4
4
4
4
4
4
4
4
4
4
4
4
4
4
4
4
4
4
4
4
4
4
4
4
4
4
4
4
4
4
4
4
4
4
4
4
4
4
4
4
4
4
4
4
4
4
4
4
4
4
4
4
4
4
4
4
4
4
4
4
4
4
4
4
4
4
4
4
4
4
4
4
4
4
4
4
4
4
4
4
4
4
4
4
4
4
4
4
4
4
4
4
4
4
4
4
4
4
4
4
4
4
4
4
4
4
4
4
4
4
4
4
4
4
4
4
4
4
4
4
4
4
4
4
4
4
4
4
4
4
4
4
4
4
4
4
4
4
4
4
4
4
4
4
4
4
4
4
4
4
4
4
4
4
4
4
4
4
4
4
4
4
4
4
4
4
4
4
4
4
4
4
4
4
4
4
4
4
4
4
4
4
4
4
4
4
4
4
4
4
4
4
4
4
4
4
4
4
4
4
4
4
4
4
4
4
4
4
4
4
4
4
4
4
4
4
4
4
4
4
4
4
4
4
4
4
4
4
4
4
4
4
4
4
4
4
4
4
4
4
4
4
4
4
4
4
4
4
4
4
4
4
4
4
4
4
4
4
4
4
4
4
4
4
4
4
4
4
4
4
4
4
4
4
4
4
4
4
4
4
4
4
4
4
4
4
4
4
4
4
4
4
4
4
4
4
4
4
4
4
4
4
4
4
4
4
4
4
4
4
4
4
4
4
4
4
4
4
4
4
4
4
4
4
4
4
4
4
4
4
4
4
4
4
4
4
4
4
4
4
4
4
4
4
4
4
4
4
4
4
4
4
4
4
4
4
4
4
4
4
4
4
4
4
4
4
4
4
4
4
4
4
4
4
4
4
4
4
4
4
4
4
4
4
4
4
4
4
4
4
4
4
4
4
4
4
4
4
4
4
4
4
4
4
4
4
4
4
4
4
4
4
4
4
4
4
4
4
4
4
4
4
4
4
4
4
4
4
4
4
4
4
4
4
4
4
4
4
4
4
4
4
4
4
4
4
4
4
4
4
4
4
4
4
4
4
4
4
4
4
4
4
4
4
4
4
4
4
4
4
4
4
4
4
4
4
4
4
4
4
4
4
4
4
4
4
4
4
4
4
4
4
4
4
4
4
4
4
4
4
4
4
4
4
4
4
4
4
4
4
4
4
4
4
4
4
4
4
4
4
4
4
4
4
4
4
4
4
4
4
4
4
4
4
4
4
4
4
4
4
4
4
4
4
4
4
4
4
4
4
4
4
4
4
4
4
4
4
4
4
4
4
4
4
4
4
4
4
4
4
4
4
4
4
4
4
4
4
4
4
4
4
4
4
4
4
4
4
4
4
4
4
4
4
4
4
4
4
4
4
4
4
4
4
4
4
4
4
4
4
4
4
4
4
4
4
4
4
4
4
4
4
4
4
4
4
4
4
4
4
4
4
4
4
4
4
4
4
4
4
4
4
4
4
4
4
4
4
4
4
4
4
4
4
4
4
4
4
4
4
4
4
4
4
4
4
4
4
4
4
4
4
4
4
4
4
4
4
4
4
4
4
4
4
4
4
4
4
4
4
4
4
4
4
4
4
4
4
4
4
4
4
4
4
4
4
4
4
4
4
4
4
4
4
4
4
4
4
4
4
4
4
4
4
4
4
4
4
4
4
4
4
4
4
4
4
4
4
4
4
4
4
4
4
4
4
4
4
4
4
4
4
4
4
4
4
4
4
4
4
4
4
4
4
4
4
4
4
4
4
4
4
4
4
4
4
4
4
4
4
4
4
4
4
4
4
4
4
4
4
4
4
4
4
4
4
4
4
4
4
4
4
4
4
4
4
4
4
4
4
4
4
4
4
4
4
4
4
4
4
4
4
4
4
4
4
4
4
4
4
4
4
4
4
4
4
4
4
4
4
4
4
4
4
4
4
4
4
4
4
4
4
4
4
4
4
4
4
4
4
4
4
4
4
4
4
4
4
4
4
4
4
4
4
4
4
4
4
4
4
4
4
4
4
4
4
4
4
4
4
4
4
4
4
4
4
4
4
4
4
4
4
4
4
4
4
4
4
4
4
4
4
4
4
4
4
4
4
4
4
4
4
4
4
4
4
4
4
4
4
4
4
4
4
4
4
4
4
4
4
4
4
4
4
4
4
4
4
4
4
4
4
4
4
4
4
4
4
4
4
4
4
4
4
4
4
4
4
4
4
4
4
4
4
4
4
4
4
4
4
4
4
4
4
4
4
4
4
4
4
4
4
4
4
4
4
4
4
4
4
4
4
4
4
4
4
4
4
4
4
4
4
4
4
4
4
4
4
4
4
4
4
4
4
4
4
4
4
4
4
4
4
4
4
4
4
4
4
4
4
4
4
4
4
4
4
4
4
4
4
4
4
4
4
4
4
4
4
4
4
4
4
4
4
4
4
4
4
4
4
4
4
4
4
4
4
4
4
4
4
4
4
4
4
4
4
4
4
4
4
4
4
4
4
4
4
4
4
4
4
4
4
4
4
4
4
4
4
4
4
4
4
4
4
4
4
4
4
4
4
4
4
4
4
4
4
4
4
4
4
4
4
4
4
4
4
4
4
4
4
4
4
4
4
4
4
4
4
4
4
4
4
4
4
4
4
4
4
4
4
4
4
4
4
4
4
4
4
4
4
4
4
4
4
4
4
4
4
4
4
4
4
4
4
4
4
4
4
4
4
4
4
4
4
4
4
4
4
4
4
4
4
4
4
4
4
4
4
4
4
4
4
4
4
4
4
4
4
4
4
4
4
4
4
4
4
4
4
4
4
4
4
4
4
4
4
4
4
4
4
4
4
4
4
4
4
4
4
4
4
4
4
4
4
4
4
4
4
4
4
4
4
4
4
4
4
4
4
4
4
4
4
4
4
4
4
4
4
4
4
4
4
4
4
4
4
4
4
4
4
4
4
4
4
4
4
4
4
4
4
4
4
4
4
4
4
4
4
4
4
4
4
4
4
4
4
4
4
4
4
4
4
4
4
4
4
4
4
4
4
4
4
4
4
4
4
4
4
4
4
4
4
4
4
4
4
4
4
4
4
4
4
4
4
4
4
4
4
4
4
4
4
4
4
4
4
4
4
4
4
4
4
4
4
4
4
4
4
4
4
4
4
4
4
4
4
4
4
4
4
4
4
4
4
4
4
4
4
4
4
4
4
4
4
4
4
4
4
4
4
4
4
4
4
4
4
4
4
4
4
4
4
4
4
4
4
4
4
4
4
4
4
4
4
4
4
4
4
4
4
4
4
4
4
4
4
4
4
4
4
4
4
4
4
4
4
4
4
4
4
4
4
4
4
4
4
4
4
4
4
4
4
4
4
4
4
4
4
4
4
4
4
4
4
4
4
4
4
4
4
4
4
4
4
4
4
4
4
4
4
4
4
4
4
4
4
4
4
4
4
4
4
4
4
4
4
4
4
4
4
4
4
4
4
4
4
4
4
4
4
4
4
4
4
4
4
4
4
4
4
4
4
4
4
4
4
4
4
4
4
4
4
4
4
4
4
4
4
4
4
4
4
4
4
4
4
4
4
4
4
4
4
4
4
4
4
4
4
4
4
4
4
4
4
4
4
4
4
4
4
4
4
4
4
4
4
4
4
4
4
4
4
4
4
4
4
4
4
4
4
4
4
4
4
4
4
4
4
4
4
4
4
4
4
4
4
4
4
4
4
4
4
4
4
4
4
4
4
4
4
4
4
4
4
4
4
4
4
4
4
4
4
4
4
4
4
4
4
4
4
4
4
4
4
4
4
4
4
4
4
4
4
4
4
4
4
4
4
4
4
4
4
4
4
4
4
4
4
4
4
4
4
4
4
4
4
4
4
4
4
4
4
4
4
4
4
4
4
4
4
4
4
4
4
4
4
4
4
4
4
4
4
4
4
4
4
4
4
4
4
4
4
4
4
4
4
4
4
4
4
4
4
4
4
4
4
4
4
4
4
4
4
4
4
4
4
4
4
4
4
4
4
4
4
4
4
4
4
4
4
4
4
4
4
4
4
4
4
4
4
4
4
4
4
4
4
4
4
4
4
4
4
4
4
4
4
4
4
4
4
4
4
4
4
4
4
4
4
4
4
4
4
4
4
4
4
4
4
4
4
4
4
4
4
4
4
4
4
4
4
4
4
4
4
4
4
4
4
4
4
4
4
4
4
4
4
4
4
4
4
4
4
4
4
4
4
4
4
4
4
4
4
4
4
4
4
4
4
4
4
4
4
4
4
4
4
4
4
4
4
4
4
4
4
4
4
4
4
4
4
4
4
4
4
4
4
4
4
4
4
4
4
4
4
4
4
4
4
4
4
4
4
4
4
4
4
4
4
4
4
4
4
4
4
4
4
4
4
4
4
4
4
4
4
4
4
4
4
4
4
4
4
4
4
4
4
4
4
4
4
4
4
4
4
4
4
4
4
4
4
4
4
4
4
4
4
4
4
4
4
4
4
4
4
4
4
4
4
4
4
4
4
4
4
4
4
4
4
4
4
4
4
4
4
4
4
4
4
4
4
4
4
4
4
4
4
4
4
4
4
4
4
4
4
4
4
4
4
4
4
4
4
4
4
4
4
4
4
4
4
4
4
4
4
4
4
4
4
4
4
4
4
4
4
4
4
4
4
4
4
4
4
4
4
4
4
4
4
4
4
4
4
4
4
4
4
4
4
4
4
4
4
4
4
4
4
4
4
4
4
4
4
4
4
4
4
4
4
4
4
4
4
4
4
4
4
4
4
4
4
4
4
4
4
4
4
4
4
4
4
4
4
4
4
4
4
4
4
4
4
4
4
4
4
4
4
4
4
4
4
4
4
4
4
4
4
4
4
4
4
4
4
4
4
4
4
4
4
4
4
4
4
4
4
4
4
4
4
4
4
4
4
4
4
4
4
4
4
4
4
4
4
4
4
4
4
4
4
4
4
4
4
4
4
4
4
4
4
4
4
4
4
4
4
4
4
4
4
4
4
4
4
4
4
4
4
4
4
4
4
4
4
4
4
4
4
4
4
4
4
4
4
4
4
4
4
4
4
4
4
4
4
4
4
4
4
4
4
4
4
4
4
4
4
4
4
4
4
4
4
4
4
4
4
4
4
4
4
4
4
4
4
4
4
4
4
4
4
4
4
4
4
4
4
4
4
4
4
4
4
4
4
4
4
4
4
4
4
4
4
4
4
4
4
4
4
4
4
4
4
4
4
4
4
4
4
4
4
4
4
4
4
4
4
4
4
4
4
4
4
4
4
4
4
4
4
4
4
4
4
4
4
4
4
4
4
4
4
4
4
4
4
4
4
4
4
4
4
4
4
4
4
4
4
4
4
4
4
4
4
4
4
4
4
4
4
4
4
4
4
4
4
4
4
4
4
4
4
4
4
4
4
4
4
4
4
4
4
4
4
4
4
4
4
4
4
4
4
4
4
4
4
4
4
4
4
4
4
4
4
4
4
4
4
4
4
4
4
4
4
4
4
4
4
4
4
4
4
4
4
4
4
4
4
4
4
4
4
4
4
4
4
4
4
4
4
4
4
4
4
4
4
4
4
4
4
4
4
4
4
4
4
4
4
4
4
4
4
4
4
4
4
4
4
4
4
4
4
4
4
4
4
4
4
4
4
4
4
4
4
4
4
4
4
4
4
4
4
4
4
4
4
4
4
4
4
4
4
4
4
4
4
4
4
4
4
4
4
4
4
4
4
4
4
4
4
4
4
4
4
4
4
4
4
4
4
4
4
4
4
4
4
4
4
4
4
4
4
4
4
4
4
4
4
4
4
4
4
4
4
4
4
4
4
4
4
4
4
4
4
4
4
4
4
4
4
4
4
4
4
4
4
4
4
4
4
4
4
4
4
4
4
4
4
4
4
4
4
4
4
4
4
4
4
4
4
4
4
4
4
4
4
4
4
4
4
4
4
4
4
4
4
4
4
4
4
4
4
4
4
4
4
4
4
4
4
4
4
4
4
4
4
4
4
4
4
4
4
4
4
4
4
4
4
4
4
4
4
4
4
4
4
4
4
4
4
4
4
4
4
4
4
4
4
4
4
4
4
4
4
4
4
4
4
4
4
4
4
4
4
4
4
4
4
4
4
4
4
4
4
4
4
4
4
4
4
4
4
4
4
4
4
4
4
4
4
4
4
4
4
4
4
4
4
4
4
4
4
4
4
4
4
4
4
4
4
4
4
4
4
4
4
4
4
4
4
4
4
4
4
4
4
4
4
4
4
4
4
4
4
4
4
4
4
4
4
4
4
4
4
4
4
4
4
4
4
4
4
4
4
4
4
4
4
4
4
4
4
4
4
4
4
4
4
4
4
4
4
4
4
4
4
4
4
4
4
4
4
4
4
4
4
4
4
4
4
4
4
4
4
4
4
4
4
4
4
4
4
4
4
4
4
4
4
4
4
4
4
4
4
4
4
4
4
4
4
4
4
4
4
4
4
4
4
4
4
4
4
4
4
4
4
4
4
4
4
4
4
4
4
4
4
4
4
4
4
4
4
4
4
4
4
4
4
4
4
4
4
4
4
4
4
4
4
4
4
4
4
4
4
4
4
4
4
4
4
4
4
4
4
4
4
4
4
4
4
4
4
4
4
4
4
4
4
4
4
4
4
4
4
4
4
4
4
4
4
4
4
4
4
4
4
4
4
4
4
4
4
4
4
4
4
4
4
4
4
4
4
4
4
4
4
4
4
4
4
4
4
4
4
4
4
4
4
4
4
4
4
4
4
4
4
4
4
4
4
4
4
4
4
4
4
4
4
4
4
4
4
4
4
4
4
4
4
4
4
4
4
4
4
4
4
4
4
4
4
4
4
4
4
4
4
4
4
4
4
4
4
4
4
4
4
4
4
4
4
4
4
4
4
4
4
4
4
4
4
4
4
4
4
4
4
4
4
4
4
4
4
4
4
4
4
4
4
4
4
4
4
4
4
4
4
4
4
4
4
4
4
4
4
4
4
4
4
4
4
4
4
4
4
4
4
4
4
4
4
4
4
4
4
4
4
4
4
4
4
4
4
4
4
4
4
4
4
4
4
4
4
4
4
4
4
4
4
4
4
4
4
4
4
4
4
4
4
4
4
4
4
4
4
4
4
4
4
4
4
4
4
4
4
4
4
4
4
4
4
4
4
4
4
4
4
4
4
4
4
4
4
4
4
4
4
4
4
4
4
4
4
4
4
4
4
4
4
4
4
4
4
4
4
4
4
4
4
4
4
4
4
4
4
4
4
4
4
4
4
4
4
4
4
4
4
4
4
4
4
4
4
4
4
4
4
4
4
4
4
4
4
4
4
4
4
4
4
4
4
4
4
4
4
4
4
4
4
4
4
4
4
4
4
4
4
4
4
4
4
4
4
4
4
4
4
4
4
4
4
4
4
4
4
4
4
4
4
4
4
4
4
4
4
4
4
4
4
4
4
4
4
4
4
4
4
4
4
4
4
4
4
4
4
4
4
4
4
4
4
4
4
4
4
4
4
4
4
4
4
4
4
4
4
4
4
4
4
4
4
4
4
4
4
4
4
4
4
4
4
4
4
4
4
4
4
4
4
4
4
4
4
4
4
4
4
4
4
4
4
4
4
4
4
4
4
4
4
4
4
4
4
4
4
4
4
4
4
4
4
4
4
4
4
4
4
4
4
4
4
4
4
4
4
4
4
4
4
4
4
4
4
4
4
4
4
4
4
4

SCALARS v:x double 3
LOOKUP_TABLE default
9.1633944954128452 -0.0535474006116203 0.0000000000000000
0.9111009174311944 -0.0299694189602446 0.0000000000000000
0.2744954128440380 0.4180122324159026 0.0000000000000000
0.0622935779816531 1.0310397553516819 0.0000000000000000
0.0387155963302765 1.9034250764525991 0.0000000000000000
0.2509174311926623 2.6579204892966359 0.0000000000000000
0.0858715596330288 3.2945259938837919 0.0000000000000000
0.1801834862385334 5.9824159021406729 0.0000000000000000
-0.0555963302752280 6.2181957186544343 0.0000000000000000
-0.0555963302752280 6.5718654434250761 0.0000000000000000
0.1330275229357811 7.4442507645259939 0.0000000000000000
0.1330275229357811 9.1182874617737006 0.0000000000000000
0.3688073394495426 9.7313149847094795 0.0000000000000000
0.7696330275229375 9.9435168195718653 0.0000000000000000
1.5477064220183501 10.0378287461773699 0.0000000000000000
8.8804587155963315 10.1321406727828691 0.0000000000000000
9.3991743119266058 9.9435168195718653 0.0000000000000000
9.8000000000000007 9.2833333333333332 0.0000000000000000
9.8000000000000007 1.1489296636085631 0.0000000000000000
9.5877981651376150 0.2765443425076457 0.0000000000000000
9.1633944954128452 -0.0535474006116203 0.0000000000000000
2.2500000000000000 1.1499999999999999 0.0000000000000000
2.2461570560806461 1.1890180644032260 0.0000000000000000
2.2347759065022572 1.2265366864730181 0.0000000000000000
2.2162939224605092 1.2611140466039199 0.0000000000000000
2.1914213562373090 1.2914213562373089 0.0000000000000000
2.1611140466039198 1.3162939224605090 0.0000000000000000
2.1265366864730182 1.3347759065022571 0.0000000000000000
2.0890180644032261 1.3461570560806460 0.0000000000000000
2.0499999999999998 1.3500000000000001 0.0000000000000000
2.0109819355967740 1.3461570560806460 0.0000000000000000
1.9734633135269819 1.3347759065022571 0.0000000000000000
1.9388859533960789 1.3162939224605090 0.0000000000000000
1.9085786437626899 1.2914213562373089 0.0000000000000000
1.8837060775394909 1.2611140466039199 0.0000000000000000
1.8652240934977420 1.2265366864730181 0.0000000000000000
1.8538429439193540 1.1890180644032260 0.0000000000000000
1.8500000000000001 1.1499999999999999 0.0000000000000000
1.8538429439193540 1.1096694355967740 0.0000000000000000
1.8652240934977420 1.0721508135269819 0.0000000000000000
1.8837060775394909 1.0375734533960790 0.0000000000000000
1.9085786437626899 1.0072661437626900 0.0000000000000000
1.9388859533960789 0.9823935775394907 0.0000000000000000
1.9734633135269819 0.9639115934977426 0.0000000000000000
2.0109819355967740 0.9525304439193538 0.0000000000000000
2.0499999999999998 0.9486874999999999 0.0000000000000000
2.0890180644032261 0.9525304439193538 0.0000000000000000
2.1265366864730182 0.9639115934977425 0.0000000000000000
2.1611140466039198 0.9823935775394907 0.0000000000000000
2.1914213562373090 1.0072661437626900 0.0000000000000000
2.2162939224605092 1.0375734533960790 0.0000000000000000
2.2347759065022572 1.0721508135269819 0.0000000000000000
2.2461570560806461 1.1096694355967740 0.0000000000000000
2.4500000000000002 1.1499999999999999 0.0000000000000000
2.4195518130045151 1.3030733729460360 0.0000000000000000
2.3328427124746192 1.4328427124746190 0.0000000000000000
2.2030733729460361 1.5195518130045149 0.0000000000000000
2.0499999999999998 1.5500000000000000 0.0000000000000000
1.8969266270539640 1.5195518130045149 0.0000000000000000
1.7671572875253809 1.4328427124746190 0.0000000000000000
1.6804481869954850 1.3030733729460360 0.0000000000000000
1.6499999999999999 1.1499999999999999 0.0000000000000000
1.6804481869954850 0.9969266270539641 0.0000000000000000
1.7671572875253809 0.8671572875253809 0.0000000000000000
1.8969266270539640 0.7804481869954853 0.0000000000000000
2.0499999999999998 0.7499999999999999 0.0000000000000000
2.2030733729460361 0.7804481869954852 0.0000000000000000
2.3328427124746192 0.8671572875253808 0.0000000000000000
2.4195518130045151 0.9969266270539637 0.0000000000000000
2.2500000000000000 8.8499999999999996 0.0000000000000000
2.2461570560806461 8.8903305644032251 0.0000000000000000
2.2347759065022572 8.9278491864730167 0.0000000000000000
2.2162939224605092 8.9624265466039201 0.0000000000000000
2.1914213562373090 8.9927338562373080 0.0000000000000000
2.1611140466039198 9.0176064224605081 0.0000000000000000
2.1265366864730182 9.0360884065022553 0.0000000000000000
2.0890180644032261 9.0474695560806442 0.0000000000000000
2.0499999999999998 9.0513124999999981 0.0000000000000000
2.0109819355967740 9.0474695560806442 0.0000000000000000
1.9734633135269819 9.0360884065022553 0.0000000000000000
1.9388859533960789 9.0176064224605081 0.0000000000000000
1.9085786437626899 8.9927338562373080 0.0000000000000000
1.8837060775394909 8.9624265466039201 0.0000000000000000
1.8652240934977420 8.9278491864730167 0.0000000000000000
1.8538429439193540 8.8903305644032251 0.0000000000000000
1.8500000000000001 8.8513124999999988 0.0000000000000000
1.8538429439193540 8.8109819355967733 0.0000000000000000
1.8652240934977420 8.7734633135269817 0.0000000000000000
1.8837060775394909 8.7388859533960801 0.0000000000000000
1.9085786437626899 8.7085786437626904 0.0000000000000000
1.9388859533960789 8.6837060775394903 0.0000000000000000
1.9734633135269819 8.6652240934977431 0.0000000000000000
2.0109819355967740 8.6538429439193543 0.0000000000000000
2.0499999999999998 8.6500000000000004 0.0000000000000000
2.0890180644032261 8.6538429439193543 0.0000000000000000
2.1265366864730182 8.6652240934977431 0.0000000000000000
2.1611140466039198 8.6837060775394903 0.0000000000000000
2.1914213562373090 8.7085786437626904 0.0000000000000000
2.2162939224605092 8.7388859533960783 0.0000000000000000
2.2347759065022572 8.7734633135269817 0.0000000000000000
2.2461570560806461 8.8109819355967733 0.0000000000000000
2.4500000000000002 8.8499999999999996 0.0000000000000000
2.4195518130045151 9.0030733729460355 0.0000000000000000
2.3328427124746192 9.1328427124746181 0.0000000000000000
2.2030733729460361 9.2195518130045144 0.0000000000000000
2.0499999999999998 9.2500000000000000 0.0000000000000000
1.8969266270539640 9.2195518130045144 0.0000000000000000
1.7671572875253809 9.1328427124746181 0.0000000000000000
1.6804481869954850 9.0030733729460355 0.0000000000000000
1.6499999999999999 8.8499999999999996 0.0000000000000000
1.6804481869954850 8.6969266270539638 0.0000000000000000
1.7671572875253809 8.5671572875253812 0.0000000000000000
1.8969266270539640 8.4804481869954849 0.0000000000000000
2.0499999999999998 8.4499999999999993 0.0000000000000000
2.2030733729460361 8.4804481869954849 0.0000000000000000
2.3328427124746192 8.5671572875253812 0.0000000000000000
2.4195518130045151 8.6969266270539638 0.0000000000000000
1.3500000000000001 2.0499999999999998 0.0000000000000000
1.3461570560806460 2.0890180644032261 0.0000000000000000
1.3347759065022571 2.1265366864730182 0.0000000000000000
1.3162939224605090 2.1611140466039198 0.0000000000000000
1.2914213562373089 2.1914213562373090 0.0000000000000000
1.2611140466039199 2.2162939224605092 0.0000000000000000
1.2265366864730181 2.2347759065022572 0.0000000000000000
1.1890180644032260 2.2461570560806461 0.0000000000000000
1.1499999999999999 2.2500000000000000 0.0000000000000000
1.1096694355967740 2.2461570560806461 0.0000000000000000
1.0721508135269819 2.2347759065022572 0.0000000000000000
1.0375734533960790 2.2162939224605092 0.0000000000000000
1.0072661437626900 2.1914213562373090 0.0000000000000000
0.9823935775394907 2.1611140466039198 0.0000000000000000
0.9639115934977425 2.1265366864730182 0.0000000000000000
0.9525304439193538 2.0890180644032261 0.0000000000000000
0.9486874999999999 2.0499999999999998 0.0000000000000000
0.9525304439193538 2.0109819355967740 0.0000000000000000
0.9639115934977425 1.9734633135269819 0.0000000000000000
0.9823935775394907 1.9388859533960789 0.0000000000000000
1.0072661437626900 1.9085786437626899 0.0000000000000000
1.0375734533960790 1.8837060775394909 0.0000000000000000
1.0721508135269819 1.8652240934977420 0.0000000000000000
1.1096694355967740 1.8538429439193540 0.0000000000000000
1.1486874999999999 1.8500000000000001 0.0000000000000000
1.1890180644032260 1.8538429439193540 0.0000000000000000
1.2265366864730181 1.8652240934977420 0.0000000000000000
1.2611140466039199 1.8837060775394909 0.0000000000000000
1.2914213562373089 1.9085786437626899 0.0000000000000000
1.3162939224605090 1.9388859533960789 0.0000000000000000
1.3347759065022571 1.9734633135269819 0.0000000000000000
1.3461570560806460 2.0109819355967740 0.0000000000000000
1.5500000000000000 2.0499999999999998 0.0000000000000000
1.5195518130045149 2.2030733729460361 0.0000000000000000
1.4328427124746190 2.3328427124746192 0.0000000000000000
1.3030733729460360 2.4195518130045151 0.0000000000000000
1.1499999999999999 2.4500000000000002 0.0000000000000000
0.9969266270539641 2.4195518130045151 0.0000000000000000
0.8671572875253809 2.3328427124746192 0.0000000000000000
0.7804481869954851 2.2030733729460361 0.0000000000000000
0.7499999999999999 2.0499999999999998 0.0000000000000000
0.7804481869954851 1.8969266270539640 0.0000000000000000
0.8671572875253808 1.7671572875253809 0.0000000000000000
0.9969266270539637 1.6804481869954850 0.0000000000000000
1.1499999999999999 1.6499999999999999 0.0000000000000000
1.3030733729460360 1.6804481869954850 0.0000000000000000
1.4328427124746190 1.7671572875253809 0.0000000000000000
1.5195518130045140 1.8969266270539640 0.0000000000000000
9.0513124999999981 2.0499999999999998 0.0000000000000000
9.0474695560806442 2.0890180644032261 0.0000000000000000
9.0360884065022553 2.1265366864730182 0.0000000000000000
9.0176064224605081 2.1611140466039198 0.0000000000000000
8.9927338562373080 2.1914213562373090 0.0000000000000000
8.9624265466039201 2.2162939224605092 0.0000000000000000
8.9278491864730167 2.2347759065022572 0.0000000000000000
8.8903305644032251 2.2461570560806461 0.0000000000000000
8.8513124999999988 2.2500000000000000 0.0000000000000000
8.8109819355967733 2.2461570560806461 0.0000000000000000
8.7734633135269817 2.2347759065022572 0.0000000000000000
8.7388859533960801 2.2162939224605092 0.0000000000000000
8.7085786437626904 2.1914213562373090 0.0000000000000000
8.6837060775394903 2.1611140466039198 0.0000000000000000
8.6652240934977431 2.1265366864730182 0.0000000000000000
8.6538429439193543 2.0890180644032261 0.0000000000000000
8.6500000000000004 2.0499999999999998 0.0000000000000000
8.6538429439193543 2.0109819355967740 0.0000000000000000
8.6652240934977414 1.9734633135269819 0.0000000000000000
8.6837060775394903 1.9388859533960789 0.0000000000000000
8.7085786437626904 1.9085786437626899 0.0000000000000000
8.7388859533960783 1.8837060775394909 0.0000000000000000
8.7734633135269817 1.8652240934977420 0.0000000000000000
8.8109819355967733 1.8538429439193540 0.0000000000000000
8.8499999999999996 1.8500000000000001 0.0000000000000000
8.8903305644032251 1.8538429439193540 0.0000000000000000
8.9278491864730167 1.8652240934977420 0.0000000000000000
8.9624265466039184 1.8837060775394909 0.0000000000000000
8.9927338562373080 1.9085786437626899 0.0000000000000000
9.0176064224605081 1.9388859533960789 0.0000000000000000
9.0360884065022553 1.9734633135269819 0.0000000000000000
9.0474695560806442 2.0109819355967740 0.0000000000000000
9.2500000000000000 2.0499999999999998 0.0000000000000000
9.2195518130045144 2.2030733729460361 0.0000000000000000
9.1328427124746181 2.3328427124746192 0.0000000000000000
9.0030733729460355 2.4195518130045151 0.0000000000000000
8.8499999999999996 2.4500000000000002 0.0000000000000000
8.6969266270539638 2.4195518130045151 0.0000000000000000
8.5671572875253812 2.3328427124746192 0.0000000000000000
8.4804481869954849 2.2030733729460361 0.0000000000000000
8.4499999999999993 2.0499999999999998 0.0000000000000000
8.4804481869954849 1.8969266270539640 0.0000000000000000
8.5671572875253812 1.7671572875253809 0.0000000000000000
8.6969266270539638 1.6804481869954850 0.0000000000000000
8.8499999999999996 1.6499999999999999 0.0000000000000000
9.0030733729460355 1.6804481869954850 0.0000000000000000
9.1328427124746181 1.7671572875253809 0.0000000000000000
9.2195518130045144 1.8969266270539640 0.0000000000000000
3.7250000000000001 1.1499999999999999 0.0000000000000000
3.7211570560806462 1.1890180644032260 0.0000000000000000
3.7097759065022569 1.2265366864730181 0.0000000000000000
3.6912939224605088 1.2611140466039199 0.0000000000000000
3.6664213562373100 1.2914213562373089 0.0000000000000000
3.6361140466039199 1.3162939224605090 0.0000000000000000
3.6015366864730178 1.3347759065022571 0.0000000000000000
3.5640180644032262 1.3461570560806460 0.0000000000000000
3.5249999999999999 1.3500000000000001 0.0000000000000000
3.4859819355967741 1.3461570560806460 0.0000000000000000
3.4484633135269820 1.3347759065022571 0.0000000000000000
3.4138859533960790 1.3162939224605090 0.0000000000000000
3.3835786437626898 1.2914213562373089 0.0000000000000000
3.3587060775394910 1.2611140466039199 0.0000000000000000
3.3402240934977430 1.2265366864730181 0.0000000000000000
3.3288429439193541 1.1890180644032260 0.0000000000000000
3.3250000000000002 1.1499999999999999 0.0000000000000000
3.3288429439193541 1.1096694355967740 0.0000000000000000
3.3402240934977430 1.0721508135269819 0.0000000000000000
3.3587060775394910 1.0375734533960790 0.0000000000000000
3.3835786437626898 1.0072661437626900 0.0000000000000000
3.4138859533960790 0.9823935775394907 0.0000000000000000
3.4484633135269820 0.9639115934977426 0.0000000000000000
3.4859819355967741 0.9525304439193538 0.0000000000000000
3.5249999999999999 0.9486874999999999 0.0000000000000000
3.5640180644032262 0.9525304439193538 0.0000000000000000
3.6015366864730178 0.9639115934977425 0.0000000000000000
3.6361140466039199 0.9823935775394907 0.0000000000000000
3.6664213562373100 1.0072661437626900 0.0000000000000000
3.6912939224605088 1.0375734533960790 0.0000000000000000
3.7097759065022569 1.0721508135269819 0.0000000000000000
3.7211570560806462 1.1096694355967740 0.0000000000000000
3.9249999999999998 1.1499999999999999 0.0000000000000000
3.8945518130045151 1.3030733729460360 0.0000000000000000
3.8078427124746188 1.4328427124746190 0.0000000000000000
3.6780733729460362 1.5195518130045149 0.0000000000000000
3.5249999999999999 1.5500000000000000 0.0000000000000000
3.3719266270539641 1.5195518130045149 0.0000000000000000
3.2421572875253810 1.4328427124746190 0.0000000000000000
3.1554481869954851 1.3030733729460360 0.0000000000000000
3.1250000000000000 1.1499999999999999 0.0000000000000000
3.1554481869954851 0.9969266270539641 0.0000000000000000
3.2421572875253810 0.8671572875253809 0.0000000000000000
3.3719266270539641 0.7804481869954853 0.0000000000000000
3.5249999999999999 0.7499999999999999 0.0000000000000000
3.6780733729460362 0.7804481869954852 0.0000000000000000
3.8078427124746188 0.8671572875253808 0.0000000000000000
3.8945518130045151 0.9969266270539637 0.0000000000000000
3.7250000000000001 8.8499999999999996 0.0000000000000000
3.7211570560806462 8.8903305644032251 0.0000000000000000
3.7097759065022569 8.9278491864730167 0.0000000000000000
3.6912939224605088 8.9624265466039201 0.0000000000000000
3.6664213562373100 8.9927338562373080 0.0000000000000000
3.6361140466039199 9.0176064224605081 0.0000000000000000
3.6015366864730178 9.0360884065022553 0.0000000000000000
3.5640180644032262 9.0474695560806442 0.0000000000000000
3.5249999999999999 9.0513124999999981 0.0000000000000000
3.4859819355967741 9.0474695560806442 0.0000000000000000
3.4484633135269820 9.0360884065022553 0.0000000000000000
3.4138859533960790 9.0176064224605081 0.0000000000000000
3.3835786437626898 8.9927338562373080 0.0000000000000000
3.3587060775394910 8.9624265466039201 0.0000000000000000
3.3402240934977430 8.9278491864730167 0.0000000000000000
3.3288429439193541 8.8903305644032251 0.0000000000000000
3.3250000000000002 8.8513124999999988 0.0000000000000000
3.3288429439193541 8.8109819355967733 0.0000000000000000
3.3402240934977430 8.7734633135269817 0.0000000000000000
3.3587060775394910 8.7388859533960801 0.0000000000000000
3.3835786437626898 8.7085786437626904 0.0000000000000000
3.4138859533960790 8.6837060775394903 0.0000000000000000
3.4484633135269820 8.6652240934977431 0.0000000000000000
3.4859819355967741 8.6538429439193543 0.0000000000000000
3.5249999999999999 8.6500000000000004 0.0000000000000000
3.5640180644032262 8.6538429439193543 0.0000000000000000
3.6015366864730178 8.6652240934977431 0.0000000000000000
3.6361140466039199 8.6837060775394903 0.0000000000000000
3.6664213562373100 8.7085786437626904 0.0000000000000000
3.6912939224605088 8.7388859533960783 0.0000000000000000
3.7097759065022569 8.7734633135269817 0.0000000000000000
3.7211570560806462 8.8109819355967733 0.0000000000000000
3.9249999999999998 8.8499999999999996 0.0000000000000000
3.8945518130045151 9.0030733729460355 0.0000000000000000
3.8078427124746188 9.1328427124746181 0.0000000000000000
3.6780733729460362 9.2195518130045144 0.0000000000000000
3.5249999999999999 9.2500000000000000 0.0000000000000000
3.3719266270539641 9.2195518130045144 0.0000000000000000
3.2421572875253810 9.1328427124746181 0.0000000000000000
3.1554481869954851 9.0030733729460355 0.0000000000000000
3.1250000000000000 8.8499999999999996 0.0000000000000000
3.1554481869954851 8.6969266270539638 0.0000000000000000
3.2421572875253810 8.5671572875253812 0.0000000000000000
3.3719266270539641 8.4804481869954849 0.0000000000000000
3.5249999999999999 8.4499999999999993 0.0000000000000000
3.6780733729460362 8.4804481869954849 0.0000000000000000
3.8078427124746188 8.5671572875253812 0.0000000000000000
3.8945518130045151 8.6969266270539638 0.0000000000000000
1.3500000000000001 3.5249999999999999 0.0000000000000000
1.3461570560806460 3.5640180644032262 0.0000000000000000
1.3347759065022571 3.6015366864730178 0.0000000000000000
1.3162939224605090 3.6361140466039199 0.0000000000000000
1.2914213562373089 3.6664213562373100 0.0000000000000000
1.2611140466039199 3.6912939224605088 0.0000000000000000
1.2265366864730181 3.7097759065022569 0.0000000000000000
1.1890180644032260 3.7211570560806462 0.0000000000000000
1.1499999999999999 3.7250000000000001 0.0000000000000000
1.1096694355967740 3.7211570560806462 0.0000000000000000
1.0721508135269819 3.7097759065022569 0.0000000000000000
1.0375734533960790 3.6912939224605088 0.0000000000000000
1.0072661437626900 3.6664213562373100 0.0000000000000000
0.9823935775394907 3.6361140466039199 0.0000000000000000
0.9639115934977425 3.6015366864730178 0.0000000000000000
0.9525304439193538 3.5640180644032262 0.0000000000000000
0.9486874999999999 3.5249999999999999 0.0000000000000000
0.9525304439193538 3.4859819355967741 0.0000000000000000
0.9639115934977425 3.4484633135269820 0.0000000000000000
0.9823935775394907 3.4138859533960790 0.0000000000000000
1.0072661437626900 3.3835786437626898 0.0000000000000000
1.0375734533960790 3.3587060775394910 0.0000000000000000
1.0721508135269819 3.3402240934977430 0.0000000000000000
1.1096694355967740 3.3288429439193541 0.0000000000000000
1.1486874999999999 3.3250000000000002 0.0000000000000000
1.1890180644032260 3.3288429439193541 0.0000000000000000
1.2265366864730181 3.3402240934977430 0.0000000000000000
1.2611140466039199 3.3587060775394910 0.0000000000000000
1.2914213562373089 3.3835786437626898 0.0000000000000000
1.3162939224605090 3.4138859533960790 0.0000000000000000
1.3347759065022571 3.4484633135269820 0.0000000000000000
1.3461570560806460 3.4859819355967741 0.0000000000000000
1.5500000000000000 3.5249999999999999 0.0000000000000000
1.5195518130045149 3.6780733729460362 0.0000000000000000
1.4328427124746190 3.8078427124746188 0.0000000000000000
1.3030733729460360 3.8945518130045151 0.0000000000000000
1.1499999999999999 3.9249999999999998 0.0000000000000000
0.9969266270539641 3.8945518130045151 0.0000000000000000
0.8671572875253809 3.8078427124746188 0.0000000000000000
0.7804481869954851 3.6780733729460362 0.0000000000000000
0.7499999999999999 3.5249999999999999 0.0000000000000000
0.7804481869954851 3.3719266270539641 0.0000000000000000
0.8671572875253808 3.2421572875253810 0.0000000000000000
0.9969266270539637 3.1554481869954851 0.0000000000000000
1.1499999999999999 3.1250000000000000 0.0000000000000000
1.3030733729460360 3.1554481869954851 0.0000000000000000
1.4328427124746190 3.2421572875253810 0.0000000000000000
1.5195518130045140 3.3719266270539641 0.0000000000000000
9.0513124999999981 3.5249999999999999 0.0000000000000000
9.0474695560806442 3.5640180644032262 0.0000000000000000
9.0360884065022553 3.6015366864730178 0.0000000000000000
9.0176064224605081 3.6361140466039199 0.0000000000000000
8.9927338562373080 3.6664213562373100 0.0000000000000000
8.9624265466039201 3.6912939224605088 0.0000000000000000
8.9278491864730167 3.7097759065022569 0.0000000000000000
8.8903305644032251 3.7211570560806462 0.0000000000000000
8.8513124999999988 3.7250000000000001 0.0000000000000000
8.8109819355967733 3.7211570560806462 0.0000000000000000
8.7734633135269817 3.7097759065022569 0.0000000000000000
8.7388859533960801 3.6912939224605088 0.0000000000000000
8.7085786437626904 3.6664213562373100 0.0000000000000000
8.6837060775394903 3.6361140466039199 0.0000000000000000
8.6652240934977431 3.6015366864730178 0.0000000000000000
8.6538429439193543 3.5640180644032262 0.0000000000000000
8.6500000000000004 3.5249999999999999 0.0000000000000000
8.6538429439193543 3.4859819355967741 0.0000000000000000
8.6652240934977414 3.4484633135269820 0.0000000000000000
8.6837060775394903 3.4138859533960790 0.0000000000000000
8.7085786437626904 3.3835786437626898 0.0000000000000000
8.7388859533960783 3.3587060775394910 0.0000000000000000
8.7734633135269817 3.3402240934977430 0.0000000000000000
8.8109819355967733 3.3288429439193541 0.0000000000000000
8.8499999999999996 3.3250000000000002 0.0000000000000000
8.8903305644032251 3.3288429439193541 0.0000000000000000
8.9278491864730167 3.3402240934977430 0.0000000000000000
8.9624265466039184 3.3587060775394910 0.0000000000000000
8.9927338562373080 3.3835786437626898 0.0000000000000000
9.0176064224605081 3.4138859533960790 0.0000000000000000
9.0360884065022553 3.4484633135269820 0.0000000000000000
9.0474695560806442 3.4859819355967741 0.0000000000000000
9.2500000000000000 3.5249999999999999 0.0000000000000000
9.2195518130045144 3.6780733729460362 0.0000000000000000
9.1328427124746181 3.8078427124746188 0.0000000000000000
9.0030733729460355 3.8945518130045151 0.0000000000000000
8.8499999999999996 3.9249999999999998 0.0000000000000000
8.6969266270539638 3.8945518130045151 0.0000000000000000
8.5671572875253812 3.8078427124746188 0.0000000000000000
8.4804481869954849 3.6780733729460362 0.0000000000000000
8.4499999999999993 3.5249999999999999 0.0000000000000000
8.4804481869954849 3.3719266270539641 0.0000000000000000
8.5671572875253812 3.2421572875253810 0.0000000000000000
8.6969266270539638 3.1554481869954851 0.0000000000000000
8.8499999999999996 3.1250000000000000 0.0000000000000000
9.0030733729460355 3.1554481869954851 0.0000000000000000
9.1328427124746181 3.2421572875253810 0.0000000000000000
9.2195518130045144 3.3719266270539641 0.0000000000000000
5.2000000000000002 1.1499999999999999 0.0000000000000000
5.1961570560806463 1.1890180644032260 0.0000000000000000
5.1847759065022574 1.2265366864730181 0.0000000000000000
5.1662939224605093 1.2611140466039199 0.0000000000000000
5.1414213562373092 1.2914213562373089 0.0000000000000000
5.1111140466039204 1.3162939224605090 0.0000000000000000
5.0765366864730179 1.3347759065022571 0.0000000000000000
5.0390180644032254 1.3461570560806460 0.0000000000000000
5.0000000000000000 1.3500000000000001 0.0000000000000000
4.9609819355967746 1.3461570560806460 0.0000000000000000
4.9234633135269821 1.3347759065022571 0.0000000000000000
4.8888859533960796 1.3162939224605090 0.0000000000000000
4.8585786437626908 1.2914213562373089 0.0000000000000000
4.8337060775394907 1.2611140466039199 0.0000000000000000
4.8152240934977426 1.2265366864730181 0.0000000000000000
4.8038429439193537 1.1890180644032260 0.0000000000000000
4.7999999999999998 1.1499999999999999 0.0000000000000000
4.8038429439193537 1.1096694355967740 0.0000000000000000
4.8152240934977426 1.0721508135269819 0.0000000000000000
4.8337060775394907 1.0375734533960790 0.0000000000000000
4.8585786437626908 1.0072661437626900 0.0000000000000000
4.8888859533960796 0.9823935775394907 0.0000000000000000
4.9234633135269821 0.9639115934977426 0.0000000000000000
4.9609819355967746 0.9525304439193538 0.0000000000000000
5.0000000000000000 0.9486874999999999 0.0000000000000000
5.0390180644032254 0.9525304439193538 0.0000000000000000
5.0765366864730179 0.9639115934977425 0.0000000000000000
5.1111140466039204 0.9823935775394907 0.0000000000000000
5.1414213562373092 1.0072661437626900 0.0000000000000000
5.1662939224605093 1.0375734533960790 0.0000000000000000
5.1847759065022574 1.0721508135269819 0.0000000000000000
5.1961570560806463 1.1096694355967740 0.0000000000000000
5.4000000000000004 1.1499999999999999 0.0000000000000000
5.3695518130045148 1.3030733729460360 0.0000000000000000
5.2828427124746193 1.4328427124746190 0.0000000000000000
5.1530733729460358 1.5195518130045149 0.0000000000000000
5.0000000000000000 1.5500000000000000 0.0000000000000000
4.8469266270539642 1.5195518130045149 0.0000000000000000
4.7171572875253807 1.4328427124746190 0.0000000000000000
4.6304481869954852 1.3030733729460360 0.0000000000000000
4.5999999999999996 1.1499999999999999 0.0000000000000000
4.6304481869954852 0.9969266270539641 0.0000000000000000
4.7171572875253807 0.8671572875253809 0.0000000000000000
4.8469266270539642 0.7804481869954853 0.0000000000000000
5.0000000000000000 0.7499999999999999 0.0000000000000000
5.1530733729460358 0.7804481869954852 0.0000000000000000
5.2828427124746193 0.8671572875253808 0.0000000000000000
5.3695518130045148 0.9969266270539637 0.0000000000000000
5.2000000000000002 8.8499999999999996 0.0000000000000000
5.1961570560806463 8.8903305644032251 0.0000000000000000
5.1847759065022574 8.9278491864730167 0.0000000000000000
5.1662939224605093 8.9624265466039201 0.0000000000000000
5.1414213562373092 8.9927338562373080 0.0000000000000000
5.1111140466039204 9.0176064224605081 0.0000000000000000
5.0765366864730179 9.0360884065022553 0.0000000000000000
5.0390180644032254 9.0474695560806442 0.0000000000000000
5.0000000000000000 9.0513124999999981 0.0000000000000000
4.9609819355967746 9.0474695560806442 0.0000000000000000
4.9234633135269821 9.0360884065022553 0.0000000000000000
4.8888859533960796 9.0176064224605081 0.0000000000000000
4.8585786437626908 8.9927338562373080 0.0000000000000000
4.8337060775394907 8.9624265466039201 0.0000000000000000
4.8152240934977426 8.9278491864730167 0.0000000000000000
4.8038429439193537 8.8903305644032251 0.0000000000000000
4.7999999999999998 8.8513124999999988 0.0000000000000000
4.8038429439193537 8.8109819355967733 0.0000000000000000
4.8152240934977426 8.7734633135269817 0.0000000000000000
4.8337060775394907 8.7388859533960801 0.0000000000000000
4.8585786437626908 8.7085786437626904 0.0000000000000000
4.8888859533960796 8.6837060775394903 0.0000000000000000
4.9234633135269821 8.6652240934977431 0.0000000000000000
4.9609819355967746 8.6538429439193543 0.0000000000000000
5.0000000000000000 8.6500000000000004 0.0000000000000000
5.0390180644032254 8.6538429439193543 0.0000000000000000
5.0765366864730179 8.6652240934977431 0.0000000000000000
5.1111140466039204 8.6837060775394903 0.0000000000000000
5.1414213562373092 8.7085786437626904 0.0000000000000000
5.1662939224605093 8.7388859533960783 0.0000000000000000
5.1847759065022574 8.7734633135269817 0.0000000000000000
5.1961570560806463 8.8109819355967733 0.0000000000000000
5.4000000000000004 8.8499999999999996 0.0000000000000000
5.3695518130045148 9.0030733729460355 0.0000000000000000
5.2828427124746193 9.1328427124746181 0.0000000000000000
5.1530733729460358 9.2195518130045144 0.0000000000000000
5.0000000000000000 9.2500000000000000 0.0000000000000000
4.8469266270539642 9.2195518130045144 0.0000000000000000
4.7171572875253807 9.1328427124746181 0.0000000000000000
4.6304481869954852 9.0030733729460355 0.0000000000000000
4.5999999999999996 8.8499999999999996 0.0000000000000000
4.6304481869954852 8.6969266270539638 0.0000000000000000
4.7171572875253807 8.5671572875253812 0.0000000000000000
4.8469266270539642 8.4804481869954849 0.0000000000000000
5.0000000000000000 8.4499999999999993 0.0000000000000000
5.1530733729460358 8.4804481869954849 0.0000000000000000
5.2828427124746193 8.5671572875253812 0.0000000000000000
5.3695518130045148 8.6969266270539638 0.0000000000000000
1.3500000000000001 5.0000000000000000 0.0000000000000000
1.3461570560806460 5.0390180644032254 0.0000000000000000
1.3347759065022571 5.0765366864730179 0.0000000000000000
1.3162939224605090 5.1111140466039204 0.0000000000000000
1.2914213562373089 5.1414213562373092 0.0000000000000000
1.2611140466039199 5.1662939224605093 0.0000000000000000
1.2265366864730181 5.1847759065022574 0.0000000000000000
1.1890180644032260 5.1961570560806463 0.0000000000000000
1.1499999999999999 5.2000000000000002 0.0000000000000000
1.1096694355967740 5.1961570560806463 0.0000000000000000
1.0721508135269819 5.1847759065022574 0.0000000000000000
1.0375734533960790 5.1662939224605093 0.0000000000000000
1.0072661437626900 5.1414213562373092 0.0000000000000000
0.9823935775394907 5.1111140466039204 0.0000000000000000
0.9639115934977425 5.0765366864730179 0.0000000000000000
0.9525304439193538 5.0390180644032254 0.0000000000000000
0.9486874999999999 5.0000000000000000 0.0000000000000000
0.9525304439193538 4.9609819355967746 0.0000000000000000
0.9639115934977425 4.9234633135269821 0.0000000000000000
0.9823935775394907 4.8888859533960796 0.0000000000000000
1.0072661437626900 4.8585786437626908 0.0000000000000000
1.0375734533960790 4.8337060775394907 0.0000000000000000
1.0721508135269819 4.8152240934977426 0.0000000000000000
1.1096694355967740 4.8038429439193537 0.0000000000000000
1.1486874999999999 4.7999999999999998 0.0000000000000000
1.1890180644032260 4.8038429439193537 0.0000000000000000
1.2265366864730181 4.8152240934977426 0.0000000000000000
1.2611140466039199 4.8337060775394907 0.0000000000000000
1.2914213562373089 4.8585786437626908 0.0000000000000000
1.3162939224605090 4.8888859533960796 0.0000000000000000
1.3347759065022571 4.9234633135269821 0.0000000000000000
1.3461570560806460 4.9609819355967746 0.0000000000000000
1.5500000000000000 5.0000000000000000 0.0000000000000000
1.5195518130045149 5.1530733729460358 0.0000000000000000
1.4328427124746190 5.2828427124746193 0.0000000000000000
1.3030733729460360 5.3695518130045148 0.0000000000000000
1.1499999999999999 5.4000000000000004 0.0000000000000000
0.9969266270539641 5.3695518130045148 0.0000000000000000
0.8671572875253809 5.2828427124746193 0.0000000000000000
0.7804481869954851 5.1530733729460358 0.0000000000000000
0.7499999999999999 5.0000000000000000 0.0000000000000000
0.7804481869954851 4.8469266270539642 0.0000000000000000
0.8671572875253808 4.7171572875253807 0.0000000000000000
0.9969266270539637 4.6304481869954852 0.0000000000000000
1.1499999999999999 4.5999999999999996 0.0000000000000000
1.3030733729460360 4.6304481869954852 0.0000000000000000
1.4328427124746190 4.7171572875253807 0.0000000000000000
1.5195518130045140 4.8469266270539642 0.0000000000000000
9.0513124999999981 5.0000000000000000 0.0000000000000000
9.0474695560806442 5.0390180644032254 0.0000000000000000
9.0360884065022553 5.0765366864730179 0.0000000000000000
9.0176064224605081 5.1111140466039204 0.0000000000000000
8.9927338562373080 5.1414213562373092 0.0000000000000000
8.9624265466039201 5.1662939224605093 0.0000000000000000
8.9278491864730167 5.1847759065022574 0.0000000000000000
8.8903305644032251 5.1961570560806463 0.0000000000000000
8.8513124999999988 5.2000000000000002 0.0000000000000000
8.8109819355967733 5.1961570560806463 0.0000000000000000
8.7734633135269817 5.1847759065022574 0.0000000000000000
8.7388859533960801 5.1662939224605093 0.0000000000000000
8.7085786437626904 5.1414213562373092 0.0000000000000000
8.6837060775394903 5.1111140466039204 0.0000000000000000
8.6652240934977431 5.0765366864730179 0.0000000000000000
8.6538429439193543 5.0390180644032254 0.0000000000000000
8.6500000000000004 5.0000000000000000 0.0000000000000000
8.6538429439193543 4.9609819355967746 0.0000000000000000
8.6652240934977414 4.9234633135269821 0.0000000000000000
8.6837060775394903 4.8888859533960796 0.0000000000000000
8.7085786437626904 4.8585786437626908 0.0000000000000000
8.7388859533960783 4.8337060775394907 0.0000000000000000
8.7734633135269817 4.8152240934977426 0.0000000000000000
8.8109819355967733 4.8038429439193537 0.0000000000000000
8.8499999999999996 4.7999999999999998 0.0000000000000000
8.8903305644032251 4.8038429439193537 0.0000000000000000
8.9278491864730167 4.8152240934977426 0.0000000000000000
8.9624265466039184 4.8337060775394907 0.0000000000000000
8.9927338562373080 4.8585786437626908 0.0000000000000000
9.0176064224605081 4.8888859533960796 0.0000000000000000
9.0360884065022553 4.9234633135269821 0.0000000000000000
9.0474695560806442 4.9609819355967746 0.0000000000000000
9.2500000000000000 5.0000000000000000 0.0000000000000000
9.2195518130045144 5.1530733729460358 0.0000000000000000
9.1328427124746181 5.2828427124746193 0.0000000000000000
9.0030733729460355 5.3695518130045148 0.0000000000000000
8.8499999999999996 5.4000000000000004 0.0000000000000000
8.6969266270539638 5.3695518130045148 0.0000000000000000
8.5671572875253812 5.2828427124746193 0.0000000000000000
8.4804481869954849 5.1530733729460358 0.0000000000000000
8.4499999999999993 5.0000000000000000 0.0000000000000000
8.4804481869954849 4.8469266270539642 0.0000000000000000
8.5671572875253812 4.7171572875253807 0.0000000000000000
8.6969266270539638 4.6304481869954852 0.0000000000000000
8.8499999999999996 4.5999999999999996 0.0000000000000000
9.0030733729460355 4.6304481869954852 0.0000000000000000
9.1328427124746181 4.7171572875253807 0.0000000000000000
9.2195518130045144 4.8469266270539642 0.0000000000000000
6.6750000000000007 1.1499999999999999 0.0000000000000000
6.6711570560806468 1.1890180644032260 0.0000000000000000
6.6597759065022579 1.2265366864730181 0.0000000000000000
6.6412939224605099 1.2611140466039199 0.0000000000000000
6.6164213562373098 1.2914213562373089 0.0000000000000000
6.5861140466039210 1.3162939224605090 0.0000000000000000
6.5515366864730176 1.3347759065022571 0.0000000000000000
6.5140180644032259 1.3461570560806460 0.0000000000000000
6.4750000000000014 1.3500000000000001 0.0000000000000000
6.4359819355967751 1.3461570560806460 0.0000000000000000
6.3984633135269826 1.3347759065022571 0.0000000000000000
6.3638859533960801 1.3162939224605090 0.0000000000000000
6.3335786437626913 1.2914213562373089 0.0000000000000000
6.3087060775394912 1.2611140466039199 0.0000000000000000
6.2902240934977431 1.2265366864730181 0.0000000000000000
6.2788429439193543 1.1890180644032260 0.0000000000000000
6.2750000000000004 1.1499999999999999 0.0000000000000000
6.2788429439193543 1.1096694355967740 0.0000000000000000
6.2902240934977431 1.0721508135269819 0.0000000000000000
6.3087060775394912 1.0375734533960790 0.0000000000000000
6.3335786437626913 1.0072661437626900 0.0000000000000000
6.3638859533960801 0.9823935775394907 0.0000000000000000
6.3984633135269826 0.9639115934977426 0.0000000000000000
6.4359819355967751 0.9525304439193538 0.0000000000000000
6.4750000000000014 0.9486874999999999 0.0000000000000000
6.5140180644032259 0.9525304439193538 0.0000000000000000
6.5515366864730176 0.9639115934977425 0.0000000000000000
6.5861140466039210 0.9823935775394907 0.0000000000000000
6.6164213562373098 1.0072661437626900 0.0000000000000000
6.6412939224605099 1.0375734533960790 0.0000000000000000
6.6597759065022579 1.0721508135269819 0.0000000000000000
6.6711570560806468 1.1096694355967740 0.0000000000000000
6.8750000000000009 1.1499999999999999 0.0000000000000000
6.8445518130045153 1.3030733729460360 0.0000000000000000
6.7578427124746199 1.4328427124746190 0.0000000000000000
6.6280733729460364 1.5195518130045149 0.0000000000000000
6.4750000000000014 1.5500000000000000 0.0000000000000000
6.3219266270539647 1.5195518130045149 0.0000000000000000
6.1921572875253812 1.4328427124746190 0.0000000000000000
6.1054481869954857 1.3030733729460360 0.0000000000000000
6.0750000000000002 1.1499999999999999 0.0000000000000000
6.1054481869954857 0.9969266270539641 0.0000000000000000
6.1921572875253812 0.8671572875253809 0.0000000000000000
6.3219266270539647 0.7804481869954853 0.0000000000000000
6.4750000000000014 0.7499999999999999 0.0000000000000000
6.6280733729460364 0.7804481869954852 0.0000000000000000
6.7578427124746199 0.8671572875253808 0.0000000000000000
6.8445518130045153 0.9969266270539637 0.0000000000000000
6.6750000000000007 8.8499999999999996 0.0000000000000000
6.6711570560806468 8.8903305644032251 0.0000000000000000
6.6597759065022579 8.9278491864730167 0.0000000000000000
6.6412939224605099 8.9624265466039201 0.0000000000000000
6.6164213562373098 8.9927338562373080 0.0000000000000000
6.5861140466039210 9.0176064224605081 0.0000000000000000
6.5515366864730176 9.0360884065022553 0.0000000000000000
6.5140180644032259 9.0474695560806442 0.0000000000000000
6.4750000000000014 9.0513124999999981 0.0000000000000000
6.4359819355967751 9.0474695560806442 0.0000000000000000
6.3984633135269826 9.0360884065022553 0.0000000000000000
6.3638859533960801 9.0176064224605081 0.0000000000000000
6.3335786437626913 8.9927338562373080 0.0000000000000000
6.3087060775394912 8.9624265466039201 0.0000000000000000
6.2902240934977431 8.9278491864730167 0.0000000000000000
6.2788429439193543 8.8903305644032251 0.0000000000000000
6.2750000000000004 8.8513124999999988 0.0000000000000000
6.2788429439193543 8.8109819355967733 0.0000000000000000
6.2902240934977431 8.7734633135269817 0.0000000000000000
6.3087060775394912 8.7388859533960801 0.0000000000000000
6.3335786437626913 8.7085786437626904 0.0000000000000000
6.3638859533960801 8.6837060775394903 0.0000000000000000
6.3984633135269826 8.6652240934977431 0.0000000000000000
6.4359819355967751 8.6538429439193543 0.0000000000000000
6.4750000000000014 8.6500000000000004 0.0000000000000000
6.5140180644032259 8.6538429439193543 0.0000000000000000
6.5515366864730176 8.6652240934977431 0.0000000000000000
6.5861140466039210 8.6837060775394903 0.0000000000000000
6.6164213562373098 8.7085786437626904 0.0000000000000000
6.6412939224605099 8.7388859533960783 0.0000000000000000
6.6597759065022579 8.7734633135269817 0.0000000000000000
6.6711570560806468 8.8109819355967733 0.0000000000000000
6.8750000000000009 8.8499999999999996 0.0000000000000000
6.8445518130045153 9.0030733729460355 0.0000000000000000
6.7578427124746199 9.1328427124746181 0.0000000000000000
6.6280733729460364 9.2195518130045144 0.0000000000000000
6.4750000000000014 9.2500000000000000 0.0000000000000000
6.3219266270539647 9.2195518130045144 0.0000000000000000
6.1921572875253812 9.1328427124746181 0.0000000000000000
6.1054481869954857 9.0030733729460355 0.0000000000000000
6.0750000000000002 8.8499999999999996 0.0000000000000000
6.1054481869954857 8.6969266270539638 0.0000000000000000
6.1921572875253812 8.5671572875253812 0.0000000000000000
6.3219266270539647 8.4804481869954849 0.0000000000000000
6.4750000000000014 8.4499999999999993 0.0000000000000000
6.6280733729460364 8.4804481869954849 0.0000000000000000
6.7578427124746199 8.5671572875253812 0.0000000000000000
6.8445518130045153 8.6969266270539638 0.0000000000000000
1.3500000000000001 6.4750000000000014 0.0000000000000000
1.3461570560806460 6.5140180644032259 0.0000000000000000
1.3347759065022571 6.5515366864730176 0.0000000000000000
1.3162939224605090 6.5861140466039210 0.0000000000000000
1.2914213562373089 6.6164213562373098 0.0000000000000000
1.2611140466039199 6.6412939224605099 0.0000000000000000
1.2265366864730181 6.6597759065022579 0.0000000000000000
1.1890180644032260 6.6711570560806468 0.0000000000000000
1.1499999999999999 6.6750000000000007 0.0000000000000000
1.1096694355967740 6.6711570560806468 0.0000000000000000
1.0721508135269819 6.6597759065022579 0.0000000000000000
1.0375734533960790 6.6412939224605099 0.0000000000000000
1.0072661437626900 6.6164213562373098 0.0000000000000000
0.9823935775394907 6.5861140466039210 0.0000000000000000
0.9639115934977425 6.5515366864730176 0.0000000000000000
0.9525304439193538 6.5140180644032259 0.0000000000000000
0.9486874999999999 6.4750000000000014 0.0000000000000000
0.9525304439193538 6.4359819355967751 0.0000000000000000
0.9639115934977425 6.3984633135269826 0.0000000000000000
0.9823935775394907 6.3638859533960801 0.0000000000000000
1.0072661437626900 6.3335786437626913 0.0000000000000000
1.0375734533960790 6.3087060775394912 0.0000000000000000
1.0721508135269819 6.2902240934977431 0.0000000000000000
1.1096694355967740 6.2788429439193543 0.0000000000000000
1.1486874999999999 6.2750000000000004 0.0000000000000000
1.1890180644032260 6.2788429439193543 0.0000000000000000
1.2265366864730181 6.2902240934977431 0.0000000000000000
1.2611140466039199 6.3087060775394912 0.0000000000000000
1.2914213562373089 6.3335786437626913 0.0000000000000000
1.3162939224605090 6.3638859533960801 0.0000000000000000
1.3347759065022571 6.3984633135269826 0.0000000000000000
1.3461570560806460 6.4359819355967751 0.0000000000000000
1.5500000000000000 6.4750000000000014 0.0000000000000000
1.5195518130045149 6.6280733729460364 0.0000000000000000
1.4328427124746190 6.7578427124746199 0.0000000000000000
1.3030733729460360 6.8445518130045153 0.0000000000000000
1.1499999999999999 6.8750000000000009 0.0000000000000000
0.9969266270539641 6.8445518130045153 0.0000000000000000
0.8671572875253809 6.7578427124746199 0.0000000000000000
0.7804481869954851 6.6280733729460364 0.0000000000000000
0.7499999999999999 6.4750000000000014 0.0000000000000000
0.7804481869954851 6.3219266270539647 0.0000000000000000
0.8671572875253808 6.1921572875253812 0.0000000000000000
0.9969266270539637 6.1054481869954857 0.0000000000000000
1.1499999999999999 6.0750000000000002 0.0000000000000000
1.3030733729460360 6.1054481869954857 0.0000000000000000
1.4328427124746190 6.1921572875253812 0.0000000000000000
1.5195518130045140 6.3219266270539647 0.0000000000000000
9.0513124999999981 6.4750000000000014 0.0000000000000000
9.0474695560806442 6.5140180644032259 0.0000000000000000
9.0360884065022553 6.5515366864730176 0.0000000000000000
9.0176064224605081 6.5861140466039210 0.0000000000000000
8.9927338562373080 6.6164213562373098 0.0000000000000000
8.9624265466039201 6.6412939224605099 0.0000000000000000
8.9278491864730167 6.6597759065022579 0.0000000000000000
8.8903305644032251 6.6711570560806468 0.0000000000000000
8.8513124999999988 6.6750000000000007 0.0000000000000000
8.8109819355967733 6.6711570560806468 0.0000000000000000
8.7734633135269817 6.6597759065022579 0.0000000000000000
8.7388859533960801 6.6412939224605099 0.0000000000000000
8.7085786437626904 6.6164213562373098 0.0000000000000000
8.6837060775394903 6.5861140466039210 0.0000000000000000
8.6652240934977431 6.5515366864730176 0.0000000000000000
8.6538429439193543 6.5140180644032259 0.0000000000000000
8.6500000000000004 6.4750000000000014 0.0000000000000000
8.6538429439193543 6.4359819355967751 0.0000000000000000
8.6652240934977414 6.3984633135269826 0.0000000000000000
8.6837060775394903 6.3638859533960801 0.0000000000000000
8.7085786437626904 6.3335786437626913 0.0000000000000000
8.7388859533960783 6.3087060775394912 0.0000000000000000
8.7734633135269817 6.2902240934977431 0.0000000000000000
8.8109819355967733 6.2788429439193543 0.0000000000000000
8.8499999999999996 6.2750000000000004 0.0000000000000000
8.8903305644032251 6.2788429439193543 0.0000000000000000
8.9278491864730167 6.2902240934977431 0.0000000000000000
8.9624265466039184 6.3087060775394912 0.0000000000000000
8.9927338562373080 6.3335786437626913 0.0000000000000000
9.0176064224605081 6.3638859533960801 0.0000000000000000
9.0360884065022553 6.3984633135269826 0.0000000000000000
9.0474695560806442 6.4359819355967751 0.0000000000000000
9.2500000000000000 6.4750000000000014 0.0000000000000000
9.2195518130045144 6.6280733729460364 0.0000000000000000
9.1328427124746181 6.7578427124746199 0.0000000000000000
9.0030733729460355 6.8445518130045153 0.0000000000000000
8.8499999999999996 6.8750000000000009 0.0000000000000000
8.6969266270539638 6.8445518130045153 0.0000000000000000
8.5671572875253812 6.7578427124746199 0.0000000000000000
8.4804481869954849 6.6280733729460364 0.0000000000000000
8.4499999999999993 6.4750000000000014 0.0000000000000000
8.4804481869954849 6.3219266270539647 0.0000000000000000
8.5671572875253812 6.1921572875253812 0.0000000000000000
8.6969266270539638 6.1054481869954857 0.0000000000000000
8.8499999999999996 6.0750000000000002 0.0000000000000000
9.0030733729460355 6.1054481869954857 0.0000000000000000
9.1328427124746181 6.1921572875253812 0.0000000000000000
9.2195518130045144 6.3219266270539647 0.0000000000000000
8.1500000000000004 1.1499999999999999 0.0000000000000000
8.1461570560806464 1.1890180644032260 0.0000000000000000
8.1347759065022576 1.2265366864730181 0.0000000000000000
8.1162939224605086 1.2611140466039199 0.0000000000000000
8.0914213562373103 1.2914213562373089 0.0000000000000000
8.0611140466039206 1.3162939224605090 0.0000000000000000
8.0265366864730190 1.3347759065022571 0.0000000000000000
7.9890180644032256 1.3461570560806460 0.0000000000000000
7.9500000000000002 1.3500000000000001 0.0000000000000000
7.9109819355967748 1.3461570560806460 0.0000000000000000
7.8734633135269823 1.3347759065022571 0.0000000000000000
7.8388859533960797 1.3162939224605090 0.0000000000000000
7.8085786437626910 1.2914213562373089 0.0000000000000000
7.7837060775394908 1.2611140466039199 0.0000000000000000
7.7652240934977428 1.2265366864730181 0.0000000000000000
7.7538429439193539 1.1890180644032260 0.0000000000000000
7.7500000000000000 1.1499999999999999 0.0000000000000000
7.7538429439193539 1.1096694355967740 0.0000000000000000
7.7652240934977428 1.0721508135269819 0.0000000000000000
7.7837060775394908 1.0375734533960790 0.0000000000000000
7.8085786437626910 1.0072661437626900 0.0000000000000000
7.8388859533960797 0.9823935775394907 0.0000000000000000
7.8734633135269823 0.9639115934977426 0.0000000000000000
7.9109819355967748 0.9525304439193538 0.0000000000000000
7.9500000000000002 0.9486874999999999 0.0000000000000000
7.9890180644032256 0.9525304439193538 0.0000000000000000
8.0265366864730190 0.9639115934977425 0.0000000000000000
8.0611140466039206 0.9823935775394907 0.0000000000000000
8.0914213562373103 1.0072661437626900 0.0000000000000000
8.1162939224605086 1.0375734533960790 0.0000000000000000
8.1347759065022576 1.0721508135269819 0.0000000000000000
8.1461570560806464 1.1096694355967740 0.0000000000000000
8.3499999999999996 1.1499999999999999 0.0000000000000000
8.3195518130045141 1.3030733729460360 0.0000000000000000
8.2328427124746195 1.4328427124746190 0.0000000000000000
8.1030733729460369 1.5195518130045149 0.0000000000000000
7.9500000000000002 1.5500000000000000 0.0000000000000000
7.7969266270539643 1.5195518130045149 0.0000000000000000
7.6671572875253808 1.4328427124746190 0.0000000000000000
7.5804481869954854 1.3030733729460360 0.0000000000000000
7.5499999999999998 1.1499999999999999 0.0000000000000000
7.5804481869954854 0.9969266270539641 0.0000000000000000
7.6671572875253808 0.8671572875253809 0.0000000000000000
7.7969266270539643 0.7804481869954853 0.0000000000000000
7.9500000000000002 0.7499999999999999 0.0000000000000000
8.1030733729460369 0.7804481869954852 0.0000000000000000
8.2328427124746195 0.8671572875253808 0.0000000000000000
8.3195518130045141 0.9969266270539637 0.0000000000000000
8.1500000000000004 8.8499999999999996 0.0000000000000000
8.1461570560806464 8.8903305644032251 0.0000000000000000
8.1347759065022576 8.9278491864730167 0.0000000000000000
8.1162939224605086 8.9624265466039201 0.0000000000000000
8.0914213562373103 8.9927338562373080 0.0000000000000000
8.0611140466039206 9.0176064224605081 0.0000000000000000
8.0265366864730190 9.0360884065022553 0.0000000000000000
7.9890180644032256 9.0474695560806442 0.0000000000000000
7.9500000000000002 9.0513124999999981 0.0000000000000000
7.9109819355967748 9.0474695560806442 0.0000000000000000
7.8734633135269823 9.0360884065022553 0.0000000000000000
7.8388859533960797 9.0176064224605081 0.0000000000000000
7.8085786437626910 8.9927338562373080 0.0000000000000000
7.7837060775394908 8.9624265466039201 0.0000000000000000
7.7652240934977428 8.9278491864730167 0.0000000000000000
7.7538429439193539 8.8903305644032251 0.0000000000000000
7.7500000000000000 8.8513124999999988 0.0000000000000000
7.7538429439193539 8.8109819355967733 0.0000000000000000
7.7652240934977428 8.7734633135269817 0.0000000000000000
7.7837060775394908 8.7388859533960801 0.0000000000000000
7.8085786437626910 8.7085786437626904 0.0000000000000000
7.8388859533960797 8.6837060775394903 0.0000000000000000
7.8734633135269823 8.6652240934977431 0.0000000000000000
7.9109819355967748 8.6538429439193543 0.0000000000000000
7.9500000000000002 8.6500000000000004 0.0000000000000000
7.9890180644032256 8.6538429439193543 0.0000000000000000
8.0265366864730190 8.6652240934977431 0.0000000000000000
8.0611140466039206 8.6837060775394903 0.0000000000000000
8.0914213562373103 8.7085786437626904 0.0000000000000000
8.1162939224605086 8.7388859533960783 0.0000000000000000
8.1347759065022576 8.7734633135269817 0.0000000000000000
8.1461570560806464 8.8109819355967733 0.0000000000000000
8.3499999999999996 8.8499999999999996 0.0000000000000000
8.3195518130045141 9.0030733729460355 0.0000000000000000
8.2328427124746195 9.1328427124746181 0.0000000000000000
8.1030733729460369 9.2195518130045144 0.0000000000000000
7.9500000000000002 9.2500000000000000 0.0000000000000000
7.7969266270539643 9.2195518130045144 0.0000000000000000
7.6671572875253808 9.1328427124746181 0.0000000000000000
7.5804481869954854 9.0030733729460355 0.0000000000000000
7.5499999999999998 8.8499999999999996 0.0000000000000000
7.5804481869954854 8.6969266270539638 0.0000000000000000
7.6671572875253808 8.5671572875253812 0.0000000000000000
7.7969266270539643 8.4804481869954849 0.0000000000000000
7.9500000000000002 8.4499999999999993 0.0000000000000000
8.1030733729460369 8.4804481869954849 0.0000000000000000
8.2328427124746195 8.5671572875253812 0.0000000000000000
8.3195518130045141 8.6969266270539638 0.0000000000000000
1.3500000000000001 7.9500000000000002 0.0000000000000000
1.3461570560806460 7.9890180644032256 0.0000000000000000
1.3347759065022571 8.0265366864730190 0.0000000000000000
1.3162939224605090 8.0611140466039206 0.0000000000000000
1.2914213562373089 8.0914213562373103 0.0000000000000000
1.2611140466039199 8.1162939224605086 0.0000000000000000
1.2265366864730181 8.1347759065022576 0.0000000000000000
1.1890180644032260 8.1461570560806464 0.0000000000000000
1.1499999999999999 8.1500000000000004 0.0000000000000000
1.1096694355967740 8.1461570560806464 0.0000000000000000
1.0721508135269819 8.1347759065022576 0.0000000000000000
1.0375734533960790 8.1162939224605086 0.0000000000000000
1.0072661437626900 8.0914213562373103 0.0000000000000000
0.9823935775394907 8.0611140466039206 0.0000000000000000
0.9639115934977425 8.0265366864730190 0.0000000000000000
0.9525304439193538 7.9890180644032256 0.0000000000000000
0.9486874999999999 7.9500000000000002 0.0000000000000000
0.9525304439193538 7.9109819355967748 0.0000000000000000
0.9639115934977425 7.8734633135269823 0.0000000000000000
0.9823935775394907 7.8388859533960797 0.0000000000000000
1.0072661437626900 7.8085786437626910 0.0000000000000000
1.0375734533960790 7.7837060775394908 0.0000000000000000
1.0721508135269819 7.7652240934977428 0.0000000000000000
1.1096694355967740 7.7538429439193539 0.0000000000000000
1.1486874999999999 7.7500000000000000 0.0000000000000000
1.1890180644032260 7.7538429439193539 0.0000000000000000
1.2265366864730181 7.7652240934977428 0.0000000000000000
1.2611140466039199 7.7837060775394908 0.0000000000000000
1.2914213562373089 7.8085786437626910 0.0000000000000000
1.3162939224605090 7.8388859533960797 0.0000000000000000
1.3347759065022571 7.8734633135269823 0.0000000000000000
1.3461570560806460 7.9109819355967748 0.0000000000000000
1.5500000000000000 7.9500000000000002 0.0000000000000000
1.5195518130045149 8.1030733729460369 0.0000000000000000
1.4328427124746190 8.2328427124746195 0.0000000000000000
1.3030733729460360 8.3195518130045141 0.0000000000000000
1.1499999999999999 8.3499999999999996 0.0000000000000000
0.9969266270539641 8.3195518130045141 0.0000000000000000
0.8671572875253809 8.2328427124746195 0.0000000000000000
0.7804481869954851 8.1030733729460369 0.0000000000000000
0.7499999999999999 7.9500000000000002 0.0000000000000000
0.7804481869954851 7.7969266270539643 0.0000000000000000
0.8671572875253808 7.6671572875253808 0.0000000000000000
0.9969266270539637 7.5804481869954854 0.0000000000000000
1.1499999999999999 7.5499999999999998 0.0000000000000000
1.3030733729460360 7.5804481869954854 0.0000000000000000
1.4328427124746190 7.6671572875253808 0.0000000000000000
1.5195518130045140 7.7969266270539643 0.0000000000000000
9.0513124999999981 7.9500000000000002 0.0000000000000000
9.0474695560806442 7.9890180644032256 0.0000000000000000
9.0360884065022553 8.0265366864730190 0.0000000000000000
9.0176064224605081 8.0611140466039206 0.0000000000000000
8.9927338562373080 8.0914213562373103 0.0000000000000000
8.9624265466039201 8.1162939224605086 0.0000000000000000
8.9278491864730167 8.1347759065022576 0.0000000000000000
8.8903305644032251 8.1461570560806464 0.0000000000000000
8.8513124999999988 8.1500000000000004 0.0000000000000000
8.8109819355967733 8.1461570560806464 0.0000000000000000
8.7734633135269817 8.1347759065022576 0.0000000000000000
8.7388859533960801 8.1162939224605086 0.0000000000000000
8.7085786437626904 8.0914213562373103 0.0000000000000000
8.6837060775394903 8.0611140466039206 0.0000000000000000
8.6652240934977431 8.0265366864730190 0.0000000000000000
8.6538429439193543 7.9890180644032256 0.0000000000000000
8.6500000000000004 7.9500000000000002 0.0000000000000000
8.6538429439193543 7.9109819355967748 0.0000000000000000
8.6652240934977414 7.8734633135269823 0.0000000000000000
8.6837060775394903 7.8388859533960797 0.0000000000000000
8.7085786437626904 7.8085786437626910 0.0000000000000000
8.7388859533960783 7.7837060775394908 0.0000000000000000
8.7734633135269817 7.7652240934977428 0.0000000000000000
8.8109819355967733 7.7538429439193539 0.0000000000000000
8.8499999999999996 7.7500000000000000 0.0000000000000000
8.8903305644032251 7.7538429439193539 0.0000000000000000
8.9278491864730167 7.7652240934977428 0.0000000000000000
8.9624265466039184 7.7837060775394908 0.0000000000000000
8.9927338562373080 7.8085786437626910 0.0000000000000000
9.0176064224605081 7.8388859533960797 0.0000000000000000
9.0360884065022553 7.8734633135269823 0.0000000000000000
9.0474695560806442 7.9109819355967748 0.0000000000000000
9.2500000000000000 7.9500000000000002 0.0000000000000000
9.2195518130045144 8.1030733729460369 0.0000000000000000
9.1328427124746181 8.2328427124746195 0.0000000000000000
9.0030733729460355 8.3195518130045141 0.0000000000000000
8.8499999999999996 8.3499999999999996 0.0000000000000000
8.6969266270539638 8.3195518130045141 0.0000000000000000
8.5671572875253812 8.2328427124746195 0.0000000000000000
8.4804481869954849 8.1030733729460369 0.0000000000000000
8.4499999999999993 7.9500000000000002 0.0000000000000000
8.4804481869954849 7.7969266270539643 0.0000000000000000
8.5671572875253812 7.6671572875253808 0.0000000000000000
8.6969266270539638 7.5804481869954854 0.0000000000000000
8.8499999999999996 7.5499999999999998 0.0000000000000000
9.0030733729460355 7.5804481869954854 0.0000000000000000
9.1328427124746181 7.6671572875253808 0.0000000000000000
9.2195518130045144 7.7969266270539643 0.0000000000000000
8.2464729867497581 -0.0509276248725830 0.0000000000000000
7.3295514780871729 -0.0483078491335471 0.0000000000000000
6.4126299694255486 -0.0456880733945139 0.0000000000000000
5.4957084607632503 -0.0430682976554788 0.0000000000000000
4.5787869520987767 -0.0404485219164375 0.0000000000000000
3.6618654434320699 -0.0378287461773898 0.0000000000000000
2.7449439347648230 -0.0352089704383406 0.0000000000000000
1.8280224260979230 -0.0325891946992924 0.0000000000000000
0.1173088685014612 4.1904892966341150 0.0000000000000000
0.1487461773699303 5.0864525993854848 0.0000000000000000
0.1330275229357811 8.2812691131462035 0.0000000000000000
2.4643004587138368 10.0496177370030395 0.0000000000000000
3.3808944954082851 10.0614067278286896 0.0000000000000000
4.2974885321025758 10.0731957186543397 0.0000000000000000
5.2140825687970187 10.0849847094799898 0.0000000000000000
6.1306766054968369 10.0967737003057092 0.0000000000000000
7.0472706421966773 10.1085626911314304 0.0000000000000000
7.9638646788965088 10.1203516819571497 0.0000000000000000
9.8000000000000007 8.3795107033655718 0.0000000000000000
9.8000000000000007 7.4756880733982358 0.0000000000000000
9.8000000000000007 6.5718654434313786 0.0000000000000000
9.8000000000000007 5.6680428134645418 0.0000000000000000
9.8000000000000007 4.7642201834950466 0.0000000000000000
9.8000000000000007 3.8603975535232369 0.0000000000000000
9.8000000000000007 2.9565749235519680 0.0000000000000000
9.8000000000000007 2.0527522935802169 0.0000000000000000
9.1053949769967186 0.3420672470524462 0.0000000000000000
0.7658560820867765 9.5010539961093219 0.0000000000000000
8.9211020387723234 9.6348585043373394 0.0000000000000000
0.6714230448062424 0.8833119448247582 0.0000000000000000
0.2116613695150331 6.4060185897392987 0.0000000000000000
0.3001970484302824 6.8577694681329664 0.0000000000000000
0.4637449886624904 1.4001705294177100 0.0000000000000000
8.0183094518091256 9.0765041967902800 0.0000000000000000
8.6237686216857128 8.0117704879097005 0.0000000000000000
8.1389034285580593 8.9831463522118877 0.0000000000000000
6.2447442991915141 8.9146490052551908 0.0000000000000000
8.9146490052551641 6.7052557008084523 0.0000000000000000
8.7807027460768925 6.2401979393971638 0.0000000000000000
7.7162564656518118 8.9347688742470286 0.0000000000000000
8.7753028119825949 7.7225744982826363 0.0000000000000000
4.7796523762677623 8.9604565800962135 0.0000000000000000
5.2249720489656486 8.7450305334359548 0.0000000000000000
8.9551283260375190 5.2248635795043850 0.0000000000000000
8.7113757481849987 4.7966710318056887 0.0000000000000000
8.0956791471711878 8.6524289950068134 0.0000000000000000
9.0457431337801957 8.0858016527856709 0.0000000000000000
2.1165810777147440 8.6242579160081707 0.0000000000000000
3.4498823234464400 9.0774183463409166 0.0000000000000000
3.5932454759187311 8.6234074035136583 0.0000000000000000
9.0765925964863285 3.5932454759187271 0.0000000000000000
8.1388395548113195 1.0033087719107980 0.0000000000000000
4.9318489540842840 9.0861007314926212 0.0000000000000000
5.0751176765535178 8.6225816536590294 0.0000000000000000
9.0833038830259412 5.0848546397760694 0.0000000000000000
6.5501176765535520 8.6225816536590187 0.0000000000000000
1.9748823234464290 9.0774183463409450 0.0000000000000000
8.6242579160081689 3.4584189222852419 0.0000000000000000
8.9579938623438089 4.7853367202707808 0.0000000000000000
6.2497777159903096 8.7446590076175887 0.0000000000000000
8.7231310677903089 6.6854578539242429 0.0000000000000000
7.7364695570035238 8.7423497799220460 0.0000000000000000
8.9576502200778290 7.7364695570034883 0.0000000000000000
5.0274257614875228 9.0942838092987461 0.0000000000000000
9.0961020731689786 4.9709492756210496 0.0000000000000000
1.0002361690403170 8.1332278491443724 0.0000000000000000
1.3068609905276509 8.1318109707837820 0.0000000000000000
8.7011972482394029 8.1412878005191356 0.0000000000000000
2.1966912280892230 9.0388395548113145 0.0000000000000000
3.6716912280892120 9.0388395548113305 0.0000000000000000
8.6115276384332020 2.0322587278400510 0.0000000000000000
8.0383018652577842 8.6237737591145081 0.0000000000000000
9.0822098141916285 8.0285050585771938 0.0000000000000000
8.1355100035121790 1.2940986947029109 0.0000000000000000
1.3810943804915030 8.0191306095284656 0.0000000000000000
8.9194339896017389 2.2875703298990988 0.0000000000000000
8.1753758689402307 8.8127378126173497 0.0000000000000000
0.9243362145705654 8.0119940165361054 0.0000000000000000
8.8923597486901986 8.1847860950795770 0.0000000000000000
8.6115276384332073 6.4572587278400642 0.0000000000000000
8.0117704879096614 1.3762313783143021 0.0000000000000000
8.6115276384332127 7.9322587278400274 0.0000000000000000
6.5116930845543504 9.0927145102386326 0.0000000000000000
9.0888534457967278 6.4573704505370424 0.0000000000000000
7.9141358878211818 9.0936922972170269 0.0000000000000000
7.9209492756209237 8.6038979268309177 0.0000000000000000
9.0961020731690141 7.9209492756210116 0.0000000000000000
5.1801045394117899 8.9978079756272091 0.0000000000000000
6.6695624090085506 9.0034784805951613 0.0000000000000000
4.7915008531109704 8.7379341338178733 0.0000000000000000
8.7379341338178662 5.2084991468890358 0.0000000000000000
8.9683286969557390 6.2672092077679524 0.0000000000000000
2.2365095032978242 8.7052423378498247 0.0000000000000000
3.7129884259911048 8.7021570653406801 0.0000000000000000
8.9978429346594222 3.7129884259909751 0.0000000000000000
8.7052460127455049 3.3384923534270081 0.0000000000000000
3.3305149763709760 8.9890238381611081 0.0000000000000000
3.4173071636140899 8.6360747266581086 0.0000000000000000
9.0639252733418907 3.4173071636140890 0.0000000000000000
8.6225816536590436 4.9248823234464822 0.0000000000000000
9.0961020731689786 2.0209492756210419 0.0000000000000000
1.8250279510343801 8.9549694665640125 0.0000000000000000
2.2636330026617522 8.9579952262964113 0.0000000000000000
8.9579433324336613 1.8355032950607419 0.0000000000000000
1.8968023676446839 8.6550679225428517 0.0000000000000000
3.3105032950607840 8.7420566675663043 0.0000000000000000
8.7446590076175923 3.7502222840096628 0.0000000000000000
8.9576502200778947 3.3114695570035000 0.0000000000000000
1.3311703978406380 6.3189195498617332 0.0000000000000000
1.3311703978406799 7.7939195498617764 0.0000000000000000
1.8241117340880630 8.7381938273255173 0.0000000000000000
8.6550679225428535 3.6781976323553200 0.0000000000000000
8.1737813638243555 8.7424674959422930 0.0000000000000000
8.9587961366438922 8.1696726068198888 0.0000000000000000
4.9251313763807421 8.6228909751540730 0.0000000000000000
6.3865560421935736 9.0737615724760605 0.0000000000000000
6.4001313763806511 8.6228909751541210 0.0000000000000000
1.2683286969556571 6.2672092077679373 0.0000000000000000
9.0884858992275568 6.5423398164140822 0.0000000000000000
8.6112800476274849 6.5419388804829426 0.0000000000000000
1.2714675608127199 7.7338665665583548 0.0000000000000000
1.2113014087161580 4.7652804601661067 0.0000000000000000
8.0583394719704362 0.9352321714355663 0.0000000000000000
8.9978429346594808 2.2379884259909821 0.0000000000000000
8.7235811935287639 2.2464805830762620 0.0000000000000000
5.2236266464577108 1.2025488601764240 0.0000000000000000
6.7025644208673221 1.2113070035391680 0.0000000000000000
3.7386330026617580 8.9579952262964078 0.0000000000000000
4.7681939417409849 1.0818250349819680 0.0000000000000000
1.0818250349819700 5.2318060582590116 0.0000000000000000
6.2492579160081920 1.0834189222852579 0.0000000000000000
2.2745768176102148 1.0390443384323600 0.0000000000000000
2.2662723525069000 1.2715297896900271 0.0000000000000000
3.3766377917410368 9.0353959525165166 0.0000000000000000
1.0328983825642510 3.7335291174613818 0.0000000000000000
5.1564289172581521 0.9686391347928489 0.0000000000000000
0.9686391347928544 4.8435710827418479 0.0000000000000000
6.6314289172581633 0.9686391347928456 0.0000000000000000
6.7029995369524160 8.7746553877430173 0.0000000000000000
5.2333395141453387 8.9346656096735124 0.0000000000000000
6.7024183463409086 8.9251176765536080 0.0000000000000000
9.0765925964863250 2.1182454759187288 0.0000000000000000
8.6112800476274654 2.1169388804829139 0.0000000000000000
3.3419277824184830 0.9823230043317708 0.0000000000000000
4.7717508969960347 1.2254780080905689 0.0000000000000000
1.2253446122568790 5.2279995369524457 0.0000000000000000
6.2467508969960770 1.2254780080906120 0.0000000000000000
1.3104822999749750 4.8182586445917401 0.0000000000000000
2.2774255605619751 8.7753010267317322 0.0000000000000000
3.7565925273441381 8.7734822134921622 0.0000000000000000
1.3059288169971031 3.3424616375720300 0.0000000000000000
8.9270582887289542 3.7620803384878130 0.0000000000000000
8.7753028119825984 3.2975744982826392 0.0000000000000000
4.8440711830028960 1.3325383624279601 0.0000000000000000
1.3370482292786590 5.1523043459401254 0.0000000000000000
1.3779995369524460 4.9246553877430754 0.0000000000000000
6.3190711830029063 1.3325383624279610 0.0000000000000000
9.0639252733418925 1.9423071636140961 0.0000000000000000
5.1912878005190333 1.2988027517605261 0.0000000000000000
6.6662878005190516 1.2988027517605329 0.0000000000000000
5.2481284947412199 1.1365997875337670 0.0000000000000000
5.1296507956497290 9.0504540745311228 0.0000000000000000
9.0639252733418836 4.8923071636141078 0.0000000000000000
6.7162665427053563 1.1453392761383749 0.0000000000000000
1.3888534457967530 6.4573704505370486 0.0000000000000000
1.1322587278400320 6.7134723615667902 0.0000000000000000
0.9019828528152494 6.4858860658127497 0.0000000000000000
7.7115276384332159 1.1322587278400431 0.0000000000000000
7.9348725095991668 0.9076591330783517 0.0000000000000000
1.3888534457967510 7.9323704505370474 0.0000000000000000
3.3438296021593401 1.3060804501382359 0.0000000000000000
1.3070797370014200 3.7069904913752199 0.0000000000000000
3.5753421840775932 0.9188046356142715 0.0000000000000000
1.1292892753363979 4.7607776070555783 0.0000000000000000
6.5725272612971963 9.0724049567275600 0.0000000000000000
0.9539221301345768 6.3226331884177576 0.0000000000000000
1.1679176025098621 6.2352533960326264 0.0000000000000000
7.8530320085910983 9.0722548524759770 0.0000000000000000
7.8423071636140111 8.6360747266581175 0.0000000000000000
0.9686391347928349 7.7935710827418676 0.0000000000000000
1.1737461908821321 7.7144861553216169 0.0000000000000000
9.0639252733418907 7.8423071636140627 0.0000000000000000
4.8468023676446936 8.6550679225427718 0.0000000000000000
8.6550679225427665 5.1531976323553126 0.0000000000000000
9.0311703978406808 6.3189195498617998 0.0000000000000000
3.7129884259910368 1.0021570653405960 0.0000000000000000
2.2060431747499698 1.3315283899092329 0.0000000000000000
2.1132592542290900 1.3806013022817321 0.0000000000000000
0.9228909751540960 3.5998686236192481 0.0000000000000000
0.9939568252500282 3.3434716100907669 0.0000000000000000
4.9370827926951062 0.9152601950168681 0.0000000000000000
6.4093211125776142 0.9250142584201951 0.0000000000000000
1.3332278491443521 6.6247638309597168 0.0000000000000000
7.8020993495155953 1.3330790156760159 0.0000000000000000
1.2576502200779229 1.8364695570035201 0.0000000000000000
8.7312930026069164 1.8498076518986830 0.0000000000000000
5.2162514373914126 1.0289814442691390 0.0000000000000000
1.0289814442691430 4.7837485626085874 0.0000000000000000
2.0322587278399999 1.3884723615667931 0.0000000000000000
0.9220004630475600 2.1253446122569000 0.0000000000000000
3.5919931086348020 1.3888621854467911 0.0000000000000000
1.3782491030039501 3.4495219919094202 0.0000000000000000
4.9822587278400210 1.3884723615667920 0.0000000000000000
0.9115276384332099 4.9822587278400201 0.0000000000000000
6.4572587278400038 1.3884723615667920 0.0000000000000000
1.9033087719107820 0.9611604451887039 0.0000000000000000
2.2874436337966211 8.8798588552211903 0.0000000000000000
1.8965215194048639 9.0445624090086074 0.0000000000000000
1.3567036899406011 1.9374561731610120 0.0000000000000000
8.8325316136056120 2.2930770597154542 0.0000000000000000
3.2830113325960970 8.8650324222585066 0.0000000000000000
5.0177412721599994 0.9115276384332023 0.0000000000000000
6.4927412721599804 0.9115276384331992 0.0000000000000000
1.2576928363859159 2.2639252733418891 0.0000000000000000
1.0425129650649301 1.8416722913590839 0.0000000000000000
3.7214444397969011 1.2763891444484381 0.0000000000000000
1.3774183463409400 5.0751176765535408 0.0000000000000000
1.3884858992275320 6.5423398164140991 0.0000000000000000
1.3783148318384040 3.5992050354800771 0.0000000000000000
0.9198567285204349 3.4498241693458360 0.0000000000000000
2.1248686236192511 9.0771090248459121 0.0000000000000000
0.9152601950168886 5.0629172073049071 0.0000000000000000
3.5069792315408850 1.3886991425062789 0.0000000000000000
3.5085063457126440 0.9056441477781205 0.0000000000000000
1.8197442991914781 1.2146490052550700 0.0000000000000000
0.9225816536590671 1.9748823234464670 0.0000000000000000
3.3957020136554839 0.9467895467787756 0.0000000000000000
1.0867407457709131 3.2943986977182620 0.0000000000000000
4.8439598520059350 0.9590235839998953 0.0000000000000000
4.8492836800350032 9.0364789179872123 0.0000000000000000
5.1534784805951164 8.6554375909913173 0.0000000000000000
0.9590235839998934 5.1560401479940658 0.0000000000000000
9.0472210369097716 5.1382617813111908 0.0000000000000000
6.3271570653405824 0.9620115740089703 0.0000000000000000
6.3268055375325130 9.0460579870763773 0.0000000000000000
6.6273043459401224 8.6629517707213122 0.0000000000000000
1.0434450388125229 6.2570607934649267 0.0000000000000000
9.0332278491443692 6.6247638309597026 0.0000000000000000
1.0319362798358860 7.7471354027793824 0.0000000000000000
2.1251176765535340 0.9225816536590703 0.0000000000000000
1.1107830196628969 2.2858263777575178 0.0000000000000000
0.9115276384332061 7.9322587278399634 0.0000000000000000
1.8169576028068299 1.1245669779406560 0.0000000000000000
2.2034784805951211 0.9554375909913506 0.0000000000000000
0.9935710827418376 6.6563608652071533 0.0000000000000000
7.7686391347928643 0.9935710827418409 0.0000000000000000
1.9751313763807490 0.9228909751540961 0.0000000000000000
1.3635304429964790 2.1576502200779220 0.0000000000000000
1.1761868116972061 2.2860026587605962 0.0000000000000000
3.7680770597154249 1.1674683863943749 0.0000000000000000
3.4066713030443321 1.3577907922320549 0.0000000000000000
3.2861465542032509 1.1676295494629290 0.0000000000000000
1.1748748605780379 3.7590379663769231 0.0000000000000000
1.8144058450788600 8.8910135598402107 0.0000000000000000
8.8349675777414571 1.8080113325960800 0.0000000000000000
8.6686391347928815 1.8935710827418200 0.0000000000000000
8.8082737571631853 3.7624926366533651 0.0000000000000000
8.8798033676408643 3.2877439081141948 0.0000000000000000
2.2954093573839010 1.1765119341613519 0.0000000000000000
7.9322587278399652 1.3884723615667940 0.0000000000000000
0.9895177000250173 2.2317413554082428 0.0000000000000000
1.1703314042045949 1.8062059756882660 0.0000000000000000
1.9751313763807039 8.6228909751541210 0.0000000000000000
1.1677412721600060 3.2865276384332058 0.0000000000000000
5.0617704879097118 1.3762313783142750 0.0000000000000000
6.5367704879096973 1.3762313783142750 0.0000000000000000
8.6744615771766984 2.2162701077651881 0.0000000000000000
3.5998686236192641 9.0771090248459050 0.0000000000000000
8.6228909751541156 3.5998686236192938 0.0000000000000000
0.9337485626085782 6.5960185557308453 0.0000000000000000
3.6912500938679842 1.3254622976267461 0.0000000000000000
1.2119940165361300 6.7006637854294224 0.0000000000000000
7.7243362145705854 1.2119940165361349 0.0000000000000000
0.9672745003202522 3.6717776956286028 0.0000000000000000
1.9020993495155660 1.3330790156760330 0.0000000000000000
0.9636575643090546 1.9103990456342881 0.0000000000000000
1.3822102356214050 2.0790827889527481 0.0000000000000000
7.8312970598586631 0.9498210268652884 0.0000000000000000
3.7568691630200139 8.8728371192610904 0.0000000000000000
8.6752728320918617 4.8478126976315350 0.0000000000000000
6.3218023676446542 8.6550679225428659 0.0000000000000000
8.6743972734997943 6.6432668607434842 0.0000000000000000
8.6619285568768021 6.3233062071725818 0.0000000000000000
8.6677365388817229 7.8051430405614104 0.0000000000000000
3.7625703298990940 1.0805660103983601 0.0000000000000000
5.2372221757356474 8.8083095105525242 0.0000000000000000
4.7701524394262353 8.8895155419071568 0.0000000000000000
8.8925484415033953 5.2323578681697516 0.0000000000000000
8.6228909751540908 5.0748686236192553 0.0000000000000000
8.8348580139786925 4.7577292191654079 0.0000000000000000
6.2448603107270593 8.8057067679764405 0.0000000000000000
8.8304658580883029 6.7235226027126993 0.0000000000000000
8.8680207684591217 6.2363008574937000 0.0000000000000000
7.7038351214590328 8.8204892908593333 0.0000000000000000
8.8798033676408288 7.7127439081142146 0.0000000000000000
3.2865141007724992 1.0826601835858880 0.0000000000000000
0.9148866272117057 6.4227444257675881 0.0000000000000000
8.1771090248458975 1.0751313763807990 0.0000000000000000
1.8363669973382459 1.0420047737035949 0.0000000000000000
8.1851708799358907 8.9256101845159765 0.0000000000000000
8.7730754608397170 8.1844156633997649 0.0000000000000000
3.4959492756210220 8.6038979268309728 0.0000000000000000
9.0961020731689892 3.4959492756210411 0.0000000000000000
8.1774183463408967 1.2251176765535470 0.0000000000000000
1.1676295494628799 8.1888534457967115 0.0000000000000000
1.0826601835858589 8.1884858992274570 0.0000000000000000
6.6912514373914167 1.0289814442691461 0.0000000000000000
7.7523347560264426 8.9895574062371715 0.0000000000000000
0.4147320335539803 5.5256529454385266 0.0000000000000000
0.8725157954829200 1.2528596883235901 0.0000000000000000
9.4923696315583932 4.4246406258986939 0.0000000000000000
9.4227768126338010 8.7489793809672172 0.0000000000000000
0.4967245743623474 6.1231601455670734 0.0000000000000000
0.5023404725192850 8.7712105276074883 0.0000000000000000
9.5097770453684305 7.0048928977485092 0.0000000000000000
1.4167480398591339 0.3668510755623521 0.0000000000000000
6.4486443257811850 8.6079344547354069 0.0000000000000000
8.6079344547354619 5.0263556742186637 0.0000000000000000
4.9736443257812901 8.6079344547354744 0.0000000000000000
9.0025871862964095 4.8100087293668956 0.0000000000000000
8.6162747173315495 1.9817149942570120 0.0000000000000000
8.6079344547354317 3.5513556742187071 0.0000000000000000
2.0236443257813099 8.6079344547354211 0.0000000000000000
1.3922139639489599 4.9735649943416913 0.0000000000000000
9.0025299125854055 7.7601975354889570 0.0000000000000000
9.0025787646446993 1.8600364918318331 0.0000000000000000
8.6162747173315530 6.4067149942570198 0.0000000000000000
2.0763556742187150 9.0920655452644592 0.0000000000000000
1.3635535229238080 6.3580160583046466 0.0000000000000000
9.0025299125853699 3.3351975354890340 0.0000000000000000
5.0682850057429798 0.9162747173316267 0.0000000000000000
3.5513556742186840 9.0920655452645249 0.0000000000000000
7.7162747173315882 1.0817149942570199 0.0000000000000000
4.9317149942570158 1.3837252826683950 0.0000000000000000
0.9162747173316099 4.9317149942570184 0.0000000000000000
1.2671504895058550 3.7386902051795450 0.0000000000000000
8.6162747173315939 7.8817149942569751 0.0000000000000000
0.9077860360510579 2.0764350056582850 0.0000000000000000
1.9817149942570160 1.3837252826683699 0.0000000000000000
6.5432850057429670 0.9162747173316053 0.0000000000000000
1.3398024645109290 2.2025299125853892 0.0000000000000000
1.3025299125853880 1.8601975354890710 0.0000000000000000
0.9079344547354895 3.5513556742186698 0.0000000000000000
2.0236443257813290 0.9079344547354853 0.0000000000000000
1.0817149942570461 6.7087252826683912 0.0000000000000000
1.2182850057429859 3.2912747173316368 0.0000000000000000
4.7577444417091552 1.1764572382972189 0.0000000000000000
1.1764350056582660 5.2422139639489318 0.0000000000000000
6.4067149942570198 1.3837252826683619 0.0000000000000000
1.3922555582908580 3.4985427617027778 0.0000000000000000
3.3114464770762302 1.2669839416953210 0.0000000000000000
7.7601975354890929 8.6974700874145672 0.0000000000000000
6.7172139639489963 8.8235649943416448 0.0000000000000000
1.3635535229237410 7.8330160583046968 0.0000000000000000
3.3350364918319131 8.6974212353552716 0.0000000000000000
6.2327444417091034 1.1764572382972309 0.0000000000000000
9.0635535229237334 6.3580160583047247 0.0000000000000000
7.8817149942570026 1.3837252826683220 0.0000000000000000
0.9162747173316788 7.8817149942569973 0.0000000000000000
1.2671140317601370 8.1636602850808302 0.0000000000000000
8.1920655452644535 1.1236443257813751 0.0000000000000000
8.7631962527386325 0.2576756334662632 0.0000000000000000
8.7960980960466504 0.5877674201879280 0.0000000000000000
9.2011077346659693 0.7478128327341720 0.0000000000000000
8.7754620934590477 0.9707972728593316 0.0000000000000000
9.1418930763557942 1.1607710501891171 0.0000000000000000
8.5501135094677316 0.7529492868129453 0.0000000000000000
8.8504701929708141 1.3084023323398790 0.0000000000000000
8.6205289713872020 1.1588952342838290 0.0000000000000000
8.6239797477813056 1.4128820436400880 0.0000000000000000
0.4997475851550486 6.6007553815698428 0.0000000000000000
0.5615672292001022 6.9205292152437012 0.0000000000000000
5.6594214783833916 9.7156971491882569 0.0000000000000000
4.0710010676538113 0.3614229025127285 0.0000000000000000
9.1081576600446326 1.4867112914016269 0.0000000000000000
2.9430911317418218 9.5961732043855008 0.0000000000000000
1.3247971071586491 8.2022240853628396 0.0000000000000000
1.4449646233635891 8.3840236234753789 0.0000000000000000
1.3677894437578990 8.1368543509061695 0.0000000000000000
1.3068210497948880 8.4701669454990913 0.0000000000000000
1.1325960468911260 8.5260770634020560 0.0000000000000000
1.2726748266721839 8.6496240487742835 0.0000000000000000
1.5836556956890839 8.2471883942623059 0.0000000000000000
1.6770029792990500 8.1174812007199773 0.0000000000000000
1.7198766064935631 7.9493587525405554 0.0000000000000000
1.8315974922166141 8.0652067586632228 0.0000000000000000
1.8739494999648560 7.9159339046807213 0.0000000000000000
1.9808439587961910 8.0304135592427919 0.0000000000000000
2.0255510113510020 7.8813041830708412 0.0000000000000000
1.9190339912302630 7.7671887529348336 0.0000000000000000
2.0710432075166691 7.7320506294465829 0.0000000000000000
2.1775543407668279 7.8461320188061716 0.0000000000000000
2.2230844253305380 7.6968635265748464 0.0000000000000000
2.3295940401344741 7.8109441119993477 0.0000000000000000
2.3751366244726180 7.6616665294709989 0.0000000000000000
2.2686298529031070 7.5475846387787238 0.0000000000000000
2.4206810692567751 7.5123877667971524 0.0000000000000000
2.5271880829994560 7.6264700510389094 0.0000000000000000
2.5727326990274459 7.4771910813535643 0.0000000000000000
2.4662255352822529 7.3631087465358540 0.0000000000000000
2.6182773190926469 7.3279120523519614 0.0000000000000000
2.7247844367223029 7.4419944070139010 0.0000000000000000
2.7703290870853370 7.2927153649682070 0.0000000000000000
2.6638219721023231 7.1786330091756563 0.0000000000000000
2.8158737469025859 7.1434363188605809 0.0000000000000000
2.7093666306380388 7.0293539636201574 0.0000000000000000
2.8614184063208832 6.9941572729248724 0.0000000000000000
2.9679255226249479 7.1082396281482776 0.0000000000000000
3.0134701821790828 6.9589605821540417 0.0000000000000000
2.9069630658846588 6.8448782269264541 0.0000000000000000
3.0590148417777341 6.8096815361406158 0.0000000000000000
3.1655219580779521 6.9237638913656960 0.0000000000000000
3.2110666176755318 6.7744848453527453 0.0000000000000000
3.1045595013743790 6.6604024901280710 0.0000000000000000
3.2566112772728721 6.6252057993399056 0.0000000000000000
3.3631183935740410 6.7392881545645498 0.0000000000000000
3.4086630531715589 6.5900091085516310 0.0000000000000000
3.3021559368704270 6.4759267533269718 0.0000000000000000
3.4542077127691071 6.4407300625387016 0.0000000000000000
3.5607148290702360 6.5548124177633600 0.0000000000000000
3.6062594886677890 6.4055333717504270 0.0000000000000000
3.4997523723666570 6.2914510165257704 0.0000000000000000
3.6518041482653389 6.2562543257374976 0.0000000000000000
3.5452970319642052 6.1421719705128339 0.0000000000000000
3.6973488078628871 6.1069752797245620 0.0000000000000000
3.8038559241640191 6.2210576349492230 0.0000000000000000
3.8494005837615708 6.0717785889362910 0.0000000000000000
3.7428934674604379 5.9576962337116264 0.0000000000000000
3.8949452433591238 5.9224995429233580 0.0000000000000000
4.0014523596602540 6.0365818981480217 0.0000000000000000
4.0469970192578018 5.8873028521350808 0.0000000000000000
3.9404899029566791 5.7732204969104277 0.0000000000000000
4.0925416788553619 5.7380238061221576 0.0000000000000000
4.1990487951564690 5.8521061613467937 0.0000000000000000
4.2445934547540363 5.7028271153338723 0.0000000000000000
4.1380863384529150 5.5887447601092237 0.0000000000000000
4.2901381143516026 5.5535480693209589 0.0000000000000000
4.3966452306527204 5.6676304245456048 0.0000000000000000
4.4421898902502850 5.5183513785326914 0.0000000000000000
4.5486970065514090 5.6324337337573498 0.0000000000000000
4.5942416661489709 5.4831546877444266 0.0000000000000000
4.1836309980504716 5.4394657140962952 0.0000000000000000
4.7007487824500940 5.5972370429690894 0.0000000000000000
4.7462934420476541 5.4479579969561573 0.0000000000000000
4.8528005583487781 5.5620403521808228 0.0000000000000000
4.8983452179463347 5.4127613061678890 0.0000000000000000
5.0048523342474613 5.5268436613925536 0.0000000000000000
5.0503969938450144 5.3775646153796224 0.0000000000000000
4.9438898775438940 5.2634822601549587 0.0000000000000000
5.0959416534425692 5.2282855693666912 0.0000000000000000
4.9894345371414479 5.1142032141420284 0.0000000000000000
5.1414863130401232 5.0790065233537556 0.0000000000000000
5.0349791967389930 4.9649241681290954 0.0000000000000000
5.1870309726376753 4.9297274773408244 0.0000000000000000
5.1569041101461410 5.4916469706042870 0.0000000000000000
5.0805238563365460 4.8156451221161642 0.0000000000000000
5.2325756322352257 4.7804484313278914 0.0000000000000000
5.1260685159340973 4.6663660761032304 0.0000000000000000
5.2781202918327770 4.6311693853149549 0.0000000000000000
5.3846274081339072 4.7452517405396160 0.0000000000000000
5.4301720677314593 4.5959726945266830 0.0000000000000000
5.1716131755316477 4.5170870300902957 0.0000000000000000
5.5366791840325904 4.7100550497513458 0.0000000000000000
5.5822238436301443 4.5607760037384164 0.0000000000000000
5.1113594505485880 5.6409260166172182 0.0000000000000000
5.2634112264472694 5.6057293258289498 0.0000000000000000
5.6887309599312710 4.6748583589630783 0.0000000000000000
5.7342756195288276 4.5255793129501489 0.0000000000000000
5.2178665668497093 5.7550083718418623 0.0000000000000000
5.3699183427483952 5.7198116810536117 0.0000000000000000
5.3243736831508359 5.8690907270665242 0.0000000000000000
5.4764254590495209 5.8338940362782781 0.0000000000000000
5.8407827358299542 4.6396616681748100 0.0000000000000000
5.8863273954275099 4.4903826221618814 0.0000000000000000
5.7798202791263833 4.3763002669372160 0.0000000000000000
5.9318720550250621 4.3411035761489538 0.0000000000000000
5.8253649387239346 4.2270212209242839 0.0000000000000000
5.9774167146226178 4.1918245301360173 0.0000000000000000
5.8709095983214894 4.0777421749113518 0.0000000000000000
6.0229613742201717 4.0425454841230817 0.0000000000000000
5.4308807994519670 5.9831730822912030 0.0000000000000000
5.5829325753506511 5.9479763915029453 0.0000000000000000
5.9164542579190416 3.9284631288984202 0.0000000000000000
6.0685060338177221 3.8932664381101469 0.0000000000000000
5.5373879157530972 6.0972554375158738 0.0000000000000000
5.6894396916517787 6.0620587467276117 0.0000000000000000
5.9928345117286357 4.6044649773865469 0.0000000000000000
6.1750131501188523 4.0073487933348062 0.0000000000000000
6.2205578097164018 3.8580697473218719 0.0000000000000000
5.9619989175165973 3.7791840828854859 0.0000000000000000
5.6438950320542256 6.2113377927405429 0.0000000000000000
5.7959468079529062 6.1761411019522718 0.0000000000000000
6.3270649260175338 3.9721521025465298 0.0000000000000000
6.3726095856150806 3.8228730565335969 0.0000000000000000
5.0195613996329671 4.5522837208785703 0.0000000000000000
5.0651060592305148 4.4030046748656320 0.0000000000000000
4.9130542833318342 4.4382013656539074 0.0000000000000000
4.9585989429293829 4.2889223196409754 0.0000000000000000
4.8065471670307032 4.3241190104292464 0.0000000000000000
4.8520918266282536 4.1748399644163152 0.0000000000000000
4.7000400507295730 4.2100366552045863 0.0000000000000000
4.7455847103271234 4.0607576091916542 0.0000000000000000
4.5935329344284428 4.0959542999799243 0.0000000000000000
4.6390775940259958 3.9466752539669958 0.0000000000000000
4.4870258181273144 3.9818719447552642 0.0000000000000000
4.5325704777248648 3.8325928987423370 0.0000000000000000
4.3805187018261842 3.8677895895306031 0.0000000000000000
4.4260633614237328 3.7185105435176720 0.0000000000000000
4.2740115855250540 3.7537072343059399 0.0000000000000000
5.7504021483553567 6.3254201479652021 0.0000000000000000
5.9024539242540373 6.2902234571769293 0.0000000000000000
5.5983503724566717 6.3606168387534794 0.0000000000000000
6.4791167019162144 3.9369554117582570 0.0000000000000000
6.5246613615137630 3.7876763657453241 0.0000000000000000
4.3195562451226079 3.6044281882930069 0.0000000000000000
4.1675044692239247 3.6396248790812780 0.0000000000000000
4.1219598096263717 3.7889039250942109 0.0000000000000000
4.0154526933252424 3.6748215698695472 0.0000000000000000
3.9699080337276889 3.8241006158824820 0.0000000000000000
3.8634009174265591 3.7100182606578169 0.0000000000000000
3.8178562578290069 3.8592973066707530 0.0000000000000000
4.4716080210212867 3.5692314975047390 0.0000000000000000
3.7113491415278790 3.7452149514460880 0.0000000000000000
3.6658044819303250 3.8944939974590218 0.0000000000000000
5.7048574887578054 6.4746991939781360 0.0000000000000000
5.5528057128591186 6.5098958847664106 0.0000000000000000
3.7568938011254311 3.5959359054331559 0.0000000000000000
3.6048420252267510 3.6311325962214260 0.0000000000000000
4.3651009047201628 3.4551491422800762 0.0000000000000000
4.5171526806188433 3.4199524514918052 0.0000000000000000
5.9479985838515876 6.1409444111639964 0.0000000000000000
6.0545057001527169 6.2550267663886538 0.0000000000000000
6.1000503597502682 6.1057477203757244 0.0000000000000000
6.2065574760513984 6.2198300756003793 0.0000000000000000
6.2521021356489364 6.0705510295874499 0.0000000000000000
6.3586092519500799 6.1846333848121091 0.0000000000000000
6.4041539115476178 6.0353543387991850 0.0000000000000000
6.3130645923525277 6.3339124308250376 0.0000000000000000
6.4651163682512092 6.2987157400367693 0.0000000000000000
6.4195717086536606 6.4479947860496978 0.0000000000000000
6.6311684778148949 3.9017587209699851 0.0000000000000000
6.6767131374124462 3.7524796749570499 0.0000000000000000
6.5702060211113160 3.6383973197323889 0.0000000000000000
6.7222577970099993 3.6032006289441192 0.0000000000000000
5.6593128291602497 6.6239782399910698 0.0000000000000000
5.5072610532615833 6.6591749307793329 0.0000000000000000
6.6157506807088726 3.4891182737194550 0.0000000000000000
6.7678024566075532 3.4539215829311880 0.0000000000000000
3.6503866848243010 3.4818535502084940 0.0000000000000000
3.4983349089256190 3.5170502409967659 0.0000000000000000
4.4106455643177149 3.3058700962671441 0.0000000000000000
4.5626973402163964 3.2706734054788709 0.0000000000000000
6.5716234845523367 6.4127980952614312 0.0000000000000000
6.5260788249547934 6.5620771412743579 0.0000000000000000
5.6137681695626940 6.7732572860039983 0.0000000000000000
5.4617163936640196 6.8084539767922507 0.0000000000000000
3.5438795685231712 3.3677711949838360 0.0000000000000000
3.3918277926244889 3.4029678857721049 0.0000000000000000
6.6781306008534713 6.5268804504860896 0.0000000000000000
4.4561902239152609 3.1565910502542152 0.0000000000000000
4.6082419998139477 3.1213943594659379 0.0000000000000000
6.6325859412559280 6.6761594964990163 0.0000000000000000
6.7832202537135906 3.8665620301816941 0.0000000000000000
6.6612953403064257 3.3398392277065239 0.0000000000000000
6.8133471162051054 3.3046425369182550 0.0000000000000000
5.5682235099651383 6.9225363320169162 0.0000000000000000
5.4161717340664506 6.9577330228051659 0.0000000000000000
6.7846377171546024 6.6409628057107399 0.0000000000000000
6.8301823767521572 6.4916837596978230 0.0000000000000000
3.4373724522220410 3.2536888397591781 0.0000000000000000
3.2853206763233600 3.2888855305474429 0.0000000000000000
3.2397760167258061 3.4381645765603750 0.0000000000000000
6.7376755941160278 4.0158410761946461 0.0000000000000000
6.8897273700147226 3.9806443854063511 0.0000000000000000
6.8441827104171598 4.1299234314193036 0.0000000000000000
6.7390930575570636 6.7902418517236693 0.0000000000000000
6.8911448334557406 6.7550451609353921 0.0000000000000000
3.1332689004246790 3.3240822213357140 0.0000000000000000
3.0877242408271242 3.4733612673486460 0.0000000000000000
3.1788135600222289 3.1748031753227832 0.0000000000000000
6.9962344863158394 4.0947267406310299 0.0000000000000000
6.9506898267182899 4.2440057866439638 0.0000000000000000
6.8456001738581982 6.9043242069483242 0.0000000000000000
4.5017348835128166 3.0073120042412782 0.0000000000000000
4.6537866594114981 2.9721153134530049 0.0000000000000000
6.7068399999039752 3.1905601816935918 0.0000000000000000
6.8588917758026664 3.1553634909053190 0.0000000000000000
6.9976519497568752 6.8691275161600531 0.0000000000000000
6.9521072901593346 7.0184065621729834 0.0000000000000000
6.8000555142606540 7.0536032529612536 0.0000000000000000
3.0267617841235510 3.2099998661110498 0.0000000000000000
3.0723064437211001 3.0607208200981209 0.0000000000000000
7.1041590660580143 6.9832098713847124 0.0000000000000000
5.5226788503675843 7.0718153780298447 0.0000000000000000
5.3706270744689011 7.1070120688181282 0.0000000000000000
5.2641199581677682 6.9929297135934272 0.0000000000000000
2.9202546678224199 3.0959175108863870 0.0000000000000000
2.9657993274199730 2.9466384648734558 0.0000000000000000
5.2185752985702143 7.1422087596063966 0.0000000000000000
3.1178511033186509 2.9114417740851861 0.0000000000000000
5.1120681822690939 7.0281264043817204 0.0000000000000000
5.0665235226715319 7.1774054503946596 0.0000000000000000
7.0586144064604639 7.1324889173976436 0.0000000000000000
2.8137475515212902 2.9818351556617282 0.0000000000000000
7.1027416026169696 4.2088090958556919 0.0000000000000000
7.0571969430194201 4.3580881418686230 0.0000000000000000
6.7523846595015264 3.0412811356806602 0.0000000000000000
6.9044364354002399 3.0060844448923691 0.0000000000000000
6.6003328836028459 3.0764778264689312 0.0000000000000000
6.9653988921038650 3.2694458461299578 0.0000000000000000
2.8592922111188428 2.8325561096487948 0.0000000000000000
4.5472795431103634 2.8580329582283510 0.0000000000000000
4.6993313190090484 2.8228362674400742 0.0000000000000000
4.8058384353101786 2.9369186226647348 0.0000000000000000
4.8513830949077290 2.7876395766517970 0.0000000000000000
4.9600164063704089 7.0633230951699906 0.0000000000000000
4.9144717467728478 7.2126021411829244 0.0000000000000000
3.7723115982314539 4.0085763526836846 0.0000000000000000
3.6202598223327742 4.0437730434719557 0.0000000000000000
7.1497037256555656 6.8339308253717777 0.0000000000000000
7.2106661823591454 7.0972922266093708 0.0000000000000000
4.9578902112088610 2.9017219318764660 0.0000000000000000
5.0034348708064131 2.7524428858635268 0.0000000000000000
5.4771341907700286 7.2210944240427981 0.0000000000000000
7.1651215227615994 7.2465712726223090 0.0000000000000000
5.1099419871075433 2.8665252410881972 0.0000000000000000
5.1554866467050990 2.7172461950752611 0.0000000000000000
6.6458775432003989 2.9271987804560009 0.0000000000000000
2.7072404352201609 2.8677528004370658 0.0000000000000000
2.7682028919237380 3.1311142016746589 0.0000000000000000
7.2092487189181016 4.3228914510803502 0.0000000000000000
7.1637040593205494 4.4721704970932858 0.0000000000000000
7.2547933785156458 4.1736124050674146 0.0000000000000000
5.2619937630062266 2.8313285502999310 0.0000000000000000
5.3075384226037832 2.6820495042869910 0.0000000000000000
4.8079646304717150 7.0985197859582332 0.0000000000000000
4.7624199708741628 7.2477988319711830 0.0000000000000000
3.7267669386339022 4.1578553986966176 0.0000000000000000
3.5747151627352198 4.1930520894848868 0.0000000000000000
5.9472898521310809 4.7537440233994701 0.0000000000000000
2.7527850948177139 2.7184737544241342 0.0000000000000000
4.8535092900692911 6.9492407399452434 0.0000000000000000
7.3171732986602773 7.2113745818340256 0.0000000000000000
4.5928242027079200 2.7087539122154118 0.0000000000000000
4.4407724268092323 2.7439506030036962 0.0000000000000000
4.4863170864067907 2.5946715569907499 0.0000000000000000
4.3342653105081101 2.6298682477790201 0.0000000000000000
7.3613004948167831 4.2876947602920694 0.0000000000000000
5.6291859666687314 7.1858977332544827 0.0000000000000000
5.5836413070711606 7.3351767792674529 0.0000000000000000
4.6544953911320190 4.3593157012175148 0.0000000000000000
7.2716286390627376 7.3606536278469594 0.0000000000000000
7.1195768631640597 7.3958503186352518 0.0000000000000000
3.6812222790363509 4.3071344447095496 0.0000000000000000
3.5291705031376668 4.3423311354978207 0.0000000000000000
4.6559128545730282 7.1337164767464936 0.0000000000000000
4.6103681949754769 7.2829955227594514 0.0000000000000000
4.3798099701056614 2.4805892017660871 0.0000000000000000
4.2277581942069737 2.5157858925543639 0.0000000000000000
2.6007333189190320 2.7536704452124030 0.0000000000000000
7.4068451544143246 4.1384157142791320 0.0000000000000000
5.7356930829698403 7.2999800884791934 0.0000000000000000
5.6901484233722881 7.4492591344921246 0.0000000000000000
5.8422001992709633 7.4140624437038500 0.0000000000000000
6.0993416280297703 4.7185473326111982 0.0000000000000000
5.2164491034086691 2.9806075963128631 0.0000000000000000
5.4140455389049063 2.7961318595116631 0.0000000000000000
5.4595901985024646 2.6468528134987261 0.0000000000000000
5.8099471416179158 3.8143807736737489 0.0000000000000000
6.0537969684322093 4.8678263786241303 0.0000000000000000
6.2058487443309014 4.8326296878358566 0.0000000000000000
4.6552041228525338 5.7465160889820091 0.0000000000000000
2.6462779785165860 2.6043913991994718 0.0000000000000000
2.7983297544152692 2.5691947084112030 0.0000000000000000
7.4236804149614217 7.3254569370586724 0.0000000000000000
7.4692250745589526 7.1761778910457430 0.0000000000000000
3.6356776194387979 4.4564134907224808 0.0000000000000000
3.4836258435401160 4.4916101815107528 0.0000000000000000
3.3771187272389831 4.3775278262860917 0.0000000000000000
3.3315740676414349 4.5268068722990273 0.0000000000000000
3.2250669513403030 4.4127245170743663 0.0000000000000000
3.1795222917427530 4.5620035630872984 0.0000000000000000
3.0730151754416219 4.4479212078626382 0.0000000000000000
3.0274705158440720 4.5972002538755712 0.0000000000000000
2.9209633995429400 4.4831178986509101 0.0000000000000000
2.8754187399453910 4.6323969446638458 0.0000000000000000
2.9819258562465221 4.7464792998885050 0.0000000000000000
2.8298740803478419 4.7816759906767814 0.0000000000000000
2.7689116236442590 4.5183145894391856 0.0000000000000000
2.9363811966489730 4.8957583459014398 0.0000000000000000
2.7843294207502929 4.9309550366897152 0.0000000000000000
2.8908365370514262 5.0450373919143727 0.0000000000000000
2.7387847611527461 5.0802340827026491 0.0000000000000000
2.8452918774538789 5.1943164379273066 0.0000000000000000
2.6932401015551970 5.2295131287155820 0.0000000000000000
3.4380811839425660 4.6408892275236830 0.0000000000000000
2.7997472178563281 5.3435954839402413 0.0000000000000000
2.6476954419576462 5.3787921747285150 0.0000000000000000
4.5038610786743556 7.1689131675347886 0.0000000000000000
4.4583164190767954 7.3181922135477198 0.0000000000000000
2.9973436533525599 5.1591197471390364 0.0000000000000000
2.7542025582587750 5.4928745299531752 0.0000000000000000
2.6021507823600931 5.5280712207414462 0.0000000000000000
7.2260839794651952 7.5099326738598942 0.0000000000000000
7.5133522707154654 4.2524980695037859 0.0000000000000000
5.0209788630739736 7.3266844964075899 0.0000000000000000
2.6322776448516110 4.9661517274779916 0.0000000000000000
6.1455950193478097 5.9564686743627897 0.0000000000000000
7.0740322035665164 7.5451293646481803 0.0000000000000000
5.7966555396734174 7.5633414897167874 0.0000000000000000
5.9487073155721131 7.5281447989284924 0.0000000000000000
5.2788290235532722 6.0183697730794083 0.0000000000000000
4.7911293699246817 3.9114785631787292 0.0000000000000000
4.3518093027756732 7.2041098583230543 0.0000000000000000
4.3062646431781104 7.3533889043359872 0.0000000000000000
4.4127717594792388 7.4674712595606536 0.0000000000000000
4.2607199835805600 7.5026679503489193 0.0000000000000000
4.3973539623732227 7.0548308123101240 0.0000000000000000
2.7086578986612242 5.6421535759661063 0.0000000000000000
2.5566061227625450 5.6773502667543756 0.0000000000000000
4.1542128672794298 7.3885855951242583 0.0000000000000000
4.1086682076818759 7.5378646411371886 0.0000000000000000
2.6918226381141399 2.4551123531865402 0.0000000000000000
5.5660973148035904 2.7609351687233930 0.0000000000000000
5.6116419744011461 2.6116561227104609 0.0000000000000000
2.8438744140128240 2.4199156623982709 0.0000000000000000
4.2151753239830114 7.6519469963618523 0.0000000000000000
2.4942262026179018 2.6395880899877420 0.0000000000000000
2.4486815430203501 2.7888671360006740 0.0000000000000000
5.0489795304039724 2.6031638398505752 0.0000000000000000
4.2733028538045312 2.3665068465414270 0.0000000000000000
4.1212510779058409 2.4017035373297060 0.0000000000000000
7.1805393198676493 7.6592117198728316 0.0000000000000000
7.5588969303130078 4.1032190234908494 0.0000000000000000
7.5757321908600979 7.2902602462703880 0.0000000000000000
7.6654040466141398 4.2173013787155060 0.0000000000000000
7.6198593870166000 4.3665804247284434 0.0000000000000000
5.6446037637747333 7.5985381805050558 0.0000000000000000
5.5051348581000212 2.4975737674857932 0.0000000000000000
5.6571866339987018 2.4623770766975301 0.0000000000000000
2.8144562832418090 4.3690355434262509 0.0000000000000000
2.6624045073431279 4.4042322342145246 0.0000000000000000
2.7079491669406770 4.2549531882015907 0.0000000000000000
2.5558973910419960 4.2901498789898644 0.0000000000000000
2.6014420506395450 4.1408708329769306 0.0000000000000000
2.4493902747408671 4.1760675237652052 0.0000000000000000
2.4038456151433150 4.3253465697781337 0.0000000000000000
2.4949349343384122 4.0267884777522678 0.0000000000000000
2.4500990064614152 5.5632679115297190 0.0000000000000000
2.4045543468638622 5.7125469575426546 0.0000000000000000
2.5110614631649950 5.8266293127673094 0.0000000000000000
7.6212768504576349 7.1409812002574551 0.0000000000000000
5.5219701186470820 5.6846149902653504 0.0000000000000000
6.1603040847333412 4.9819087338487966 0.0000000000000000
6.3123558606320227 4.9467120430605256 0.0000000000000000
4.0021610913807493 7.4237822859125284 0.0000000000000000
3.9566164317831918 7.5730613319254569 0.0000000000000000
5.7511108800758644 7.7126205357297186 0.0000000000000000
2.3590096872663149 5.8618260035555876 0.0000000000000000
2.4655168035674508 5.9759083587802451 0.0000000000000000
2.7373672977116961 2.3058333071736081 0.0000000000000000
2.3421744267192208 2.6747847807760121 0.0000000000000000
2.2973384988421839 4.2112642145534780 0.0000000000000000
2.2525025709651820 5.7477436483309337 0.0000000000000000
2.2966297671216682 2.8240638267889442 0.0000000000000000
4.4253546297032127 2.3313101557531528 0.0000000000000000
4.3188475134020834 2.2172278005284940 0.0000000000000000
5.8877448588685564 7.2647833976908593 0.0000000000000000
4.1822135346094207 2.6650649385673120 0.0000000000000000
4.8829274208403106 5.0001208589173656 0.0000000000000000
6.4938257673017157 2.9623954712442671 0.0000000000000000
6.5393704268992687 2.8131164252313341 0.0000000000000000
5.8554918012154697 3.6651017276608231 0.0000000000000000
5.7034400253167883 3.7002984184490830 0.0000000000000000
7.7277839667587704 7.2550635554821046 0.0000000000000000
7.6822393071612334 7.4043426014950473 0.0000000000000000
5.5506795176975814 2.3482947214728629 0.0000000000000000
5.7027312935962664 2.3130980306846030 0.0000000000000000
7.0284875439689696 7.6944084106611079 0.0000000000000000
7.1349946602701060 7.8084907658857654 0.0000000000000000
6.2668112010344714 5.0959910890734594 0.0000000000000000
6.4188629769331538 5.0607943982851893 0.0000000000000000
3.7877293953374802 4.4212167999342116 0.0000000000000000
3.8501093154820691 7.4589789767007986 0.0000000000000000
3.8045646558845050 7.6082580227137244 0.0000000000000000
7.4523898140118741 3.9891366682661960 0.0000000000000000
7.6044415899105564 3.9539399774779138 0.0000000000000000
2.8607096745599030 5.6069568851778406 0.0000000000000000
2.8894190736103789 2.2706366163853389 0.0000000000000000
2.3134650276687729 6.0111050495685241 0.0000000000000000
2.4199721439699120 6.1251874047931798 0.0000000000000000
7.7719111629152779 4.3313837339401626 0.0000000000000000
7.7263665033177400 4.4806627799530983 0.0000000000000000
2.2517938392446339 4.3605432605664056 0.0000000000000000
2.7829119573092500 2.1565542611606761 0.0000000000000000
2.6308601814105659 2.1917509519489471 0.0000000000000000
5.5990591041771793 7.7478172265179897 0.0000000000000000
5.7055662204783051 7.8618995817426516 0.0000000000000000
7.4979344736094244 3.8398576222532612 0.0000000000000000
7.6499862495081121 3.8046609314649849 0.0000000000000000
7.5434791332069819 3.6905785762403260 0.0000000000000000
7.6955309091056607 3.6553818854520541 0.0000000000000000
7.5890237928045376 3.5412995302273980 0.0000000000000000
7.7733286263563190 7.1057845094691752 0.0000000000000000
2.1452867229435020 4.2464609053417499 0.0000000000000000
2.1901226508205380 2.7099814715642809 0.0000000000000000
7.7410755687032129 3.5061028394391212 0.0000000000000000
7.6345684524021120 3.3920204842144699 0.0000000000000000
7.7866202283007686 3.3568237934261900 0.0000000000000000
7.6801131119996606 3.2427414382015329 0.0000000000000000
7.8321648878983190 3.2075447474132570 0.0000000000000000
7.7256577715971844 3.0934623921885960 0.0000000000000000
7.8777095474958649 3.0582657014003201 0.0000000000000000
7.7712024311947276 2.9441833461756590 0.0000000000000000
7.9232542070934091 2.9089866553873831 0.0000000000000000
7.8167470907922798 2.7949043001627238 0.0000000000000000
7.6646953148935957 2.8301009909509980 0.0000000000000000
7.7102399744911496 2.6808219449380588 0.0000000000000000
7.5581881985924682 2.7160186357263321 0.0000000000000000
7.6037328581900212 2.5667395897134022 0.0000000000000000
7.4516810822913389 2.6019362805016670 0.0000000000000000
7.4972257418888999 2.4526572344887372 0.0000000000000000
7.3451739659902149 2.4878539252770029 0.0000000000000000
7.3907186255877724 2.3385748792640730 0.0000000000000000
7.2386668496890874 2.3737715700523401 0.0000000000000000
7.2842115092866440 2.2244925240394089 0.0000000000000000
7.1321597333879581 2.2596892148276750 0.0000000000000000
7.6492775177875840 2.4174605437004719 0.0000000000000000
7.8798357426574608 7.2198668646938184 0.0000000000000000
6.3740270490561359 6.5972738320626050 0.0000000000000000
6.0082523088346509 5.0171054246370499 0.0000000000000000
6.3733183173355963 5.2100734442981231 0.0000000000000000
6.5253700932342813 5.1748767535098574 0.0000000000000000
3.6959313444218509 3.3325745041955610 0.0000000000000000
3.8956539750796382 7.3096999306878656 0.0000000000000000
5.8092384098973842 2.4271803859092560 0.0000000000000000
5.8547830694949443 2.2779013398963328 0.0000000000000000
5.7482759531938239 2.1638189846716731 0.0000000000000000
3.6980575395833850 7.4941756674890634 0.0000000000000000
3.6525128799858209 7.6434547135019884 0.0000000000000000
2.5720239198685850 6.0899907140048972 0.0000000000000000
7.1777043929855182 2.1104101688147439 0.0000000000000000
7.0256526170868359 2.1456068596030100 0.0000000000000000
2.2679203680712319 6.1603840955814606 0.0000000000000000
2.3744274843723678 6.2744664508061163 0.0000000000000000
6.5709147528318308 5.0255977074969174 0.0000000000000000
6.6774218691329610 5.1396800627215873 0.0000000000000000
6.6318772095354106 5.2889591087345176 0.0000000000000000
6.7839289854340947 5.2537624179462492 0.0000000000000000
6.7383843258365363 5.4030414639591804 0.0000000000000000
6.8904361017352169 5.3678447731709200 0.0000000000000000
6.8448914421376550 5.5171238191838450 0.0000000000000000
6.9969432180363400 5.4819271283955819 0.0000000000000000
7.0424878776338957 5.3326480823826534 0.0000000000000000
7.1489949939350206 5.4467304376073198 0.0000000000000000
7.1034503343374658 5.5960094836202510 0.0000000000000000
7.2555021102361481 5.5608127928319826 0.0000000000000000
7.3010467698337047 5.4115337468190523 0.0000000000000000
7.4075538861348331 5.5256161020437116 0.0000000000000000
7.3620092265372801 5.6748951480566436 0.0000000000000000
7.5140610024359669 5.6396984572683690 0.0000000000000000
7.4685163428384200 5.7889775032813029 0.0000000000000000
7.6205681187370997 5.7537808124930274 0.0000000000000000
7.5750234591395582 5.9030598585059604 0.0000000000000000
7.4530985457323888 5.3763370560307839 0.0000000000000000
7.7270752350382370 5.8678631677176813 0.0000000000000000
7.6815305754407008 6.0171422137306161 0.0000000000000000
7.7726198946357794 5.7185841217047511 0.0000000000000000
7.5294787995420194 6.0523389045188960 0.0000000000000000
7.6359859158431576 6.1664212597435517 0.0000000000000000
6.7986380508196174 4.2792024774322339 0.0000000000000000
5.1106507188280634 4.2537256288526981 0.0000000000000000
5.7489846849143422 3.5510193724361581 0.0000000000000000
5.5969329090156581 3.5862160632244291 0.0000000000000000
5.9010364608130290 3.5158226816478870 0.0000000000000000
2.1445779912229850 2.8592605175772139 0.0000000000000000
5.4007539369604380 6.5450925755546496 0.0000000000000000
7.2870464361687910 7.7732940750974757 0.0000000000000000
7.2415017765712468 7.9225731211104167 0.0000000000000000
7.3935535524699283 7.8873764303221341 0.0000000000000000
4.6692044565175257 3.3847557607035470 0.0000000000000000
2.2510851075241129 2.9733428728018758 0.0000000000000000
2.2356673104180911 2.5607024255513471 0.0000000000000000
6.9219804276678367 7.5803260554364478 0.0000000000000000
6.8764357680702846 7.7296051014493763 0.0000000000000000
6.7699286517691553 7.6155227462247037 0.0000000000000000
2.9959261899115059 2.3847189716100030 0.0000000000000000
3.0414893131118030 2.2355196894476852 0.0000000000000000
3.1479810430773130 2.3495355747968381 0.0000000000000000
7.6668215100551844 6.9917021542445186 0.0000000000000000
6.7243839921715907 7.7648017922376340 0.0000000000000000
4.4708992893007640 2.1820311097402190 0.0000000000000000
4.3643921729996293 2.0679487545155588 0.0000000000000000
7.8791270109369149 5.8326664769294077 0.0000000000000000
7.9246716705344671 5.6833874309164809 0.0000000000000000
3.1935446791554618 2.2003385082970368 0.0000000000000000
3.3000339302113448 2.3143436846106922 0.0000000000000000
7.8188732859538819 6.9565054634562467 0.0000000000000000
2.2223757084736890 6.3096631415943891 0.0000000000000000
3.7590199962869431 7.7575370687266529 0.0000000000000000
3.6069682203882572 7.7927337595149178 0.0000000000000000
3.5004611040871350 7.6786514042902443 0.0000000000000000
3.4549164444895681 7.8279304503031746 0.0000000000000000
2.0380708749218561 2.7451781623525511 0.0000000000000000
5.9003277290925089 2.1286222938834101 0.0000000000000000
6.0068348453936284 2.2427046491080742 0.0000000000000000
5.7938206127913858 2.0145399386587428 0.0000000000000000
2.7534938265382221 4.1056741421886516 0.0000000000000000
6.3873186510005873 2.8483131160196029 0.0000000000000000
7.4839341399444734 6.2016179505318307 0.0000000000000000
2.3288828247748228 6.4237454968190502 0.0000000000000000
7.8784182792164161 4.4454660891648121 0.0000000000000000
7.8328736196188800 4.5947451351777460 0.0000000000000000
7.9239629388139594 4.2961870431518818 0.0000000000000000
7.6808218437202020 4.6299418259660357 0.0000000000000000
7.7873289600213411 4.7440241811906843 0.0000000000000000
7.9687988666909639 2.7597076093744430 0.0000000000000000
2.1768310488761409 6.4589421876073274 0.0000000000000000
2.0997420633459520 4.3957399513546838 0.0000000000000000
1.9932349470448201 4.2816575961300254 0.0000000000000000
2.0387796066423660 4.1323785501170907 0.0000000000000000
7.3297561688842023 2.0752134780264768 0.0000000000000000
7.2232490525830766 1.9611311228018120 0.0000000000000000
7.8020380254067918 3.7694642406767049 0.0000000000000000
2.6764048410081189 2.0424719059360150 0.0000000000000000
2.5243530651094370 2.0776685967242861 0.0000000000000000
5.5535144445796281 7.8970962725309199 0.0000000000000000
5.6600215608807547 8.0111786277555819 0.0000000000000000
5.8120733367794317 7.9759819369673171 0.0000000000000000
3.3388418828392501 2.1713549911625232 0.0000000000000000
2.0990333316254302 3.0085395635901451 0.0000000000000000
2.2055404479265559 3.1226219188148079 0.0000000000000000
8.0311787868355928 5.7974697861411446 0.0000000000000000
6.8308911084727120 7.8788841474623101 0.0000000000000000
7.3164645669397412 5.8241741940695766 0.0000000000000000
7.6352771841226543 4.7792208719789828 0.0000000000000000
7.7417843004237881 4.8933032272036332 0.0000000000000000
6.6178768758704702 7.6507194370129596 0.0000000000000000
6.5723322162728994 7.7999984830258899 0.0000000000000000
6.8294736450316478 5.1044833719333136 0.0000000000000000
6.9801079574892722 2.2948859056159479 0.0000000000000000
6.8736008411881508 2.1808035503912802 0.0000000000000000
5.6417688368927026 2.0497366294470032 0.0000000000000000
5.4470073282784961 7.7830139173062562 0.0000000000000000
2.8283783075844968 2.0072513231714542 0.0000000000000000
6.2815202664199763 4.1214311485594521 0.0000000000000000
5.2479934293412462 5.1930888785784157 0.0000000000000000
6.3579005202295811 4.7974329970475686 0.0000000000000000
5.7658199454614092 6.7380605952157069 0.0000000000000000
3.2706116109378471 4.2634454710614316 0.0000000000000000
5.5513882494181042 3.7354951092373541 0.0000000000000000
5.4448811331169749 3.6214127540127001 0.0000000000000000
4.4877345498478549 5.3690723325197647 0.0000000000000000
3.5137527060316431 3.9296906882472951 0.0000000000000000
6.3417739914030324 2.9975921620325350 0.0000000000000000
3.8788187145325841 4.1226587079083474 0.0000000000000000
2.2062491796470858 4.5098223065793377 0.0000000000000000
4.4414811585297613 4.1311509907681989 0.0000000000000000
3.7127666049689192 6.5196157269750854 0.0000000000000000
5.5205526552060320 2.9102142147363299 0.0000000000000000
5.6726044311047197 2.8750175239480540 0.0000000000000000
2.1614132517701008 6.0463017403568031 0.0000000000000000
6.2212665414369122 5.2452701350863924 0.0000000000000000
6.3277736577380326 5.3593524903110552 0.0000000000000000
6.1757218818393538 5.3945491810993191 0.0000000000000000
4.3041384480165794 3.1917877410424911 0.0000000000000000
4.7168753112766062 7.3970778779841213 0.0000000000000000
3.4509601292801042 2.2801833228650681 0.0000000000000000
3.4832044401465820 2.1143685379734798 0.0000000000000000
3.3932452560655260 6.1773686613011112 0.0000000000000000
3.4387899156630781 6.0280896152881711 0.0000000000000000
4.0315792221517874 5.4746624048845662 0.0000000000000000
4.0771238817493396 5.3253833588716333 0.0000000000000000
3.9250721058506621 5.3605800496599034 0.0000000000000000
3.9706167654482138 5.2113010036469714 0.0000000000000000
3.8185649895495328 5.2464976944352424 0.0000000000000000
4.1226685413469042 5.1761043128587101 0.0000000000000000
7.5736059956985544 3.1286590829768679 0.0000000000000000
3.4063506580391678 2.4285866982909821 0.0000000000000000
3.8641096491470819 5.0972186484223121 0.0000000000000000
6.5870412816583919 6.8254385425119448 0.0000000000000000
3.6672219453713710 6.6688947729880201 0.0000000000000000
3.8192737212700520 6.6336980821997402 0.0000000000000000
6.8743095729087873 3.5680039381558371 0.0000000000000000
3.7120578732484022 5.1324153392105822 0.0000000000000000
3.6665132136508518 5.2816943852235143 0.0000000000000000
7.3465914294312640 5.2622547008061202 0.0000000000000000
6.4328633105981394 2.6990340700066731 0.0000000000000000
4.2123403971009488 2.1031454453038370 0.0000000000000000
4.2578850566984956 1.9538663992909009 0.0000000000000000
4.1058332807998159 1.9890630900791790 0.0000000000000000
2.5411883256565209 5.2647098195038566 0.0000000000000000
7.0116522834218680 4.5073671878815533 0.0000000000000000
7.1181593997229928 4.6214495431062197 0.0000000000000000
3.2867381397643931 6.0632863060764466 0.0000000000000000
3.3322827993619542 5.9140072600635127 0.0000000000000000
6.6171681441498951 6.2635190492484991 0.0000000000000000
2.4809346006734749 6.3885488060307551 0.0000000000000000
7.5904412562456054 6.3157003057564873 0.0000000000000000
7.7424930321442931 6.2805036149682110 0.0000000000000000
2.2833381651772742 6.5730245428319831 0.0000000000000000
2.1312863892785909 6.6082212336202586 0.0000000000000000
3.3484093281884539 7.7138480950785020 0.0000000000000000
3.3028646685908840 7.8631271410914270 0.0000000000000000
3.3939539877860261 7.5645690490655886 0.0000000000000000
2.2377935055797220 6.7223035888449090 0.0000000000000000
2.0857417296810401 6.7575002796331898 0.0000000000000000
1.9645414106884160 7.6179597175961860 0.0000000000000000
5.7665286771818751 8.1252609829802402 0.0000000000000000
5.6873134964902672 1.9004575834340729 0.0000000000000000
6.0523795049911904 2.0934256030951488 0.0000000000000000
6.1588866212923152 2.2075079583198129 0.0000000000000000
2.7219364490519529 1.8931888779270341 0.0000000000000000
7.3480088928723823 8.0366554763350706 0.0000000000000000
7.5000606687710629 8.0014587855467880 0.0000000000000000
7.1959571169737000 8.0718521671233443 0.0000000000000000
8.0753059829920897 2.8737899645991081 0.0000000000000000
5.4014626686809439 7.9322929633191919 0.0000000000000000
5.2949555523798129 7.8182106080945228 0.0000000000000000
8.0304700551150958 4.4102693983765322 0.0000000000000000
8.0760147147126400 4.2609903523635966 0.0000000000000000
2.0541974037484030 4.5450189973676203 0.0000000000000000
2.1607045200495389 4.6591013525922751 0.0000000000000000
4.5164439488983108 2.0327520637272860 0.0000000000000000
4.6229510651994454 2.1468344189519430 0.0000000000000000
5.5352617205915813 1.9356542742223339 0.0000000000000000
8.0767234464331672 5.6481907401282143 0.0000000000000000
7.9702163301320397 5.5341083849035506 0.0000000000000000
8.1832305627342841 5.7622730953528860 0.0000000000000000
1.8867278307436861 4.1675752409053679 0.0000000000000000
1.9322724903412341 4.0182961948924323 0.0000000000000000
6.9191455007857101 2.0315245043783450 0.0000000000000000
6.7670937248870340 2.0667211951666160 0.0000000000000000
5.9185804530805619 8.0900642921919719 0.0000000000000000
2.0534886720278740 3.1578186096030758 0.0000000000000000
2.1599957883290002 3.2719009648277400 0.0000000000000000
1.9469815557267420 3.0437362543784152 0.0000000000000000
6.2044312808898781 2.0582289123068800 0.0000000000000000
8.1208506425896481 2.7245109185861769 0.0000000000000000
3.7134753366893838 7.9068161147395868 0.0000000000000000
3.2304894823121240 2.0620874371699651 0.0000000000000000
7.3753008284817563 1.9259344320135510 0.0000000000000000
7.2687937121806394 1.8118520767888810 0.0000000000000000
8.2273577588907720 2.8385932738108410 0.0000000000000000
6.7215490652894907 2.2160002411795898 0.0000000000000000
6.6914222027979493 2.7779197344430622 0.0000000000000000
6.2352668751019049 2.8835098068078708 0.0000000000000000
6.1897222155043483 3.0327888528208029 0.0000000000000000
5.6733131628252496 4.2622179117125452 0.0000000000000000
5.3993364735194218 3.7706918000256331 0.0000000000000000
5.2928293572182916 3.6566094448009729 0.0000000000000000
6.6928396662389718 5.5523205099721089 0.0000000000000000
6.7993467825400948 5.6664028651967744 0.0000000000000000
3.5583707025256341 2.3934167839119840 0.0000000000000000
3.5129766190854790 2.5425543475619570 0.0000000000000000
7.1931221900915299 2.5230506160652681 0.0000000000000000
7.4061364226937956 2.7512153265145831 0.0000000000000000
6.4636989048101947 3.5243149645077252 0.0000000000000000
3.5600060973497212 5.1676120299988550 0.0000000000000000
3.5144614377521690 5.3168910760117889 0.0000000000000000
5.4904257927145261 3.4721337079997681 0.0000000000000000
7.4369720169059050 3.5764962210156530 0.0000000000000000
7.4383894803469230 6.3508969965447619 0.0000000000000000
7.3318823640457946 6.2368146413201000 0.0000000000000000
3.1963575522897720 7.7490447858667526 0.0000000000000000
3.1508128926921959 7.8983238318796731 0.0000000000000000
2.1922488459821721 6.8715826348578544 0.0000000000000000
2.0401970700834910 6.9067793256461210 0.0000000000000000
7.3024642332748337 8.1859345223480098 0.0000000000000000
7.8938360763224766 4.8581065364153471 0.0000000000000000
1.8411831711461379 4.3168542869183018 0.0000000000000000
8.1376859031367061 5.9115521413658172 0.0000000000000000
4.1513779403973610 1.8397840440662441 0.0000000000000000
7.8928251696743512 3.4699641182352718 0.0000000000000000
2.8739077403693760 1.8579676314964650 0.0000000000000000
2.7674763955884392 1.7439083939710831 0.0000000000000000
5.2494108927822589 7.9674896541074602 0.0000000000000000
5.1429037764811323 7.8534072988827814 0.0000000000000000
2.0732075847632370 6.3421676590103759 0.0000000000000000
5.8393652723889504 1.8652608926458150 0.0000000000000000
5.7328581560878336 1.7511785374211430 0.0000000000000000
4.3034297162960389 1.8045873532779659 0.0000000000000000
2.2840579649603900 7.9602154299078167 0.0000000000000000
2.4361010578609950 7.9250262592605853 0.0000000000000000
1.7346760548450051 4.2027719316936434 0.0000000000000000
8.1817418999721596 4.3717033595813666 0.0000000000000000
2.0086527441508562 4.6942980433805577 0.0000000000000000
2.1151598604519939 4.8083803986052089 0.0000000000000000
4.6684957247969896 1.9975553729390070 0.0000000000000000
4.7750028410981260 2.1116377281636600 0.0000000000000000
8.2279365021043738 4.2252321035741653 0.0000000000000000
7.8482914167249298 5.0073855824282827 0.0000000000000000
6.4658250999717879 7.6859161278012138 0.0000000000000000
6.5113697595693552 7.5366370817882853 0.0000000000000000
6.4202804403742224 7.8351951738141334 0.0000000000000000
3.7737290616725110 6.7829771282126794 0.0000000000000000
3.9257808375711871 6.7477804374243959 0.0000000000000000
3.9713254971687291 6.5985013914114594 0.0000000000000000
5.7945293445119024 3.4017403264232291 0.0000000000000000
3.7421847357399258 4.5704958459471428 0.0000000000000000
3.8942365116386068 4.5352991551588726 0.0000000000000000
7.6969483725467374 6.4297826609811457 0.0000000000000000
7.8490001484454197 6.3945859701928640 0.0000000000000000
7.9815897690108644 3.1609671308403451 0.0000000000000000
5.6144769012832008 8.1604576737685210 0.0000000000000000
5.7209840175843327 8.2745400289931652 0.0000000000000000
7.1504124573761496 8.2211312131362853 0.0000000000000000
7.2600096391460740 8.3361563395245426 0.0000000000000000
2.0079440124303169 3.3070976556160079 0.0000000000000000
2.1144511287314449 3.4211800108406711 0.0000000000000000
2.2665029046301282 3.3859833200524010 0.0000000000000000
2.2209582450325742 3.5352623660653379 0.0000000000000000
2.3730100209312548 3.5000656752770611 0.0000000000000000
3.9993261644986808 1.8749807348545200 0.0000000000000000
6.5267875566753171 7.9492775290388176 0.0000000000000000
4.1969225999949016 1.6905049980533100 0.0000000000000000
5.0973591168835766 8.0026863448957126 0.0000000000000000
4.9908520005824526 7.8886039896710294 0.0000000000000000
2.8768362049259131 7.4067977195315908 0.0000000000000000
2.0689064691338919 3.5704590568536192 0.0000000000000000
5.9641251126781158 7.9407852461790487 0.0000000000000000
6.0706322289792434 8.0548676014037088 0.0000000000000000
6.9661076238243123 4.6566462338944854 0.0000000000000000
4.0778326134698606 6.7125837466361178 0.0000000000000000
4.1233772730674012 6.5633047006231724 0.0000000000000000
4.2298843893685349 6.6773870558478299 0.0000000000000000
4.2754290489660729 6.5281080098348809 0.0000000000000000
4.3819361652672102 6.6421903650595384 0.0000000000000000
4.4274808248647508 6.4929113190465886 0.0000000000000000
4.5339879411659023 6.6069936742712327 0.0000000000000000
4.5795326007634349 6.4577146282582936 0.0000000000000000
4.4730254844622861 6.3436322730336494 0.0000000000000000
4.6250772603609658 6.3084355822453562 0.0000000000000000
4.7315843766621128 6.4225179374700030 0.0000000000000000
4.7771290362596499 6.2732388914570700 0.0000000000000000
4.8836361525607916 6.3873212466817160 0.0000000000000000
3.8655271125880701 7.8716194239513184 0.0000000000000000
3.8199824529905162 8.0208984699642514 0.0000000000000000
3.9720342288891950 7.9857017791759688 0.0000000000000000
7.0726147401254336 4.7707285891191518 0.0000000000000000
5.3986277417988973 2.3834914122611228 0.0000000000000000
2.0843242662399151 3.9830995041041590 0.0000000000000000
4.6383688623054748 2.5594748662024620 0.0000000000000000
6.1448862876273296 4.5692682865982448 0.0000000000000000
3.6650482024416910 2.5073385391147438 0.0000000000000000
3.6195319401132888 2.6565908184573570 0.0000000000000000
5.6431863003337117 4.8241374049759980 0.0000000000000000
6.2822289981404680 5.5086315363239837 0.0000000000000000
6.1301772222417821 5.5438282271122361 0.0000000000000000
6.0236701059406670 5.4297458718875760 0.0000000000000000
3.1942313571282508 3.5874436225733071 0.0000000000000000
3.0421795812295680 3.6226403133615759 0.0000000000000000
3.1486866975306960 3.7367226685862409 0.0000000000000000
7.3458826977107758 3.8750543130415780 0.0000000000000000
5.0658147909510181 5.7902050626301111 0.0000000000000000
6.0089610405551719 6.4043058124015548 0.0000000000000000
5.2472846976207430 3.8058884908139059 0.0000000000000000
5.1407775813196128 3.6918061355892480 0.0000000000000000
5.1863222409171579 3.5425270895763141 0.0000000000000000
7.4818079447828856 2.0400167872382098 0.0000000000000000
4.8675096237342901 4.5874804116668413 0.0000000000000000
4.0609973529227954 3.5255425238566160 0.0000000000000000
2.6168598477455780 4.5535112802274602 0.0000000000000000
8.1430501708011462 4.5152528293964487 0.0000000000000000
5.4315895311724773 7.3703734700557328 0.0000000000000000
5.3537918139218661 3.9199708460385652 0.0000000000000000
3.0884329725476540 4.8605616551131599 0.0000000000000000
4.9123455516113079 3.0510009778893989 0.0000000000000000
4.2453021864745466 7.0900275030983879 0.0000000000000000
7.5456053283686133 7.8521797395338453 0.0000000000000000
7.6521124446697453 7.9662620947585037 0.0000000000000000
7.6976571042672912 7.8169830487455734 0.0000000000000000
7.8041642205684152 7.9310654039702353 0.0000000000000000
7.8497088801659718 7.7817863579573068 0.0000000000000000
2.9356724649284418 3.5085579581369091 0.0000000000000000
2.8901278053308812 3.6578370041498371 0.0000000000000000
8.0143435262885241 2.6104285633615052 0.0000000000000000
3.6209685540533010 5.4309734312364499 0.0000000000000000
3.4689167781546182 5.4661701220247192 0.0000000000000000
3.9537815049011340 2.0242597808674532 0.0000000000000000
6.1133419616947506 2.3567870043327388 0.0000000000000000
3.8472743886000011 1.9101774256427939 0.0000000000000000
5.7349843512493273 5.9127797007146743 0.0000000000000000
5.1576128418666629 6.8788473583687120 0.0000000000000000
8.1215377095590213 4.1116177133504710 0.0000000000000000
2.8151650149623522 5.7562359311907700 0.0000000000000000
7.2863377044482416 6.3860936873330321 0.0000000000000000
7.3928448207493727 6.5001760425576949 0.0000000000000000
7.1798305881471132 6.2720113321083648 0.0000000000000000
2.3898452814783702 6.6871068980566317 0.0000000000000000
4.5185701440598116 6.1943532270207102 0.0000000000000000
6.2653937375934348 2.3215903135444851 0.0000000000000000
3.0443057763911008 7.7842414766550831 0.0000000000000000
2.9987611486618571 7.9335205323908884 0.0000000000000000
3.1052682384060200 8.0476028795130894 0.0000000000000000
2.9532164952609108 8.0827995802943864 0.0000000000000000
2.1467041863846221 7.0208616808707927 0.0000000000000000
1.9946524104859411 7.0560583716590672 0.0000000000000000
2.3905565397877919 8.0743053354712657 0.0000000000000000
7.9562159964670940 7.8958687131819723 0.0000000000000000
8.0017606560646541 7.7465896671690366 0.0000000000000000
4.9453073409848862 8.0378830356839615 0.0000000000000000
4.8388002246837676 7.9238006804592764 0.0000000000000000
4.7932555650861932 8.0730797264722014 0.0000000000000000
4.6867484487850781 7.9589973712475146 0.0000000000000000
4.6412037891875073 8.1082764172604342 0.0000000000000000
4.5346966728863993 7.9941940620357537 0.0000000000000000
4.4891520132888099 8.1434731080486618 0.0000000000000000
8.1222681060307380 5.4989116941152911 0.0000000000000000
1.8881452941848120 6.9419760164343929 0.0000000000000000
1.8426006345872561 7.0912550624473383 0.0000000000000000
2.6154397638820490 1.7791097052141420 0.0000000000000000
3.4093717848920009 7.9772094963161111 0.0000000000000000
8.3336420226127501 4.3358515177917383 0.0000000000000000
3.9264895692916508 8.1349808251888707 0.0000000000000000
8.1663953021872029 2.5752318725732430 0.0000000000000000
8.0598881858860754 2.4611495173485771 0.0000000000000000
4.8205475006956693 1.9623586821507240 0.0000000000000000
4.9270546169968057 2.0764410373753779 0.0000000000000000
7.5273526043804413 1.8907377412252830 0.0000000000000000
7.6338597206815697 2.0048200964499432 0.0000000000000000
1.9809919396162090 6.6510096771863640 0.0000000000000000
1.9631080845533180 4.8435770893934933 0.0000000000000000
2.0696152008544551 4.9576594446181446 0.0000000000000000
8.0003431926236068 4.9721888916400134 0.0000000000000000
8.2897376790353903 5.8763554505775701 0.0000000000000000
8.3352823386329788 5.7270764045646416 0.0000000000000000
1.6891313952474569 4.3520509777065763 0.0000000000000000
1.5826242789463250 4.2379686224819189 0.0000000000000000
6.8126383844845826 1.9174421491536791 0.0000000000000000
6.6605866085859056 1.9526388399419530 0.0000000000000000
4.3489743758935813 1.6553083072650321 0.0000000000000000
4.2424672595924449 1.5412259520403759 0.0000000000000000
8.3799413377088747 4.1898326279521276 0.0000000000000000
8.4864406306276710 4.3038811857044843 0.0000000000000000
4.9725992765943507 1.9271619913624420 0.0000000000000000
5.0791063928954969 2.0412443465871029 0.0000000000000000
5.1246510524930473 1.8919653005741750 0.0000000000000000
2.9126038501567271 1.7065991102479019 0.0000000000000000
2.8118788447074459 1.5942808624283751 0.0000000000000000
3.0597235807264478 8.1968819261111996 0.0000000000000000
2.9076718051474360 8.2320786169970006 0.0000000000000000
7.6055725390174462 8.1112416192343346 0.0000000000000000
5.8817819305656318 1.7175993368634450 0.0000000000000000
5.7768297250708693 1.6018481846976489 0.0000000000000000
1.9175634249557840 4.9928561354064289 0.0000000000000000
2.0240705412569180 5.1069384906310811 0.0000000000000000
4.8380914929632608 6.5366002926946507 0.0000000000000000
7.4986432053299552 5.2270580100178501 0.0000000000000000
7.3921360890288321 5.1129756547931660 0.0000000000000000
6.3593179836706710 7.5718337725765368 0.0000000000000000
6.4048626432682383 7.4225547265636118 0.0000000000000000
8.0157609897296140 5.3848293388906310 0.0000000000000000
7.2246665160241168 4.7355318983308887 0.0000000000000000
5.0335617332979439 2.1905233926000331 0.0000000000000000
5.9781254463430997 5.5790249179004920 0.0000000000000000
5.8716183300419882 5.4649425626758266 0.0000000000000000
2.3274653613337031 3.6493447212899950 0.0000000000000000
5.1884484360786836 7.7041282528698600 0.0000000000000000
4.3826448969877037 8.0293907528240158 0.0000000000000000
4.3371002373900982 8.1786697988369212 0.0000000000000000
4.4436073536912160 8.2927521540615778 0.0000000000000000
4.2915555777925114 8.3279488448498213 0.0000000000000000
6.0832150992032172 2.9187064975961459 0.0000000000000000
5.0342704650184782 3.5777237803645980 0.0000000000000000
7.8637092138309050 5.4200260296789118 0.0000000000000000
3.8802361779736452 6.8970594834373324 0.0000000000000000
3.7281844020749682 6.9322561742256141 0.0000000000000000
5.9465811204105812 3.3665436356349550 0.0000000000000000
2.7836206890297581 3.5437546489251730 0.0000000000000000
2.7380760294321980 3.6930336949381011 0.0000000000000000
2.4185546805288110 3.3507866292641300 0.0000000000000000
4.9901432688619396 6.5014036019063521 0.0000000000000000
5.0798151246160170 3.4284447343516589 0.0000000000000000
4.8843448842813348 7.7745216344463568 0.0000000000000000
3.7715917501330818 2.6213864802808811 0.0000000000000000
3.7260531624339031 2.7706597906173931 0.0000000000000000
3.5740023985182838 2.8058555254595832 0.0000000000000000
2.2672116363506700 4.7731837078169344 0.0000000000000000
5.6270597715071657 3.0242965699609941 0.0000000000000000
6.2962293318054794 3.1468712080454670 0.0000000000000000
3.7105961632821680 2.3580563068253140 0.0000000000000000
2.4788084055118840 2.2269476427372159 0.0000000000000000
2.3723012892107560 2.1128652875125540 0.0000000000000000
6.6472950066414107 5.7015995559850401 0.0000000000000000
6.7538021229425382 5.8156819112097047 0.0000000000000000
3.1024338190904852 2.4988035424971828 0.0000000000000000
3.5754238944557462 5.5802524772493847 0.0000000000000000
6.8154733113667154 7.4662437002117743 0.0000000000000000
6.0530882367117123 3.4806259908596111 0.0000000000000000
2.1761223171555910 5.0717417998428029 0.0000000000000000
2.1305776575580508 5.2210208458557368 0.0000000000000000
1.9785258816593729 5.2562175366440167 0.0000000000000000
3.4079543214510388 5.2028087207871270 0.0000000000000000
2.0850329979605080 5.3702998918686724 0.0000000000000000
1.9329812220618261 5.4054965826569461 0.0000000000000000
3.4534989810485901 5.0535296747741949 0.0000000000000000
3.7576025328459530 4.9831362931976519 0.0000000000000000
3.9096543087446358 4.9479396024093862 0.0000000000000000
3.6805120344864979 2.9199354908491348 0.0000000000000000
3.8325642303296981 2.8847384017550231 0.0000000000000000
4.9291808121583189 6.2380422006687724 0.0000000000000000
2.9672167908610261 5.7210392404025017 0.0000000000000000
3.0127614504585871 5.5717601943895758 0.0000000000000000
2.9216721312634730 5.8703182864154231 0.0000000000000000
7.8945448080429603 6.2453069241799426 0.0000000000000000
8.0010519243440861 6.3593892794046116 0.0000000000000000
7.9555072647465339 6.5086683254175188 0.0000000000000000
4.5802413324839613 7.8449150160228607 0.0000000000000000
4.1689219326649294 6.4140256546102368 0.0000000000000000
6.1287597588007792 2.7694274515832160 0.0000000000000000
7.7123661696527410 6.8424231082315892 0.0000000000000000
7.5603143937540516 6.8776197990198558 0.0000000000000000
2.5573148547459379 7.0645506544053607 0.0000000000000000
4.8226736958571683 6.1239598454441282 0.0000000000000000
2.8922540004923931 7.8194381674432636 0.0000000000000000
2.1011595267870722 7.1701407268837301 0.0000000000000000
2.5426067796982612 8.0391097266819500 0.0000000000000000
2.4970618693808340 8.1883891316695347 0.0000000000000000
7.9106713368695338 8.0451477591949008 0.0000000000000000
8.0627231127682180 8.0099510684066431 0.0000000000000000
5.6260888580176243 1.6370876310780460 0.0000000000000000
5.6715898206536766 1.4878071598787119 0.0000000000000000
7.1053828086900674 8.3705673876764912 0.0000000000000000
7.2150658256119060 8.4856187021526210 0.0000000000000000
6.9984465166293193 8.2563540920124723 0.0000000000000000
6.0250875693817036 8.2041466474166249 0.0000000000000000
6.1771393452803780 8.1689499566283317 0.0000000000000000
8.2441930194378124 6.0256344965904924 0.0000000000000000
1.8566009682521769 4.7294947341688482 0.0000000000000000
8.4417894549340780 5.8411587597893302 0.0000000000000000
8.4873341145316648 5.6918797137763892 0.0000000000000000
4.7140403843945311 1.8482763269260700 0.0000000000000000
5.5689322416856601 8.3097367197814744 0.0000000000000000
5.6754393579868108 8.4238190750061186 0.0000000000000000
8.5938412308327656 5.8059620690010814 0.0000000000000000
1.7360935182861330 6.9771727072226710 0.0000000000000000
1.6905488586885740 7.1264517532355969 0.0000000000000000
1.7970554040949689 7.2405322399127332 0.0000000000000000
1.6450039550609410 7.2757304424007376 0.0000000000000000
1.5384970421182149 7.1616483845492178 0.0000000000000000
5.2038662331847032 8.1167687001203817 0.0000000000000000
7.6794043802791281 1.8555410504370120 0.0000000000000000
7.7859114965802547 1.9696234056616690 0.0000000000000000
8.1678127656282964 5.3496326481023591 0.0000000000000000
1.8126130832915071 7.6530341024647797 0.0000000000000000
4.4036474347364853 8.4437350903277721 0.0000000000000000
4.2469417083020717 8.4775118725716165 0.0000000000000000
4.3591886969305724 8.5933454483343841 0.0000000000000000
1.6281689385438720 4.0886895764689832 0.0000000000000000
8.2119399617847542 2.4259528265603132 0.0000000000000000
8.1054328454836266 2.3118704713356530 0.0000000000000000
8.3184470780858693 2.5400351817849729 0.0000000000000000
8.1075590406452154 6.4734716346292638 0.0000000000000000
8.0620143810476623 6.6227506806421736 0.0000000000000000
3.7744377933929671 8.1701775159771781 0.0000000000000000
7.5728972639780050 1.7414586952123530 0.0000000000000000
3.8948069681797159 1.7694863109626930 0.0000000000000000
3.7473813124265249 1.7916608541847421 0.0000000000000000
3.0141789163625661 8.3461609706699349 0.0000000000000000
2.8621271396695058 8.3813576612158407 0.0000000000000000
1.8264741057606939 5.2914142274322868 0.0000000000000000
1.7809294461631420 5.4406932734452198 0.0000000000000000
1.8874365624642759 5.5547756286698808 0.0000000000000000
1.7353847865655940 5.5899723194581536 0.0000000000000000
1.8418919028667271 5.7040546746828138 0.0000000000000000
1.6898401269680470 5.7392513654710919 0.0000000000000000
1.7963472432691800 5.8533337206957476 0.0000000000000000
1.5833330106669119 5.6251690102464353 0.0000000000000000
1.5377883510693640 5.7744480562593701 0.0000000000000000
1.4312812347682320 5.6603657010347144 0.0000000000000000
1.5327856772796600 4.3912564863917627 0.0000000000000000
1.4298568460361261 4.2738334495863466 0.0000000000000000
1.0741334256086630 8.7122234497544824 0.0000000000000000
1.2347040401620570 8.8465425932438482 0.0000000000000000
1.4929524058999430 7.3109274647499456 0.0000000000000000
1.3864452972305350 7.1968451206851878 0.0000000000000000
4.2017331673542930 8.6268934675349627 0.0000000000000000
4.3130023764274501 8.7424287252269828 0.0000000000000000
6.2528108673695577 7.4577514173518464 0.0000000000000000
6.2983555269671161 7.3084723713389419 0.0000000000000000
6.4504073028658038 7.2732756805506842 0.0000000000000000
6.3439001865646834 7.1591933253260116 0.0000000000000000
6.1918484106659921 7.1943900161142738 0.0000000000000000
6.2373930702635620 7.0451109701013390 0.0000000000000000
6.0853412943648646 7.0803076608896127 0.0000000000000000
6.1308859539624434 6.9310286148766744 0.0000000000000000
4.4884432815683448 6.7562727202841879 0.0000000000000000
4.9445986092644176 6.6506826479192904 0.0000000000000000
5.1856135091966262 2.1553267018117550 0.0000000000000000
6.1161768885768151 7.9055885553907590 0.0000000000000000
8.3808269982305568 5.5777973585516829 0.0000000000000000
7.8952535397635106 7.6325073119443658 0.0000000000000000
8.0473053156622090 7.5973106211560957 0.0000000000000000
8.1538124319633436 7.7113929763807558 0.0000000000000000
8.1993570915609020 7.5621139303678166 0.0000000000000000
8.0928499752597638 7.4480315751431414 0.0000000000000000
8.2449017511584621 7.4128348843548739 0.0000000000000000
8.1383946348573186 7.2987525291302164 0.0000000000000000
8.2904464107560170 7.2635558383419712 0.0000000000000000
8.1839392944548628 7.1494734831172924 0.0000000000000000
8.3359910703535629 7.1142767923290267 0.0000000000000000
8.4424981866546993 7.2283591475536797 0.0000000000000000
8.2294839540524158 7.0001944371043736 0.0000000000000000
7.5287700678215126 4.6651385167543324 0.0000000000000000
7.4832254082239489 4.8144175627672769 0.0000000000000000
7.1791218564265531 4.8848109443438226 0.0000000000000000
5.7791115474058543 2.9890998791727199 0.0000000000000000
6.9205629642267441 4.8059252799074166 0.0000000000000000
6.8140558479256299 4.6918429246827440 0.0000000000000000
7.1342859285495530 6.4212903781212951 0.0000000000000000
5.2318669005146976 3.3932480435633772 0.0000000000000000
5.9767079829020897 2.8046241423714879 0.0000000000000000
4.7925468333657388 6.6858793387075908 0.0000000000000000
1.9778171499387860 3.8690171488794980 0.0000000000000000
5.0952329217220527 3.8410851816021818 0.0000000000000000
8.0458878522211599 4.8229098456270840 0.0000000000000000
4.7294581815005827 2.2609167741765939 0.0000000000000000
7.4054826189479570 8.2972640905563892 0.0000000000000000
7.2400843131301400 5.1481723455814414 0.0000000000000000
3.0420350729945418 1.8005802194321530 0.0000000000000000
2.8445831457333211 3.8071160501627679 0.0000000000000000
1.8257653740401030 3.9042138396677699 0.0000000000000000
1.8713100336376560 3.7549347936548370 0.0000000000000000
3.2411934801668418 6.2125653520893778 0.0000000000000000
1.6385771365692681 4.5060069779325902 0.0000000000000000
7.1167419362819544 1.8470487675771430 0.0000000000000000
7.1622865958795154 1.6977697215642129 0.0000000000000000
7.0102348199808322 1.7329664123524740 0.0000000000000000
7.0557794795783986 1.5836873663395441 0.0000000000000000
7.2078312554770871 1.5484906755512819 0.0000000000000000
7.1017399785036677 1.4345351918543621 0.0000000000000000
7.2571260160414486 1.3953947872188861 0.0000000000000000
7.1479789614836502 1.2846411507094790 0.0000000000000000
5.4897170609940176 2.0849333202352631 0.0000000000000000
3.9397811712361621 4.3860201091459423 0.0000000000000000
4.0462882875372914 4.5001024643706016 0.0000000000000000
4.0918329471348471 4.3508234183576713 0.0000000000000000
4.1983400634359764 4.4649057735823314 0.0000000000000000
4.1527954038384207 4.6141848195952617 0.0000000000000000
4.3048471797371066 4.5789881288069871 0.0000000000000000
4.2593025201395527 4.7282671748199192 0.0000000000000000
4.4113542960382386 4.6930704840316437 0.0000000000000000
4.3658096364406944 4.8423495300445776 0.0000000000000000
4.5178614123393732 4.8071528392563003 0.0000000000000000
4.4723167527418370 4.9564318852692324 0.0000000000000000
5.3089558860448207 5.4564502798160142 0.0000000000000000
3.3007384734293792 3.7015259777979712 0.0000000000000000
3.2551938138318222 3.8508050238109051 0.0000000000000000
3.1031420379331411 3.8860017145991730 0.0000000000000000
7.7403668369827017 2.1189024516745989 0.0000000000000000
4.0764151500288177 3.9381829711071430 0.0000000000000000
2.3267566296131998 2.2621443335254838 0.0000000000000000
2.2202495133120732 2.1480619783008201 0.0000000000000000
2.2657941729096311 1.9987829322878901 0.0000000000000000
2.1137423970109470 2.0339796230761560 0.0000000000000000
2.0681977374133900 2.1832586690890872 0.0000000000000000
1.9627785756369300 2.0681606011465301 0.0000000000000000
1.9161459615147081 2.2184553598773551 0.0000000000000000
2.0074166064639312 1.9197279823985089 0.0000000000000000
1.8564830060489319 1.9538807462267200 0.0000000000000000
2.0226530778158360 2.3325377151020188 0.0000000000000000
1.8709603840604980 2.3692856618852751 0.0000000000000000
5.1400688495990767 2.3046057478246880 0.0000000000000000
6.2366843385429052 5.6579105823369167 0.0000000000000000
4.3665183681611328 6.2295499178090097 0.0000000000000000
3.3609499392130280 2.5777274579563958 0.0000000000000000
5.4757167273290124 4.4466936485137438 0.0000000000000000
8.1808943786087926 2.9839033923907530 0.0000000000000000
8.3316330797826588 2.9430341415031021 0.0000000000000000
8.2968039462933518 3.0930481028511370 0.0000000000000000
8.3790375688879077 2.8017896684338339 0.0000000000000000
8.4834040155769532 2.9066242049334750 0.0000000000000000
8.5309805437855850 2.7661229509172061 0.0000000000000000
8.6379684269892660 2.8822822474589489 0.0000000000000000
8.6834329587696963 2.7326570445598168 0.0000000000000000
8.7904250037609000 2.8488343202686099 0.0000000000000000
7.0277788122484317 6.3072080228966252 0.0000000000000000
7.0733234718459883 6.1579289768836976 0.0000000000000000
6.9212716959473113 6.1931256676719642 0.0000000000000000
6.9668163555448501 6.0438466216590321 0.0000000000000000
3.4233721185570691 5.6154491680376566 0.0000000000000000
3.3168650022559381 5.5013668128130142 0.0000000000000000
7.5911499879661637 7.7029006935209123 0.0000000000000000
4.9880170737004006 2.3398024386129652 0.0000000000000000
7.0417791459134706 3.9454476946180939 0.0000000000000000
4.3503918393346579 4.4297090827940586 0.0000000000000000
6.0839238309237391 4.3059068853606748 0.0000000000000000
3.5298792348581922 5.7295315232623114 0.0000000000000000
3.8795274462531109 5.5098590956728417 0.0000000000000000
2.3575922238252400 3.0874252280265382 0.0000000000000000
5.4750079956084790 3.0594932607492602 0.0000000000000000
1.7816381778836821 6.8278936612097283 0.0000000000000000
3.5284608471961771 2.9551316240071972 0.0000000000000000
5.1253597842135621 3.2791656883387210 0.0000000000000000
7.3644569234052897 1.5079690757884940 0.0000000000000000
6.0979241645887514 1.9441465570822190 0.0000000000000000
6.2495355861418869 1.9093609804526910 0.0000000000000000
6.3564096643976420 2.0231007405450692 0.0000000000000000
6.9058538988412259 5.7804852204214328 0.0000000000000000
7.9533810695849567 2.3470671621239179 0.0000000000000000
7.8924186128813840 2.0837057608863270 0.0000000000000000
7.9379632724789362 1.9344267148733929 0.0000000000000000
8.0444703887800628 2.0485090700980511 0.0000000000000000
8.0900150483776052 1.8992300240851230 0.0000000000000000
6.2072662077719762 7.6070304633648016 0.0000000000000000
4.9733080083148851 3.3143623791270049 0.0000000000000000
6.2661024693139504 3.7087907013089390 0.0000000000000000
4.2137578605420130 4.8775462208328539 0.0000000000000000
3.8017297290024539 2.0594564716557251 0.0000000000000000
3.9082368453035849 2.1735388268803848 0.0000000000000000
6.8147645796461784 6.0790433124472996 0.0000000000000000
3.3014472051499122 5.0887263655624704 0.0000000000000000
3.3469918647474639 4.9394473195495374 0.0000000000000000
6.1411706404894248 1.7985843330403219 0.0000000000000000
4.5634060719369227 4.6578737932433700 0.0000000000000000
6.0376704396056677 3.0679855436090828 0.0000000000000000
3.4990436406461400 4.9042506287612646 0.0000000000000000
3.4219538289964451 2.8410491758441601 0.0000000000000000
8.1531037002427507 6.3241925886163308 0.0000000000000000
3.2559025455523609 5.2380054115754131 0.0000000000000000
5.9171629896395492 5.3156635166629069 0.0000000000000000
5.7651112137408642 5.3508602074511620 0.0000000000000000
5.8260736704444298 5.6142216086887560 0.0000000000000000
5.9325807867455511 5.7283039639134294 0.0000000000000000
5.5815151119096216 3.1735756159739168 0.0000000000000000
4.6699131882380520 4.7719561484680320 0.0000000000000000
2.2370847738591819 5.3351032010803952 0.0000000000000000
5.8106558733384137 5.2015811614382317 0.0000000000000000
5.6586040974397296 5.2367778522264992 0.0000000000000000
5.6130594378421854 5.3860568982394312 0.0000000000000000
3.2117753504621360 8.1616852334426291 0.0000000000000000
3.7870202293312509 3.0340168237534431 0.0000000000000000
3.9390721849872050 2.9988199625784562 0.0000000000000000
5.9788341780637682 6.9662253056649286 0.0000000000000000
6.0243788376613514 6.8169462596520054 0.0000000000000000
3.1346863638657161 6.0984829968647194 0.0000000000000000
3.0891417042681528 6.2477620428776399 0.0000000000000000
1.9483990191678520 5.8181370299074811 0.0000000000000000
3.1192685667597089 5.6858425496142431 0.0000000000000000
1.9028543595703060 5.9674160759204167 0.0000000000000000
1.7508025836716290 6.0026127667086797 0.0000000000000000
1.8573096999727561 6.1166951219333416 0.0000000000000000
5.8274911338854860 8.3886223842178147 0.0000000000000000
5.7819464742879703 8.5379014302307557 0.0000000000000000
6.0222526424996552 2.6553450963585661 0.0000000000000000
7.6058590533516108 6.7283407530069228 0.0000000000000000
2.6028595141671058 6.9152716084685952 0.0000000000000000
3.8935276651157151 3.1480988761911739 0.0000000000000000
2.9826345879670382 6.1336796876529771 0.0000000000000000
2.9370899283694638 6.2829587336658950 0.0000000000000000
6.2198490779958862 2.4708693595574029 0.0000000000000000
6.4959519624633506 7.1239966345377521 0.0000000000000000
6.6024590787644692 7.2380789897624176 0.0000000000000000
6.2829377298611213 6.8958319240884220 0.0000000000000000
4.4120630277586654 6.0802708717960714 0.0000000000000000
5.0966503851630751 6.6154859571310007 0.0000000000000000
5.1421950447606140 6.4662069111181442 0.0000000000000000
4.5641148036573256 6.0450741810077568 0.0000000000000000
7.4538072774529303 6.7635374437951903 0.0000000000000000
6.3996706851135361 1.8717931097830349 0.0000000000000000
6.3719008538945614 2.4356726687691430 0.0000000000000000
6.4174455134921278 2.2863936227562220 0.0000000000000000
6.5239526297932589 2.4004759779808640 0.0000000000000000
4.9747254717558427 6.0887631546558474 0.0000000000000000
4.8682183554547391 5.9746807994312414 0.0000000000000000
4.1396589335783842 8.3631928659228727 0.0000000000000000
3.0898504359887879 7.6349624306422159 0.0000000000000000
5.0812325880570253 6.2028455098805324 0.0000000000000000
2.2532113026855209 7.1349440360944758 0.0000000000000000
2.5881510268847641 7.8898309200194188 0.0000000000000000
1.5996873226894559 7.4247955054339911 0.0000000000000000
2.2385619002330790 8.1094359296078977 0.0000000000000000
1.3856311999425990 5.8091895198599008 0.0000000000000000
1.2792118963315440 5.6954865206250327 0.0000000000000000
5.8225825566810627 1.4522893431437280 0.0000000000000000
5.7171618927597621 1.3384812437445530 0.0000000000000000
1.0001598868045121 8.9317351719233020 0.0000000000000000
1.2053822905288150 9.0797203128643957 0.0000000000000000
4.0646289952228853 1.5746463115969449 0.0000000000000000
8.4943262904300472 7.0729330028902444 0.0000000000000000
8.6018806474274641 7.1859908416731386 0.0000000000000000
8.6397530318875422 5.6582690956933579 0.0000000000000000
8.7459541969743224 5.7710297236636956 0.0000000000000000
8.5321097622445627 4.1551398661417158 0.0000000000000000
8.6386363199852259 4.2693062095293426 0.0000000000000000
4.3945190354911281 1.5060292612520980 0.0000000000000000
4.2880119191899961 1.3919469060274401 0.0000000000000000
4.5021882970988027 1.6190266393558079 0.0000000000000000
2.9553336252363751 1.5564612500838979 0.0000000000000000
2.8567639884722560 1.4448005998019691 0.0000000000000000
2.7061770051640011 1.4804441951069400 0.0000000000000000
2.7517139982202452 1.3311628100516320 0.0000000000000000
8.0169071477145835 8.1580580588801652 0.0000000000000000
8.1691850114933171 8.1238380810414021 0.0000000000000000
7.8667898779312964 8.1858858017497944 0.0000000000000000
8.1595157623999768 4.9389702308226298 0.0000000000000000
8.2066864861669302 4.7823359911375523 0.0000000000000000
3.8805282353131010 8.2824598133501564 0.0000000000000000
8.4237541372236464 4.0428922647848360 0.0000000000000000
1.9396380440040240 8.1761243005912370 0.0000000000000000
6.7050650803630258 1.7987537997884151 0.0000000000000000
8.4520303204096994 4.4544241046112454 0.0000000000000000
5.6309533496538666 8.5721097657810041 0.0000000000000000
5.7365782565678893 8.6870157503706906 0.0000000000000000
1.9011871773730020 1.8065012493781649 0.0000000000000000
2.9678247743585300 8.4919430121646418 0.0000000000000000
2.8164475653574681 8.5300538728433821 0.0000000000000000
2.7100528814191431 8.4164572322417435 0.0000000000000000
2.9199366716482729 8.6398751286526814 0.0000000000000000
2.7704898461220422 8.6790112915379325 0.0000000000000000
2.8745831967590210 8.7914101707206207 0.0000000000000000
2.7254931592081348 8.8291947987455099 0.0000000000000000
2.8403650267094540 8.9519298072089590 0.0000000000000000
8.5497108278024410 7.3390159774372439 0.0000000000000000
8.7013467632017178 7.3031017369159752 0.0000000000000000
8.7582825507134743 7.1501783008516089 0.0000000000000000
8.8552677820717527 7.2707675159371288 0.0000000000000000
8.9077081294560472 7.1192909998846670 0.0000000000000000
9.0159726893151220 7.2567977113659810 0.0000000000000000
1.4909915944287870 5.9198511130432534 0.0000000000000000
4.8994822548705699 8.1859506226385363 0.0000000000000000
1.4532579405424479 8.5443189023326607 0.0000000000000000
7.0605697281265849 8.5200696366034627 0.0000000000000000
7.1666531713951551 8.6340227302568184 0.0000000000000000
7.3197034692181733 8.5991808984373996 0.0000000000000000
7.2753043255643899 8.7487675947577195 0.0000000000000000
7.2989979926381423 1.2484137146595040 0.0000000000000000
7.1926113884837557 1.1355157295557341 0.0000000000000000
7.6962396408262279 5.0425822732165928 0.0000000000000000
8.0613056493271760 5.2355502928776723 0.0000000000000000
8.2151304401254066 5.2023226247732666 0.0000000000000000
6.3747357807766409 7.9844742198270726 0.0000000000000000
6.4812428970777294 8.0985565750517416 0.0000000000000000
6.6332946729764126 8.0633598842635230 0.0000000000000000
6.5907617148911983 8.2098272102465231 0.0000000000000000
6.7403037395295744 8.1769736194832383 0.0000000000000000
5.3832099446928954 1.9708509650106030 0.0000000000000000
5.4287546042904449 1.8215719189976620 0.0000000000000000
8.0774321781537406 7.0353911278926331 0.0000000000000000
7.8027467571273537 5.1566646284412778 0.0000000000000000
4.2908468460720961 6.9407484570854567 0.0000000000000000
3.9846168745443098 2.8495408881677391 0.0000000000000000
4.0911241946288106 2.9636230502896921 0.0000000000000000
7.6051503216310703 5.3411403652425227 0.0000000000000000
7.4082626178553674 6.9128164898081259 0.0000000000000000
6.7685111883280609 4.8411219706956867 0.0000000000000000
6.6620040720269467 4.7270396154710017 0.0000000000000000
6.7075487316245148 4.5777605694580759 0.0000000000000000
6.5554969557258307 4.6129572602463220 0.0000000000000000
6.6010416153234006 4.4636782142334006 0.0000000000000000
6.4489898394247174 4.4988749050216406 0.0000000000000000
6.4945344990222598 4.3495958590087254 0.0000000000000000
2.1298689258374690 3.8338204580912278 0.0000000000000000
6.3424827231235783 4.3847925497969884 0.0000000000000000
3.0435970446705891 6.3970410888905658 0.0000000000000000
2.8915452687718788 6.4322377796788146 0.0000000000000000
2.7850381524707828 6.3181554244541598 0.0000000000000000
2.7394934928731960 6.4674344704670830 0.0000000000000000
2.8460006091742871 6.5815168256917378 0.0000000000000000
2.6939488332756061 6.6167135164800124 0.0000000000000000
5.4624251253845282 8.1956543645568196 0.0000000000000000
2.6925313698346360 3.8423127409510349 0.0000000000000000
6.0096697722756822 7.7915062001661237 0.0000000000000000
4.0175788884867600 7.8364227331630527 0.0000000000000000
1.9771682652421709 2.4820753037807841 0.0000000000000000
1.8251264638474709 2.5173150850133572 0.0000000000000000
1.7216559923175201 2.4056487146539700 0.0000000000000000
1.6735342477254020 2.5527133512057461 0.0000000000000000
1.7796118498607700 2.6664266381868869 0.0000000000000000
1.6274602068233610 2.7014891887044188 0.0000000000000000
1.7339839676476090 2.8155939006408741 0.0000000000000000
1.5819183213129910 2.8507719608359809 0.0000000000000000
1.4754088932725420 2.7366865005124592 0.0000000000000000
1.6884226635269299 2.9648505899420150 0.0000000000000000
1.4305929939528470 2.8852853524638791 0.0000000000000000
1.3234782691882601 2.7717694116106260 0.0000000000000000
3.2096491542342660 4.0000840698238376 0.0000000000000000
3.0575973783355890 4.0352807606121051 0.0000000000000000
2.5250617968299398 3.4648689844887870 0.0000000000000000
2.5706064564274960 3.3155899384758580 0.0000000000000000
6.3887361144415920 5.6227138915486439 0.0000000000000000
2.2363760421385992 3.9479028133158889 0.0000000000000000
2.1915401142616302 5.4843822470933317 0.0000000000000000
6.3431914548440256 5.7719929375615822 0.0000000000000000
2.4332637459143269 2.3762266887501480 0.0000000000000000
6.0986328963092511 3.3313469448466702 0.0000000000000000
5.8702008666009649 2.6905417871468371 0.0000000000000000
3.6819310107568719 5.6943348324740466 0.0000000000000000
6.6017503470438577 5.8508786019979748 0.0000000000000000
2.5860242535335138 3.7282303857263668 0.0000000000000000
6.2051400126103857 3.4454293000713272 0.0000000000000000
2.8291653486273169 3.3944756029122418 0.0000000000000000
3.8346915183761010 7.0463385294502654 0.0000000000000000
3.6826397424774160 7.0815352202385400 0.0000000000000000
3.5761326261762871 6.9674528650138914 0.0000000000000000
3.5305879665787421 7.1167319110268199 0.0000000000000000
3.4240808502776030 7.0026495558021651 0.0000000000000000
3.3785361906800642 7.1519286018151060 0.0000000000000000
3.4850433069811819 7.2660109570397520 0.0000000000000000
3.3329915310825009 7.3012076478280363 0.0000000000000000
3.2264844147813752 7.1871252926033877 0.0000000000000000
3.1809397551838461 7.3364043386163278 0.0000000000000000
3.3764099955184359 2.9903274385215721 0.0000000000000000
5.2774115601122444 3.2439689975504451 0.0000000000000000
3.8486918520410560 4.6845782011717993 0.0000000000000000
3.6966400761423732 4.7197748919600677 0.0000000000000000
5.5065523215410508 5.2719745430147782 0.0000000000000000
5.5520969811386003 5.1226954970018461 0.0000000000000000
5.8400740041094537 3.2524612804102970 0.0000000000000000
4.1240860047878822 7.9505050883876791 0.0000000000000000
2.7696203553647920 5.9055149772036932 0.0000000000000000
3.9867432942747718 7.0111418386619890 0.0000000000000000
7.1188681314435440 6.0086499308707673 0.0000000000000000
7.7579108292502941 6.6931440622186766 0.0000000000000000
8.0921412435391478 6.0608311873787439 0.0000000000000000
8.1229768377512865 6.8861120818797126 0.0000000000000000
8.2747235774303327 6.8512001724501346 0.0000000000000000
2.4508077382401749 6.9504682992690912 0.0000000000000000
4.2600112518600124 6.1154675625843726 0.0000000000000000
4.4576076873562256 5.9309918257831420 0.0000000000000000
2.8312915450792162 7.5560767656568606 0.0000000000000000
2.2076666430198300 7.2842230818102296 0.0000000000000000
2.0556148671895298 7.3194197728966621 0.0000000000000000
2.6946578663484448 8.0039135459348678 0.0000000000000000
1.8580450950465901 7.5038665466865027 0.0000000000000000
8.2112954510426590 6.5901407167437966 0.0000000000000000
8.8492009151295257 2.6968753721210961 0.0000000000000000
8.9741230697179670 2.8012883907245829 0.0000000000000000
5.9318490818670213 8.4975863727747019 0.0000000000000000
2.8995809490861379 1.2946893397240760 0.0000000000000000
2.7968027635636350 1.1817446718541440 0.0000000000000000
7.1248858030156406 8.7795397702260445 0.0000000000000000
7.2305801338271269 8.8974709148146029 0.0000000000000000
5.4200005533301976 8.3420205015035229 0.0000000000000000
8.3476245157453732 7.5257626434374290 0.0000000000000000
8.1937187013645350 2.0124570497390790 0.0000000000000000
8.2393749131908240 1.8632120380291450 0.0000000000000000
6.1249595398698036 8.3168951526689661 0.0000000000000000
9.0620121502887763 7.0770163167698774 0.0000000000000000
8.3126907315939924 5.3176696941613057 0.0000000000000000
5.5205520581753627 1.5278193941644069 0.0000000000000000
5.8635306699420386 1.3015414788117561 0.0000000000000000
5.7619450300526447 1.1889495829915719 0.0000000000000000
1.7101872219312690 6.1485179316428331 0.0000000000000000
1.8112398184453320 6.2855699869215282 0.0000000000000000
1.2380705897060249 5.8400137998887063 0.0000000000000000
1.1272330840316329 5.7270359999926983 0.0000000000000000
1.3394411817242049 7.3398192164977702 0.0000000000000000
1.2337098841294709 7.2290884376530933 0.0000000000000000
8.5724693997904815 2.6226650568749519 0.0000000000000000
8.2084235561836980 7.9727863443287443 0.0000000000000000
4.1608089457818416 8.7717958005206569 0.0000000000000000
4.2681208463498104 8.8909456908819831 0.0000000000000000
6.9065043118175611 1.6191616375542239 0.0000000000000000
7.0851049516259659 8.9243440063414923 0.0000000000000000
7.1723301984046852 9.0497185335205472 0.0000000000000000
7.3332998274868837 9.0112154168490886 0.0000000000000000
7.2683402747676187 9.1911049024454350 0.0000000000000000
2.6799793754348742 8.9856585752964016 0.0000000000000000
1.7542981188469320 1.8359489761376619 0.0000000000000000
1.4390190808032650 7.0505190442831793 0.0000000000000000
1.2830206507528981 2.9145556652898801 0.0000000000000000
1.1746396638430210 2.8036754480354040 0.0000000000000000
1.4208092932839611 8.7300236320916333 0.0000000000000000
8.6857161440041644 4.1266591641773598 0.0000000000000000
8.7907289346084898 4.2342859444350802 0.0000000000000000
8.7345841229004932 4.3568018721691466 0.0000000000000000
8.8805305666783774 4.3501862076663587 0.0000000000000000
8.9484679286638187 4.1947915844054453 0.0000000000000000
1.6796804866385431 5.3347514877742004 0.0000000000000000
8.2523833064885928 2.2814363605064241 0.0000000000000000
7.9833781105575543 1.7897479747464189 0.0000000000000000
2.0545751986273451 1.7779989685079149 0.0000000000000000
4.5501144699923124 8.4068345092862469 0.0000000000000000
8.7936365396693255 5.6309855944567078 0.0000000000000000
8.8983214598939995 5.7371959553758503 0.0000000000000000
1.0910701493422501 5.8683118467607489 0.0000000000000000
0.9654061349953438 5.7654569189647527 0.0000000000000000
1.6113899154950300 8.4113899154950413 0.0000000000000000
1.7236150867596070 8.2892608438346400 0.0000000000000000
1.4314430115037899 8.9566850613198650 0.0000000000000000
1.3938545350786851 9.2072963199425129 0.0000000000000000
1.1638885064127940 9.3638893524591378 0.0000000000000000
1.4883701090809589 5.5132146205083181 0.0000000000000000
7.3419743927157137 1.0998095355892090 0.0000000000000000
7.2375759660617263 0.9863747655097731 0.0000000000000000
7.0897502565969592 1.0209007212305690 0.0000000000000000
7.1204946265933557 0.8936422011231742 0.0000000000000000
1.7288709871471759 5.1876741651428588 0.0000000000000000
8.9416816458548176 5.5996607693634992 0.0000000000000000
9.0285111773147602 5.7101103951588756 0.0000000000000000
1.7266196952802959 3.7923774404290449 0.0000000000000000
1.7726714429688319 3.6432531057108801 0.0000000000000000
5.0185273902518528 1.7836922867664351 0.0000000000000000
5.1701957120905888 1.7426862545612389 0.0000000000000000
1.3850278434500980 4.4224443592831308 0.0000000000000000
1.2784014509803781 4.3084733601111624 0.0000000000000000
1.3242518061306501 4.1600786057023509 0.0000000000000000
1.1720136108478330 4.1942796488338114 0.0000000000000000
1.1264689512502839 4.3435586948467462 0.0000000000000000
0.9958550902940437 4.2143412434311367 0.0000000000000000
9.0590160625066538 4.3424631162814240 0.0000000000000000
9.1399821787868181 4.1531273891026501 0.0000000000000000
6.4379004556018486 8.2388898105014192 0.0000000000000000
7.0250302257598740 9.0588366141620451 0.0000000000000000
5.5934061769841970 8.7197870487945703 0.0000000000000000
5.6918574769935661 8.8365030696991287 0.0000000000000000
5.8379677368011347 8.7996752512635048 0.0000000000000000
5.8030425152665330 8.9591162767989623 0.0000000000000000
5.6423935867553903 8.9958182021916535 0.0000000000000000
1.6356383826384859 6.8656420777384746 0.0000000000000000
5.6192355316956091 1.2234773331378130 0.0000000000000000
5.6593857723268410 1.0754799439851470 0.0000000000000000
5.8080440559545536 1.0407229818727390 0.0000000000000000
5.6887005834238487 0.9466709623586562 0.0000000000000000
4.1223326048576618 8.9174047128254390 0.0000000000000000
4.2050844818979156 9.0434718380123282 0.0000000000000000
4.3679358316020007 9.0039506933379130 0.0000000000000000
4.3265013737189806 9.1908940445234339 0.0000000000000000
1.2178144193235869 2.6660335222045348 0.0000000000000000
1.0621823380649389 2.6979232217474398 0.0000000000000000
1.0230526831359310 2.8448061241536200 0.0000000000000000
0.8867329715457968 2.7196757151183011 0.0000000000000000
0.8169627474617706 2.9068328351623771 0.0000000000000000
9.1675260444720266 7.2034795162171301 0.0000000000000000
8.5543153022413989 5.9569342436702950 0.0000000000000000
1.0029125693341809 5.6061369547040876 0.0000000000000000
0.8407029114284710 5.6439623323430661 0.0000000000000000
0.7812829442614263 5.8444926271286466 0.0000000000000000
5.7990264318052400 9.1495183219947567 0.0000000000000000
5.5888260707575794 9.1776066319071532 0.0000000000000000
2.7921394315325938 9.1579052618724326 0.0000000000000000
2.5890812511254082 9.1910016623276949 0.0000000000000000
7.3900098938673082 0.9513744914995546 0.0000000000000000
8.1207237312751239 8.2634470612917603 0.0000000000000000
8.2677808421986470 8.2378460471009038 0.0000000000000000
1.7889412300618530 1.6979934385940840 0.0000000000000000
1.6563854846067150 1.7244926252212260 0.0000000000000000
2.6563979310055470 1.2175456498184309 0.0000000000000000
2.6969219662775830 1.0691924621785041 0.0000000000000000
2.8439973157511118 1.0328870826277450 0.0000000000000000
2.7256082410591560 0.9404207018869812 0.0000000000000000
0.9483918554838504 8.5664093502005336 0.0000000000000000
7.7249490398766927 1.7062620044240879 0.0000000000000000
2.6308326293194888 8.7124418123333864 0.0000000000000000
4.4400636950886812 1.3567502152391671 0.0000000000000000
4.3316748237678571 1.2444246636879390 0.0000000000000000
4.1834703802750726 1.2788527305570290 0.0000000000000000
4.2228342680990574 1.1277526945431631 0.0000000000000000
4.3758374614489419 1.0909172000670211 0.0000000000000000
4.2711927962338354 0.9752897295485358 0.0000000000000000
4.0441753029591654 9.0530205852530017 0.0000000000000000
8.8504486149254085 5.8788262238563860 0.0000000000000000
4.4279127679169648 0.9093920037891534 0.0000000000000000
1.6751310615825550 6.7138113059850761 0.0000000000000000
5.9759992511816540 1.4174237546070310 0.0000000000000000
6.0683358442127382 1.5534105797802140 0.0000000000000000
4.0791877830843637 1.0182848478323980 0.0000000000000000
3.9927651463463532 0.8435160012967888 0.0000000000000000
3.8926425511068929 0.6925835007643784 0.0000000000000000
3.7157402312573251 0.5081727346985079 0.0000000000000000
3.4950843563610210 0.5137142477138672 0.0000000000000000
3.2008894800617420 0.5677790630527326 0.0000000000000000
2.9417277962564139 0.7029808503577485 0.0000000000000000
8.3252885880790934 4.8967431909946830 0.0000000000000000
1.1876405908255681 7.3771800956737579 0.0000000000000000
1.0773118235315280 7.2681784840468504 0.0000000000000000
1.1404741719782641 7.1113554857196526 0.0000000000000000
0.9562727097294927 7.1475063244364039 0.0000000000000000
0.8939108412489654 7.3265190155655588 0.0000000000000000
0.7298133003254091 7.1653242207274781 0.0000000000000000
0.7063549506054027 7.5166411272067437 0.0000000000000000
8.9414326863451734 7.4214977053857192 0.0000000000000000
9.1296185940869155 7.4203033016993718 0.0000000000000000
4.4742970006786500 8.7149126730668751 0.0000000000000000
8.8965273191890883 2.9611679118952821 0.0000000000000000
9.0744362121851587 2.9326261098496729 0.0000000000000000
1.5680616937546881 2.4418446762871961 0.0000000000000000
3.7307458691842279 8.3163042345562150 0.0000000000000000
3.6259128457677079 8.2018444624207287 0.0000000000000000
8.3016268480895441 5.0629427359016059 0.0000000000000000
6.6942571296798628 8.3267212855011579 0.0000000000000000
3.8053392414976290 1.6301963520526010 0.0000000000000000
3.9227239097500850 1.5505695602967180 0.0000000000000000
3.6429517611000630 1.6649488407813620 0.0000000000000000
3.4814056026666682 1.6975225684855870 0.0000000000000000
3.3061450089824440 1.6775472775953020 0.0000000000000000
3.3725074052348121 1.8208582281391230 0.0000000000000000
3.5272779253721240 1.8694674522701309 0.0000000000000000
3.2139791874287842 1.8038570098593580 0.0000000000000000
3.1563887017494872 1.6715064563603961 0.0000000000000000
3.4295765671575720 1.9613197171680590 0.0000000000000000
7.6236439430204266 1.5834140288324801 0.0000000000000000
1.6877139318064300 1.5776502021775050 0.0000000000000000
1.5346371543005830 1.6327538522013929 0.0000000000000000
1.5920689082286570 1.4615196299329980 0.0000000000000000
1.5279043990281660 1.3029299472415130 0.0000000000000000
1.4698785518091531 1.1302492213623960 0.0000000000000000
1.3493746505115660 1.2846749922468159 0.0000000000000000
1.2787895639252820 1.0823132502973929 0.0000000000000000
1.4257236214922120 1.4839911094816169 0.0000000000000000
1.4268155335491490 0.9386588575629256 0.0000000000000000
1.1897400319676641 0.8399837453750951 0.0000000000000000
1.2204465215032481 1.4491108658492120 0.0000000000000000
1.1322839996860570 1.2568647883857289 0.0000000000000000
9.2787208654018620 7.5537519997454003 0.0000000000000000
8.3845840081510872 4.7442739096986406 0.0000000000000000
8.4242630814480481 4.5960461970968476 0.0000000000000000
8.2557276032418567 4.6300797836192071 0.0000000000000000
1.6858234204475910 1.9753525644990479 0.0000000000000000
1.6651775453722759 2.1469326903246890 0.0000000000000000
4.5400974245688310 8.5567433484266111 0.0000000000000000
0.8389202246086563 6.9407331391458724 0.0000000000000000
8.5733458155711215 3.0468929008809180 0.0000000000000000
8.4465740292891951 3.1263289452531091 0.0000000000000000
8.3750152582564077 3.2663927531336738 0.0000000000000000
8.2024807807209381 3.2342765028707579 0.0000000000000000
8.2633146627954250 3.3727630773049619 0.0000000000000000
8.1079477999104395 3.3575285304546130 0.0000000000000000
8.1633830385550219 3.5089368806058818 0.0000000000000000
3.1185285341730391 8.4538377204223565 0.0000000000000000
4.4204132963590483 8.8642195292576851 0.0000000000000000
7.5156409073281782 1.4711577342272300 0.0000000000000000
4.3217993193145654 0.7493324438617244 0.0000000000000000
4.5170192500909128 0.7050305576261494 0.0000000000000000
7.4070802999961831 1.3555113581889440 0.0000000000000000
8.2154558487200102 8.3914004438699781 0.0000000000000000
8.3748583682935500 8.4564326936766978 0.0000000000000000
4.0558333614340256 8.6573127802789074 0.0000000000000000
0.9226818638056680 9.1850015836877699 0.0000000000000000
8.7438625660130107 3.0051970078713328 0.0000000000000000
7.4270783900247359 8.7150783182399376 0.0000000000000000
7.4892699782758623 8.5511244988955593 0.0000000000000000
7.5811476180149384 8.4318558956201972 0.0000000000000000
7.3604078591712554 8.4433879403534924 0.0000000000000000
7.3786938921768481 8.8666885964940150 0.0000000000000000
3.1390923659590930 1.9413721047680139 0.0000000000000000
2.8011647977775649 8.1179961393264115 0.0000000000000000
6.8479856037881399 8.2899769523805436 0.0000000000000000
4.8990539496668699 6.7999616939322687 0.0000000000000000
5.9332895184661769 7.1155043516778527 0.0000000000000000
5.8267824021650503 7.0014219964532023 0.0000000000000000
6.1617215481744019 7.7563095093777834 0.0000000000000000
2.8004559495778691 6.7307958717041902 0.0000000000000000
5.7812377425674537 7.1507010424661530 0.0000000000000000
6.0397966347672387 7.2295867069026354 0.0000000000000000
7.6506949812286482 5.1918613192295666 0.0000000000000000
4.7470021737681787 6.8351583847205308 0.0000000000000000
4.7014575141705759 6.9844374307334842 0.0000000000000000
6.1007590914708762 7.4929481081400846 0.0000000000000000
6.7854301072504706 8.0280850901410936 0.0000000000000000
6.4034451798271412 4.6481539510345700 0.0000000000000000
5.3112788521165326 8.2300056794426695 0.0000000000000000
4.4428986219707829 6.9055517662971546 0.0000000000000000
8.2490550001408476 6.4390584635726160 0.0000000000000000
8.3166412240275349 6.2862969001951292 0.0000000000000000
7.5441878649275349 5.0777789640048860 0.0000000000000000
7.3311736323252514 4.8496142535555533 0.0000000000000000
8.2971698066543595 7.6735436457613364 0.0000000000000000
8.2484563316979322 7.8218522920988161 0.0000000000000000
7.9709250618525624 6.9213087726679774 0.0000000000000000
7.8644179455514269 6.8072264174433474 0.0000000000000000
8.1154534042652919 5.0889071189446824 0.0000000000000000
3.0744326388899950 7.2223219833884826 0.0000000000000000
7.0123610151423721 5.8945675756460982 0.0000000000000000
5.2921206254977582 2.2694090570364200 0.0000000000000000
6.6164594124293821 4.8763186614839649 0.0000000000000000
6.7692199200486094 6.2283223584602370 0.0000000000000000
5.7805290108468741 5.7635006547017209 0.0000000000000000
7.9863428589586380 7.3339492199184599 0.0000000000000000
7.9407981993610601 7.4832282659314240 0.0000000000000000
5.0945241900015290 2.4538847938376289 0.0000000000000000
2.6484041736927120 6.7659925624866837 0.0000000000000000
4.1366688341194688 2.8143440233295451 0.0000000000000000
4.2431759810333372 2.9284263495458860 0.0000000000000000
8.7367121353097534 2.5705776647622880 0.0000000000000000
6.7082574633450003 5.9649609572226350 0.0000000000000000
4.3202649768431636 4.9916285760575203 0.0000000000000000
4.4267720931442973 5.1057109312821716 0.0000000000000000
4.5788238690429797 5.0705142404938801 0.0000000000000000
2.5404795939359599 3.8775094317393211 0.0000000000000000
5.9150367944780999 1.1540623533693890 0.0000000000000000
5.2767028283917341 1.8567686097859151 0.0000000000000000
5.3236164982039220 1.7134037684806600 0.0000000000000000
4.2747203172456052 5.1409076220704488 0.0000000000000000
2.9980523850730458 6.5463201349034756 0.0000000000000000
7.3767182919228134 4.7003352075426150 0.0000000000000000
7.4222629515203700 4.5510561615296723 0.0000000000000000
7.9253804022549978 7.0705878186809032 0.0000000000000000
4.1850743167721838 8.2138743780059826 0.0000000000000000
4.0301617144671864 2.7002616712803409 0.0000000000000000
4.0757064109343606 2.5509825903301020 0.0000000000000000
3.9691993007781741 2.4369002292825579 0.0000000000000000
4.7474193275755239 8.2210991387381132 0.0000000000000000
7.4541347186392652 8.1501381454582589 0.0000000000000000
7.5613339795128436 8.2746956147675021 0.0000000000000000
7.7029813130978697 8.3375600731754727 0.0000000000000000
5.1267772476545321 6.0535664638675639 0.0000000000000000
3.9411986346772201 7.1604208846749247 0.0000000000000000
7.4376807486263861 4.9636966087802179 0.0000000000000000
5.7041487570372720 5.0874988062135564 0.0000000000000000
4.9424724141028502 2.4890814846259008 0.0000000000000000
4.8969277545052776 2.6383605306388360 0.0000000000000000
6.8750183046291982 4.9552043259203691 0.0000000000000000
5.0516199625700864 8.1511251622878227 0.0000000000000000
4.5332792094454391 5.2197932865068211 0.0000000000000000
4.6853309853441090 5.1845965957185438 0.0000000000000000
7.7887464234623689 7.5184249567197066 0.0000000000000000
5.0511057255655656 6.7647650031439559 0.0000000000000000
5.2031575014642044 6.7295683123557266 0.0000000000000000
8.7003483471338736 5.9200444242257708 0.0000000000000000
7.9393807359200181 4.7088274904024088 0.0000000000000000
5.2010313063026548 2.5679671490623059 0.0000000000000000
4.7904206382041643 2.5242781754141590 0.0000000000000000
2.2819207017361500 3.7986237673029430 0.0000000000000000
6.5849150864968218 2.6638373792184100 0.0000000000000000
6.7369668623955024 2.6286406884301332 0.0000000000000000
6.8434739786966379 2.7427230436547752 0.0000000000000000
6.8890186382941732 2.5934439976418351 0.0000000000000000
6.9955257545953229 2.7075263528664708 0.0000000000000000
6.7825115219930483 2.4793616424171931 0.0000000000000000
6.9499810949978009 2.8568053988794140 0.0000000000000000
7.1020328708964700 2.8216087080911092 0.0000000000000000
7.0564882112989462 2.9708877541040559 0.0000000000000000
7.2085399871976454 2.9356910633157298 0.0000000000000000
7.1629953276001359 3.0849701093286770 0.0000000000000000
7.3150471034988023 3.0497734185403789 0.0000000000000000
7.2695024439012998 3.1990524645533238 0.0000000000000000
7.1174506680026086 3.2342491553416370 0.0000000000000000
7.2239577843037832 3.3483315105662488 0.0000000000000000
7.3760095602023954 3.3131348197780088 0.0000000000000000
7.0719060084050778 3.3835282013545829 0.0000000000000000
7.1784131247062568 3.4976105565792230 0.0000000000000000
7.0263613488075567 3.5328072473675340 0.0000000000000000
7.1328684651087499 3.6468896025922160 0.0000000000000000
6.9808166892101129 3.6820862933804790 0.0000000000000000
7.0873238055110974 3.7961686486051751 0.0000000000000000
7.0109435517014056 3.1201668001170129 0.0000000000000000
6.9829428843714059 7.8436874566740409 0.0000000000000000
6.9374121678364036 7.9929534854646178 0.0000000000000000
6.9345632978917164 2.4441649516288959 0.0000000000000000
6.5694972893908101 2.2511969319679812 0.0000000000000000
6.4629779410245378 2.1371259965810072 0.0000000000000000
3.1199772984887102 7.0730429373750532 0.0000000000000000
7.2407930448506903 6.5353727333459624 0.0000000000000000
7.0887412689519778 6.5705694241342112 0.0000000000000000
6.0552144318732672 7.6422271541531241 0.0000000000000000
6.9822341526508591 6.4564870689095519 0.0000000000000000
5.8246562070034180 2.8398208331597679 0.0000000000000000
4.2887206423818700 2.7791473018736861 0.0000000000000000
3.2720290743803582 7.0378462465898188 0.0000000000000000
7.0130697468629251 7.2817679634105890 0.0000000000000000
6.9065626305617913 7.1676856081859226 0.0000000000000000
7.0866150737903961 2.4089682608406102 0.0000000000000000
5.3839186764133800 3.3580513527751070 0.0000000000000000
8.1496600420465217 2.1632426337207802 0.0000000000000000
4.1293423997506764 1.4208619324018690 0.0000000000000000
7.2702111756216770 4.5862528523179504 0.0000000000000000
7.3157558352192327 4.4369738063050121 0.0000000000000000
8.2731242469405988 5.4642539594682162 0.0000000000000000
8.4161423693436834 5.4320079818761204 0.0000000000000000
8.5279815148407003 5.5484129865220986 0.0000000000000000
7.8181645542333271 5.5693050756918234 0.0000000000000000
1.9021456278497200 4.5802156881559037 0.0000000000000000
7.7880376917418266 6.1312245689552691 0.0000000000000000
6.6788532756365662 7.9140678210282092 0.0000000000000000
2.7990384861357751 3.9563950961757119 0.0000000000000000
7.4390982120674876 7.7380973843091629 0.0000000000000000
7.4846428716650362 7.5888183382962451 0.0000000000000000
7.5126435389949382 2.8652976817392628 0.0000000000000000
5.3405002119773659 7.6689315620815961 0.0000000000000000
5.2339930956762419 7.5548492068569297 0.0000000000000000
5.0819413197775560 7.5900458976451812 0.0000000000000000
8.0959430406447748 4.6698257307620263 0.0000000000000000
3.4696255098751481 6.8533705097892268 0.0000000000000000
7.4229716832408847 5.9382565492942394 0.0000000000000000
5.1274859793751144 7.4407668516322598 0.0000000000000000
3.5614235607906930 7.9420128055278472 0.0000000000000000
3.5164667059053820 8.0907035608166726 0.0000000000000000
5.4746986295582598 1.6744965683883259 0.0000000000000000
6.8922472460181483 8.1418986828989297 0.0000000000000000
6.9555277144299907 8.4041355092690271 0.0000000000000000
7.0439875842510453 8.1069932420890591 0.0000000000000000
7.2856289727276931 4.9988932995684916 0.0000000000000000
7.1335771968290107 5.0340899903567626 0.0000000000000000
7.0880325372314559 5.1833690363697071 0.0000000000000000
5.4462985965579893 6.3958135295417513 0.0000000000000000
5.4918432561555441 6.2465344835288050 0.0000000000000000
5.3397914802568822 6.2817311743170627 0.0000000000000000
2.9510902620344601 3.9211984053874400 0.0000000000000000
4.8653656109579657 1.8147858304367650 0.0000000000000000
4.7632670589492907 1.6964001494551850 0.0000000000000000
6.5407878903402867 5.5875172007603702 0.0000000000000000
2.0394883383629621 5.5195789378816098 0.0000000000000000
6.5099522961282599 4.7622363062592612 0.0000000000000000
4.9277633487173356 3.4636414251399521 0.0000000000000000
4.8822186891198029 3.6129204711528868 0.0000000000000000
4.7757115728186594 3.4988381159282458 0.0000000000000000
4.7301669132211126 3.6481171619411570 0.0000000000000000
1.4299829329496700 7.4791044962985698 0.0000000000000000
5.3250824148713498 7.2562911148310683 0.0000000000000000
6.0075435771141521 3.6299050368725498 0.0000000000000000
5.7181490907022789 2.7257384779351170 0.0000000000000000
5.6880222282107606 3.2876579711985761 0.0000000000000000
1.6349821535553251 5.4786094556499529 0.0000000000000000
4.6404950574670458 6.7210760294958769 0.0000000000000000
6.3137733240731064 7.7211128185894609 0.0000000000000000
6.8280561815906058 2.3300825964042402 0.0000000000000000
5.0055610659679806 6.9140440491569821 0.0000000000000000
7.0711972766843942 1.9963278135900770 0.0000000000000000
3.1802310234632651 5.9492039508517980 0.0000000000000000
4.1696306643854548 7.8012260423747746 0.0000000000000000
6.5540794922847816 1.8385564847172651 0.0000000000000000
6.5932358062056942 1.6782547798205361 0.0000000000000000
6.4409953067723684 1.7240708412316319 0.0000000000000000
6.7518898297571264 1.6529980471022689 0.0000000000000000
7.5147697341564950 7.0268988450328020 0.0000000000000000
7.5743147274190576 4.5158594707413844 0.0000000000000000
7.4678076111179177 4.4017771155167278 0.0000000000000000
1.7492589187709351 4.6161918713130401 0.0000000000000000
1.7122447040113511 4.7575069067770528 0.0000000000000000
1.5980420760523510 4.6506090697325160 0.0000000000000000
1.4614286546367929 4.5517824027022966 0.0000000000000000
8.5997786657241093 4.4161415636266508 0.0000000000000000
5.2171578351291972 4.3678079840773520 0.0000000000000000
5.2627024947267422 4.2185289380644200 0.0000000000000000
5.1561953784256138 4.1044465828397723 0.0000000000000000
5.3692096110278769 4.3326112932890783 0.0000000000000000
5.4147542706254308 4.1833322472761489 0.0000000000000000
6.6921309345184774 4.1651201222075684 0.0000000000000000
6.5856238182173410 4.0510377669829074 0.0000000000000000
8.5838868097969954 3.9955948758990698 0.0000000000000000
1.6767195470268690 3.9403276378626888 0.0000000000000000
7.5883150610840122 2.1540991424628739 0.0000000000000000
1.3020965397080611 7.0822876496999854 0.0000000000000000
7.3017555015542470 6.7987341345834746 0.0000000000000000
6.9646901603832703 1.8822454583654069 0.0000000000000000
3.1956488205692910 6.3618443981023063 0.0000000000000000
5.9031626559745511 7.6774238449414369 0.0000000000000000
7.3914273573083511 3.7257752670286219 0.0000000000000000
5.8562005329359614 5.0523021154252996 0.0000000000000000
4.6860397170645811 6.5717969834829351 0.0000000000000000
4.0455794907973672 3.1129021382211728 0.0000000000000000
4.0000348662489174 3.2621811510210241 0.0000000000000000
4.1520866562862810 3.2269844468336131 0.0000000000000000
5.6424775686132067 3.4369370172115028 0.0000000000000000
3.3617009301329541 3.9648873790355692 0.0000000000000000
8.1060993736693767 7.8600064184893910 0.0000000000000000
7.8622917503898408 2.6456252541497638 0.0000000000000000
6.1294684905212922 4.1566278393477383 0.0000000000000000
6.4798254336367211 5.3241557995227842 0.0000000000000000
2.6778223044491569 4.8168726814650586 0.0000000000000000
2.5257705285504750 4.8520693722533350 0.0000000000000000
2.4802258689529348 5.0013484182662662 0.0000000000000000
2.5713151881480112 4.7027903262404038 0.0000000000000000
7.7564933658092521 3.9187432866896410 0.0000000000000000
7.9085451417079327 3.8835465959013540 0.0000000000000000
7.9583095034633686 3.7303280422616441 0.0000000000000000
8.0613002012995878 3.8476933205086028 0.0000000000000000
7.8630004821103743 4.0328256419142914 0.0000000000000000
8.1079610448110273 3.6960734938324720 0.0000000000000000
8.2128609039533202 3.8127386427960972 0.0000000000000000
8.2547991317925913 3.6603514813772380 0.0000000000000000
7.9971595563085556 3.5771868014925650 0.0000000000000000
8.1672530054726984 3.9622381354821692 0.0000000000000000
7.2099574506385977 5.7100918388449076 0.0000000000000000
3.6686164492561080 8.0554088215743747 0.0000000000000000
3.4748084857282562 8.2324743393301514 0.0000000000000000
1.9181661141739259 3.6060558588553482 0.0000000000000000
1.8160842027448290 3.4933236224513000 0.0000000000000000
1.9491072337254860 7.2053352831230706 0.0000000000000000
2.9062543341574592 5.4576778391649032 0.0000000000000000
3.0583061100561371 5.4224811483766420 0.0000000000000000
4.5774064056018959 2.2961134649648729 0.0000000000000000
7.3151006871164528 1.6616855459468660 0.0000000000000000
3.6349684091622700 3.0692135565849310 0.0000000000000000
4.7161665795560541 6.0098774902194991 0.0000000000000000
5.2935380889388037 5.0438098325654810 0.0000000000000000
3.1641044946367138 4.1493631158367688 0.0000000000000000
3.0120527187380368 4.1845598066250389 0.0000000000000000
6.4181542452126319 3.6735940105206630 0.0000000000000000
2.1754135854350221 3.6845414120782820 0.0000000000000000
4.0007436279397366 4.6493815103835319 0.0000000000000000
6.3894448461622311 7.0099142793130982 0.0000000000000000
5.4610076619435013 5.4212535890276996 0.0000000000000000
5.5675147782446306 5.5353359442523642 0.0000000000000000
3.8024384607229820 3.4466568594202291 0.0000000000000000
2.5103527314444478 4.4394289250027974 0.0000000000000000
5.4154630023459500 5.5705326350406779 0.0000000000000000
7.3003380381131997 4.0243333590545110 0.0000000000000000
1.9635740272910069 3.4567350918368711 0.0000000000000000
1.8570441199097960 3.3426457831112861 0.0000000000000000
1.6831296020458679 3.3929443152627412 0.0000000000000000
1.7493851202304940 3.2282119911796259 0.0000000000000000
7.6191506552960728 2.9793800369639389 0.0000000000000000
4.8072558987512268 5.7113193981937256 0.0000000000000000
3.4226633868365308 4.2282487802731579 0.0000000000000000
7.7109487062116902 4.0680223327025740 0.0000000000000000
2.9517989937550131 5.3083987931519712 0.0000000000000000
3.1501041609717668 6.5111234441152153 0.0000000000000000
2.0235803796927918 3.7198047880688021 0.0000000000000000
4.7610025074331546 4.4733980564421749 0.0000000000000000
7.6948221773851451 2.2681814976875350 0.0000000000000000
6.2969380635260208 4.5340715958099249 0.0000000000000000
2.9349382885992781 2.1213813254210132 0.0000000000000000
3.4527902493280660 3.6663292870096980 0.0000000000000000
3.5908416915617449 5.9928929244998903 0.0000000000000000
4.4099368325971744 1.9186697085026261 0.0000000000000000
1.9016288766922109 3.1930738731758499 0.0000000000000000
2.9966349216320110 3.7719193593745062 0.0000000000000000
1.8404772135128009 2.9296576252723838 0.0000000000000000
2.9665080591404882 4.3338388526379763 0.0000000000000000
2.7233669640467091 4.6675936354521266 0.0000000000000000
1.7949622389364230 3.0789433283172052 0.0000000000000000
1.6475090501608380 3.1098128792702520 0.0000000000000000
6.4805341653572732 6.7113561872872776 0.0000000000000000
4.6095027734438982 1.7324953098173150 0.0000000000000000
5.3383740168158376 3.5073303987880400 0.0000000000000000
3.5151701694726989 6.7040914637762912 0.0000000000000000
6.5562056874463224 6.0001576480109184 0.0000000000000000
6.1911396789453637 5.8071896283498594 0.0000000000000000
2.2826294334567230 5.1858241550674684 0.0000000000000000
3.1648132263572601 5.5365635036013021 0.0000000000000000
4.0602886212022664 2.1383421360921111 0.0000000000000000
3.4072455897305112 3.8156083330226309 0.0000000000000000
6.9198542325063226 3.4187248921428921 0.0000000000000000
3.0113439870175229 2.7973594188605242 0.0000000000000000
3.1633957629162008 2.7621627280722518 0.0000000000000000
7.4362632851853281 2.1892958332511419 0.0000000000000000
2.4031368834227949 2.9381461820136061 0.0000000000000000
2.5096439997239250 3.0522285372382680 0.0000000000000000
2.3737187526518020 4.8872660630416007 0.0000000000000000
6.4644076365306979 4.9115153522722537 0.0000000000000000
4.0631235480843237 7.6871436871501171 0.0000000000000000
4.3216824402841496 7.7660293515864867 0.0000000000000000
5.5212613869265592 4.2974146025008029 0.0000000000000000
5.5668060465241220 4.1481355564878788 0.0000000000000000
5.7188578224228044 4.1129388656996140 0.0000000000000000
5.6123507061216804 3.9988565104749458 0.0000000000000000
2.1291701686209432 2.4466631607709881 0.0000000000000000
2.0836271714407220 2.5959493885246410 0.0000000000000000
6.8581830440821427 1.7681631031407250 0.0000000000000000
5.4441724013964548 2.2342123662481850 0.0000000000000000
2.5264792602710231 6.2392697600178204 0.0000000000000000
5.5808292441726683 1.7867410855902639 0.0000000000000000
2.1596164872875172 1.8859024872659531 0.0000000000000000
2.3113937376203548 1.8497042046420800 0.0000000000000000
2.2048317162060580 1.7354215310502890 0.0000000000000000
2.3588636375313641 1.7087730392317340 0.0000000000000000
4.2130491288214813 3.4903458330683508 0.0000000000000000
4.3356827739491566 5.4042690233080322 0.0000000000000000
1.8860389799813440 2.7804015569910110 0.0000000000000000
5.7952380762323950 4.7889407141877323 0.0000000000000000
5.3390827485363532 4.8945307865525471 0.0000000000000000
7.2562108419566984 6.9480131805964396 0.0000000000000000
3.9853258308337169 4.2367410631330094 0.0000000000000000
4.1373776067324020 4.2015443723447419 0.0000000000000000
4.5648235353779256 7.4322745687723923 0.0000000000000000
4.6713306516790576 7.5463569239970472 0.0000000000000000
4.8233824275777382 7.5111602332087788 0.0000000000000000
4.5192788757803726 7.5815536147853049 0.0000000000000000
4.7778377679801887 7.6604392792216913 0.0000000000000000
3.3175737339767721 6.8885672005773673 0.0000000000000000
2.5824373099581028 1.3597273720352030 0.0000000000000000
2.5542200121365251 1.5202437731467771 0.0000000000000000
5.3236649514303283 4.4818903393020157 0.0000000000000000
6.5081277233991317 1.9875221762538720 0.0000000000000000
2.6609870439020891 1.6298314586854861 0.0000000000000000
4.1072507442408686 4.7634638656081929 0.0000000000000000
3.3462831330269349 3.5522469317850369 0.0000000000000000
3.6055507569472680 5.0183329839859230 0.0000000000000000
5.6277685032277001 4.4114969577254808 0.0000000000000000
2.3127562959482191 4.6239046618040014 0.0000000000000000
6.4482811077041626 3.1116745172572000 0.0000000000000000
6.4027364481066158 3.2609535632701250 0.0000000000000000
4.5479882748308906 4.2452333459928582 0.0000000000000000
4.7147491161150761 3.2354767146906092 0.0000000000000000
4.7448759786065988 2.6735572214271381 0.0000000000000000
3.6803770606579489 1.9297285490778731 0.0000000000000000
6.1764306135599956 6.7817495688637504 0.0000000000000000
6.0699234972588663 6.6676672136390689 0.0000000000000000
5.9178717213601821 6.7028639044273532 0.0000000000000000
1.2201577935208521 4.4456580129464154 0.0000000000000000
2.9496727985934310 1.1467976298584190 0.0000000000000000
3.0091036353196259 1.0117646696129119 0.0000000000000000
2.5397708622154549 2.4903090439748099 0.0000000000000000
7.5448965966480497 6.4649793517694158 0.0000000000000000
2.9503816157935909 2.5339983869000182 0.0000000000000000
5.8569092646564958 6.4395025031898392 0.0000000000000000
1.9476902874472699 4.4309366421429619 0.0000000000000000
3.6014990762905290 2.2415689386147482 0.0000000000000000
7.0270700805278716 4.9200076351321016 0.0000000000000000
3.9089455770241148 3.5607392146448911 0.0000000000000000
5.4925519878760500 7.6337348712933251 0.0000000000000000
1.9638168162738869 6.2307774771580000 0.0000000000000000
4.9284720804378637 4.8508418129044362 0.0000000000000000
4.7764203045391813 4.8860385036926939 0.0000000000000000
4.1997575268769953 7.2393065491113244 0.0000000000000000
6.9262868167640210 1.4612129463917740 0.0000000000000000
2.6662334778282282 8.5647663404419276 0.0000000000000000
2.5629323893915830 8.4472356854397823 0.0000000000000000
4.5318617460043438 2.4453925109778072 0.0000000000000000
2.5853155218130111 2.3410299979618778 0.0000000000000000
6.3109241264483220 2.1723245906755788 0.0000000000000000
4.3363915056696571 6.7914694110724954 0.0000000000000000
4.0322879538723111 6.8618627926490596 0.0000000000000000
3.2860294080438850 4.6760859183119550 0.0000000000000000
3.1339776321452031 4.7112826091002278 0.0000000000000000
2.2069579113676432 5.8970226943438719 0.0000000000000000
3.9243633741301340 3.9733796618954140 0.0000000000000000
5.8576179963769919 7.8267028909543832 0.0000000000000000
6.5569144191669171 7.3873580357753514 0.0000000000000000
1.7946644228384641 4.4670427406948949 0.0000000000000000
6.1441775559067899 3.1820678988337372 0.0000000000000000
2.6616957756226070 3.0170318464499970 0.0000000000000000
5.2024487697436914 5.3423679245913513 0.0000000000000000
5.5962241772951398 2.1990156754599322 0.0000000000000000
3.9559077000626881 6.1858609441609520 0.0000000000000000
3.9103630404651422 6.3351399901738796 0.0000000000000000
3.7274756703544329 5.5450557864611172 0.0000000000000000
4.5024436152333376 4.3945123920057858 0.0000000000000000
4.3959364989322109 4.2804300367811301 0.0000000000000000
4.0617060846433226 4.9127429116211196 0.0000000000000000
3.8332740549350319 4.2719377539212813 0.0000000000000000
3.2713203426583881 5.6506458588259472 0.0000000000000000
5.3685008793073496 2.9454109055245992 0.0000000000000000
2.5551886593214790 2.9029494912253351 0.0000000000000000
4.9740167400354167 4.7015627668915014 0.0000000000000000
1.7807217059234619 4.0536457369151471 0.0000000000000000
1.5256015704623309 3.9873579466920641 0.0000000000000000
2.1747065161318471 2.2973482060544681 0.0000000000000000
2.2812139095025299 2.4114317582359188 0.0000000000000000
4.2284669259275001 3.9029862803188728 0.0000000000000000
4.1829222663299461 4.0522653263318062 0.0000000000000000
1.5241087774512569 2.5889666104426019 0.0000000000000000
1.3697184541839520 2.6292698661186562 0.0000000000000000
4.0308704904312664 4.0874620171200746 0.0000000000000000
7.2253752477446671 6.1227322860954381 0.0000000000000000
3.5592973656291962 3.7804116422343599 0.0000000000000000
2.4353899410759010 6.5378278520436890 0.0000000000000000
6.5547882240052964 3.2257568724818602 0.0000000000000000
3.2544483020241830 2.4636467733685690 0.0000000000000000
3.3308653359209051 3.1396064845345149 0.0000000000000000
7.3781357553638820 7.4747359830716036 0.0000000000000000
2.6161511160250530 3.1663108924629282 0.0000000000000000
8.2285759498337203 5.6130838753634880 0.0000000000000000
4.9593076746499110 5.6761227074054670 0.0000000000000000
5.5380966474736057 7.4844558252803939 0.0000000000000000
2.5698951127109559 1.9283887537979669 0.0000000000000000
4.9754342034764409 7.4759635424205264 0.0000000000000000
1.4761171626451930 4.1238862672572667 0.0000000000000000
1.9315948364266760 2.6311876276138300 0.0000000000000000
4.3349740422286311 4.0170686355435361 0.0000000000000000
2.3877194095645868 2.5255071312126618 0.0000000000000000
6.4952432307427213 5.7367962467733058 0.0000000000000000
6.4496985711451611 5.8860752927862423 0.0000000000000000
2.7226582323261801 3.2803932476875892 0.0000000000000000
3.9110717721856298 7.7223403779383872 0.0000000000000000
5.3860448715749234 7.5196525160686676 0.0000000000000000
6.2808115346994624 2.7342307607949530 0.0000000000000000
6.3116471289115150 3.5595116552959971 0.0000000000000000
3.7730203299519820 5.3957767404481780 0.0000000000000000
6.7089661950655870 7.3521613449870973 0.0000000000000000
3.3477005964679738 6.3266477073140397 0.0000000000000000
6.9366894930532883 6.6057661149224742 0.0000000000000000
6.6935483979595327 6.9395208977365836 0.0000000000000000
3.0428883129501059 5.0098407011260946 0.0000000000000000
7.2996293063926601 2.6371329712899190 0.0000000000000000
6.1147594251357873 5.1311877798617243 0.0000000000000000
3.5460057636847102 7.5293723582773282 0.0000000000000000
5.0188526679124346 3.1650833331140640 0.0000000000000000
3.8781070623862961 2.7354610843720488 0.0000000000000000
6.2675199327549871 6.4831914768379342 0.0000000000000000
7.9563597838036921 3.3189171173522820 0.0000000000000000
8.2732630836458334 4.0765080691155360 0.0000000000000000
2.6771135727286288 3.4296722937005151 0.0000000000000000
5.6284772349481909 5.7986973454900088 0.0000000000000000
3.4682080464340910 4.0789697342602276 0.0000000000000000
4.2291756576480326 5.2901866680833738 0.0000000000000000
2.9048368849630011 2.6832771251820442 0.0000000000000000
6.2513934039284713 4.6833506418228952 0.0000000000000000
5.0643973275099867 3.0158042871011301 0.0000000000000000
2.5867329852540668 5.1154307734909228 0.0000000000000000
2.9525077254769951 6.6955991809157567 0.0000000000000000
4.8815099573992642 2.2257200833883100 0.0000000000000000
3.9860345625542331 5.6239414508974992 0.0000000000000000
5.1730306389726648 7.2914878056193242 0.0000000000000000
7.5427704014864556 2.3033781884758051 0.0000000000000000
7.8013292936862637 2.3822638529122071 0.0000000000000000
1.9925299911651930 2.8944622800269530 0.0000000000000000
5.9458723886900682 1.9793432478704820 0.0000000000000000
2.3428831584397281 4.0619851685405450 0.0000000000000000
4.8689270871752948 7.3618811871958529 0.0000000000000000
4.1667957375033966 2.2524244913167690 0.0000000000000000
7.6661127783346457 5.6045017664800998 0.0000000000000000
4.7602937757126274 3.0861976686776709 0.0000000000000000
3.7583112645664669 6.3703366809621524 0.0000000000000000
2.4956436660589718 5.4139888655167860 0.0000000000000000
4.8976364862257951 4.0255609184033867 0.0000000000000000
4.9431811458233632 3.8762818723904560 0.0000000000000000
6.6627128037474721 6.1142400032355750 0.0000000000000000
6.0692147655382307 5.2804668258746510 0.0000000000000000
8.3962461582574672 5.9863923364417762 0.0000000000000000
1.6006361750216920 6.0352531111647014 0.0000000000000000
4.5781151373224214 3.6833138527294089 0.0000000000000000
1.9939436787653950 5.6688579838945454 0.0000000000000000
2.6631132390636711 5.7914326219790384 0.0000000000000000
7.1945396535325798 5.2974513915943824 0.0000000000000000
3.0568887487157590 2.6480808139285581 0.0000000000000000
4.7918381016452152 5.2986789509432182 0.0000000000000000
6.8287649133111250 3.7172829841687771 0.0000000000000000
6.9352720296123511 3.8313653393934022 0.0000000000000000
2.3583009555457681 4.4746256157910631 0.0000000000000000
1.8292330514235791 6.6874716601042756 0.0000000000000000
1.7206757211800969 6.5645322599721423 0.0000000000000000
1.6858553567661640 6.3976753641722670 0.0000000000000000
1.8434929852706570 6.4516864293157496 0.0000000000000000
2.3884278180372811 3.9127061225275979 0.0000000000000000
8.2728404241713953 2.6890464086997801 0.0000000000000000
2.3120475642276839 3.2367042740394680 0.0000000000000000
5.3853361398544211 6.1324521283041236 0.0000000000000000
2.0093614758714251 6.0814984311450786 0.0000000000000000
2.1163492008705949 6.1951320908076832 0.0000000000000000
5.9612901857960638 2.3919836951209859 0.0000000000000000
3.1185598350391679 4.2986421618497026 0.0000000000000000
5.5079697849820741 8.0463753185438662 0.0000000000000000
5.3560689261885068 8.0814311133483976 0.0000000000000000
6.0383791713261914 4.4551859313736006 0.0000000000000000
5.2017400380231980 3.9551675368268371 0.0000000000000000
2.9956281523823520 1.4135062626353769 0.0000000000000000
4.4568989556357881 4.5437914380187134 0.0000000000000000
4.6089507315344740 4.5085947472304433 0.0000000000000000
6.8603092392436817 5.9297642664343648 0.0000000000000000
5.5278772893237367 8.4548241818307428 0.0000000000000000
2.1908313825410470 4.0971818593288170 0.0000000000000000
1.9338551427738631 6.7934105965878508 0.0000000000000000
5.7644024820203601 3.9636598196866761 0.0000000000000000
7.9866893168860544 4.5573977788799951 0.0000000000000000
4.2894293826310808 4.1663476815564682 0.0000000000000000
2.4178546643278329 1.9636194950752450 0.0000000000000000
5.4911345244350311 4.8593340957642681 0.0000000000000000
2.8600009428393589 4.2197564974133126 0.0000000000000000
6.1610128164538427 6.3691091216132856 0.0000000000000000
2.4640993401263680 3.2015075832511979 0.0000000000000000
5.7636937502998267 2.5764594319221841 0.0000000000000000
4.0147439613998843 2.2876211822991399 0.0000000000000000
4.6236597969199744 3.5340348067164840 0.0000000000000000
1.6444010124047830 5.8874583555571398 0.0000000000000000
6.9051451671207467 4.3932848326568941 0.0000000000000000
6.7229665287305131 4.9904010167086392 0.0000000000000000
6.9359807613327806 5.2185657271579853 0.0000000000000000
4.5623168593876020 1.8831899074003331 0.0000000000000000
5.8113646050589693 6.5887815492027526 0.0000000000000000
4.8212562324162080 3.3495590699152942 0.0000000000000000
2.9812171245259980 3.3592789121239779 0.0000000000000000
5.3530830822013389 2.5327704582740460 0.0000000000000000
6.7236752604510386 6.3776014044731593 0.0000000000000000
6.4335720423186560 4.0862344577711696 0.0000000000000000
3.8171430613064881 2.4721011354258660 0.0000000000000000
7.8174558225128248 4.1821046879272270 0.0000000000000000
5.5058435898205511 3.8847741552502830 0.0000000000000000
5.2332843639557307 6.1676488190923218 0.0000000000000000
2.0035222103010129 6.4929738222183140 0.0000000000000000
3.5901329598412439 4.6056925367354102 0.0000000000000000
5.9884364397248344 1.8328916325373690 0.0000000000000000
4.2585937857804286 3.3410667895558972 0.0000000000000000
4.8219649641367361 4.7367594576797707 0.0000000000000000
4.7154578478356051 4.6226771024551052 0.0000000000000000
5.0041436025269279 4.1396432736280513 0.0000000000000000
6.5863325499378442 5.4382381547474452 0.0000000000000000
4.0448708240962299 1.7257016888415910 0.0000000000000000
7.4825166765034803 3.4272171750026961 0.0000000000000000
4.0161614250457749 5.0620219576340482 0.0000000000000000
5.7195665541433058 5.5001392534640949 0.0000000000000000
4.5494057382719086 7.0196341215218654 0.0000000000000000
4.1682132009444732 5.0268252668457842 0.0000000000000000
6.9513985584387772 5.6312061744085060 0.0000000000000000
3.8648183808675949 6.4844190361868081 0.0000000000000000
3.4674770441235658 2.6917905604272390 0.0000000000000000
7.8335823513393636 5.9819455229423326 0.0000000000000000
4.3672270998816876 7.6167503055735750 0.0000000000000000
4.8668008920137602 3.2002800239023408 0.0000000000000000
6.6634215354680322 7.5014403910000276 0.0000000000000000
2.9055456024369071 4.0704774514003752 0.0000000000000000
3.3624096618534871 5.3520877668000706 0.0000000000000000
5.2465759659002078 2.4186881030493592 0.0000000000000000
5.8414914675504610 6.0268620559393558 0.0000000000000000
5.8870361271480176 5.8775830099264139 0.0000000000000000
5.9935432434491389 5.9916653651510590 0.0000000000000000
7.4687642021546079 1.6237234110013450 0.0000000000000000
6.0390879030466866 5.8423863191380736 0.0000000000000000
4.2438847230335286 4.3156267275694002 0.0000000000000000
3.3161562705353971 4.1141664250485013 0.0000000000000000
5.1709044438111169 3.1298866423257921 0.0000000000000000
4.1976313130627467 3.0777054034937370 0.0000000000000000
3.2089404225137592 2.6128836820593291 0.0000000000000000
1.5411235469238049 2.9956125926611681 0.0000000000000000
6.5092435644077522 3.3750359184947891 0.0000000000000000
6.7979293190990919 2.8920020896677130 0.0000000000000000
1.8735027649728440 5.1438588969085632 0.0000000000000000
2.8747100082248709 3.2451965568993142 0.0000000000000000
4.4560581424528483 1.7688795376031801 0.0000000000000000
3.3925365243450121 4.7901682735366089 0.0000000000000000
3.5445883002436900 4.7549715827483379 0.0000000000000000
7.8342910830599219 7.3691459107067594 0.0000000000000000
7.0410704141928511 2.5582473068535410 0.0000000000000000
3.2404847484463311 4.8253649643248817 0.0000000000000000
3.1949400888487829 4.9746440103378156 0.0000000000000000
2.7549112900275641 6.8800749176968186 0.0000000000000000
7.7572020975297793 5.3059436744542454 0.0000000000000000
3.6370950828798501 7.2308142662514800 0.0000000000000000
2.4637303640126609 1.8157705579058190 0.0000000000000000
5.6740218945457359 5.6494182994770297 0.0000000000000000
7.0894660317123170 7.9577583730578727 0.0000000000000000
7.8468739532838274 2.2329848068992648 0.0000000000000000
5.3096646177653479 6.8436506675804711 0.0000000000000000
5.5717825490596864 1.3765412069945220 0.0000000000000000
3.7884381270579981 5.8084171876986961 0.0000000000000000
4.5574045502882790 1.4660212107050841 0.0000000000000000
4.6600507995301994 1.5784050629627779 0.0000000000000000
3.1493954292512369 5.1239230563507583 0.0000000000000000
8.3195559865008892 2.1361779567889938 0.0000000000000000
3.2573200100562820 8.0124061874286703 0.0000000000000000
4.3952277660692722 2.8932296500991730 0.0000000000000000
4.3209737085636064 6.3788289638219462 0.0000000000000000
5.2795377552737950 7.4055701608439968 0.0000000000000000
8.0282516667983614 3.0165417743094141 0.0000000000000000
3.1038507696536888 5.2732021023637046 0.0000000000000000
8.3822270950578144 6.9643054747928144 0.0000000000000000
8.5406137932525912 6.9106768684111408 0.0000000000000000
8.6514900243679378 7.0290816730185313 0.0000000000000000
7.3774270236433441 6.0875355953071706 0.0000000000000000
2.4648080718469130 4.5887079710157339 0.0000000000000000
3.9551989683421902 4.7986605563964577 0.0000000000000000
3.7436021991809629 7.3448966214761544 0.0000000000000000
2.2216669767531290 4.9224627538298726 0.0000000000000000
6.1140506934152743 3.7439873920972131 0.0000000000000000
6.8596005075231936 4.5425638786698226 0.0000000000000000
5.6578953657192317 3.8495774644620160 0.0000000000000000
3.6510954165448242 4.8690539379729953 0.0000000000000000
7.3627179582578197 7.0620955358210944 0.0000000000000000
7.3325910957663307 7.6240150290845454 0.0000000000000000
4.6706219199584957 6.1591565362324214 0.0000000000000000
3.3646708004568131 8.1250410676127025 0.0000000000000000
3.3160320926974651 8.2686400188655220 0.0000000000000000
6.9675250872653844 7.4310470094235122 0.0000000000000000
7.4212188654383606 1.7761148605464090 0.0000000000000000
2.5096716724223569 1.6691457087520649 0.0000000000000000
3.3154366461633882 2.7269764479427132 0.0000000000000000
7.5596056620335128 5.4904194112554450 0.0000000000000000
3.7557386587814272 2.2083485965522471 0.0000000000000000
3.6481740894339061 2.0913362653112100 0.0000000000000000
5.4602989302230016 4.0340532012632204 0.0000000000000000
2.6469867102370910 3.9915917869639861 0.0000000000000000
5.8824223594235416 8.6448874690533568 0.0000000000000000
4.5956105332710644 8.2573455243155145 0.0000000000000000
4.7064414723072856 8.3616856578355208 0.0000000000000000
3.0737239071621532 5.8351215956271583 0.0000000000000000
4.2144665922624700 6.2647466085973083 0.0000000000000000
1.8134690905753781 4.8765212105873452 0.0000000000000000
4.0974447172206174 8.5123789669940386 0.0000000000000000
3.6363863511593149 5.8436138784869636 0.0000000000000000
5.9311633233045304 2.9539031883844360 0.0000000000000000
5.8856186637069960 3.1031822343973730 0.0000000000000000
2.4795171372323890 3.6141480305017128 0.0000000000000000
6.5106610278487649 6.1494366940238470 0.0000000000000000
3.8031471924435061 4.8338572471847252 0.0000000000000000
6.8757270363497343 6.3424047136848927 0.0000000000000000
3.2699009260888161 2.8762469489626241 0.0000000000000000
5.0496882621244721 3.9903642276151170 0.0000000000000000
6.3571917885090601 3.4102326092830562 0.0000000000000000
7.9695039876196478 4.1468923983055808 0.0000000000000000
4.9887258054209278 3.7270028263775292 0.0000000000000000
2.6315689131310709 3.5789513397134418 0.0000000000000000
6.2506846722079299 3.2961502540583969 0.0000000000000000
5.9921257800081236 3.2172645896220211 0.0000000000000000
2.6175685794661181 5.9407116679919598 0.0000000000000000
8.0151900879615425 3.9974689675770780 0.0000000000000000
4.0168701567662648 6.4492223453985256 0.0000000000000000
8.3969535270571747 7.3776381935665691 0.0000000000000000
8.3606522005927353 2.3938739226077952 0.0000000000000000
7.1482862622145307 4.0595300498427846 0.0000000000000000
2.4346812093553960 5.1506274642791983 0.0000000000000000
7.7557846340887107 2.5315428989251201 0.0000000000000000
5.0356879284594900 6.3521245558934591 0.0000000000000000
3.4843345752606369 5.8788105692752364 0.0000000000000000
3.6216772857738300 6.8181738190009540 0.0000000000000000
3.2243578940983562 3.0255244402541330 0.0000000000000000
2.0549061354689711 5.9322193851321430 0.0000000000000000
6.4342807740391574 5.4734348455357136 0.0000000000000000
3.8626096651419539 2.3227610462109181 0.0000000000000000
4.9298895438788684 7.6252425884334318 0.0000000000000000
7.0579056747399180 5.7452885296331724 0.0000000000000000
5.2311581687942077 2.0060476557988460 0.0000000000000000
7.8304521288716504 1.8220282354925510 0.0000000000000000
6.9815254209303266 5.0692866811450390 0.0000000000000000
7.9856341272380309 5.9467488321540589 0.0000000000000000
5.3229562197098019 3.0946899515375259 0.0000000000000000
5.9627076492370978 5.1663844706499766 0.0000000000000000
3.5894241483613851 3.2184922245754000 0.0000000000000000
4.6243685286405070 4.9212351944809569 0.0000000000000000
4.6397863257465417 5.3338756417314972 0.0000000000000000
2.2980472305627342 5.5984646023180016 0.0000000000000000
2.4192634122493462 4.7379870170286740 0.0000000000000000
1.5863975814967011 7.0140457111674914 0.0000000000000000
5.4000452052399206 5.1578921877901358 0.0000000000000000
4.8359652978017191 2.3749991294012380 0.0000000000000000
8.3167623620758206 3.9293349719887840 0.0000000000000000
5.5359704523120641 3.3228546619868400 0.0000000000000000
7.8478231221103218 3.6180713212595599 0.0000000000000000
3.2419022118873659 7.5997657398538729 0.0000000000000000
7.5897325245250897 4.9284999179919318 0.0000000000000000
3.9236515500009310 2.5861821984952988 0.0000000000000000
7.5301875312625626 7.4395392922833263 0.0000000000000000
3.8339827866555569 5.6591381416857711 0.0000000000000000
3.4829168647302020 3.1044100279971318 0.0000000000000000
2.3281740930542618 5.0365451090545346 0.0000000000000000
2.4339724776348350 3.7634270765146480 0.0000000000000000
8.5208567917317612 7.5096052325660771 0.0000000000000000
6.0846325626442219 5.6931072731251557 0.0000000000000000
7.0165417818552829 8.6637434439270198 0.0000000000000000
7.2709199073422131 5.9734532400825087 0.0000000000000000
2.1459954546640669 5.6336612931062700 0.0000000000000000
2.1004507950665130 5.7829403391192074 0.0000000000000000
5.4294633360109312 3.2087723067621829 0.0000000000000000
1.7748488783959271 5.0304862801343564 0.0000000000000000
7.7577356406835527 8.0739048409468630 0.0000000000000000
2.7556163271996441 8.2672590465592073 0.0000000000000000
7.8034554888478578 6.5438650162057677 0.0000000000000000
7.9099626051489693 6.6579473714304163 0.0000000000000000
6.7530933912220714 4.4284815234451536 0.0000000000000000
1.3312865413063939 5.5326595759479016 0.0000000000000000
1.1697039199701049 5.5583246841691754 0.0000000000000000
7.1644127910410633 5.8593708848578387 0.0000000000000000
3.7414758194521651 3.1832956331179698 0.0000000000000000
7.9078364099874028 2.4963462081368331 0.0000000000000000
7.0421625904620893 1.1658812999293700 0.0000000000000000
5.9157455261985223 2.5412627411339090 0.0000000000000000
5.7335668878083084 3.1383789251856462 0.0000000000000000
5.3545005456423631 5.3071712338030750 0.0000000000000000
7.7116574379322067 5.4552227204671739 0.0000000000000000
5.3082471543242917 4.0692498920515039 0.0000000000000000
2.3891365497578492 5.2999065102921250 0.0000000000000000
6.2976467952464859 5.9212719835745178 0.0000000000000000
4.6839135219030306 2.4101958201895219 0.0000000000000000
5.0363966601800048 7.7393249436581062 0.0000000000000000
5.5976416407361498 4.9734164509889203 0.0000000000000000
4.3812274335467301 5.2549899772951010 0.0000000000000000
5.3376652850953299 2.1201300110235111 0.0000000000000000
7.7432017638648318 7.6677040027326502 0.0000000000000000
2.8305828120683452 6.1688763784412490 0.0000000000000000
2.3435918901602970 5.4491855563050589 0.0000000000000000
4.3496831026016682 3.0425086997794630 0.0000000000000000
6.1595953530128309 3.5947083460842721 0.0000000000000000
7.0431966093544256 6.7198484701471273 0.0000000000000000
4.0477057509783201 7.2745032398995946 0.0000000000000000
7.9092538734284794 5.2707469836659397 0.0000000000000000
7.1475775304939910 2.6723296620781878 0.0000000000000000
6.2359756068224286 4.2707101945723682 0.0000000000000000
5.7202752858637993 6.8873396412286594 0.0000000000000000
4.6846222536235569 3.7973962079540771 0.0000000000000000
5.9942519751696786 7.3788657529155230 0.0000000000000000
4.1843397297709792 6.8266661018607877 0.0000000000000000
8.0318875185561502 7.1846701739055447 0.0000000000000000
5.4455898648374763 5.0086131417771993 0.0000000000000000
3.7891468587785289 7.1956175754631948 0.0000000000000000
4.4737342161828346 7.7308326607982121 0.0000000000000000
8.2005626511546268 6.1744637096645896 0.0000000000000000
5.9017451925335216 4.9030230694123880 0.0000000000000000
7.9987061520100626 2.1978966508439992 0.0000000000000000
5.7496934166348366 4.9382197602006466 0.0000000000000000
8.4640532395536798 2.5108143446829319 0.0000000000000000
3.2257756830608342 5.7999249048388712 0.0000000000000000
4.0624148163638054 6.2999432993855979 0.0000000000000000
4.1065420044469292 3.3762634854945790 0.0000000000000000
6.2226840048779604 8.0196709106153623 0.0000000000000000
4.8366740295222463 3.7621995171658051 0.0000000000000000
7.6366946475637008 7.5536216475079883 0.0000000000000000
7.9562323822494720 5.1219072496663109 0.0000000000000000
4.5031523469538346 5.7817127797702490 0.0000000000000000
2.2987559622929572 6.9856649900781509 0.0000000000000000
3.8479830654305509 3.2973778654296559 0.0000000000000000
3.3778274589595121 5.7647282140505887 0.0000000000000000
5.2942468206593016 6.4310102203299397 0.0000000000000000
5.8730357934830248 8.2393433382048915 0.0000000000000000
6.7545108546631258 7.2028822989741643 0.0000000000000000
3.9544902211327151 3.4114601833111649 0.0000000000000000
2.7240756957672292 6.0547940232166031 0.0000000000000000
3.2103578859548119 5.3872844575883576 0.0000000000000000
4.7322931083826472 7.8097183252346127 0.0000000000000000
6.0677973020972100 2.5060660503456540 0.0000000000000000
5.9783108461429526 8.3527290333314852 0.0000000000000000
4.1387950701734333 6.9759451478737233 0.0000000000000000
5.8723270617625918 6.8521429504403084 0.0000000000000000
2.8761274716659169 6.0195973324283401 0.0000000000000000
4.8373827612427904 5.1493999049303021 0.0000000000000000
2.4052630786397442 7.0997473452817319 0.0000000000000000
4.0932504105758856 7.1252241938866563 0.0000000000000000
8.4235378953337676 2.6548042500258031 0.0000000000000000
4.1079594759613558 6.1506642533726588 0.0000000000000000
6.6465862749209323 4.3143991682204819 0.0000000000000000
4.7308756449416327 5.0353175497056126 0.0000000000000000
6.3293248807831706 8.1332099099991488 0.0000000000000000
6.1904309472248773 4.4199892405853003 0.0000000000000000
5.1566056702620964 8.2575296367110980 0.0000000000000000
6.6304597460943997 2.5145583332055161 0.0000000000000000
5.6747306262662924 7.0366186872415426 0.0000000000000000
3.5915504232822810 7.3800933122644121 0.0000000000000000
3.1617889207674090 8.3075777158767661 0.0000000000000000
7.6514037129491737 6.5790617069940396 0.0000000000000000
6.1743044183983447 2.6201484055703150 0.0000000000000000
6.1463037510684382 7.3436690621271694 0.0000000000000000
3.0281792475645930 5.9844006416400690 0.0000000000000000
6.8610179709642569 7.3169646541988387 0.0000000000000000
4.1535041355589097 6.0013852073597294 0.0000000000000000
6.2759341464925207 8.2745192396417639 0.0000000000000000
4.5949503978694866 6.8703550755087832 0.0000000000000000
6.3263561942970146 2.5849517147820551 0.0000000000000000
8.1359059213776970 1.7521394533076371 0.0000000000000000
8.2810902964406807 1.7162467328659290 0.0000000000000000
7.2540846467951337 2.7864120173028302 0.0000000000000000
6.4784079701956978 2.5497550239937770 0.0000000000000000
7.1952483852531177 6.6846517793588616 0.0000000000000000
6.6480037383620001 7.0887999437494909 0.0000000000000000
6.5414966220608841 6.9747175885248476 0.0000000000000000
7.4993519370504984 6.6142583977823151 0.0000000000000000
2.3443006218921432 6.8363859440646637 0.0000000000000000
8.0469156324940077 6.2100352612351966 0.0000000000000000
6.5400791586197862 4.2003168129958164 0.0000000000000000
7.3473001611518107 6.6494550885705834 0.0000000000000000
3.1353950955864129 7.4856833846292350 0.0000000000000000
6.3880273827211127 4.2355135037840794 0.0000000000000000
3.4394986473836000 7.4152900030526823 0.0000000000000000
6.2682286644755241 7.8703918646024267 0.0000000000000000
7.9401426423992216 6.0960153828075896 0.0000000000000000
6.6149720587628176 2.1018675635151700 0.0000000000000000
4.6257859920815090 7.6956359700099481 0.0000000000000000
8.0164697214501359 6.7720297266550782 0.0000000000000000
8.3505591758333164 6.1263970683698199 0.0000000000000000
6.6760044056919670 2.3652792871925312 0.0000000000000000
3.2874468714849590 7.4504866938409560 0.0000000000000000
4.3055559114575690 5.9661885165714459 0.0000000000000000
2.6785310361696761 6.2040730692295316 0.0000000000000000
4.9137630150523162 5.8254017534183591 0.0000000000000000
4.4281895565852736 7.8801117068111148 0.0000000000000000
4.2761377806865726 7.9153083975993974 0.0000000000000000
6.4349895057597566 6.8606352333001954 0.0000000000000000
4.6096594632549488 5.8957951349948736 0.0000000000000000
4.2305974303024581 8.0645887583424258 0.0000000000000000
6.3284823894586300 6.7465528780755069 0.0000000000000000
7.3605917630962923 2.9004943725275059 0.0000000000000000
8.1680088736616057 6.7373116205749071 0.0000000000000000
8.3199563566545720 6.7008646553791111 0.0000000000000000
4.3511005710551389 5.8169094705584978 0.0000000000000000
6.1154681568563412 6.5183881676261759 0.0000000000000000
7.4670988793974331 3.0145767277521940 0.0000000000000000
2.6329863765721111 6.3533521152424584 0.0000000000000000
4.0785463726060316 8.0997856682523874 0.0000000000000000
4.0329582422594363 8.2487726295244279 0.0000000000000000
5.3552092773628717 6.6943716215675373 0.0000000000000000
4.7617112391536356 5.8605984442066177 0.0000000000000000
2.4963523978079092 6.8011892532689959 0.0000000000000000
5.1723219072521296 5.9042874178547180 0.0000000000000000
5.1877397043581954 6.3169278651052432 0.0000000000000000
6.2219752731574909 6.6324705228508396 0.0000000000000000
8.3307303732419449 8.0764608943718148 0.0000000000000000
7.4215542197999280 3.1638557737650990 0.0000000000000000
5.9634163809576748 6.5535848584144389 0.0000000000000000
2.5874417169745318 6.5026311612553886 0.0000000000000000
3.9884577473277569 8.3975352601480981 0.0000000000000000
5.0202701313534286 5.9394841086429730 0.0000000000000000
7.5280613361010218 3.2779381289897791 0.0000000000000000
7.1938309218121512 3.9102510038298490 0.0000000000000000
2.5418970573841722 6.6519102072652334 0.0000000000000000
7.3304649006048628 3.4624138657909720 0.0000000000000000
5.2487021610617486 6.5802892663428318 0.0000000000000000
7.2849202410073390 3.6116929118039711 0.0000000000000000
7.2393755814097709 3.7609719578169161 0.0000000000000000
2.9223808632856909 7.2575186740502584 0.0000000000000000
3.0288879795933430 7.3716010292722496 0.0000000000000000
2.9377986603051802 7.6701591213389424 0.0000000000000000
2.7857468592116592 7.7053557380090147 0.0000000000000000
2.9833433202464752 7.5208800751785150 0.0000000000000000
2.5117701964747390 7.2138296998441316 0.0000000000000000
2.3597184191467040 7.2490263910787007 0.0000000000000000
2.6792397820800580 7.5912733962478756 0.0000000000000000
2.3141739171251570 7.3983054586028096 0.0000000000000000
2.1621244581841279 7.4335028419210341 0.0000000000000000
2.3457825466005202 8.2228626995907241 0.0000000000000000
2.1936782430716311 8.2516306475595158 0.0000000000000000
2.4816440307713341 7.7757485817192844 0.0000000000000000
2.6043822015325300 8.3017003935355760 0.0000000000000000
2.6336951591698079 7.7405522896344499 0.0000000000000000
2.8467094034237759 7.9687170912630592 0.0000000000000000
2.4565099725810891 8.3330158113095809 0.0000000000000000
2.7402023859218070 7.8546346253840120 0.0000000000000000
2.6492483069895458 8.1530613306179234 0.0000000000000000
1.7515529019823091 7.3897692723738588 0.0000000000000000
2.1165814496758650 7.5827824211229222 0.0000000000000000
1.7062687383472830 7.5388069051406719 0.0000000000000000
1.6501212446845539 7.6989701343325594 0.0000000000000000
2.0100779733321130 7.4686894708603688 0.0000000000000000
1.9035712877941140 7.3546030768698314 0.0000000000000000
2.1322190764170430 7.9953082383981986 0.0000000000000000
2.0867452823947659 8.1443483097536795 0.0000000000000000
3.0865987776682351 2.0887723729342418 0.0000000000000000
2.9841584255291700 1.9695541628705571 0.0000000000000000
4.7971830999811491 0.3424552837349878 0.0000000000000000
1.7676752503295361 7.8017254589322063 0.0000000000000000
1.0717809972824250 4.0524748297007189 0.0000000000000000
0.9104760581904983 4.0223275414735049 0.0000000000000000
0.7910127498349715 4.1987880922636984 0.0000000000000000
0.9173739728582202 4.3698823209840567 0.0000000000000000
2.0443261555257899 8.2910559951459177 0.0000000000000000
0.4727487117149386 7.2254880469722043 0.0000000000000000
8.3696794613304384 3.7775388245442438 0.0000000000000000
1.5593177234372659 7.5798221659835061 0.0000000000000000
8.4252501722306761 6.8174273884552496 0.0000000000000000
5.3737759242397489 1.5683693965581551 0.0000000000000000
6.9918177501710170 1.3059468128661020 0.0000000000000000
1.3454834841082159 5.9493094234483701 0.0000000000000000
8.2497434718763145 1.0851230624119561 0.0000000000000000
8.2039000077350028 1.0166332977940999 0.0000000000000000
0.8482458121720298 7.8952316141229399 0.0000000000000000
0.6434405514403502 7.7984868511582608 0.0000000000000000
0.8643897521857404 7.9760514400490283 0.0000000000000000
7.8952316141229453 1.4517541878279701 0.0000000000000000
7.9760514400490301 1.4356102478142581 0.0000000000000000
9.1020995295128753 6.3003546645837201 0.0000000000000000
9.2431743483481057 6.1789023927257993 0.0000000000000000
9.0335357930873883 6.2546219070758546 0.0000000000000000
7.6921744359086661 8.6839242809309027 0.0000000000000000
7.6790019058466372 8.7607450639204920 0.0000000000000000
1.4020995295128771 7.7753546645836931 0.0000000000000000
1.3361672894544270 7.7337867927565682 0.0000000000000000
1.2149694909342781 5.2999166270081943 0.0000000000000000
1.2797051451279009 5.2559753222330556 0.0000000000000000
4.7000348462595776 1.2149954290130569 0.0000000000000000
4.7460999922650391 1.2833667022059940 0.0000000000000000
1.2047683858770331 3.2232458121720158 0.0000000000000000
1.1239485599508661 3.2393897521858341 0.0000000000000000
1.4499651537404310 3.4600045709869409 0.0000000000000000
1.4039000077349060 3.3916332977939860 0.0000000000000000
0.8502565281236421 3.5898769375880821 0.0000000000000000
0.6131736790871418 3.6278405759154930 0.0000000000000000
0.6979326812606516 3.9108834150361331 0.0000000000000000
0.8982090217317126 3.6477817162050350 0.0000000000000000
1.9851230624119161 0.8502565281236391 0.0000000000000000
1.9643571343673940 0.6074974536637164 0.0000000000000000
1.9166332977939831 0.8960999922650942 0.0000000000000000
3.2729004704871061 1.3246453354163190 0.0000000000000000
3.3414642069126890 1.3703780929241780 0.0000000000000000
1.9952316141229709 1.4517541878279869 0.0000000000000000
2.0760514400491572 1.4356102478141439 0.0000000000000000
3.5898769375880981 9.1497434718763788 0.0000000000000000
3.6720332550363870 9.4054166954643108 0.0000000000000000
3.6583667022060231 9.1039000077349588 0.0000000000000000
1.4078255640913271 2.2160757190690168 0.0000000000000000
1.4238389167270240 2.1352299176982918 0.0000000000000000
2.1148769375881349 9.1497434718762811 0.0000000000000000
2.1565479980099291 9.4154397668356360 0.0000000000000000
2.1833667022059990 9.1039000077349801 0.0000000000000000
1.3160757190690171 1.7921744359086720 0.0000000000000000
1.2377250519234539 1.7793970482181789 0.0000000000000000
0.8500833729918122 2.1149694909342971 0.0000000000000000
0.8940246777669497 2.1797051451279281 0.0000000000000000
0.6252052223611663 2.1497752726746571 0.0000000000000000
0.7063366463578409 2.3084570515885452 0.0000000000000000
1.3248396411952750 3.7772589921446298 0.0000000000000000
1.3703780929241891 3.7085357930872971 0.0000000000000000
6.4202316141229732 1.4517541878279769 0.0000000000000000
6.5010514400491681 1.4356102478141239 0.0000000000000000
5.0547683858770256 0.8482458121720083 0.0000000000000000
4.9823603126237552 0.8680858257216368 0.0000000000000000
8.5502565281236098 5.0648769375880756 0.0000000000000000
8.5952626393793565 5.1285118195082946 0.0000000000000000
8.5482458121719702 7.8952316141229177 0.0000000000000000
8.5643897521859227 7.9760514400492228 0.0000000000000000
0.8482458121720025 4.9452316141229726 0.0000000000000000
0.5488938841750681 4.8749520230808878 0.0000000000000000
0.6903468366204529 4.4236292824030592 0.0000000000000000
0.5772403091009578 5.0950100026968723 0.0000000000000000
0.5139003822990053 4.1868691845298169 0.0000000000000000
0.8680858257216505 5.0176396873762537 0.0000000000000000
0.4100701459912950 3.7586910016896380 0.0000000000000000
4.9452316141229717 1.4517541878280040 0.0000000000000000
5.0260514400492209 1.4356102478140880 0.0000000000000000
6.1750348462595470 1.2149954290130640 0.0000000000000000
6.2210999922652306 1.2833667022060611 0.0000000000000000
6.5297683858770101 0.8482458121719956 0.0000000000000000
6.6770648970432616 0.5793164690877405 0.0000000000000000
6.4579207212338030 0.8703889401179100 0.0000000000000000
4.9351230624118791 8.5502565281236294 0.0000000000000000
4.8714881804916939 8.5952626393793636 0.0000000000000000
1.4499166270081889 4.9350305090656796 0.0000000000000000
1.4059753222330580 4.8702948548720446 0.0000000000000000
1.0952316141230101 6.7767541878279802 0.0000000000000000
1.1760514400492490 6.7606102478140420 0.0000000000000000
7.6482458121719947 1.0952316141229810 0.0000000000000000
7.6643897521859978 1.1760514400492870 0.0000000000000000
1.4020995295129310 6.3003546645836579 0.0000000000000000
1.3335357930872120 6.2546219070757969 0.0000000000000000
3.2669865516420140 8.6838672868617728 0.0000000000000000
3.2522827261578300 8.7607135015073823 0.0000000000000000
9.0160757190689829 3.2671744359086539 0.0000000000000000
8.9352299176982051 3.2511610832729918 0.0000000000000000
1.9851230624119069 8.5502565281236045 0.0000000000000000
1.9214881804916670 8.5952626393794098 0.0000000000000000
9.0161425383985261 4.7419541620994883 0.0000000000000000
8.9392557844621567 4.7268478961201916 0.0000000000000000
9.1200536927760005 4.5351563788670406 0.0000000000000000
9.2768838382264533 4.6188436723568893 0.0000000000000000
8.5502565281236151 3.5898769375881132 0.0000000000000000
8.5952626393794098 3.6535118195083340 0.0000000000000000
8.5482458121719507 1.9952316141229729 0.0000000000000000
8.5654740221677326 2.0712456722156150 0.0000000000000000
6.7749166270081860 8.7850305090656313 0.0000000000000000
6.7309753222330286 8.7202948548719892 0.0000000000000000
8.5482458121719702 6.4202316141229732 0.0000000000000000
8.5654740221677415 6.4962456722156334 0.0000000000000000
9.0160757190690060 7.6921744359086066 0.0000000000000000
8.9352299176979368 7.6761610832731089 0.0000000000000000
9.0161327131381874 1.7919865516419540 0.0000000000000000
8.9392864984925886 1.7772827261577899 0.0000000000000000
6.4101230624117820 8.5502565281236436 0.0000000000000000
6.3464881804916331 8.5952626393794223 0.0000000000000000
8.4580792074071702 1.0546701001464180 0.0000000000000000
4.0823181243561510 1.1696032747321250 0.0000000000000000
5.2588412377142530 8.3897069485517477 0.0000000000000000
1.8901967900687300 8.3312871246619675 0.0000000000000000
6.9075450666208207 8.5473321205046329 0.0000000000000000
6.2922073216360150 1.7668122930395369 0.0000000000000000
1.6196003591537680 8.5566374509579823 0.0000000000000000
5.0066197820417528 8.2957705069855514 0.0000000000000000
1.4745588465217720 6.8912878193693494 0.0000000000000000
9.4345147064329193 7.7204454268349076 0.0000000000000000
9.5087726978614953 7.9690668338378208 0.0000000000000000
0.6902648489797746 4.6600892202820070 0.0000000000000000
1.9427922283948851 1.6557923037638340 0.0000000000000000
0.4322337051664813 3.3415375441384771 0.0000000000000000
6.0774312579428820 8.4580390018698939 0.0000000000000000
5.5378414511762166 0.9585503139103974 0.0000000000000000
5.5935987181625180 0.7845146456590606 0.0000000000000000
1.3855451603807329 3.0209678369695170 0.0000000000000000
8.8362735942060358 4.0850068984221570 0.0000000000000000
0.9990992831589157 3.0085961999804209 0.0000000000000000
2.3002601938571958 8.3852084812963881 0.0000000000000000
4.9215910148809563 1.6699059997533781 0.0000000000000000
4.8604356797124044 8.3313180332211925 0.0000000000000000
5.9241440493177882 1.5647774701260071 0.0000000000000000
5.9607812418006230 1.0144509710517731 0.0000000000000000
6.0211013196368706 0.8665086932010488 0.0000000000000000
6.1378576859559164 0.6445573233046095 0.0000000000000000
7.9700059608366329 8.3014768271961135 0.0000000000000000
6.1782614447921986 1.6663581809916239 0.0000000000000000
7.8822058866114268 1.6749192104052830 0.0000000000000000
0.8012087815258859 2.5198188367754630 0.0000000000000000
0.6269671584599850 2.6910466956804511 0.0000000000000000
0.5483172656525093 3.0052572346579800 0.0000000000000000
8.3914843934301082 9.6400844827633048 0.0000000000000000
8.6153584703343657 9.3386612277910146 0.0000000000000000
8.9359840356936324 9.2220524635979420 0.0000000000000000
8.6681409262024580 9.0393695140099748 0.0000000000000000
8.9331431483913875 8.9038150272583287 0.0000000000000000
8.6968758069302972 8.7442356625530149 0.0000000000000000
8.9837247084313319 8.6169179059856145 0.0000000000000000
9.2536787364120681 8.5245583005345456 0.0000000000000000
8.7680220926941352 8.5087812727368402 0.0000000000000000
8.5586589679229341 8.4687257301664509 0.0000000000000000
8.4697189925399243 9.1788026624675663 0.0000000000000000
8.3257372121292033 9.3221722795095534 0.0000000000000000
8.1369628199780486 9.3828253143225400 0.0000000000000000
7.9185486698342364 9.4991858051049736 0.0000000000000000
5.4713829384098851 8.6053618984148468 0.0000000000000000
1.8123959731546979 2.1013458353723631 0.0000000000000000
1.1492121918957949 9.6663022837338328 0.0000000000000000
1.6589628594006429 4.9068773056303856 0.0000000000000000
3.1057435398122850 1.5300261039690211 0.0000000000000000
1.7690722779000090 2.2559437143908290 0.0000000000000000
8.7017916107509041 5.5055226930065091 0.0000000000000000
1.2322643665158950 4.0414214127587691 0.0000000000000000
1.5508527140992181 9.4806829528193433 0.0000000000000000
5.5483177715356682 8.8612073589869169 0.0000000000000000
2.3829295603022889 1.5575534611813879 0.0000000000000000
3.8346918106514858 8.4252763126765018 0.0000000000000000
8.7892297654196820 7.4231151309327474 0.0000000000000000
1.5642624963172891 3.8303947203787900 0.0000000000000000
4.0319742838030992 1.2980728017929100 0.0000000000000000
0.7263570519063773 8.9776508041809748 0.0000000000000000
3.9506516043610080 8.5480118246097625 0.0000000000000000
2.5074028414212890 8.6022047038006733 0.0000000000000000
1.5949000687265320 3.2486811051336271 0.0000000000000000
8.9443100841323062 4.4952568526325978 0.0000000000000000
0.6789058565185071 3.2264075461472159 0.0000000000000000
8.9836774346163892 4.0458337522058558 0.0000000000000000
2.5803338840235219 0.9553965306989182 0.0000000000000000
2.6477369497797700 0.7578855995556307 0.0000000000000000
1.3805941506263459 4.0213019668303138 0.0000000000000000
8.3809202937914993 0.4555190469133249 0.0000000000000000
6.8102366498339286 8.4319602186489426 0.0000000000000000
0.5783653815908589 5.3336489984736906 0.0000000000000000
1.5915411324588069 0.8644271840424149 0.0000000000000000
1.7015587878814931 0.6898479446064596 0.0000000000000000
3.0213918868049570 8.7448425410360802 0.0000000000000000
2.9880957613489669 8.9024663689571781 0.0000000000000000
2.9692089331311942 9.0866403711009340 0.0000000000000000
8.6524148834625780 7.4431423210488026 0.0000000000000000
8.4522480115904557 3.9106407299383110 0.0000000000000000
4.4776787492927257 1.2085826303188130 0.0000000000000000
1.9804230164702381 9.6863703309040989 0.0000000000000000
1.0548201552382450 6.9797360482124544 0.0000000000000000
8.7930059615356697 1.4925208847155980 0.0000000000000000
9.4176746085789702 4.7935672848233324 0.0000000000000000
9.4835706558005270 5.0320580593104038 0.0000000000000000
9.3527190361255936 7.2675191131508834 0.0000000000000000
1.6127270058039380 2.2977143135128890 0.0000000000000000
6.0303550581837690 1.6889369222231640 0.0000000000000000
8.4685079143020996 1.2585925933185080 0.0000000000000000
8.4281482848569862 1.4634771699629290 0.0000000000000000
8.5669823571893193 1.5773988307979261 0.0000000000000000
8.4305590797681802 1.6617152656553751 0.0000000000000000
8.3148103239080378 1.5631942662131839 0.0000000000000000
8.1025215381180598 0.9644785827802882 0.0000000000000000
8.1562804211102620 0.9510810283614509 0.0000000000000000
8.1147700599666113 0.8955721814843535 0.0000000000000000
8.0390939417099752 0.8773619344971141 0.0000000000000000
8.0829072645924178 0.5967510701672151 0.0000000000000000
1.2199177332138660 6.2452552137515029 0.0000000000000000
1.2644556999120320 6.2122871578307199 0.0000000000000000
1.2048649894130761 6.1769111174887481 0.0000000000000000
1.1281277280311530 6.1893176914066217 0.0000000000000000
8.9199349275387796 6.2454297906616851 0.0000000000000000
8.9644591387770589 6.2123220732127624 0.0000000000000000
8.9048856226029329 6.1771206097809674 0.0000000000000000
8.8178330117892028 6.1854904192853022 0.0000000000000000
2.2353322795692701 9.0024641638390648 0.0000000000000000
2.2488811441084779 9.0562689462544750 0.0000000000000000
2.3042008533351130 9.0147012108318290 0.0000000000000000
2.3249641681920452 8.9355628431803584 0.0000000000000000
3.4550650724612622 1.3795702093383111 0.0000000000000000
3.4105408612229740 1.4126779267872349 0.0000000000000000
3.4701143773970720 1.4478793902190250 0.0000000000000000
3.5462356019795291 1.4339142792289410 0.0000000000000000
3.7103322795692582 9.0024641638390790 0.0000000000000000
3.7238811441084838 9.0562689462544714 0.0000000000000000
3.7792008533351131 9.0147012108318236 0.0000000000000000
3.7999641681920489 8.9355628431803300 0.0000000000000000
1.8646677204307300 0.9975358361609461 0.0000000000000000
1.8511188558915199 0.9437310537455499 0.0000000000000000
1.7957991466648831 0.9852987891681808 0.0000000000000000
1.7857174607634181 1.0589472865806220 0.0000000000000000
1.0371208097228961 3.3132178867140341 0.0000000000000000
1.0451934898987341 3.2583238235027090 0.0000000000000000
0.9781774591325900 3.2755574672682379 0.0000000000000000
0.9389591262638590 3.3405847666910491 0.0000000000000000
0.8178948445618412 3.0907832150781420 0.0000000000000000
2.1628791902771050 1.3617821132859640 0.0000000000000000
2.1548065101012699 1.4166761764972851 0.0000000000000000
2.2218225408674099 1.3994425327317599 0.0000000000000000
2.2657735502807790 1.3357418739561699 0.0000000000000000
8.8267587324823733 3.2861418442052521 0.0000000000000000
8.8552239649954725 3.2385156237060140 0.0000000000000000
8.7867141958721504 3.2287915097745001 0.0000000000000000
8.7160730387185001 3.2700689054576091 0.0000000000000000
8.8267587324823680 7.7111418442052528 0.0000000000000000
8.8552239649954068 7.6635156237060400 0.0000000000000000
8.7867141958721362 7.6537915097745017 0.0000000000000000
8.7229932424972603 7.6957168074041391 0.0000000000000000
2.2888894225873009 8.8267676828705852 0.0000000000000000
2.3367531883276542 8.8553034376856044 0.0000000000000000
2.3462585720152771 8.7867268502592140 0.0000000000000000
2.3049314476102172 8.7160623272133950 0.0000000000000000
1.4020879729540330 0.6868595509825086 0.0000000000000000
4.6859541485768048 8.7773726369894050 0.0000000000000000
8.7855738286975189 5.3058190327626438 0.0000000000000000
3.6974633146628242 0.8911521894391088 0.0000000000000000
1.7904899330115860 1.3233990830866631 0.0000000000000000
1.4571111672556629 1.9767999247191250 0.0000000000000000
8.1202384430518215 1.4047630991122431 0.0000000000000000
1.0891103393484269 3.8311129956557952 0.0000000000000000
1.3396538807650160 6.7356787213093501 0.0000000000000000
6.2154899330115860 0.9766009169133373 0.0000000000000000
7.6942787344247368 1.3351544069333470 0.0000000000000000
5.1722281310428331 1.4063629674608960 0.0000000000000000
3.6983990830866511 8.5904899330115612 0.0000000000000000
8.1210655171779642 9.1232112576092206 0.0000000000000000
2.2233990830866581 8.5904899330115523 0.0000000000000000
6.6472281310428389 1.4063629674609039 0.0000000000000000
8.5904899330115523 3.3516009169133398 0.0000000000000000
8.3370254432740545 1.9680664958969381 0.0000000000000000
1.4073365113617711 2.4910294014319212 0.0000000000000000
9.3828941831271973 5.3318584684010917 0.0000000000000000
9.3278205551886657 5.6031171081849438 0.0000000000000000
8.3093652366316917 3.5326560660862318 0.0000000000000000
1.0151095303467339 1.0160022750987570 0.0000000000000000
6.9702222212500793 0.9159033272841300 0.0000000000000000
6.9550440082095877 0.7284416193250252 0.0000000000000000
9.0044518989312206 5.8496510426492190 0.0000000000000000
9.1793733536750537 5.8102513336146799 0.0000000000000000
9.1430503265084919 6.0364191925963384 0.0000000000000000
9.4086799885481156 6.0343846705867703 0.0000000000000000
0.8786683267935562 8.4036714524727820 0.0000000000000000
0.7084254170825056 8.3091788003463112 0.0000000000000000
0.5599709097676977 8.0859240811288817 0.0000000000000000
0.8893212786906274 8.1396538807649801 0.0000000000000000
8.3919250637142202 0.8662925881998670 0.0000000000000000
8.3008781846046684 0.7120221133503835 0.0000000000000000
0.9983585798311754 1.4431137164165790 0.0000000000000000
0.7426190725743231 1.4926205562203130 0.0000000000000000
0.4801868091296730 1.7442580087271620 0.0000000000000000
8.5401948337473268 8.8686501113868133 0.0000000000000000
8.4897089766832714 8.7269457893601725 0.0000000000000000
1.4575280544819389 6.0658255886440102 0.0000000000000000
1.5671712571174170 6.1787862851624116 0.0000000000000000
8.8021704595452910 6.9981460018024482 0.0000000000000000
1.0476112870339700 4.4889473234610078 0.0000000000000000
3.5537220165536270 1.9932441043601510 0.0000000000000000
2.5905197990061768 8.8506354281589417 0.0000000000000000
1.5392124376363800 5.3780775870873470 0.0000000000000000
8.2984091830809419 4.4838929653494759 0.0000000000000000
9.4837634891116416 8.2959115082933597 0.0000000000000000
5.9470416770902332 8.9113370891714858 0.0000000000000000
5.9681187782785354 9.0763334096792576 0.0000000000000000
6.0745852253185983 9.2893473124372665 0.0000000000000000
6.2166079048683560 9.0231453410003510 0.0000000000000000
3.0702844868108370 8.5885403472950212 0.0000000000000000
8.0541929956374911 1.4183272649991800 0.0000000000000000
0.9078435257179122 8.0608880541862984 0.0000000000000000
1.4152581505849160 2.0405449007426650 0.0000000000000000
6.5795909332357354 1.4186472386688760 0.0000000000000000
5.1045909332357482 1.4186472386688671 0.0000000000000000
1.2608880541863321 6.7171564742820431 0.0000000000000000
7.7085517336799727 1.2602452722103850 0.0000000000000000
7.2334817075841684 0.8190184252722708 0.0000000000000000
7.4683242224721367 0.7747663881372422 0.0000000000000000
7.2485503393825041 0.5231719942851076 0.0000000000000000
7.5776579082742668 0.4739277999382079 0.0000000000000000
6.9671543694811504 0.4140006727087145 0.0000000000000000
6.2821959846336526 0.3597750979701160 0.0000000000000000
5.8783336290555228 0.3833560972777525 0.0000000000000000
1.0303697459290959 7.4276584942683641 0.0000000000000000
1.0999479105195931 7.6311837353279151 0.0000000000000000
5.8422461584017276 0.8923215839426539 0.0000000000000000
8.9498909812769796 6.9773635636519780 0.0000000000000000
5.3921889462505384 8.4718141635652486 0.0000000000000000
8.0402256764848268 1.6519326609253140 0.0000000000000000
8.6486664184767950 3.3149946858517390 0.0000000000000000
2.2600057561067808 8.6486635411966528 0.0000000000000000
8.3472931552378995 6.5459185567650993 0.0000000000000000
6.5005363657091113 8.6076036618372669 0.0000000000000000
6.5394699654910102 8.5501993541254269 0.0000000000000000
6.6160319891197190 8.5957184925853927 0.0000000000000000
6.4747547438786173 8.5531987997643473 0.0000000000000000
8.6347088988427956 6.3594355991108582 0.0000000000000000
8.5963870725265537 6.3016294968718256 0.0000000000000000
8.6638057298989164 6.2652397744993680 0.0000000000000000
8.5752129375736725 6.3619876662833290 0.0000000000000000
8.6358273284954894 1.9336464117057111 0.0000000000000000
8.5976919071214031 1.8757087782325279 0.0000000000000000
8.6819058994554794 1.8158361104906851 0.0000000000000000
8.5756975904231751 1.9366456850744380 0.0000000000000000
9.0394570318094800 7.7966568429101217 0.0000000000000000
9.1075782194836350 7.7835960800795316 0.0000000000000000
9.1209737177668693 7.8610432936362624 0.0000000000000000
9.0596967190844282 7.7399564363825197 0.0000000000000000
8.6078830388954692 3.5008864007639611 0.0000000000000000
8.5605659383581862 3.4475299893993441 0.0000000000000000
8.5553279920225407 3.5229298003940239 0.0000000000000000
2.0741135992360462 8.6078830388954515 0.0000000000000000
2.1274700106006712 8.5605659383581703 0.0000000000000000
2.0520701996059869 8.5553279920225300 0.0000000000000000
9.0394651738193552 1.8966300023006180 0.0000000000000000
9.1075795764852572 1.8835916066446381 0.0000000000000000
9.3504891287629732 1.7555105814695311 0.0000000000000000
9.1209739439337980 1.9610425480638130 0.0000000000000000
9.0597197881124227 1.8398803879888850 0.0000000000000000
5.0255363657091374 8.6076036618373415 0.0000000000000000
5.0644699654910292 8.5501993541254642 0.0000000000000000
5.1287054630544429 8.5954907563418814 0.0000000000000000
4.9997547438786674 8.5531987997643828 0.0000000000000000
6.7174210746101028 8.8755231438025710 0.0000000000000000
6.7748047686157529 8.9144677618399584 0.0000000000000000
6.7295099307815542 8.9787050957793468 0.0000000000000000
6.7718712868366069 8.8497172818099621 0.0000000000000000
6.8962076878909846 9.1221067359656409 0.0000000000000000
7.0277889809412786 9.2289018262207918 0.0000000000000000
8.6076036618373131 4.9744636342908244 0.0000000000000000
8.5501993541254198 4.9355300345089317 0.0000000000000000
8.5963970626691779 4.8653103697238684 0.0000000000000000
8.5531987997643597 5.0002452561212998 0.0000000000000000
3.3716300023006638 8.6605348261806441 0.0000000000000000
3.3585916066446688 8.5924204235147261 0.0000000000000000
3.4360425480637908 8.5790260560661835 0.0000000000000000
3.3148803879889281 8.6402802118875588 0.0000000000000000
8.6356768958436376 7.8355750713423102 0.0000000000000000
8.6081000773768146 7.7731723368775887 0.0000000000000000
8.5746306922701017 7.8359280621040561 0.0000000000000000
1.3924210746100760 5.0255231438025589 0.0000000000000000
1.4498047686157660 5.0644677618399516 0.0000000000000000
1.4042817220512911 5.1410318743939802 0.0000000000000000
1.4468712868365980 4.9997172818099767 0.0000000000000000
9.0394665774279712 4.8466253752231623 0.0000000000000000
9.1075798104200345 4.8335908354650856 0.0000000000000000
9.1209739829229211 4.9110424195338931 0.0000000000000000
9.0597237650035112 4.7898672779360032 0.0000000000000000
6.5913535882942309 0.9358273284955356 0.0000000000000000
6.6492912217674256 0.8976919071214258 0.0000000000000000
6.6913048139701390 0.9641175673151967 0.0000000000000000
6.5883543149255352 0.8756975904232096 0.0000000000000000
1.3837173596639269 6.4058314629325794 0.0000000000000000
1.4516512682357789 6.4198337413903346 0.0000000000000000
1.4343893294164849 6.4965118721066686 0.0000000000000000
1.4241146986681921 6.3611925108530372 0.0000000000000000
7.7358273284955157 1.0336464117057400 0.0000000000000000
7.6976919071214187 0.9757087782325526 0.0000000000000000
7.7818946187553450 0.9158560022238944 0.0000000000000000
7.6756975904231997 1.0366456850744521 0.0000000000000000
4.8837297617492599 1.3643689210412719 0.0000000000000000
4.8271041390742813 1.4030596307365770 0.0000000000000000
4.8869414272514993 1.4244919670557530 0.0000000000000000
0.9358273284955350 4.8836464117057528 0.0000000000000000
0.8976919071214278 4.8257087782325607 0.0000000000000000
0.9641175673151887 4.7836951860298651 0.0000000000000000
0.8756975904232122 4.8866456850744537 0.0000000000000000
1.0336464117057720 6.6891726715044566 0.0000000000000000
0.9757087782325868 6.7273080928785527 0.0000000000000000
0.9336951860298660 6.6608824326848062 0.0000000000000000
1.0366456850744761 6.7493024095767797 0.0000000000000000
9.0394570318094054 3.3716568429101992 0.0000000000000000
9.1075782194835426 3.3585960800796140 0.0000000000000000
9.3242251265799538 3.2108379701459562 0.0000000000000000
9.1209737177668444 3.4360432936363119 0.0000000000000000
9.0596967190843838 3.3149564363825759 0.0000000000000000
2.0244636342908620 9.0923963381625690 0.0000000000000000
1.9855300345089770 9.1498006458744126 0.0000000000000000
1.9212945369455010 9.1045092436580290 0.0000000000000000
1.7490503615504800 9.2802559050032052 0.0000000000000000
1.9030973625954799 9.4085019154081735 0.0000000000000000
2.0502452561213378 9.1468012002355454 0.0000000000000000
5.1163535882942330 0.9358273284955529 0.0000000000000000
5.1742912217674242 0.8976919071214448 0.0000000000000000
5.3458354282539098 0.7107446369144844 0.0000000000000000
5.2163048139701313 0.9641175673151887 0.0000000000000000
5.5243392376802198 0.5027053247537734 0.0000000000000000
5.1133543149255392 0.8756975904232235 0.0000000000000000
5.1733191442448963 0.5251348283752511 0.0000000000000000
6.3587297617492782 1.3643689210412391 0.0000000000000000
6.3021041390743138 1.4030596307365530 0.0000000000000000
6.3619414272515096 1.4244919670557290 0.0000000000000000
7.7966568429101830 8.6605429681905619 0.0000000000000000
7.7835960800795423 8.5924217805163536 0.0000000000000000
7.8610432936362047 8.5790262822331105 0.0000000000000000
7.7399564363825739 8.6403032809155533 0.0000000000000000
1.2204038468883360 3.7579375601365448 0.0000000000000000
1.1891926283991201 3.8220519494638761 0.0000000000000000
1.2609319957869241 3.7980981039858221 0.0000000000000000
3.4994636342908318 9.0923963381626578 0.0000000000000000
3.4605300345089440 9.1498006458745103 0.0000000000000000
3.3903103697238448 9.1036029373306100 0.0000000000000000
3.1625103717967171 9.3104537620957935 0.0000000000000000
2.9447687275879311 9.2987186159064947 0.0000000000000000
3.3835880318069278 9.4613525599120543 0.0000000000000000
3.5252452561213121 9.1468012002356147 0.0000000000000000
1.3033431570897871 2.2394570318094100 0.0000000000000000
1.3164039199203881 2.3075782194835641 0.0000000000000000
1.2340844057915721 2.3245643076391080 0.0000000000000000
1.3600435636174100 2.2596967190843991 0.0000000000000000
6.2328513700577597 1.1259033281103781 0.0000000000000000
6.1855614142385287 1.0725324075916851 0.0000000000000000
6.1802384144529876 1.1479776806024720 0.0000000000000000
0.9075789253899393 2.0244768561974369 0.0000000000000000
0.8501952313842427 1.9855322381600460 0.0000000000000000
0.9051086872088663 1.8978334358378059 0.0000000000000000
0.8531287131634104 2.0502827181900130 0.0000000000000000
1.3382534345758610 1.8958483445013661 0.0000000000000000
1.4095829534703961 1.8983601514797390 0.0000000000000000
1.3598569464350569 1.8427475509808460 0.0000000000000000
1.9350677895013839 1.3644590299159260 0.0000000000000000
1.8676654226701921 1.3877557160004050 0.0000000000000000
1.9353212895211049 1.4214492058834400 0.0000000000000000
2.0755363657091670 0.9076036618373486 0.0000000000000000
2.1144699654910561 0.8501993541254829 0.0000000000000000
2.1787054630544711 0.8954907563419152 0.0000000000000000
2.3638049279543831 0.6822987680667915 0.0000000000000000
2.0497547438786929 0.8531987997643912 0.0000000000000000
3.2912826403361288 1.2191685370673930 0.0000000000000000
3.2233487317642919 1.2051662586096401 0.0000000000000000
3.2406106705835431 1.1284881278933041 0.0000000000000000
3.2508853013318491 1.2638074891469420 0.0000000000000000
1.3925774212499591 3.5503673315171662 0.0000000000000000
1.4499662729827620 3.5878903978574610 0.0000000000000000
1.4469528812528021 3.5243610124128688 0.0000000000000000
0.9071495076475801 3.4994539419407289 0.0000000000000000
0.8469445824321136 3.4604605726665230 0.0000000000000000
0.8524570145877650 3.5252294252828009 0.0000000000000000
1.2662702382507220 3.3106310789587559 0.0000000000000000
1.3228958609256991 3.2719403692634459 0.0000000000000000
1.2630585727484951 3.2505080329442690 0.0000000000000000
4.7568407076799577 1.1256376802265149 0.0000000000000000
4.6993409097795737 1.0868828274208111 0.0000000000000000
4.7477062820245894 1.0274607534980651 0.0000000000000000
4.7027921810856528 1.1507946349915199 0.0000000000000000
1.1256339747866859 5.2431523599297316 0.0000000000000000
1.0868822098475031 5.3006579348220519 0.0000000000000000
1.0274606505691810 5.2522935254090140 0.0000000000000000
0.8693630752362989 5.4475329115113826 0.0000000000000000
1.1507841362453459 5.2971881771417824 0.0000000000000000
1.3837173596638290 7.8808314629326013 0.0000000000000000
1.4516512682356839 7.8948337413903484 0.0000000000000000
1.4388960858661359 7.9829872481325523 0.0000000000000000
1.4241146986681290 7.8361925108530599 0.0000000000000000
0.9358273284955853 7.8336464117057840 0.0000000000000000
0.8976919071214491 7.7757087782325813 0.0000000000000000
0.9672449268333397 7.7285133648308051 0.0000000000000000
0.8869455427636831 7.5058946423934616 0.0000000000000000
0.8756975904232456 7.8366456850744530 0.0000000000000000
7.8350677895014069 1.3644590299158890 0.0000000000000000
7.7682066800149387 1.3894350479784670 0.0000000000000000
7.8354295409900523 1.4217850722790319 0.0000000000000000
9.0837173596638188 6.4058314629326123 0.0000000000000000
9.1516512682356765 6.4198337413903577 0.0000000000000000
9.1343893294164751 6.4965118721066570 0.0000000000000000
9.3888610847311771 6.5676808262062121 0.0000000000000000
9.3850445391053174 6.3582933266673543 0.0000000000000000
9.3504517717642486 6.7709213771557710 0.0000000000000000
9.2342440004803610 6.9881066404324281 0.0000000000000000
9.1241146986681247 6.3611925108530762 0.0000000000000000
9.0233990830866357 6.7345100669884479 0.0000000000000000
8.1923963381625793 1.1755363657091800 0.0000000000000000
8.2498006458744335 1.2144699654910589 0.0000000000000000
8.2036029373306008 1.2846896302760931 0.0000000000000000
8.2468012002355557 1.1497547438787139 0.0000000000000000
1.2191902187448109 8.1837351533565581 0.0000000000000000
1.2051698722224911 8.2516542338509709 0.0000000000000000
1.1284887301620661 8.2343898236856390 0.0000000000000000
1.2638689205664251 8.2241651141311429 0.0000000000000000
5.8556180530593442 0.6881632448736936 0.0000000000000000
5.9801991785281006 8.7484406395526513 0.0000000000000000
2.8825628125968992 0.8839346964637300 0.0000000000000000
3.2620320689478648 8.4124367134292513 0.0000000000000000
1.9390558830108251 6.3606350749247937 0.0000000000000000
8.4298475674450906 7.6581790125957392 0.0000000000000000
9.2488153601351097 9.4302726390964224 0.0000000000000000
8.9408610279849743 5.9874247198420090 0.0000000000000000
1.0479819324138790 7.6912874016840940 0.0000000000000000
8.1580004143992859 1.3492997351955309 0.0000000000000000
0.8660494269719585 4.5535968631430377 0.0000000000000000
8.1307561155891506 3.1133378012385768 0.0000000000000000
2.5736330114247181 0.4493281063202620 0.0000000000000000
2.2008706823805499 0.3846104263285009 0.0000000000000000
2.9617994359532571 0.4008226504451072 0.0000000000000000
0.9311265404710998 0.5117834324722982 0.0000000000000000
6.5509597387552123 8.3449700565285099 0.0000000000000000
7.8374318361513149 8.3264613484710157 0.0000000000000000
8.1867907674162552 1.6252375140880311 0.0000000000000000
4.5074072548694248 1.0520172109120309 0.0000000000000000
5.4338481005151653 1.4091726239155149 0.0000000000000000
3.9700329577035220 1.4277587642880680 0.0000000000000000
3.2893904526571842 1.9404998849830970 0.0000000000000000
1.4841656519354269 3.1287799814259039 0.0000000000000000
8.3892758678657664 1.8122207411711220 0.0000000000000000
2.4319896219451551 8.4669643938743615 0.0000000000000000
3.0384150830371528 1.2769210517657379 0.0000000000000000
7.4258117735685580 1.2070594642935140 0.0000000000000000
1.6936261517347910 3.5481578440210160 0.0000000000000000
3.5961495921485040 8.3366271141439441 0.0000000000000000
7.7071034250448784 8.2038263667734128 0.0000000000000000
5.5298562358627530 1.1181320418434970 0.0000000000000000
3.9296506152064028 9.1379168107755238 0.0000000000000000
4.0777952789281784 9.2341863840091385 0.0000000000000000
4.2403561678731698 9.4749625555526240 0.0000000000000000
3.9613920813042980 9.5349995950432920 0.0000000000000000
4.5479736144378800 9.4749967724488311 0.0000000000000000
8.4982045959545527 6.0830247743465939 0.0000000000000000
5.4250138404951596 0.8660148309610958 0.0000000000000000
0.6626513609097291 5.4964805840160276 0.0000000000000000
8.5822237986746632 4.5545840943068141 0.0000000000000000
3.8544645526493189 9.2774856684618996 0.0000000000000000
4.5126478759137640 8.9695885449591017 0.0000000000000000
4.5404113994682618 9.1481215909270492 0.0000000000000000
6.2541237070194837 1.0320278200334800 0.0000000000000000
6.2858256492928746 0.9929591901239418 0.0000000000000000
6.2711349349639018 0.9393378559018327 0.0000000000000000
6.3350447396490841 0.8979603109375334 0.0000000000000000
7.7543282908028166 1.3098075218198750 0.0000000000000000
1.3919327781865800 1.9772374227415821 0.0000000000000000
1.1255336154490330 3.7742090850548449 0.0000000000000000
1.0773070998305330 3.7598712268391830 0.0000000000000000
1.0333893396200931 3.7939636733537809 0.0000000000000000
0.9707042493032909 3.7507532138080300 0.0000000000000000
1.8564821768411339 1.3089166534376111 0.0000000000000000
1.8325193130164350 1.2646773221978380 0.0000000000000000
1.7773577725402130 1.2577298341376770 0.0000000000000000
1.7635871304860811 1.1828503872027749 0.0000000000000000
2.1679723855951609 8.6291240917235115 0.0000000000000000
2.2067370218212750 8.6609674375139534 0.0000000000000000
8.6291240917235044 3.4070276144048361 0.0000000000000000
8.6609685295432541 3.3682633612926152 0.0000000000000000
8.3501060991384914 5.2024262566131716 0.0000000000000000
0.5451411078388008 5.7458501024065178 0.0000000000000000
1.8124100784696060 8.1958720456942089 0.0000000000000000
1.7514810110094130 8.4393634682450802 0.0000000000000000
8.3512432118680060 8.3312552900969017 0.0000000000000000
8.4111535884676236 8.2192507688290508 0.0000000000000000
8.5936370325390286 8.1222281310428599 0.0000000000000000
8.5813527613311074 8.0545909332357333 0.0000000000000000
3.2378726192323950 1.5646814564287479 0.0000000000000000
1.6418241138574119 7.8403802666498947 0.0000000000000000
8.5573332045063815 5.4095242079476158 0.0000000000000000
0.6977933145059045 6.7374323464514960 0.0000000000000000
5.2447340461027068 9.6780742166440898 0.0000000000000000
5.3961591009074654 9.3735665596520725 0.0000000000000000
5.1192990710778936 9.4497569314038614 0.0000000000000000
4.8837833584248376 9.7031169154851291 0.0000000000000000
4.8557252214706201 9.4115941636205882 0.0000000000000000
6.0333151108582150 8.5878174007736092 0.0000000000000000
0.8717198307614444 8.7571669025873842 0.0000000000000000
0.9610401743027369 2.5776629547252381 0.0000000000000000
5.0811267820431860 1.6487029732067000 0.0000000000000000
6.2219385083638059 8.4146068745901843 0.0000000000000000
3.4243248110960089 8.3634377287940573 0.0000000000000000
1.4318449465562990 8.0808590961901228 0.0000000000000000
1.3659046751256629 8.0732497835153385 0.0000000000000000
1.3334514364429220 8.1009326211998438 0.0000000000000000
3.2194244532290850 8.8391508665055341 0.0000000000000000
3.2769631157214261 8.8182447158757871 0.0000000000000000
3.2104395017515448 8.9317847920548381 0.0000000000000000
3.2569378761840371 9.0064332991484211 0.0000000000000000
3.3193116603090549 9.0534597479262526 0.0000000000000000
3.2962438672247489 8.7806075857678323 0.0000000000000000
1.3603131786909279 5.2287554271784558 0.0000000000000000
1.3023042609201521 5.1964910940937452 0.0000000000000000
1.2617276138440701 5.2096473848631710 0.0000000000000000
0.9262539628494894 2.2584030454225230 0.0000000000000000
0.9521570603994474 2.2029341861149789 0.0000000000000000
0.9854027196548714 2.3302584424647810 0.0000000000000000
1.0710665011016161 2.3501635921606878 0.0000000000000000
1.1484241476506580 2.3393113872635820 0.0000000000000000
0.9391771406102191 2.1626871660568279 0.0000000000000000
1.3737460371504919 4.7915969545774484 0.0000000000000000
1.3478429396005469 4.8470658138849814 0.0000000000000000
1.3145972803450969 4.7197415575352091 0.0000000000000000
1.2150878709824560 4.6773624010375494 0.0000000000000000
1.3608228593898650 4.8873128339431684 0.0000000000000000
8.8607989806805527 4.6942693868572114 0.0000000000000000
8.8816105423921954 4.7527578368600496 0.0000000000000000
8.7682080432575198 4.6854173494126448 0.0000000000000000
8.6936321044613383 4.7304601933666834 0.0000000000000000
8.6487670069865512 4.7914823160106312 0.0000000000000000
8.9196955936928681 4.7702444184848236 0.0000000000000000
8.7543563576970200 4.4994685813424304 0.0000000000000000
8.8608491334944368 1.7444244532290649 0.0000000000000000
8.8817552841241536 1.8019631157213829 0.0000000000000000
8.7728720909817888 1.7384816027504799 0.0000000000000000
8.9193924142322079 1.8212438672246820 0.0000000000000000
6.7037554321557291 8.6396868306209225 0.0000000000000000
6.6714910945169494 8.6976957398715520 0.0000000000000000
6.6846473848852286 8.7382723861970266 0.0000000000000000
2.4543962815752098 1.4346881383568040 0.0000000000000000
4.7016388299912224 9.2774214104951209 0.0000000000000000
6.9920451960778971 8.7960171311295845 0.0000000000000000
1.0429803654910070 6.1885441528242273 0.0000000000000000
0.8569496734914859 6.0364191925963517 0.0000000000000000
0.7065156924441669 6.1658367555993809 0.0000000000000000
1.0850477981107549 6.2348230417965924 0.0000000000000000
0.9539864741411794 6.2157788327484633 0.0000000000000000
0.9022428187896812 6.2920818922891710 0.0000000000000000
1.1270309549637880 6.2383562062855020 0.0000000000000000
7.9607095754343966 0.8442766815242562 0.0000000000000000
7.9817020030444006 0.9026024423967921 0.0000000000000000
7.8728459804815163 0.8384694017227640 0.0000000000000000
8.0195010725804199 0.9219557846115227 0.0000000000000000
0.9440991275713817 5.2313733140233287 0.0000000000000000
0.8887905361222053 5.1679587804209657 0.0000000000000000
1.0085852121377010 5.1886996954377462 0.0000000000000000
4.7686266696019786 0.9440991363238372 0.0000000000000000
4.8320412176296728 0.8887905371641608 0.0000000000000000
4.8113002697387373 1.0085852307512579 0.0000000000000000
8.7160997477537787 6.1975851092629632 0.0000000000000000
8.7302560224025552 6.2725886063265692 0.0000000000000000
4.5755570318511403 0.8663962756678728 0.0000000000000000
6.2671644572149212 8.6142624173836104 0.0000000000000000
6.2078695946813136 8.6797720498267754 0.0000000000000000
6.1777603015418752 8.7667467612394177 0.0000000000000000
8.5526716534965264 6.5768021368543854 0.0000000000000000
8.5914449883136381 6.6567125233018416 0.0000000000000000
8.6553134460551870 6.7000174513382298 0.0000000000000000
1.8421644572149589 8.6142624173835927 0.0000000000000000
1.7820624742566931 8.6799626320628125 0.0000000000000000
1.7623267541802261 8.7726559559457016 0.0000000000000000
8.6142624173835944 3.7328355427850402 0.0000000000000000
8.6797720498267807 3.7921304053186540 0.0000000000000000
8.7535546935210107 3.8068669805859492 0.0000000000000000
8.5526716534965121 2.1518021368543412 0.0000000000000000
8.5914526435132395 2.2314748146139252 0.0000000000000000
8.6709828916594489 2.2921171993284331 0.0000000000000000
1.1615858551458771 1.7340426948320129 0.0000000000000000
1.1171061522447330 1.7911574208999901 0.0000000000000000
1.0841616722315970 1.8251830299940450 0.0000000000000000
1.0485825685439820 1.7702160155435520 0.0000000000000000
0.9551007347504941 1.8026235151580861 0.0000000000000000
8.6142624173834577 5.2078355427849843 0.0000000000000000
8.6918327135489850 5.2663636679106292 0.0000000000000000
8.7778707572147283 5.2419348863000579 0.0000000000000000
8.8302299414446015 5.2471601528557281 0.0000000000000000
1.2882579087427111 7.6677721286394487 0.0000000000000000
1.1952714347648301 7.6385301191450381 0.0000000000000000
1.1216275311005981 7.7063649212708221 0.0000000000000000
4.7921644572150113 8.6142624173834861 0.0000000000000000
4.7295389127476710 8.6892088737354278 0.0000000000000000
4.7525103215903322 8.7817197382316596 0.0000000000000000
4.7672116370152304 8.8364434431471341 0.0000000000000000
7.6363464350764616 8.8302702784260898 0.0000000000000000
7.6407409410229734 8.9185203831468929 0.0000000000000000
7.6822881063958954 8.9827259337688741 0.0000000000000000
7.4739003634374752 9.1324945234380195 0.0000000000000000
7.3961918355697494 9.3866910333162359 0.0000000000000000
7.6407379466721750 9.3279451145342520 0.0000000000000000
6.7098586575460084 9.0583567182317051 0.0000000000000000
6.8123463641407476 9.2927438657163162 0.0000000000000000
6.9938770224662443 9.5528400133299272 0.0000000000000000
6.6119803037930840 9.5747481661681650 0.0000000000000000
6.6437080340583909 9.1167362179427478 0.0000000000000000
6.5686668185681230 9.1321797934120905 0.0000000000000000
1.0473800097549510 8.2467157708291356 0.0000000000000000
0.9638756266665494 8.1989360792755690 0.0000000000000000
0.9504590355100188 8.1094625375998586 0.0000000000000000
9.1634005977385797 2.0312602989961790 0.0000000000000000
9.3975022550754268 2.1198663036603751 0.0000000000000000
9.3506181262561210 2.3464114416859010 0.0000000000000000
9.2056724724615897 2.5068808028699952 0.0000000000000000
9.3931751241537000 1.9670349465633601 0.0000000000000000
9.0411548584828356 2.6263836421404601 0.0000000000000000
9.1775742870292341 2.7358034128203230 0.0000000000000000
9.3344634150425154 2.9149764900106119 0.0000000000000000
9.4874945379522497 2.5675973310994200 0.0000000000000000
9.1095100669884221 2.2233990830866599 0.0000000000000000
8.9024125935585374 2.5649649666685148 0.0000000000000000
9.1496356320163414 2.1272173516819182 0.0000000000000000
9.0725344156103809 2.1723182742153142 0.0000000000000000
9.0394507044787904 2.2077651589174878 0.0000000000000000
9.0539203357904920 2.2608070139064509 0.0000000000000000
8.9982675620046422 2.3090676635249578 0.0000000000000000
8.9209283543291011 2.3692335626485339 0.0000000000000000
9.1634006010539721 4.9812602880667960 0.0000000000000000
9.1587481602587069 5.0689060082849711 0.0000000000000000
9.1172777381966821 5.1310438075280747 0.0000000000000000
9.1634005785066996 3.5062603623952100 0.0000000000000000
9.3877964306157420 3.5774003807280179 0.0000000000000000
9.3562229196208619 3.8298954521655788 0.0000000000000000
9.1095100669884204 3.6983990830866569 0.0000000000000000
9.1829785724210122 3.9697994021442620 0.0000000000000000
9.3706995241612852 4.0942275338922416 0.0000000000000000
9.1496356300539183 3.6022173581511989 0.0000000000000000
9.0725344155252525 3.6473182744959880 0.0000000000000000
9.0394507044645795 3.6827651589642749 0.0000000000000000
9.0539203357875895 3.7358070139157862 0.0000000000000000
8.9993567475938097 3.7839976647532572 0.0000000000000000
8.9156184279664785 3.8317272683452668 0.0000000000000000
8.8381420259435295 3.8349377639435480 0.0000000000000000
1.8416432505374440 9.0848585991171884 0.0000000000000000
1.5909749051910891 9.1439291581390219 0.0000000000000000
1.7829581721204679 9.0195940039200924 0.0000000000000000
1.7686697372164191 8.9461965486510167 0.0000000000000000
9.1634005785067281 7.9312603623951361 0.0000000000000000
9.1586179112847645 8.0181501146098988 0.0000000000000000
9.1167372940090896 8.0791306868482042 0.0000000000000000
0.8676269688803223 6.6122463767179616 0.0000000000000000
0.8383847053689883 6.5294919457804532 0.0000000000000000
0.8529265887942886 6.4562266814296017 0.0000000000000000
0.6178309495511080 6.3674644914291871 0.0000000000000000
0.8593787585754998 6.3680109697872114 0.0000000000000000
3.5062602989961160 8.5365994022613716 0.0000000000000000
3.6022173516818872 8.5503643679835992 0.0000000000000000
3.6473182742152952 8.6274655843895225 0.0000000000000000
3.6827651589175892 8.6605492955212604 0.0000000000000000
3.7358070139064710 8.6460796642096991 0.0000000000000000
3.7832136917314809 8.7007204670089422 0.0000000000000000
3.8319487153198182 8.7813045433027739 0.0000000000000000
3.8047043762027299 8.8523965618776170 0.0000000000000000
3.7568691630200139 8.8271628807389018 0.0000000000000000
1.0127536232820229 4.7176269688803334 0.0000000000000000
1.1061152244078509 4.6847853368383987 0.0000000000000000
5.2823730311196639 1.0127536232820180 0.0000000000000000
5.3116285502924931 1.0952087510465049 0.0000000000000000
5.3014078334639674 1.1956674186386760 0.0000000000000000
2.2583567494625192 0.9151414008827170 0.0000000000000000
2.3133012051088540 0.9786267566082041 0.0000000000000000
2.3433806639062751 1.0803370562125560 0.0000000000000000
6.7573730311196698 1.0127536232820400 0.0000000000000000
6.7858116512405973 1.0962491663565930 0.0000000000000000
6.7757843206842807 1.1987570931849141 0.0000000000000000
6.9643373762627281 1.0499223950996059 0.0000000000000000
3.2282842712005211 1.0473799585416530 0.0000000000000000
3.2661230876635612 0.9681863364263862 0.0000000000000000
3.3282158634124301 0.9266485446849764 0.0000000000000000
1.4467157287995269 6.5776200414582986 0.0000000000000000
1.3989360749868569 6.6611243785592800 0.0000000000000000
1.3094625374137601 6.6745409647166571 0.0000000000000000
9.1467157287995740 6.5776200414582471 0.0000000000000000
9.0972774221625770 6.6610051281183464 0.0000000000000000
9.0087858146580366 6.6731675842114768 0.0000000000000000
8.9646555157346217 6.6932556471589528 0.0000000000000000
8.9577254728451052 6.7477972194948768 0.0000000000000000
8.8888735268221026 6.7714389942498281 0.0000000000000000
8.7932440787035056 6.7834901305278779 0.0000000000000000
8.7204366131468181 6.7568073062469614 0.0000000000000000
5.2083567494624994 8.6151414008826794 0.0000000000000000
5.2670418278795381 8.6804059960798465 0.0000000000000000
5.2816558669464966 8.7536680654275028 0.0000000000000000
7.9312603623950144 8.5365994214932162 0.0000000000000000
8.0193164011194664 8.5420944188706294 0.0000000000000000
8.0832988043633947 8.5842363124406429 0.0000000000000000
8.1043525830059018 1.3352260990765150 0.0000000000000000
4.9070254172039656 0.6148295755755344 0.0000000000000000
5.4865803262936517 1.2585394956774090 0.0000000000000000
2.3322263297374191 1.2880464332465711 0.0000000000000000
2.3501218028864739 1.1922436270574450 0.0000000000000000
2.2977391379413672 1.1259593116467390 0.0000000000000000
2.2793259164081521 1.0859571910830821 0.0000000000000000
3.6269505825194508 1.4471777206539860 0.0000000000000000
3.7065038134663060 1.4084261710364270 0.0000000000000000
3.7671126729410709 1.3289792795622730 0.0000000000000000
0.9355129757700179 5.9096969667429624 0.0000000000000000
1.6588010934529389 6.2664952389906006 0.0000000000000000
8.8715880034551589 2.3167109566910828 0.0000000000000000
8.8240487699337482 2.3591094261826120 0.0000000000000000
5.2307718336663491 1.6042594863809809 0.0000000000000000
7.4594604174804822 1.0737479415046380 0.0000000000000000
8.0630342071136347 1.3642696117441679 0.0000000000000000
8.6350643530612423 8.0633259080679522 0.0000000000000000
8.6609349483342370 8.1091137201178789 0.0000000000000000
8.6434263348635838 8.1753050782361036 0.0000000000000000
8.7218808755016468 8.2043053649492261 0.0000000000000000
8.7417005703007646 8.1562157315661779 0.0000000000000000
8.7846434203440253 8.2538948064288391 0.0000000000000000
5.1133259080679281 1.3649356469386851 0.0000000000000000
5.1591137201177748 1.3390650516657121 0.0000000000000000
5.2253050782356256 1.3565736651363460 0.0000000000000000
5.2527764930719014 1.2694162171481600 0.0000000000000000
5.2050300697190366 1.2577103674570711 0.0000000000000000
6.5883259080679268 1.3649356469386871 0.0000000000000000
6.6341137201177922 1.3390650516657170 0.0000000000000000
6.7003050782357096 1.3565736651363620 0.0000000000000000
6.7283288700102348 1.2713908534663350 0.0000000000000000
6.6796501840718747 1.2538302683685949 0.0000000000000000
8.7617880492721838 2.2987527205557399 0.0000000000000000
1.2546761204345060 2.5358380886296419 0.0000000000000000
2.5719860686678970 1.1131536665231840 0.0000000000000000
9.1430503265084919 3.0864191925963360 0.0000000000000000
9.0775637977844781 5.2101232353221061 0.0000000000000000
9.0204964301683734 5.2625316681145291 0.0000000000000000
8.9471302512621040 5.2791994005228897 0.0000000000000000
8.8644046856552006 5.3066920738212691 0.0000000000000000
6.4873323399846408 9.1594914691470031 0.0000000000000000
6.4053324877471303 9.1573433438728031 0.0000000000000000
6.3417884600599157 9.1147528824945407 0.0000000000000000
6.2683216057723943 9.0770496960429572 0.0000000000000000
6.2862052102873678 9.0103319571367564 0.0000000000000000
6.2584928139003129 8.9648709158000432 0.0000000000000000
6.2027760670883003 8.9577178044409624 0.0000000000000000
6.1852544309247692 8.8882557345257389 0.0000000000000000
1.7405085308529029 8.8623323399847322 0.0000000000000000
1.8039562209697180 8.8253965008761650 0.0000000000000000
1.8218923493310211 8.7841383066542278 0.0000000000000000
9.0775637977843431 8.1601232353222226 0.0000000000000000
9.0211077319360911 8.2116665060004550 0.0000000000000000
8.9473918249387676 8.2291683903752819 0.0000000000000000
8.8673340441890218 8.2597826773124012 0.0000000000000000
8.9510095702809362 8.4389146927471046 0.0000000000000000
3.3951691457992430 0.8687865483625683 0.0000000000000000
3.4670451389943659 0.8428098519461527 0.0000000000000000
3.5409902900049151 0.8556799342005926 0.0000000000000000
3.6290577812399731 0.8611410356644182 0.0000000000000000
3.6361433411869619 0.9307323086896928 0.0000000000000000
3.6807467086755019 0.9612041256425062 0.0000000000000000
3.7352161701732860 0.9463430815193541 0.0000000000000000
3.7839832572773990 1.0017700690397020 0.0000000000000000
3.8442335626486952 1.0790716456712179 0.0000000000000000
3.7917109566910869 1.1284119965449100 0.0000000000000000
3.8341094261826369 1.1759512300663191 0.0000000000000000
3.7737469106033501 1.2382023091848120 0.0000000000000000
5.3094914691471340 8.8376676600152120 0.0000000000000000
5.3061971047401544 8.9150787408598475 0.0000000000000000
5.2630618916425291 9.0057242839380081 0.0000000000000000
8.1601232353224926 8.6224362022157859 0.0000000000000000
8.2123512988345109 8.6791028734949887 0.0000000000000000
8.2426773482496927 8.7763867189785980 0.0000000000000000
2.4688540574473619 0.8519329625801371 0.0000000000000000
7.4611633746303720 8.9740957969046633 0.0000000000000000
8.9209414374994314 1.5236165390905181 0.0000000000000000
6.3806099127112246 8.3672390280428921 0.0000000000000000
4.7150821486311951 8.8430809903190006 0.0000000000000000
4.7027662875259546 8.9268143738716255 0.0000000000000000
4.7212625738350500 9.0147597579613468 0.0000000000000000
4.7830379586263918 9.0436724661942716 0.0000000000000000
4.8126837702952576 9.1182876286873658 0.0000000000000000
4.8822360457196234 9.0930925564900011 0.0000000000000000
4.9078040987766061 9.1483094310248561 0.0000000000000000
4.9832370533457606 9.1389152981424502 0.0000000000000000
5.0552826655372316 9.1718926189281369 0.0000000000000000
5.1012606557313500 9.1227258805119824 0.0000000000000000
5.1744229418202590 9.1206574663653726 0.0000000000000000
5.2061077447366344 9.0584630138614273 0.0000000000000000
7.7149074583192530 9.0581889759988066 0.0000000000000000
7.7820075119631973 9.1165384433259327 0.0000000000000000
7.8576208703491348 9.1335014663664218 0.0000000000000000
7.9344429330398976 9.1644135220628602 0.0000000000000000
8.0276784153450400 9.1508134492806938 0.0000000000000000
8.0767201937596269 9.0732830659946728 0.0000000000000000
8.1047072872060877 9.0239044215551889 0.0000000000000000
8.1463213343775198 9.0560374159389880 0.0000000000000000
8.2143983391138953 9.0052174033630497 0.0000000000000000
8.2635998663327719 8.9305943820907938 0.0000000000000000
8.2334818755921297 8.8613971190140450 0.0000000000000000
8.4933330085219083 8.3380098347080356 0.0000000000000000
1.6402048601786119 3.6743214413712080 0.0000000000000000
0.4576637533812853 2.3367750630719528 0.0000000000000000
9.2541611608689944 4.3674762916258176 0.0000000000000000
8.4454047824326999 5.2928856046070978 0.0000000000000000
7.7001703178549379 8.8738444818470938 0.0000000000000000
1.2252341157597311 7.7065548960507186 0.0000000000000000
8.6910936307419728 5.1906018781062961 0.0000000000000000
4.8038739166090796 8.6873575452843319 0.0000000000000000
8.6297993488085236 2.1673561121322171 0.0000000000000000
8.6297873556624438 6.5927285224099306 0.0000000000000000
8.6902043324215974 3.7185168571944152 0.0000000000000000
1.8562376257510960 8.6891585660789232 0.0000000000000000
6.2814831428055644 8.6902043324216010 0.0000000000000000
9.1056566187844794 8.3983145695923227 0.0000000000000000
3.6423913885942460 1.3701663672877860 0.0000000000000000
2.2874938008496000 1.2239810891719400 0.0000000000000000
5.9874185059722436 1.2577331338481510 0.0000000000000000
6.2353846642699633 8.8618409478537234 0.0000000000000000
8.9606390438685590 2.2571392496755611 0.0000000000000000
8.8728371192611046 6.7068691630200128 0.0000000000000000
6.3651687657690914 0.9445202132494248 0.0000000000000000
1.8181308369799860 1.1728371192610920 0.0000000000000000
8.9598312342310269 3.7304797867505122 0.0000000000000000
3.7321223684260598 1.0393684823403440 0.0000000000000000
1.0021920243727820 3.7051045394117841 0.0000000000000000
3.7306891496472230 8.7384352206146936 0.0000000000000000
1.2195113076530579 6.9732632132545209 0.0000000000000000
7.6631720689030578 0.6964657801551167 0.0000000000000000
7.8379068843077464 0.5990134454701423 0.0000000000000000
7.9228193648401781 0.3258984159331371 0.0000000000000000
2.2539872680865560 8.7417909917436027 0.0000000000000000
8.7417942260739334 3.3210131856408980 0.0000000000000000
8.8255076923843969 6.2431664320191036 0.0000000000000000
3.5478371192610898 1.3818691630200139 0.0000000000000000
1.8316218196651179 1.0819928574697260 0.0000000000000000
2.2301045394117840 1.2978079756272169 0.0000000000000000
2.2713947534466650 8.9177943351148397 0.0000000000000000
3.7479585611188839 8.9176337400972621 0.0000000000000000
1.1697450978379240 4.7303258825708570 0.0000000000000000
1.8223114141172989 0.4032435410923473 0.0000000000000000
1.2544686303780030 3.0298085100459149 0.0000000000000000
5.4974400676395616 8.9996496342191854 0.0000000000000000
8.4760504967519505 9.0112226109772564 0.0000000000000000
8.5883616020073923 2.4806439412046362 0.0000000000000000
6.4199343865616676 0.5669130345561996 0.0000000000000000
7.8823662599026818 8.6270414388811343 0.0000000000000000
8.6455916758280296 4.8901432987178692 0.0000000000000000
5.1098312342308851 8.6445202132494110 0.0000000000000000
1.3810001936470071 7.9747012745202586 0.0000000000000000
1.0030569877241660 7.7723009143308479 0.0000000000000000
1.3818691630200131 6.4978371192610958 0.0000000000000000
9.0818691630200092 6.4978371192611188 0.0000000000000000
6.6551045394117976 1.0021920243727980 0.0000000000000000
3.2931308369799872 1.1271628807388980 0.0000000000000000
6.5862209489380668 8.6460364176005911 0.0000000000000000
0.9470455003875894 1.9394002290542420 0.0000000000000000
2.1598312342309631 0.9445202132494528 0.0000000000000000
1.3539636253267311 5.1112209259929173 0.0000000000000000
1.2176337400972770 2.2729585611188790 0.0000000000000000
1.9401687657689770 9.0554797867505155 0.0000000000000000
5.1801045394117748 1.0021920243727711 0.0000000000000000
9.0729585611188703 7.8823662599026987 0.0000000000000000
1.0021920243727711 4.8198954605882252 0.0000000000000000
3.4573662599026989 8.6270414388811290 0.0000000000000000
3.4151687657689771 9.0554797867505155 0.0000000000000000
0.9698954605882379 6.6228079756272464 0.0000000000000000
7.8048113513301756 0.9701891077585165 0.0000000000000000
8.1535202232292878 1.2583113469218981 0.0000000000000000
9.0729585611188757 3.4573662599027171 0.0000000000000000
9.0729585611188632 4.9323662599026799 0.0000000000000000
8.7048123832513689 1.8701843553728319 0.0000000000000000
9.0729585611188739 1.9823662599027110 0.0000000000000000
6.6804797867504897 8.9598312342310695 0.0000000000000000
1.1271628807387710 8.1818691630200000 0.0000000000000000
1.5528307474082270 6.7656662999838186 0.0000000000000000
7.9748076614660697 8.6017014117047701 0.0000000000000000
9.0744148532755879 6.5937079197190194 0.0000000000000000
1.3746123119451010 6.5937221162000856 0.0000000000000000
5.1935940642667688 8.6905800197580945 0.0000000000000000
3.5487919627325608 8.5972401535770953 0.0000000000000000
5.2398857460212822 1.0763314758758640 0.0000000000000000
2.2429047552457542 0.9892857806789002 0.0000000000000000
9.0994145722054611 7.9729804792677426 0.0000000000000000
1.0755388138620761 4.7558756376321902 0.0000000000000000
3.3036299021820490 1.0321497916347930 0.0000000000000000
0.9101350211817058 6.5481996158197093 0.0000000000000000
6.7136059375066566 1.0779614598616520 0.0000000000000000
9.1027598464228312 2.0737919627325461 0.0000000000000000
1.0312778905188991 8.1746123174591627 0.0000000000000000
9.1027598438997188 3.5487919710502029 0.0000000000000000
9.0996186289313741 5.0241647126920181 0.0000000000000000
1.8564059357332230 9.0094199802418533 0.0000000000000000
6.6330319607918966 9.0431152753658299 0.0000000000000000
0.9208193098217731 7.9718644497656648 0.0000000000000000
7.9718197440403777 1.3792942087552000 0.0000000000000000
7.7270414388811171 8.7823662599027355 0.0000000000000000
4.8901687657691157 8.6445202132494092 0.0000000000000000
2.1585154573982819 9.0541836832709954 0.0000000000000000
3.6335154573982869 9.0541836832709919 0.0000000000000000
1.2978079756272001 7.7698954605882014 0.0000000000000000
8.1541836832709986 1.0414845426017521 0.0000000000000000
1.1278825026957120 3.2948318064513309 0.0000000000000000
8.9971140581450069 6.2966070772015579 0.0000000000000000
4.9796332626151276 0.9197433206182123 0.0000000000000000
8.6445202132494110 5.1098312342308851 0.0000000000000000
0.9474609336486588 3.6314157537059648 0.0000000000000000
1.9414845426017151 0.9458163167290256 0.0000000000000000
2.0721174973042942 1.3801681935486629 0.0000000000000000
1.2162522854164430 1.8282279236654120 0.0000000000000000
1.3701025115855630 2.1175035355210410 0.0000000000000000
3.3778859418550260 1.3283929227984570 0.0000000000000000
6.4541930083136352 0.9221547561781316 0.0000000000000000
6.4968197440404190 1.3792942087551670 0.0000000000000000
8.9176476512586422 3.3038883171615572 0.0000000000000000
5.0218197440404353 1.3792942087551601 0.0000000000000000
1.2971140581449470 6.2966070772015303 0.0000000000000000
8.6207057912448413 7.9718197440404346 0.0000000000000000
0.9197433206182206 5.0203667373848813 0.0000000000000000
1.1718644497657269 6.7041806901781804 0.0000000000000000
8.6181308369799829 2.0728371192610511 0.0000000000000000
7.7208193098218310 1.1718644497657380 0.0000000000000000
8.6445202132494217 3.6348312342309059 0.0000000000000000
1.9401687657690900 8.6445202132494234 0.0000000000000000
8.6181308369799847 6.4978371192610567 0.0000000000000000
6.3651687657691429 8.6445202132493968 0.0000000000000000
8.9176476512585658 7.7288883171615810 0.0000000000000000
1.2152100714131779 5.9684171176777454 0.0000000000000000
6.1790851758269412 9.6467898734650603 0.0000000000000000
6.3308394490534852 9.4231545640740126 0.0000000000000000
1.1473801518781279 2.9544069912508730 0.0000000000000000
1.6353123606524760 5.0889057817854706 0.0000000000000000
6.3311073830184927 1.6436831678354811 0.0000000000000000
4.0308979935076010 8.7848156156833319 0.0000000000000000
8.0235350696504124 3.4465066896281229 0.0000000000000000
0.6051557684067959 5.9492628707638113 0.0000000000000000
7.9733961073995978 9.1024579706611455 0.0000000000000000
9.0088241656235617 5.1905825904916716 0.0000000000000000
5.2470678866414859 8.8724565975840530 0.0000000000000000
3.4501446488809151 0.9138495220471189 0.0000000000000000
6.4503159816794113 9.0965779919691894 0.0000000000000000
9.0092910338309569 8.1391632132710079 0.0000000000000000
8.1416083873083913 8.6906500273031071 0.0000000000000000
1.2833337887015031 7.4630998508631263 0.0000000000000000
7.7916243886764596 9.0407091594559503 0.0000000000000000
6.6401021291749718 0.2917943333285118 0.0000000000000000
2.1103070586196302 1.6556216151034671 0.0000000000000000
1.1071066131966221 2.5578349333852279 0.0000000000000000
8.3206878154283519 7.9194356340059260 0.0000000000000000
2.1450738254166080 8.3720316028156425 0.0000000000000000
3.0955047268947968 9.1764031408420355 0.0000000000000000
0.4515768329909487 4.5704136010525609 0.0000000000000000
6.9529899790598728 8.9590629767574654 0.0000000000000000
7.2812507934470956 9.7416802886780758 0.0000000000000000
7.6401187848839527 9.6151707847181385 0.0000000000000000
0.5425451896896104 9.2249617820305829 0.0000000000000000
8.4263842275266576 8.5903075985970982 0.0000000000000000
1.5440542297841930 8.8036872664815924 0.0000000000000000
8.3730154826087357 3.4242982367400798 0.0000000000000000
2.5315056306311230 1.2366007708019440 0.0000000000000000
8.7413860316521337 7.7459838016997704 0.0000000000000000
8.6900346721449750 7.7603670874561423 0.0000000000000000
8.6463315229123996 7.7063912067489477 0.0000000000000000
0.9739441772131043 3.3793379479419250 0.0000000000000000
0.9436229524786872 3.4036762660036590 0.0000000000000000
0.8800475118374921 3.3899614451200821 0.0000000000000000
8.3775634808580364 2.2817293475137759 0.0000000000000000
1.0409449161784829 5.9938822184622156 0.0000000000000000
1.4189570346888780 5.4152692618045410 0.0000000000000000
2.2520010691210750 1.6353842919142789 0.0000000000000000
4.7899079898552648 1.3507089772813761 0.0000000000000000
1.3600920101447240 3.3242910227186249 0.0000000000000000
1.4158307032841260 3.6422911435394512 0.0000000000000000
6.2649079898553062 1.3507089772813790 0.0000000000000000
4.7899438887306092 1.2624877085225310 0.0000000000000000
1.3600561112693630 3.4125122914774662 0.0000000000000000
1.3343100852128820 3.6760193594843860 0.0000000000000000
6.2649438887306941 1.2624877085225570 0.0000000000000000
1.3042999652732441 1.5628901091746290 0.0000000000000000
8.8297324349432884 8.1965060497168700 0.0000000000000000
8.7388335509744977 4.0100948325500818 0.0000000000000000
1.4035267196460539 1.6243165437797309 0.0000000000000000
9.2035133462115848 9.0642485892838547 0.0000000000000000
4.9129907453480213 0.8545346361147790 0.0000000000000000
0.8545346359411232 5.0870092543270857 0.0000000000000000
1.0377812383189100 5.4763092726778320 0.0000000000000000
0.9474522890812778 0.7890335538922100 0.0000000000000000
5.1078358919738669 8.3733205790987171 0.0000000000000000
0.7182025079023802 1.7445728740530679 0.0000000000000000
2.5329084275742102 9.0016467347660942 0.0000000000000000
3.0300564970792840 1.6608463126671680 0.0000000000000000
1.3476518295264390 6.9683819079223106 0.0000000000000000
1.6318319654984621 1.8417755256327550 0.0000000000000000
3.6825295812073282 9.7267881794289348 0.0000000000000000
0.9257441149424810 6.3579560963531243 0.0000000000000000
0.6509522855535230 3.4185424586510300 0.0000000000000000
8.8713517607008932 3.7728991772517730 0.0000000000000000
8.7752871444754454 6.7133684759991130 0.0000000000000000
8.6126603850474908 8.6031259483534477 0.0000000000000000
0.6605226833298652 6.5660065867220556 0.0000000000000000
1.5637366809625191 1.0160523780043400 0.0000000000000000
8.4444216797523950 6.2034120228184353 0.0000000000000000
6.7941194087518726 1.5371534313054800 0.0000000000000000
0.7314964645512685 8.5418095410241914 0.0000000000000000
0.5270521573713076 8.3978784126506163 0.0000000000000000
2.4993831940216231 9.6214063711390789 0.0000000000000000
8.0781033652425336 3.2394313782763660 0.0000000000000000
4.1627868942981072 0.8591986288538895 0.0000000000000000
4.1195791241096247 0.6269451157507220 0.0000000000000000
1.5831401751499119 5.2488478444378703 0.0000000000000000
8.3679738009922655 6.3959113050542147 0.0000000000000000
4.7176982147398210 0.6761095787719481 0.0000000000000000
1.5793840666949110 8.9514749717773014 0.0000000000000000
9.4623104645290894 1.4329002223454090 0.0000000000000000
1.3609425056707620 3.6377511183263822 0.0000000000000000
1.3348926525912961 3.3732625214382841 0.0000000000000000
6.2901073474086990 1.3017374785616980 0.0000000000000000
4.8151073474087323 1.3017374785617311 0.0000000000000000
1.8804696057581409 6.5729358977708996 0.0000000000000000
5.4714325275495739 8.7562262398853168 0.0000000000000000
8.8479204446949105 5.5216749268373304 0.0000000000000000
7.1630574122852897 9.3733791416485914 0.0000000000000000
8.3728584033500422 3.6347239489907501 0.0000000000000000
9.3096106121618938 8.2571019928075522 0.0000000000000000
2.6967076242066899 9.3739676633162663 0.0000000000000000
2.4208506399512268 9.2976744798521835 0.0000000000000000
5.7919315127456166 9.3942955071180414 0.0000000000000000
9.0743817754257314 6.9501762504503706 0.0000000000000000
4.6646278673848078 8.4744932281217942 0.0000000000000000
3.0719815331259248 0.8384238656777447 0.0000000000000000
8.3711016180368674 7.8033228685859628 0.0000000000000000
3.9967786724268799 8.9377266356790788 0.0000000000000000
8.0623142364627327 8.3717987969081005 0.0000000000000000
9.0941849266494774 5.5446284738979656 0.0000000000000000
8.1818697121115402 8.8711217719415316 0.0000000000000000
4.8208517472462677 8.9986286734237861 0.0000000000000000
5.4269639529567479 9.1373477822398126 0.0000000000000000
0.6144149024405576 1.1699877450762759 0.0000000000000000
1.0305438098720969 8.4335515739598463 0.0000000000000000
0.4414283615666585 7.7253433306897143 0.0000000000000000
4.4461524325698072 0.4886924800488318 0.0000000000000000
1.0500706622675300 1.5665953507045600 0.0000000000000000
6.3940636610472588 0.8613886516200913 0.0000000000000000
0.9143308783748172 3.7102222084123508 0.0000000000000000
8.9473720780290478 5.4871031966206623 0.0000000000000000
3.6264118171839539 1.7960985324732210 0.0000000000000000
1.2385159585556340 5.4651340182803976 0.0000000000000000
1.7524735363386330 1.1143547330065180 0.0000000000000000
4.9806987409028682 9.0830913790028927 0.0000000000000000
5.0704237572029420 9.0723775968783968 0.0000000000000000
0.9875708880911285 1.8517166259786699 0.0000000000000000
0.3848427222839162 1.9911102317044349 0.0000000000000000
0.6231475747787700 1.9294405023688810 0.0000000000000000
1.5404583734002391 7.6857190537238544 0.0000000000000000
8.8725143342131485 2.2787030804772570 0.0000000000000000
3.7537030804772500 1.1274856657868839 0.0000000000000000
4.8951435893523936 9.0533484069865207 0.0000000000000000
8.7746787949049718 4.7516992630371133 0.0000000000000000
1.0276850000096951 2.2788352697698890 0.0000000000000000
1.2723149999903061 4.7711647302301214 0.0000000000000000
3.2766992630371812 8.9253212050948854 0.0000000000000000
8.7762994510702175 1.8040693077775229 0.0000000000000000
0.9854360359189197 6.2744782295824901 0.0000000000000000
7.8763044920457146 0.9041009655364974 0.0000000000000000
3.9492975688118999 1.6597559186818560 0.0000000000000000
7.6870532114230379 8.4542553608291335 0.0000000000000000
1.3106674766866160 4.5271682052272588 0.0000000000000000
1.4222566250579729 3.9205157555669201 0.0000000000000000
1.1707318537116480 4.7707893030712212 0.0000000000000000
1.8048908268977379 1.5783405107464510 0.0000000000000000
2.4659049163036149 9.1284015256895081 0.0000000000000000
2.5145661840207172 8.7575920405318826 0.0000000000000000
0.7257574256410466 5.2892315551876070 0.0000000000000000
6.1956914239504757 1.5441781116477411 0.0000000000000000
0.8955557895257920 1.6157513286525640 0.0000000000000000
3.1227678954807279 1.4103382771329420 0.0000000000000000
8.9935212948477350 3.0389498921916500 0.0000000000000000
1.5905388464609009 4.7658421558892918 0.0000000000000000
2.1564212235296720 0.6409709670108987 0.0000000000000000
3.3506977078507192 2.0535048127940660 0.0000000000000000
8.4278999397220531 3.0128779864987738 0.0000000000000000
1.5436340019519710 8.6663187757835658 0.0000000000000000
7.4729156238275580 8.3909831125544567 0.0000000000000000
8.6876742770159225 1.5586613837145129 0.0000000000000000
0.4012295929644141 6.2959629020892143 0.0000000000000000
0.9268612493350679 5.1131780559664790 0.0000000000000000
4.8868219437627758 0.9268612494797852 0.0000000000000000
6.0889109883560852 1.4494730202801940 0.0000000000000000
8.7990891006704661 5.9843585701956270 0.0000000000000000
8.4730393329221165 2.3671629402382979 0.0000000000000000
6.1836388155968347 8.8313403487883999 0.0000000000000000
8.5592217690870722 0.9607208964604781 0.0000000000000000
1.5550498259769789 1.7726211835269441 0.0000000000000000
1.1265162328555400 1.8252778741003310 0.0000000000000000
9.1509494955065698 8.7481515116255277 0.0000000000000000

SCALARS v:x_e double 3
LOOKUP_TABLE default
9.1633944954128452 -0.0535474006116203 0.0000000000000000
0.9111009174311944 -0.0299694189602446 0.0000000000000000
0.2744954128440380 0.4180122324159026 0.0000000000000000
0.0622935779816531 1.0310397553516819 0.0000000000000000
0.0387155963302765 1.9034250764525991 0.0000000000000000
0.2509174311926623 2.6579204892966359 0.0000000000000000
0.0858715596330288 3.2945259938837919 0.0000000000000000
0.1801834862385334 5.9824159021406729 0.0000000000000000
-0.0555963302752280 6.2181957186544343 0.0000000000000000
-0.0555963302752280 6.5718654434250761 0.0000000000000000
0.1330275229357811 7.4442507645259939 0.0000000000000000
0.1330275229357811 9.1182874617737006 0.0000000000000000
0.3688073394495426 9.7313149847094795 0.0000000000000000
0.7696330275229375 9.9435168195718653 0.0000000000000000
1.5477064220183501 10.0378287461773699 0.0000000000000000
8.8804587155963315 10.1321406727828691 0.0000000000000000
9.3991743119266058 9.9435168195718653 0.0000000000000000
9.8000000000000007 9.2833333333333332 0.0000000000000000
9.8000000000000007 1.1489296636085631 0.0000000000000000
9.5877981651376150 0.2765443425076457 0.0000000000000000
9.1633944954128452 -0.0535474006116203 0.0000000000000000
2.2500000000000000 1.1499999999999999 0.0000000000000000
2.2461570560806461 1.1890180644032260 0.0000000000000000
2.2347759065022572 1.2265366864730181 0.0000000000000000
2.2162939224605092 1.2611140466039199 0.0000000000000000
2.1914213562373090 1.2914213562373089 0.0000000000000000
2.1611140466039198 1.3162939224605090 0.0000000000000000
2.1265366864730182 1.3347759065022571 0.0000000000000000
2.0890180644032261 1.3461570560806460 0.0000000000000000
2.0499999999999998 1.3500000000000001 0.0000000000000000
2.0109819355967740 1.3461570560806460 0.0000000000000000
1.9734633135269819 1.3347759065022571 0.0000000000000000
1.9388859533960789 1.3162939224605090 0.0000000000000000
1.9085786437626899 1.2914213562373089 0.0000000000000000
1.8837060775394909 1.2611140466039199 0.0000000000000000
1.8652240934977420 1.2265366864730181 0.0000000000000000
1.8538429439193540 1.1890180644032260 0.0000000000000000
1.8500000000000001 1.1499999999999999 0.0000000000000000
1.8538429439193540 1.1096694355967740 0.0000000000000000
1.8652240934977420 1.0721508135269819 0.0000000000000000
1.8837060775394909 1.0375734533960790 0.0000000000000000
1.9085786437626899 1.0072661437626900 0.0000000000000000
1.9388859533960789 0.9823935775394907 0.0000000000000000
1.9734633135269819 0.9639115934977426 0.0000000000000000
2.0109819355967740 0.9525304439193538 0.0000000000000000
2.0499999999999998 0.9486874999999999 0.0000000000000000
2.0890180644032261 0.9525304439193538 0.0000000000000000
2.1265366864730182 0.9639115934977425 0.0000000000000000
2.1611140466039198 0.9823935775394907 0.0000000000000000
2.1914213562373090 1.0072661437626900 0.0000000000000000
2.2162939224605092 1.0375734533960790 0.0000000000000000
2.2347759065022572 1.0721508135269819 0.0000000000000000
2.2461570560806461 1.1096694355967740 0.0000000000000000
2.4500000000000002 1.1499999999999999 0.0000000000000000
2.4195518130045151 1.3030733729460360 0.0000000000000000
2.3328427124746192 1.4328427124746190 0.0000000000000000
2.2030733729460361 1.5195518130045149 0.0000000000000000
2.0499999999999998 1.5500000000000000 0.0000000000000000
1.8969266270539640 1.5195518130045149 0.0000000000000000
1.7671572875253809 1.4328427124746190 0.0000000000000000
1.6804481869954850 1.3030733729460360 0.0000000000000000
1.6499999999999999 1.1499999999999999 0.0000000000000000
1.6804481869954850 0.9969266270539641 0.0000000000000000
1.7671572875253809 0.8671572875253809 0.0000000000000000
1.8969266270539640 0.7804481869954853 0.0000000000000000
2.0499999999999998 0.7499999999999999 0.0000000000000000
2.2030733729460361 0.7804481869954852 0.0000000000000000
2.3328427124746192 0.8671572875253808 0.0000000000000000
2.4195518130045151 0.9969266270539637 0.0000000000000000
2.2500000000000000 8.8499999999999996 0.0000000000000000
2.2461570560806461 8.8903305644032251 0.0000000000000000
2.2347759065022572 8.9278491864730167 0.0000000000000000
2.2162939224605092 8.9624265466039201 0.0000000000000000
2.1914213562373090 8.9927338562373080 0.0000000000000000
2.1611140466039198 9.0176064224605081 0.0000000000000000
2.1265366864730182 9.0360884065022553 0.0000000000000000
2.0890180644032261 9.0474695560806442 0.0000000000000000
2.0499999999999998 9.0513124999999981 0.0000000000000000
2.0109819355967740 9.0474695560806442 0.0000000000000000
1.9734633135269819 9.0360884065022553 0.0000000000000000
1.9388859533960789 9.0176064224605081 0.0000000000000000
1.9085786437626899 8.9927338562373080 0.0000000000000000
1.8837060775394909 8.9624265466039201 0.0000000000000000
1.8652240934977420 8.9278491864730167 0.0000000000000000
1.8538429439193540 8.8903305644032251 0.0000000000000000
1.8500000000000001 8.8513124999999988 0.0000000000000000
1.8538429439193540 8.8109819355967733 0.0000000000000000
1.8652240934977420 8.7734633135269817 0.0000000000000000
1.8837060775394909 8.7388859533960801 0.0000000000000000
1.9085786437626899 8.7085786437626904 0.0000000000000000
1.9388859533960789 8.6837060775394903 0.0000000000000000
1.9734633135269819 8.6652240934977431 0.0000000000000000
2.0109819355967740 8.6538429439193543 0.0000000000000000
2.0499999999999998 8.6500000000000004 0.0000000000000000
2.0890180644032261 8.6538429439193543 0.0000000000000000
2.1265366864730182 8.6652240934977431 0.0000000000000000
2.1611140466039198 8.6837060775394903 0.0000000000000000
2.1914213562373090 8.7085786437626904 0.0000000000000000
2.2162939224605092 8.7388859533960783 0.0000000000000000
2.2347759065022572 8.7734633135269817 0.0000000000000000
2.2461570560806461 8.8109819355967733 0.0000000000000000
2.4500000000000002 8.8499999999999996 0.0000000000000000
2.4195518130045151 9.0030733729460355 0.0000000000000000
2.3328427124746192 9.1328427124746181 0.0000000000000000
2.2030733729460361 9.2195518130045144 0.0000000000000000
2.0499999999999998 9.2500000000000000 0.0000000000000000
1.8969266270539640 9.2195518130045144 0.0000000000000000
1.7671572875253809 9.1328427124746181 0.0000000000000000
1.6804481869954850 9.0030733729460355 0.0000000000000000
1.6499999999999999 8.8499999999999996 0.0000000000000000
1.6804481869954850 8.6969266270539638 0.0000000000000000
1.7671572875253809 8.5671572875253812 0.0000000000000000
1.8969266270539640 8.4804481869954849 0.0000000000000000
2.0499999999999998 8.4499999999999993 0.0000000000000000
2.2030733729460361 8.4804481869954849 0.0000000000000000
2.3328427124746192 8.5671572875253812 0.0000000000000000
2.4195518130045151 8.6969266270539638 0.0000000000000000
1.3500000000000001 2.0499999999999998 0.0000000000000000
1.3461570560806460 2.0890180644032261 0.0000000000000000
1.3347759065022571 2.1265366864730182 0.0000000000000000
1.3162939224605090 2.1611140466039198 0.0000000000000000
1.2914213562373089 2.1914213562373090 0.0000000000000000
1.2611140466039199 2.2162939224605092 0.0000000000000000
1.2265366864730181 2.2347759065022572 0.0000000000000000
1.1890180644032260 2.2461570560806461 0.0000000000000000
1.1499999999999999 2.2500000000000000 0.0000000000000000
1.1096694355967740 2.2461570560806461 0.0000000000000000
1.0721508135269819 2.2347759065022572 0.0000000000000000
1.0375734533960790 2.2162939224605092 0.0000000000000000
1.0072661437626900 2.1914213562373090 0.0000000000000000
0.9823935775394907 2.1611140466039198 0.0000000000000000
0.9639115934977425 2.1265366864730182 0.0000000000000000
0.9525304439193538 2.0890180644032261 0.0000000000000000
0.9486874999999999 2.0499999999999998 0.0000000000000000
0.9525304439193538 2.0109819355967740 0.0000000000000000
0.9639115934977425 1.9734633135269819 0.0000000000000000
0.9823935775394907 1.9388859533960789 0.0000000000000000
1.0072661437626900 1.9085786437626899 0.0000000000000000
1.0375734533960790 1.8837060775394909 0.0000000000000000
1.0721508135269819 1.8652240934977420 0.0000000000000000
1.1096694355967740 1.8538429439193540 0.0000000000000000
1.1486874999999999 1.8500000000000001 0.0000000000000000
1.1890180644032260 1.8538429439193540 0.0000000000000000
1.2265366864730181 1.8652240934977420 0.0000000000000000
1.2611140466039199 1.8837060775394909 0.0000000000000000
1.2914213562373089 1.9085786437626899 0.0000000000000000
1.3162939224605090 1.9388859533960789 0.0000000000000000
1.3347759065022571 1.9734633135269819 0.0000000000000000
1.3461570560806460 2.0109819355967740 0.0000000000000000
1.5500000000000000 2.0499999999999998 0.0000000000000000
1.5195518130045149 2.2030733729460361 0.0000000000000000
1.4328427124746190 2.3328427124746192 0.0000000000000000
1.3030733729460360 2.4195518130045151 0.0000000000000000
1.1499999999999999 2.4500000000000002 0.0000000000000000
0.9969266270539641 2.4195518130045151 0.0000000000000000
0.8671572875253809 2.3328427124746192 0.0000000000000000
0.7804481869954851 2.2030733729460361 0.0000000000000000
0.7499999999999999 2.0499999999999998 0.0000000000000000
0.7804481869954851 1.8969266270539640 0.0000000000000000
0.8671572875253808 1.7671572875253809 0.0000000000000000
0.9969266270539637 1.6804481869954850 0.0000000000000000
1.1499999999999999 1.6499999999999999 0.0000000000000000
1.3030733729460360 1.6804481869954850 0.0000000000000000
1.4328427124746190 1.7671572875253809 0.0000000000000000
1.5195518130045140 1.8969266270539640 0.0000000000000000
9.0513124999999981 2.0499999999999998 0.0000000000000000
9.0474695560806442 2.0890180644032261 0.0000000000000000
9.0360884065022553 2.1265366864730182 0.0000000000000000
9.0176064224605081 2.1611140466039198 0.0000000000000000
8.9927338562373080 2.1914213562373090 0.0000000000000000
8.9624265466039201 2.2162939224605092 0.0000000000000000
8.9278491864730167 2.2347759065022572 0.0000000000000000
8.8903305644032251 2.2461570560806461 0.0000000000000000
8.8513124999999988 2.2500000000000000 0.0000000000000000
8.8109819355967733 2.2461570560806461 0.0000000000000000
8.7734633135269817 2.2347759065022572 0.0000000000000000
8.7388859533960801 2.2162939224605092 0.0000000000000000
8.7085786437626904 2.1914213562373090 0.0000000000000000
8.6837060775394903 2.1611140466039198 0.0000000000000000
8.6652240934977431 2.1265366864730182 0.0000000000000000
8.6538429439193543 2.0890180644032261 0.0000000000000000
8.6500000000000004 2.0499999999999998 0.0000000000000000
8.6538429439193543 2.0109819355967740 0.0000000000000000
8.6652240934977414 1.9734633135269819 0.0000000000000000
8.6837060775394903 1.9388859533960789 0.0000000000000000
8.7085786437626904 1.9085786437626899 0.0000000000000000
8.7388859533960783 1.8837060775394909 0.0000000000000000
8.7734633135269817 1.8652240934977420 0.0000000000000000
8.8109819355967733 1.8538429439193540 0.0000000000000000
8.8499999999999996 1.8500000000000001 0.0000000000000000
8.8903305644032251 1.8538429439193540 0.0000000000000000
8.9278491864730167 1.8652240934977420 0.0000000000000000
8.9624265466039184 1.8837060775394909 0.0000000000000000
8.9927338562373080 1.9085786437626899 0.0000000000000000
9.0176064224605081 1.9388859533960789 0.0000000000000000
9.0360884065022553 1.9734633135269819 0.0000000000000000
9.0474695560806442 2.0109819355967740 0.0000000000000000
9.2500000000000000 2.0499999999999998 0.0000000000000000
9.2195518130045144 2.2030733729460361 0.0000000000000000
9.1328427124746181 2.3328427124746192 0.0000000000000000
9.0030733729460355 2.4195518130045151 0.0000000000000000
8.8499999999999996 2.4500000000000002 0.0000000000000000
8.6969266270539638 2.4195518130045151 0.0000000000000000
8.5671572875253812 2.3328427124746192 0.0000000000000000
8.4804481869954849 2.2030733729460361 0.0000000000000000
8.4499999999999993 2.0499999999999998 0.0000000000000000
8.4804481869954849 1.8969266270539640 0.0000000000000000
8.5671572875253812 1.7671572875253809 0.0000000000000000
8.6969266270539638 1.6804481869954850 0.0000000000000000
8.8499999999999996 1.6499999999999999 0.0000000000000000
9.0030733729460355 1.6804481869954850 0.0000000000000000
9.1328427124746181 1.7671572875253809 0.0000000000000000
9.2195518130045144 1.8969266270539640 0.0000000000000000
3.7250000000000001 1.1499999999999999 0.0000000000000000
3.7211570560806462 1.1890180644032260 0.0000000000000000
3.7097759065022569 1.2265366864730181 0.0000000000000000
3.6912939224605088 1.2611140466039199 0.0000000000000000
3.6664213562373100 1.2914213562373089 0.0000000000000000
3.6361140466039199 1.3162939224605090 0.0000000000000000
3.6015366864730178 1.3347759065022571 0.0000000000000000
3.5640180644032262 1.3461570560806460 0.0000000000000000
3.5249999999999999 1.3500000000000001 0.0000000000000000
3.4859819355967741 1.3461570560806460 0.0000000000000000
3.4484633135269820 1.3347759065022571 0.0000000000000000
3.4138859533960790 1.3162939224605090 0.0000000000000000
3.3835786437626898 1.2914213562373089 0.0000000000000000
3.3587060775394910 1.2611140466039199 0.0000000000000000
3.3402240934977430 1.2265366864730181 0.0000000000000000
3.3288429439193541 1.1890180644032260 0.0000000000000000
3.3250000000000002 1.1499999999999999 0.0000000000000000
3.3288429439193541 1.1096694355967740 0.0000000000000000
3.3402240934977430 1.0721508135269819 0.0000000000000000
3.3587060775394910 1.0375734533960790 0.0000000000000000
3.3835786437626898 1.0072661437626900 0.0000000000000000
3.4138859533960790 0.9823935775394907 0.0000000000000000
3.4484633135269820 0.9639115934977426 0.0000000000000000
3.4859819355967741 0.9525304439193538 0.0000000000000000
3.5249999999999999 0.9486874999999999 0.0000000000000000
3.5640180644032262 0.9525304439193538 0.0000000000000000
3.6015366864730178 0.9639115934977425 0.0000000000000000
3.6361140466039199 0.9823935775394907 0.0000000000000000
3.6664213562373100 1.0072661437626900 0.0000000000000000
3.6912939224605088 1.0375734533960790 0.0000000000000000
3.7097759065022569 1.0721508135269819 0.0000000000000000
3.7211570560806462 1.1096694355967740 0.0000000000000000
3.9249999999999998 1.1499999999999999 0.0000000000000000
3.8945518130045151 1.3030733729460360 0.0000000000000000
3.8078427124746188 1.4328427124746190 0.0000000000000000
3.6780733729460362 1.5195518130045149 0.0000000000000000
3.5249999999999999 1.5500000000000000 0.0000000000000000
3.3719266270539641 1.5195518130045149 0.0000000000000000
3.2421572875253810 1.4328427124746190 0.0000000000000000
3.1554481869954851 1.3030733729460360 0.0000000000000000
3.1250000000000000 1.1499999999999999 0.0000000000000000
3.1554481869954851 0.9969266270539641 0.0000000000000000
3.2421572875253810 0.8671572875253809 0.0000000000000000
3.3719266270539641 0.7804481869954853 0.0000000000000000
3.5249999999999999 0.7499999999999999 0.0000000000000000
3.6780733729460362 0.7804481869954852 0.0000000000000000
3.8078427124746188 0.8671572875253808 0.0000000000000000
3.8945518130045151 0.9969266270539637 0.0000000000000000
3.7250000000000001 8.8499999999999996 0.0000000000000000
3.7211570560806462 8.8903305644032251 0.0000000000000000
3.7097759065022569 8.9278491864730167 0.0000000000000000
3.6912939224605088 8.9624265466039201 0.0000000000000000
3.6664213562373100 8.9927338562373080 0.0000000000000000
3.6361140466039199 9.0176064224605081 0.0000000000000000
3.6015366864730178 9.0360884065022553 0.0000000000000000
3.5640180644032262 9.0474695560806442 0.0000000000000000
3.5249999999999999 9.0513124999999981 0.0000000000000000
3.4859819355967741 9.0474695560806442 0.0000000000000000
3.4484633135269820 9.0360884065022553 0.0000000000000000
3.4138859533960790 9.0176064224605081 0.0000000000000000
3.3835786437626898 8.9927338562373080 0.0000000000000000
3.3587060775394910 8.9624265466039201 0.0000000000000000
3.3402240934977430 8.9278491864730167 0.0000000000000000
3.3288429439193541 8.8903305644032251 0.0000000000000000
3.3250000000000002 8.8513124999999988 0.0000000000000000
3.3288429439193541 8.8109819355967733 0.0000000000000000
3.3402240934977430 8.7734633135269817 0.0000000000000000
3.3587060775394910 8.7388859533960801 0.0000000000000000
3.3835786437626898 8.7085786437626904 0.0000000000000000
3.4138859533960790 8.6837060775394903 0.0000000000000000
3.4484633135269820 8.6652240934977431 0.0000000000000000
3.4859819355967741 8.6538429439193543 0.0000000000000000
3.5249999999999999 8.6500000000000004 0.0000000000000000
3.5640180644032262 8.6538429439193543 0.0000000000000000
3.6015366864730178 8.6652240934977431 0.0000000000000000
3.6361140466039199 8.6837060775394903 0.0000000000000000
3.6664213562373100 8.7085786437626904 0.0000000000000000
3.6912939224605088 8.7388859533960783 0.0000000000000000
3.7097759065022569 8.7734633135269817 0.0000000000000000
3.7211570560806462 8.8109819355967733 0.0000000000000000
3.9249999999999998 8.8499999999999996 0.0000000000000000
3.8945518130045151 9.0030733729460355 0.0000000000000000
3.8078427124746188 9.1328427124746181 0.0000000000000000
3.6780733729460362 9.2195518130045144 0.0000000000000000
3.5249999999999999 9.2500000000000000 0.0000000000000000
3.3719266270539641 9.2195518130045144 0.0000000000000000
3.2421572875253810 9.1328427124746181 0.0000000000000000
3.1554481869954851 9.0030733729460355 0.0000000000000000
3.1250000000000000 8.8499999999999996 0.0000000000000000
3.1554481869954851 8.6969266270539638 0.0000000000000000
3.2421572875253810 8.5671572875253812 0.0000000000000000
3.3719266270539641 8.4804481869954849 0.0000000000000000
3.5249999999999999 8.4499999999999993 0.0000000000000000
3.6780733729460362 8.4804481869954849 0.0000000000000000
3.8078427124746188 8.5671572875253812 0.0000000000000000
3.8945518130045151 8.6969266270539638 0.0000000000000000
1.3500000000000001 3.5249999999999999 0.0000000000000000
1.3461570560806460 3.5640180644032262 0.0000000000000000
1.3347759065022571 3.6015366864730178 0.0000000000000000
1.3162939224605090 3.6361140466039199 0.0000000000000000
1.2914213562373089 3.6664213562373100 0.0000000000000000
1.2611140466039199 3.6912939224605088 0.0000000000000000
1.2265366864730181 3.7097759065022569 0.0000000000000000
1.1890180644032260 3.7211570560806462 0.0000000000000000
1.1499999999999999 3.7250000000000001 0.0000000000000000
1.1096694355967740 3.7211570560806462 0.0000000000000000
1.0721508135269819 3.7097759065022569 0.0000000000000000
1.0375734533960790 3.6912939224605088 0.0000000000000000
1.0072661437626900 3.6664213562373100 0.0000000000000000
0.9823935775394907 3.6361140466039199 0.0000000000000000
0.9639115934977425 3.6015366864730178 0.0000000000000000
0.9525304439193538 3.5640180644032262 0.0000000000000000
0.9486874999999999 3.5249999999999999 0.0000000000000000
0.9525304439193538 3.4859819355967741 0.0000000000000000
0.9639115934977425 3.4484633135269820 0.0000000000000000
0.9823935775394907 3.4138859533960790 0.0000000000000000
1.0072661437626900 3.3835786437626898 0.0000000000000000
1.0375734533960790 3.3587060775394910 0.0000000000000000
1.0721508135269819 3.3402240934977430 0.0000000000000000
1.1096694355967740 3.3288429439193541 0.0000000000000000
1.1486874999999999 3.3250000000000002 0.0000000000000000
1.1890180644032260 3.3288429439193541 0.0000000000000000
1.2265366864730181 3.3402240934977430 0.0000000000000000
1.2611140466039199 3.3587060775394910 0.0000000000000000
1.2914213562373089 3.3835786437626898 0.0000000000000000
1.3162939224605090 3.4138859533960790 0.0000000000000000
1.3347759065022571 3.4484633135269820 0.0000000000000000
1.3461570560806460 3.4859819355967741 0.0000000000000000
1.5500000000000000 3.5249999999999999 0.0000000000000000
1.5195518130045149 3.6780733729460362 0.0000000000000000
1.4328427124746190 3.8078427124746188 0.0000000000000000
1.3030733729460360 3.8945518130045151 0.0000000000000000
1.1499999999999999 3.9249999999999998 0.0000000000000000
0.9969266270539641 3.8945518130045151 0.0000000000000000
0.8671572875253809 3.8078427124746188 0.0000000000000000
0.7804481869954851 3.6780733729460362 0.0000000000000000
0.7499999999999999 3.5249999999999999 0.0000000000000000
0.7804481869954851 3.3719266270539641 0.0000000000000000
0.8671572875253808 3.2421572875253810 0.0000000000000000
0.9969266270539637 3.1554481869954851 0.0000000000000000
1.1499999999999999 3.1250000000000000 0.0000000000000000
1.3030733729460360 3.1554481869954851 0.0000000000000000
1.4328427124746190 3.2421572875253810 0.0000000000000000
1.5195518130045140 3.3719266270539641 0.0000000000000000
9.0513124999999981 3.5249999999999999 0.0000000000000000
9.0474695560806442 3.5640180644032262 0.0000000000000000
9.0360884065022553 3.6015366864730178 0.0000000000000000
9.0176064224605081 3.6361140466039199 0.0000000000000000
8.9927338562373080 3.6664213562373100 0.0000000000000000
8.9624265466039201 3.6912939224605088 0.0000000000000000
8.9278491864730167 3.7097759065022569 0.0000000000000000
8.8903305644032251 3.7211570560806462 0.0000000000000000
8.8513124999999988 3.7250000000000001 0.0000000000000000
8.8109819355967733 3.7211570560806462 0.0000000000000000
8.7734633135269817 3.7097759065022569 0.0000000000000000
8.7388859533960801 3.6912939224605088 0.0000000000000000
8.7085786437626904 3.6664213562373100 0.0000000000000000
8.6837060775394903 3.6361140466039199 0.0000000000000000
8.6652240934977431 3.6015366864730178 0.0000000000000000
8.6538429439193543 3.5640180644032262 0.0000000000000000
8.6500000000000004 3.5249999999999999 0.0000000000000000
8.6538429439193543 3.4859819355967741 0.0000000000000000
8.6652240934977414 3.4484633135269820 0.0000000000000000
8.6837060775394903 3.4138859533960790 0.0000000000000000
8.7085786437626904 3.3835786437626898 0.0000000000000000
8.7388859533960783 3.3587060775394910 0.0000000000000000
8.7734633135269817 3.3402240934977430 0.0000000000000000
8.8109819355967733 3.3288429439193541 0.0000000000000000
8.8499999999999996 3.3250000000000002 0.0000000000000000
8.8903305644032251 3.3288429439193541 0.0000000000000000
8.9278491864730167 3.3402240934977430 0.0000000000000000
8.9624265466039184 3.3587060775394910 0.0000000000000000
8.9927338562373080 3.3835786437626898 0.0000000000000000
9.0176064224605081 3.4138859533960790 0.0000000000000000
9.0360884065022553 3.4484633135269820 0.0000000000000000
9.0474695560806442 3.4859819355967741 0.0000000000000000
9.2500000000000000 3.5249999999999999 0.0000000000000000
9.2195518130045144 3.6780733729460362 0.0000000000000000
9.1328427124746181 3.8078427124746188 0.0000000000000000
9.0030733729460355 3.8945518130045151 0.0000000000000000
8.8499999999999996 3.9249999999999998 0.0000000000000000
8.6969266270539638 3.8945518130045151 0.0000000000000000
8.5671572875253812 3.8078427124746188 0.0000000000000000
8.4804481869954849 3.6780733729460362 0.0000000000000000
8.4499999999999993 3.5249999999999999 0.0000000000000000
8.4804481869954849 3.3719266270539641 0.0000000000000000
8.5671572875253812 3.2421572875253810 0.0000000000000000
8.6969266270539638 3.1554481869954851 0.0000000000000000
8.8499999999999996 3.1250000000000000 0.0000000000000000
9.0030733729460355 3.1554481869954851 0.0000000000000000
9.1328427124746181 3.2421572875253810 0.0000000000000000
9.2195518130045144 3.3719266270539641 0.0000000000000000
5.2000000000000002 1.1499999999999999 0.0000000000000000
5.1961570560806463 1.1890180644032260 0.0000000000000000
5.1847759065022574 1.2265366864730181 0.0000000000000000
5.1662939224605093 1.2611140466039199 0.0000000000000000
5.1414213562373092 1.2914213562373089 0.0000000000000000
5.1111140466039204 1.3162939224605090 0.0000000000000000
5.0765366864730179 1.3347759065022571 0.0000000000000000
5.0390180644032254 1.3461570560806460 0.0000000000000000
5.0000000000000000 1.3500000000000001 0.0000000000000000
4.9609819355967746 1.3461570560806460 0.0000000000000000
4.9234633135269821 1.3347759065022571 0.0000000000000000
4.8888859533960796 1.3162939224605090 0.0000000000000000
4.8585786437626908 1.2914213562373089 0.0000000000000000
4.8337060775394907 1.2611140466039199 0.0000000000000000
4.8152240934977426 1.2265366864730181 0.0000000000000000
4.8038429439193537 1.1890180644032260 0.0000000000000000
4.7999999999999998 1.1499999999999999 0.0000000000000000
4.8038429439193537 1.1096694355967740 0.0000000000000000
4.8152240934977426 1.0721508135269819 0.0000000000000000
4.8337060775394907 1.0375734533960790 0.0000000000000000
4.8585786437626908 1.0072661437626900 0.0000000000000000
4.8888859533960796 0.9823935775394907 0.0000000000000000
4.9234633135269821 0.9639115934977426 0.0000000000000000
4.9609819355967746 0.9525304439193538 0.0000000000000000
5.0000000000000000 0.9486874999999999 0.0000000000000000
5.0390180644032254 0.9525304439193538 0.0000000000000000
5.0765366864730179 0.9639115934977425 0.0000000000000000
5.1111140466039204 0.9823935775394907 0.0000000000000000
5.1414213562373092 1.0072661437626900 0.0000000000000000
5.1662939224605093 1.0375734533960790 0.0000000000000000
5.1847759065022574 1.0721508135269819 0.0000000000000000
5.1961570560806463 1.1096694355967740 0.0000000000000000
5.4000000000000004 1.1499999999999999 0.0000000000000000
5.3695518130045148 1.3030733729460360 0.0000000000000000
5.2828427124746193 1.4328427124746190 0.0000000000000000
5.1530733729460358 1.5195518130045149 0.0000000000000000
5.0000000000000000 1.5500000000000000 0.0000000000000000
4.8469266270539642 1.5195518130045149 0.0000000000000000
4.7171572875253807 1.4328427124746190 0.0000000000000000
4.6304481869954852 1.3030733729460360 0.0000000000000000
4.5999999999999996 1.1499999999999999 0.0000000000000000
4.6304481869954852 0.9969266270539641 0.0000000000000000
4.7171572875253807 0.8671572875253809 0.0000000000000000
4.8469266270539642 0.7804481869954853 0.0000000000000000
5.0000000000000000 0.7499999999999999 0.0000000000000000
5.1530733729460358 0.7804481869954852 0.0000000000000000
5.2828427124746193 0.8671572875253808 0.0000000000000000
5.3695518130045148 0.9969266270539637 0.0000000000000000
5.2000000000000002 8.8499999999999996 0.0000000000000000
5.1961570560806463 8.8903305644032251 0.0000000000000000
5.1847759065022574 8.9278491864730167 0.0000000000000000
5.1662939224605093 8.9624265466039201 0.0000000000000000
5.1414213562373092 8.9927338562373080 0.0000000000000000
5.1111140466039204 9.0176064224605081 0.0000000000000000
5.0765366864730179 9.0360884065022553 0.0000000000000000
5.0390180644032254 9.0474695560806442 0.0000000000000000
5.0000000000000000 9.0513124999999981 0.0000000000000000
4.9609819355967746 9.0474695560806442 0.0000000000000000
4.9234633135269821 9.0360884065022553 0.0000000000000000
4.8888859533960796 9.0176064224605081 0.0000000000000000
4.8585786437626908 8.9927338562373080 0.0000000000000000
4.8337060775394907 8.9624265466039201 0.0000000000000000
4.8152240934977426 8.9278491864730167 0.0000000000000000
4.8038429439193537 8.8903305644032251 0.0000000000000000
4.7999999999999998 8.8513124999999988 0.0000000000000000
4.8038429439193537 8.8109819355967733 0.0000000000000000
4.8152240934977426 8.7734633135269817 0.0000000000000000
4.8337060775394907 8.7388859533960801 0.0000000000000000
4.8585786437626908 8.7085786437626904 0.0000000000000000
4.8888859533960796 8.6837060775394903 0.0000000000000000
4.9234633135269821 8.6652240934977431 0.0000000000000000
4.9609819355967746 8.6538429439193543 0.0000000000000000
5.0000000000000000 8.6500000000000004 0.0000000000000000
5.0390180644032254 8.6538429439193543 0.0000000000000000
5.0765366864730179 8.6652240934977431 0.0000000000000000
5.1111140466039204 8.6837060775394903 0.0000000000000000
5.1414213562373092 8.7085786437626904 0.0000000000000000
5.1662939224605093 8.7388859533960783 0.0000000000000000
5.1847759065022574 8.7734633135269817 0.0000000000000000
5.1961570560806463 8.8109819355967733 0.0000000000000000
5.4000000000000004 8.8499999999999996 0.0000000000000000
5.3695518130045148 9.0030733729460355 0.0000000000000000
5.2828427124746193 9.1328427124746181 0.0000000000000000
5.1530733729460358 9.2195518130045144 0.0000000000000000
5.0000000000000000 9.2500000000000000 0.0000000000000000
4.8469266270539642 9.2195518130045144 0.0000000000000000
4.7171572875253807 9.1328427124746181 0.0000000000000000
4.6304481869954852 9.0030733729460355 0.0000000000000000
4.5999999999999996 8.8499999999999996 0.0000000000000000
4.6304481869954852 8.6969266270539638 0.0000000000000000
4.7171572875253807 8.5671572875253812 0.0000000000000000
4.8469266270539642 8.4804481869954849 0.0000000000000000
5.0000000000000000 8.4499999999999993 0.0000000000000000
5.1530733729460358 8.4804481869954849 0.0000000000000000
5.2828427124746193 8.5671572875253812 0.0000000000000000
5.3695518130045148 8.6969266270539638 0.0000000000000000
1.3500000000000001 5.0000000000000000 0.0000000000000000
1.3461570560806460 5.0390180644032254 0.0000000000000000
1.3347759065022571 5.0765366864730179 0.0000000000000000
1.3162939224605090 5.1111140466039204 0.0000000000000000
1.2914213562373089 5.1414213562373092 0.0000000000000000
1.2611140466039199 5.1662939224605093 0.0000000000000000
1.2265366864730181 5.1847759065022574 0.0000000000000000
1.1890180644032260 5.1961570560806463 0.0000000000000000
1.1499999999999999 5.2000000000000002 0.0000000000000000
1.1096694355967740 5.1961570560806463 0.0000000000000000
1.0721508135269819 5.1847759065022574 0.0000000000000000
1.0375734533960790 5.1662939224605093 0.0000000000000000
1.0072661437626900 5.1414213562373092 0.0000000000000000
0.9823935775394907 5.1111140466039204 0.0000000000000000
0.9639115934977425 5.0765366864730179 0.0000000000000000
0.9525304439193538 5.0390180644032254 0.0000000000000000
0.9486874999999999 5.0000000000000000 0.0000000000000000
0.9525304439193538 4.9609819355967746 0.0000000000000000
0.9639115934977425 4.9234633135269821 0.0000000000000000
0.9823935775394907 4.8888859533960796 0.0000000000000000
1.0072661437626900 4.8585786437626908 0.0000000000000000
1.0375734533960790 4.8337060775394907 0.0000000000000000
1.0721508135269819 4.8152240934977426 0.0000000000000000
1.1096694355967740 4.8038429439193537 0.0000000000000000
1.1486874999999999 4.7999999999999998 0.0000000000000000
1.1890180644032260 4.8038429439193537 0.0000000000000000
1.2265366864730181 4.8152240934977426 0.0000000000000000
1.2611140466039199 4.8337060775394907 0.0000000000000000
1.2914213562373089 4.8585786437626908 0.0000000000000000
1.3162939224605090 4.8888859533960796 0.0000000000000000
1.3347759065022571 4.9234633135269821 0.0000000000000000
1.3461570560806460 4.9609819355967746 0.0000000000000000
1.5500000000000000 5.0000000000000000 0.0000000000000000
1.5195518130045149 5.1530733729460358 0.0000000000000000
1.4328427124746190 5.2828427124746193 0.0000000000000000
1.3030733729460360 5.3695518130045148 0.0000000000000000
1.1499999999999999 5.4000000000000004 0.0000000000000000
0.9969266270539641 5.3695518130045148 0.0000000000000000
0.8671572875253809 5.2828427124746193 0.0000000000000000
0.7804481869954851 5.1530733729460358 0.0000000000000000
0.7499999999999999 5.0000000000000000 0.0000000000000000
0.7804481869954851 4.8469266270539642 0.0000000000000000
0.8671572875253808 4.7171572875253807 0.0000000000000000
0.9969266270539637 4.6304481869954852 0.0000000000000000
1.1499999999999999 4.5999999999999996 0.0000000000000000
1.3030733729460360 4.6304481869954852 0.0000000000000000
1.4328427124746190 4.7171572875253807 0.0000000000000000
1.5195518130045140 4.8469266270539642 0.0000000000000000
9.0513124999999981 5.0000000000000000 0.0000000000000000
9.0474695560806442 5.0390180644032254 0.0000000000000000
9.0360884065022553 5.0765366864730179 0.0000000000000000
9.0176064224605081 5.1111140466039204 0.0000000000000000
8.9927338562373080 5.1414213562373092 0.0000000000000000
8.9624265466039201 5.1662939224605093 0.0000000000000000
8.9278491864730167 5.1847759065022574 0.0000000000000000
8.8903305644032251 5.1961570560806463 0.0000000000000000
8.8513124999999988 5.2000000000000002 0.0000000000000000
8.8109819355967733 5.1961570560806463 0.0000000000000000
8.7734633135269817 5.1847759065022574 0.0000000000000000
8.7388859533960801 5.1662939224605093 0.0000000000000000
8.7085786437626904 5.1414213562373092 0.0000000000000000
8.6837060775394903 5.1111140466039204 0.0000000000000000
8.6652240934977431 5.0765366864730179 0.0000000000000000
8.6538429439193543 5.0390180644032254 0.0000000000000000
8.6500000000000004 5.0000000000000000 0.0000000000000000
8.6538429439193543 4.9609819355967746 0.0000000000000000
8.6652240934977414 4.9234633135269821 0.0000000000000000
8.6837060775394903 4.8888859533960796 0.0000000000000000
8.7085786437626904 4.8585786437626908 0.0000000000000000
8.7388859533960783 4.8337060775394907 0.0000000000000000
8.7734633135269817 4.8152240934977426 0.0000000000000000
8.8109819355967733 4.8038429439193537 0.0000000000000000
8.8499999999999996 4.7999999999999998 0.0000000000000000
8.8903305644032251 4.8038429439193537 0.0000000000000000
8.9278491864730167 4.8152240934977426 0.0000000000000000
8.9624265466039184 4.8337060775394907 0.0000000000000000
8.9927338562373080 4.8585786437626908 0.0000000000000000
9.0176064224605081 4.8888859533960796 0.0000000000000000
9.0360884065022553 4.9234633135269821 0.0000000000000000
9.0474695560806442 4.9609819355967746 0.0000000000000000
9.2500000000000000 5.0000000000000000 0.0000000000000000
9.2195518130045144 5.1530733729460358 0.0000000000000000
9.1328427124746181 5.2828427124746193 0.0000000000000000
9.0030733729460355 5.3695518130045148 0.0000000000000000
8.8499999999999996 5.4000000000000004 0.0000000000000000
8.6969266270539638 5.3695518130045148 0.0000000000000000
8.5671572875253812 5.2828427124746193 0.0000000000000000
8.4804481869954849 5.1530733729460358 0.0000000000000000
8.4499999999999993 5.0000000000000000 0.0000000000000000
8.4804481869954849 4.8469266270539642 0.0000000000000000
8.5671572875253812 4.7171572875253807 0.0000000000000000
8.6969266270539638 4.6304481869954852 0.0000000000000000
8.8499999999999996 4.5999999999999996 0.0000000000000000
9.0030733729460355 4.6304481869954852 0.0000000000000000
9.1328427124746181 4.7171572875253807 0.0000000000000000
9.2195518130045144 4.8469266270539642 0.0000000000000000
6.6750000000000007 1.1499999999999999 0.0000000000000000
6.6711570560806468 1.1890180644032260 0.0000000000000000
6.6597759065022579 1.2265366864730181 0.0000000000000000
6.6412939224605099 1.2611140466039199 0.0000000000000000
6.6164213562373098 1.2914213562373089 0.0000000000000000
6.5861140466039210 1.3162939224605090 0.0000000000000000
6.5515366864730176 1.3347759065022571 0.0000000000000000
6.5140180644032259 1.3461570560806460 0.0000000000000000
6.4750000000000014 1.3500000000000001 0.0000000000000000
6.4359819355967751 1.3461570560806460 0.0000000000000000
6.3984633135269826 1.3347759065022571 0.0000000000000000
6.3638859533960801 1.3162939224605090 0.0000000000000000
6.3335786437626913 1.2914213562373089 0.0000000000000000
6.3087060775394912 1.2611140466039199 0.0000000000000000
6.2902240934977431 1.2265366864730181 0.0000000000000000
6.2788429439193543 1.1890180644032260 0.0000000000000000
6.2750000000000004 1.1499999999999999 0.0000000000000000
6.2788429439193543 1.1096694355967740 0.0000000000000000
6.2902240934977431 1.0721508135269819 0.0000000000000000
6.3087060775394912 1.0375734533960790 0.0000000000000000
6.3335786437626913 1.0072661437626900 0.0000000000000000
6.3638859533960801 0.9823935775394907 0.0000000000000000
6.3984633135269826 0.9639115934977426 0.0000000000000000
6.4359819355967751 0.9525304439193538 0.0000000000000000
6.4750000000000014 0.9486874999999999 0.0000000000000000
6.5140180644032259 0.9525304439193538 0.0000000000000000
6.5515366864730176 0.9639115934977425 0.0000000000000000
6.5861140466039210 0.9823935775394907 0.0000000000000000
6.6164213562373098 1.0072661437626900 0.0000000000000000
6.6412939224605099 1.0375734533960790 0.0000000000000000
6.6597759065022579 1.0721508135269819 0.0000000000000000
6.6711570560806468 1.1096694355967740 0.0000000000000000
6.8750000000000009 1.1499999999999999 0.0000000000000000
6.8445518130045153 1.3030733729460360 0.0000000000000000
6.7578427124746199 1.4328427124746190 0.0000000000000000
6.6280733729460364 1.5195518130045149 0.0000000000000000
6.4750000000000014 1.5500000000000000 0.0000000000000000
6.3219266270539647 1.5195518130045149 0.0000000000000000
6.1921572875253812 1.4328427124746190 0.0000000000000000
6.1054481869954857 1.3030733729460360 0.0000000000000000
6.0750000000000002 1.1499999999999999 0.0000000000000000
6.1054481869954857 0.9969266270539641 0.0000000000000000
6.1921572875253812 0.8671572875253809 0.0000000000000000
6.3219266270539647 0.7804481869954853 0.0000000000000000
6.4750000000000014 0.7499999999999999 0.0000000000000000
6.6280733729460364 0.7804481869954852 0.0000000000000000
6.7578427124746199 0.8671572875253808 0.0000000000000000
6.8445518130045153 0.9969266270539637 0.0000000000000000
6.6750000000000007 8.8499999999999996 0.0000000000000000
6.6711570560806468 8.8903305644032251 0.0000000000000000
6.6597759065022579 8.9278491864730167 0.0000000000000000
6.6412939224605099 8.9624265466039201 0.0000000000000000
6.6164213562373098 8.9927338562373080 0.0000000000000000
6.5861140466039210 9.0176064224605081 0.0000000000000000
6.5515366864730176 9.0360884065022553 0.0000000000000000
6.5140180644032259 9.0474695560806442 0.0000000000000000
6.4750000000000014 9.0513124999999981 0.0000000000000000
6.4359819355967751 9.0474695560806442 0.0000000000000000
6.3984633135269826 9.0360884065022553 0.0000000000000000
6.3638859533960801 9.0176064224605081 0.0000000000000000
6.3335786437626913 8.9927338562373080 0.0000000000000000
6.3087060775394912 8.9624265466039201 0.0000000000000000
6.2902240934977431 8.9278491864730167 0.0000000000000000
6.2788429439193543 8.8903305644032251 0.0000000000000000
6.2750000000000004 8.8513124999999988 0.0000000000000000
6.2788429439193543 8.8109819355967733 0.0000000000000000
6.2902240934977431 8.7734633135269817 0.0000000000000000
6.3087060775394912 8.7388859533960801 0.0000000000000000
6.3335786437626913 8.7085786437626904 0.0000000000000000
6.3638859533960801 8.6837060775394903 0.0000000000000000
6.3984633135269826 8.6652240934977431 0.0000000000000000
6.4359819355967751 8.6538429439193543 0.0000000000000000
6.4750000000000014 8.6500000000000004 0.0000000000000000
6.5140180644032259 8.6538429439193543 0.0000000000000000
6.5515366864730176 8.6652240934977431 0.0000000000000000
6.5861140466039210 8.6837060775394903 0.0000000000000000
6.6164213562373098 8.7085786437626904 0.0000000000000000
6.6412939224605099 8.7388859533960783 0.0000000000000000
6.6597759065022579 8.7734633135269817 0.0000000000000000
6.6711570560806468 8.8109819355967733 0.0000000000000000
6.8750000000000009 8.8499999999999996 0.0000000000000000
6.8445518130045153 9.0030733729460355 0.0000000000000000
6.7578427124746199 9.1328427124746181 0.0000000000000000
6.6280733729460364 9.2195518130045144 0.0000000000000000
6.4750000000000014 9.2500000000000000 0.0000000000000000
6.3219266270539647 9.2195518130045144 0.0000000000000000
6.1921572875253812 9.1328427124746181 0.0000000000000000
6.1054481869954857 9.0030733729460355 0.0000000000000000
6.0750000000000002 8.8499999999999996 0.0000000000000000
6.1054481869954857 8.6969266270539638 0.0000000000000000
6.1921572875253812 8.5671572875253812 0.0000000000000000
6.3219266270539647 8.4804481869954849 0.0000000000000000
6.4750000000000014 8.4499999999999993 0.0000000000000000
6.6280733729460364 8.4804481869954849 0.0000000000000000
6.7578427124746199 8.5671572875253812 0.0000000000000000
6.8445518130045153 8.6969266270539638 0.0000000000000000
1.3500000000000001 6.4750000000000014 0.0000000000000000
1.3461570560806460 6.5140180644032259 0.0000000000000000
1.3347759065022571 6.5515366864730176 0.0000000000000000
1.3162939224605090 6.5861140466039210 0.0000000000000000
1.2914213562373089 6.6164213562373098 0.0000000000000000
1.2611140466039199 6.6412939224605099 0.0000000000000000
1.2265366864730181 6.6597759065022579 0.0000000000000000
1.1890180644032260 6.6711570560806468 0.0000000000000000
1.1499999999999999 6.6750000000000007 0.0000000000000000
1.1096694355967740 6.6711570560806468 0.0000000000000000
1.0721508135269819 6.6597759065022579 0.0000000000000000
1.0375734533960790 6.6412939224605099 0.0000000000000000
1.0072661437626900 6.6164213562373098 0.0000000000000000
0.9823935775394907 6.5861140466039210 0.0000000000000000
0.9639115934977425 6.5515366864730176 0.0000000000000000
0.9525304439193538 6.5140180644032259 0.0000000000000000
0.9486874999999999 6.4750000000000014 0.0000000000000000
0.9525304439193538 6.4359819355967751 0.0000000000000000
0.9639115934977425 6.3984633135269826 0.0000000000000000
0.9823935775394907 6.3638859533960801 0.0000000000000000
1.0072661437626900 6.3335786437626913 0.0000000000000000
1.0375734533960790 6.3087060775394912 0.0000000000000000
1.0721508135269819 6.2902240934977431 0.0000000000000000
1.1096694355967740 6.2788429439193543 0.0000000000000000
1.1486874999999999 6.2750000000000004 0.0000000000000000
1.1890180644032260 6.2788429439193543 0.0000000000000000
1.2265366864730181 6.2902240934977431 0.0000000000000000
1.2611140466039199 6.3087060775394912 0.0000000000000000
1.2914213562373089 6.3335786437626913 0.0000000000000000
1.3162939224605090 6.3638859533960801 0.0000000000000000
1.3347759065022571 6.3984633135269826 0.0000000000000000
1.3461570560806460 6.4359819355967751 0.0000000000000000
1.5500000000000000 6.4750000000000014 0.0000000000000000
1.5195518130045149 6.6280733729460364 0.0000000000000000
1.4328427124746190 6.7578427124746199 0.0000000000000000
1.3030733729460360 6.8445518130045153 0.0000000000000000
1.1499999999999999 6.8750000000000009 0.0000000000000000
0.9969266270539641 6.8445518130045153 0.0000000000000000
0.8671572875253809 6.7578427124746199 0.0000000000000000
0.7804481869954851 6.6280733729460364 0.0000000000000000
0.7499999999999999 6.4750000000000014 0.0000000000000000
0.7804481869954851 6.3219266270539647 0.0000000000000000
0.8671572875253808 6.1921572875253812 0.0000000000000000
0.9969266270539637 6.1054481869954857 0.0000000000000000
1.1499999999999999 6.0750000000000002 0.0000000000000000
1.3030733729460360 6.1054481869954857 0.0000000000000000
1.4328427124746190 6.1921572875253812 0.0000000000000000
1.5195518130045140 6.3219266270539647 0.0000000000000000
9.0513124999999981 6.4750000000000014 0.0000000000000000
9.0474695560806442 6.5140180644032259 0.0000000000000000
9.0360884065022553 6.5515366864730176 0.0000000000000000
9.0176064224605081 6.5861140466039210 0.0000000000000000
8.9927338562373080 6.6164213562373098 0.0000000000000000
8.9624265466039201 6.6412939224605099 0.0000000000000000
8.9278491864730167 6.6597759065022579 0.0000000000000000
8.8903305644032251 6.6711570560806468 0.0000000000000000
8.8513124999999988 6.6750000000000007 0.0000000000000000
8.8109819355967733 6.6711570560806468 0.0000000000000000
8.7734633135269817 6.6597759065022579 0.0000000000000000
8.7388859533960801 6.6412939224605099 0.0000000000000000
8.7085786437626904 6.6164213562373098 0.0000000000000000
8.6837060775394903 6.5861140466039210 0.0000000000000000
8.6652240934977431 6.5515366864730176 0.0000000000000000
8.6538429439193543 6.5140180644032259 0.0000000000000000
8.6500000000000004 6.4750000000000014 0.0000000000000000
8.6538429439193543 6.4359819355967751 0.0000000000000000
8.6652240934977414 6.3984633135269826 0.0000000000000000
8.6837060775394903 6.3638859533960801 0.0000000000000000
8.7085786437626904 6.3335786437626913 0.0000000000000000
8.7388859533960783 6.3087060775394912 0.0000000000000000
8.7734633135269817 6.2902240934977431 0.0000000000000000
8.8109819355967733 6.2788429439193543 0.0000000000000000
8.8499999999999996 6.2750000000000004 0.0000000000000000
8.8903305644032251 6.2788429439193543 0.0000000000000000
8.9278491864730167 6.2902240934977431 0.0000000000000000
8.9624265466039184 6.3087060775394912 0.0000000000000000
8.9927338562373080 6.3335786437626913 0.0000000000000000
9.0176064224605081 6.3638859533960801 0.0000000000000000
9.0360884065022553 6.3984633135269826 0.0000000000000000
9.0474695560806442 6.4359819355967751 0.0000000000000000
9.2500000000000000 6.4750000000000014 0.0000000000000000
9.2195518130045144 6.6280733729460364 0.0000000000000000
9.1328427124746181 6.7578427124746199 0.0000000000000000
9.0030733729460355 6.8445518130045153 0.0000000000000000
8.8499999999999996 6.8750000000000009 0.0000000000000000
8.6969266270539638 6.8445518130045153 0.0000000000000000
8.5671572875253812 6.7578427124746199 0.0000000000000000
8.4804481869954849 6.6280733729460364 0.0000000000000000
8.4499999999999993 6.4750000000000014 0.0000000000000000
8.4804481869954849 6.3219266270539647 0.0000000000000000
8.5671572875253812 6.1921572875253812 0.0000000000000000
8.6969266270539638 6.1054481869954857 0.0000000000000000
8.8499999999999996 6.0750000000000002 0.0000000000000000
9.0030733729460355 6.1054481869954857 0.0000000000000000
9.1328427124746181 6.1921572875253812 0.0000000000000000
9.2195518130045144 6.3219266270539647 0.0000000000000000
8.1500000000000004 1.1499999999999999 0.0000000000000000
8.1461570560806464 1.1890180644032260 0.0000000000000000
8.1347759065022576 1.2265366864730181 0.0000000000000000
8.1162939224605086 1.2611140466039199 0.0000000000000000
8.0914213562373103 1.2914213562373089 0.0000000000000000
8.0611140466039206 1.3162939224605090 0.0000000000000000
8.0265366864730190 1.3347759065022571 0.0000000000000000
7.9890180644032256 1.3461570560806460 0.0000000000000000
7.9500000000000002 1.3500000000000001 0.0000000000000000
7.9109819355967748 1.3461570560806460 0.0000000000000000
7.8734633135269823 1.3347759065022571 0.0000000000000000
7.8388859533960797 1.3162939224605090 0.0000000000000000
7.8085786437626910 1.2914213562373089 0.0000000000000000
7.7837060775394908 1.2611140466039199 0.0000000000000000
7.7652240934977428 1.2265366864730181 0.0000000000000000
7.7538429439193539 1.1890180644032260 0.0000000000000000
7.7500000000000000 1.1499999999999999 0.0000000000000000
7.7538429439193539 1.1096694355967740 0.0000000000000000
7.7652240934977428 1.0721508135269819 0.0000000000000000
7.7837060775394908 1.0375734533960790 0.0000000000000000
7.8085786437626910 1.0072661437626900 0.0000000000000000
7.8388859533960797 0.9823935775394907 0.0000000000000000
7.8734633135269823 0.9639115934977426 0.0000000000000000
7.9109819355967748 0.9525304439193538 0.0000000000000000
7.9500000000000002 0.9486874999999999 0.0000000000000000
7.9890180644032256 0.9525304439193538 0.0000000000000000
8.0265366864730190 0.9639115934977425 0.0000000000000000
8.0611140466039206 0.9823935775394907 0.0000000000000000
8.0914213562373103 1.0072661437626900 0.0000000000000000
8.1162939224605086 1.0375734533960790 0.0000000000000000
8.1347759065022576 1.0721508135269819 0.0000000000000000
8.1461570560806464 1.1096694355967740 0.0000000000000000
8.3499999999999996 1.1499999999999999 0.0000000000000000
8.3195518130045141 1.3030733729460360 0.0000000000000000
8.2328427124746195 1.4328427124746190 0.0000000000000000
8.1030733729460369 1.5195518130045149 0.0000000000000000
7.9500000000000002 1.5500000000000000 0.0000000000000000
7.7969266270539643 1.5195518130045149 0.0000000000000000
7.6671572875253808 1.4328427124746190 0.0000000000000000
7.5804481869954854 1.3030733729460360 0.0000000000000000
7.5499999999999998 1.1499999999999999 0.0000000000000000
7.5804481869954854 0.9969266270539641 0.0000000000000000
7.6671572875253808 0.8671572875253809 0.0000000000000000
7.7969266270539643 0.7804481869954853 0.0000000000000000
7.9500000000000002 0.7499999999999999 0.0000000000000000
8.1030733729460369 0.7804481869954852 0.0000000000000000
8.2328427124746195 0.8671572875253808 0.0000000000000000
8.3195518130045141 0.9969266270539637 0.0000000000000000
8.1500000000000004 8.8499999999999996 0.0000000000000000
8.1461570560806464 8.8903305644032251 0.0000000000000000
8.1347759065022576 8.9278491864730167 0.0000000000000000
8.1162939224605086 8.9624265466039201 0.0000000000000000
8.0914213562373103 8.9927338562373080 0.0000000000000000
8.0611140466039206 9.0176064224605081 0.0000000000000000
8.0265366864730190 9.0360884065022553 0.0000000000000000
7.9890180644032256 9.0474695560806442 0.0000000000000000
7.9500000000000002 9.0513124999999981 0.0000000000000000
7.9109819355967748 9.0474695560806442 0.0000000000000000
7.8734633135269823 9.0360884065022553 0.0000000000000000
7.8388859533960797 9.0176064224605081 0.0000000000000000
7.8085786437626910 8.9927338562373080 0.0000000000000000
7.7837060775394908 8.9624265466039201 0.0000000000000000
7.7652240934977428 8.9278491864730167 0.0000000000000000
7.7538429439193539 8.8903305644032251 0.0000000000000000
7.7500000000000000 8.8513124999999988 0.0000000000000000
7.7538429439193539 8.8109819355967733 0.0000000000000000
7.7652240934977428 8.7734633135269817 0.0000000000000000
7.7837060775394908 8.7388859533960801 0.0000000000000000
7.8085786437626910 8.7085786437626904 0.0000000000000000
7.8388859533960797 8.6837060775394903 0.0000000000000000
7.8734633135269823 8.6652240934977431 0.0000000000000000
7.9109819355967748 8.6538429439193543 0.0000000000000000
7.9500000000000002 8.6500000000000004 0.0000000000000000
7.9890180644032256 8.6538429439193543 0.0000000000000000
8.0265366864730190 8.6652240934977431 0.0000000000000000
8.0611140466039206 8.6837060775394903 0.0000000000000000
8.0914213562373103 8.7085786437626904 0.0000000000000000
8.1162939224605086 8.7388859533960783 0.0000000000000000
8.1347759065022576 8.7734633135269817 0.0000000000000000
8.1461570560806464 8.8109819355967733 0.0000000000000000
8.3499999999999996 8.8499999999999996 0.0000000000000000
8.3195518130045141 9.0030733729460355 0.0000000000000000
8.2328427124746195 9.1328427124746181 0.0000000000000000
8.1030733729460369 9.2195518130045144 0.0000000000000000
7.9500000000000002 9.2500000000000000 0.0000000000000000
7.7969266270539643 9.2195518130045144 0.0000000000000000
7.6671572875253808 9.1328427124746181 0.0000000000000000
7.5804481869954854 9.0030733729460355 0.0000000000000000
7.5499999999999998 8.8499999999999996 0.0000000000000000
7.5804481869954854 8.6969266270539638 0.0000000000000000
7.6671572875253808 8.5671572875253812 0.0000000000000000
7.7969266270539643 8.4804481869954849 0.0000000000000000
7.9500000000000002 8.4499999999999993 0.0000000000000000
8.1030733729460369 8.4804481869954849 0.0000000000000000
8.2328427124746195 8.5671572875253812 0.0000000000000000
8.3195518130045141 8.6969266270539638 0.0000000000000000
1.3500000000000001 7.9500000000000002 0.0000000000000000
1.3461570560806460 7.9890180644032256 0.0000000000000000
1.3347759065022571 8.0265366864730190 0.0000000000000000
1.3162939224605090 8.0611140466039206 0.0000000000000000
1.2914213562373089 8.0914213562373103 0.0000000000000000
1.2611140466039199 8.1162939224605086 0.0000000000000000
1.2265366864730181 8.1347759065022576 0.0000000000000000
1.1890180644032260 8.1461570560806464 0.0000000000000000
1.1499999999999999 8.1500000000000004 0.0000000000000000
1.1096694355967740 8.1461570560806464 0.0000000000000000
1.0721508135269819 8.1347759065022576 0.0000000000000000
1.0375734533960790 8.1162939224605086 0.0000000000000000
1.0072661437626900 8.0914213562373103 0.0000000000000000
0.9823935775394907 8.0611140466039206 0.0000000000000000
0.9639115934977425 8.0265366864730190 0.0000000000000000
0.9525304439193538 7.9890180644032256 0.0000000000000000
0.9486874999999999 7.9500000000000002 0.0000000000000000
0.9525304439193538 7.9109819355967748 0.0000000000000000
0.9639115934977425 7.8734633135269823 0.0000000000000000
0.9823935775394907 7.8388859533960797 0.0000000000000000
1.0072661437626900 7.8085786437626910 0.0000000000000000
1.0375734533960790 7.7837060775394908 0.0000000000000000
1.0721508135269819 7.7652240934977428 0.0000000000000000
1.1096694355967740 7.7538429439193539 0.0000000000000000
1.1486874999999999 7.7500000000000000 0.0000000000000000
1.1890180644032260 7.7538429439193539 0.0000000000000000
1.2265366864730181 7.7652240934977428 0.0000000000000000
1.2611140466039199 7.7837060775394908 0.0000000000000000
1.2914213562373089 7.8085786437626910 0.0000000000000000
1.3162939224605090 7.8388859533960797 0.0000000000000000
1.3347759065022571 7.8734633135269823 0.0000000000000000
1.3461570560806460 7.9109819355967748 0.0000000000000000
1.5500000000000000 7.9500000000000002 0.0000000000000000
1.5195518130045149 8.1030733729460369 0.0000000000000000
1.4328427124746190 8.2328427124746195 0.0000000000000000
1.3030733729460360 8.3195518130045141 0.0000000000000000
1.1499999999999999 8.3499999999999996 0.0000000000000000
0.9969266270539641 8.3195518130045141 0.0000000000000000
0.8671572875253809 8.2328427124746195 0.0000000000000000
0.7804481869954851 8.1030733729460369 0.0000000000000000
0.7499999999999999 7.9500000000000002 0.0000000000000000
0.7804481869954851 7.7969266270539643 0.0000000000000000
0.8671572875253808 7.6671572875253808 0.0000000000000000
0.9969266270539637 7.5804481869954854 0.0000000000000000
1.1499999999999999 7.5499999999999998 0.0000000000000000
1.3030733729460360 7.5804481869954854 0.0000000000000000
1.4328427124746190 7.6671572875253808 0.0000000000000000
1.5195518130045140 7.7969266270539643 0.0000000000000000
9.0513124999999981 7.9500000000000002 0.0000000000000000
9.0474695560806442 7.9890180644032256 0.0000000000000000
9.0360884065022553 8.0265366864730190 0.0000000000000000
9.0176064224605081 8.0611140466039206 0.0000000000000000
8.9927338562373080 8.0914213562373103 0.0000000000000000
8.9624265466039201 8.1162939224605086 0.0000000000000000
8.9278491864730167 8.1347759065022576 0.0000000000000000
8.8903305644032251 8.1461570560806464 0.0000000000000000
8.8513124999999988 8.1500000000000004 0.0000000000000000
8.8109819355967733 8.1461570560806464 0.0000000000000000
8.7734633135269817 8.1347759065022576 0.0000000000000000
8.7388859533960801 8.1162939224605086 0.0000000000000000
8.7085786437626904 8.0914213562373103 0.0000000000000000
8.6837060775394903 8.0611140466039206 0.0000000000000000
8.6652240934977431 8.0265366864730190 0.0000000000000000
8.6538429439193543 7.9890180644032256 0.0000000000000000
8.6500000000000004 7.9500000000000002 0.0000000000000000
8.6538429439193543 7.9109819355967748 0.0000000000000000
8.6652240934977414 7.8734633135269823 0.0000000000000000
8.6837060775394903 7.8388859533960797 0.0000000000000000
8.7085786437626904 7.8085786437626910 0.0000000000000000
8.7388859533960783 7.7837060775394908 0.0000000000000000
8.7734633135269817 7.7652240934977428 0.0000000000000000
8.8109819355967733 7.7538429439193539 0.0000000000000000
8.8499999999999996 7.7500000000000000 0.0000000000000000
8.8903305644032251 7.7538429439193539 0.0000000000000000
8.9278491864730167 7.7652240934977428 0.0000000000000000
8.9624265466039184 7.7837060775394908 0.0000000000000000
8.9927338562373080 7.8085786437626910 0.0000000000000000
9.0176064224605081 7.8388859533960797 0.0000000000000000
9.0360884065022553 7.8734633135269823 0.0000000000000000
9.0474695560806442 7.9109819355967748 0.0000000000000000
9.2500000000000000 7.9500000000000002 0.0000000000000000
9.2195518130045144 8.1030733729460369 0.0000000000000000
9.1328427124746181 8.2328427124746195 0.0000000000000000
9.0030733729460355 8.3195518130045141 0.0000000000000000
8.8499999999999996 8.3499999999999996 0.0000000000000000
8.6969266270539638 8.3195518130045141 0.0000000000000000
8.5671572875253812 8.2328427124746195 0.0000000000000000
8.4804481869954849 8.1030733729460369 0.0000000000000000
8.4499999999999993 7.9500000000000002 0.0000000000000000
8.4804481869954849 7.7969266270539643 0.0000000000000000
8.5671572875253812 7.6671572875253808 0.0000000000000000
8.6969266270539638 7.5804481869954854 0.0000000000000000
8.8499999999999996 7.5499999999999998 0.0000000000000000
9.0030733729460355 7.5804481869954854 0.0000000000000000
9.1328427124746181 7.6671572875253808 0.0000000000000000
9.2195518130045144 7.7969266270539643 0.0000000000000000
8.2464729867497581 -0.0509276248725830 0.0000000000000000
7.3295514780871729 -0.0483078491335471 0.0000000000000000
6.4126299694255486 -0.0456880733945139 0.0000000000000000
5.4957084607632503 -0.0430682976554788 0.0000000000000000
4.5787869520987767 -0.0404485219164375 0.0000000000000000
3.6618654434320699 -0.0378287461773898 0.0000000000000000
2.7449439347648230 -0.0352089704383406 0.0000000000000000
1.8280224260979230 -0.0325891946992924 0.0000000000000000
0.1173088685014612 4.1904892966341150 0.0000000000000000
0.1487461773699303 5.0864525993854848 0.0000000000000000
0.1330275229357811 8.2812691131462035 0.0000000000000000
2.4643004587138368 10.0496177370030395 0.0000000000000000
3.3808944954082851 10.0614067278286896 0.0000000000000000
4.2974885321025758 10.0731957186543397 0.0000000000000000
5.2140825687970187 10.0849847094799898 0.0000000000000000
6.1306766054968369 10.0967737003057092 0.0000000000000000
7.0472706421966773 10.1085626911314304 0.0000000000000000
7.9638646788965088 10.1203516819571497 0.0000000000000000
9.8000000000000007 8.3795107033655718 0.0000000000000000
9.8000000000000007 7.4756880733982358 0.0000000000000000
9.8000000000000007 6.5718654434313786 0.0000000000000000
9.8000000000000007 5.6680428134645418 0.0000000000000000
9.8000000000000007 4.7642201834950466 0.0000000000000000
9.8000000000000007 3.8603975535232369 0.0000000000000000
9.8000000000000007 2.9565749235519680 0.0000000000000000
9.8000000000000007 2.0527522935802169 0.0000000000000000
9.1053949769967186 0.3420672470524462 0.0000000000000000
0.7658560820867765 9.5010539961093219 0.0000000000000000
8.9211020387723234 9.6348585043373394 0.0000000000000000
0.6714230448062424 0.8833119448247582 0.0000000000000000
0.2116613695150331 6.4060185897392987 0.0000000000000000
0.3001970484302824 6.8577694681329664 0.0000000000000000
0.4637449886624904 1.4001705294177100 0.0000000000000000
8.0183094518091256 9.0765041967902800 0.0000000000000000
8.6237686216857128 8.0117704879097005 0.0000000000000000
8.1389034285580593 8.9831463522118877 0.0000000000000000
6.2447442991915141 8.9146490052551908 0.0000000000000000
8.9146490052551641 6.7052557008084523 0.0000000000000000
8.7807027460768925 6.2401979393971638 0.0000000000000000
7.7162564656518118 8.9347688742470286 0.0000000000000000
8.7753028119825949 7.7225744982826363 0.0000000000000000
4.7796523762677623 8.9604565800962135 0.0000000000000000
5.2249720489656486 8.7450305334359548 0.0000000000000000
8.9551283260375190 5.2248635795043850 0.0000000000000000
8.7113757481849987 4.7966710318056887 0.0000000000000000
8.0956791471711878 8.6524289950068134 0.0000000000000000
9.0457431337801957 8.0858016527856709 0.0000000000000000
2.1165810777147440 8.6242579160081707 0.0000000000000000
3.4498823234464400 9.0774183463409166 0.0000000000000000
3.5932454759187311 8.6234074035136583 0.0000000000000000
9.0765925964863285 3.5932454759187271 0.0000000000000000
8.1388395548113195 1.0033087719107980 0.0000000000000000
4.9318489540842840 9.0861007314926212 0.0000000000000000
5.0751176765535178 8.6225816536590294 0.0000000000000000
9.0833038830259412 5.0848546397760694 0.0000000000000000
6.5501176765535520 8.6225816536590187 0.0000000000000000
1.9748823234464290 9.0774183463409450 0.0000000000000000
8.6242579160081689 3.4584189222852419 0.0000000000000000
8.9579938623438089 4.7853367202707808 0.0000000000000000
6.2497777159903096 8.7446590076175887 0.0000000000000000
8.7231310677903089 6.6854578539242429 0.0000000000000000
7.7364695570035238 8.7423497799220460 0.0000000000000000
8.9576502200778290 7.7364695570034883 0.0000000000000000
5.0274257614875228 9.0942838092987461 0.0000000000000000
9.0961020731689786 4.9709492756210496 0.0000000000000000
1.0002361690403170 8.1332278491443724 0.0000000000000000
1.3068609905276509 8.1318109707837820 0.0000000000000000
8.7011972482394029 8.1412878005191356 0.0000000000000000
2.1966912280892230 9.0388395548113145 0.0000000000000000
3.6716912280892120 9.0388395548113305 0.0000000000000000
8.6115276384332020 2.0322587278400510 0.0000000000000000
8.0383018652577842 8.6237737591145081 0.0000000000000000
9.0822098141916285 8.0285050585771938 0.0000000000000000
8.1355100035121790 1.2940986947029109 0.0000000000000000
1.3810943804915030 8.0191306095284656 0.0000000000000000
8.9194339896017389 2.2875703298990988 0.0000000000000000
8.1753758689402307 8.8127378126173497 0.0000000000000000
0.9243362145705654 8.0119940165361054 0.0000000000000000
8.8923597486901986 8.1847860950795770 0.0000000000000000
8.6115276384332073 6.4572587278400642 0.0000000000000000
8.0117704879096614 1.3762313783143021 0.0000000000000000
8.6115276384332127 7.9322587278400274 0.0000000000000000
6.5116930845543504 9.0927145102386326 0.0000000000000000
9.0888534457967278 6.4573704505370424 0.0000000000000000
7.9141358878211818 9.0936922972170269 0.0000000000000000
7.9209492756209237 8.6038979268309177 0.0000000000000000
9.0961020731690141 7.9209492756210116 0.0000000000000000
5.1801045394117899 8.9978079756272091 0.0000000000000000
6.6695624090085506 9.0034784805951613 0.0000000000000000
4.7915008531109704 8.7379341338178733 0.0000000000000000
8.7379341338178662 5.2084991468890358 0.0000000000000000
8.9683286969557390 6.2672092077679524 0.0000000000000000
2.2365095032978242 8.7052423378498247 0.0000000000000000
3.7129884259911048 8.7021570653406801 0.0000000000000000
8.9978429346594222 3.7129884259909751 0.0000000000000000
8.7052460127455049 3.3384923534270081 0.0000000000000000
3.3305149763709760 8.9890238381611081 0.0000000000000000
3.4173071636140899 8.6360747266581086 0.0000000000000000
9.0639252733418907 3.4173071636140890 0.0000000000000000
8.6225816536590436 4.9248823234464822 0.0000000000000000
9.0961020731689786 2.0209492756210419 0.0000000000000000
1.8250279510343801 8.9549694665640125 0.0000000000000000
2.2636330026617522 8.9579952262964113 0.0000000000000000
8.9579433324336613 1.8355032950607419 0.0000000000000000
1.8968023676446839 8.6550679225428517 0.0000000000000000
3.3105032950607840 8.7420566675663043 0.0000000000000000
8.7446590076175923 3.7502222840096628 0.0000000000000000
8.9576502200778947 3.3114695570035000 0.0000000000000000
1.3311703978406380 6.3189195498617332 0.0000000000000000
1.3311703978406799 7.7939195498617764 0.0000000000000000
1.8241117340880630 8.7381938273255173 0.0000000000000000
8.6550679225428535 3.6781976323553200 0.0000000000000000
8.1737813638243555 8.7424674959422930 0.0000000000000000
8.9587961366438922 8.1696726068198888 0.0000000000000000
4.9251313763807421 8.6228909751540730 0.0000000000000000
6.3865560421935736 9.0737615724760605 0.0000000000000000
6.4001313763806511 8.6228909751541210 0.0000000000000000
1.2683286969556571 6.2672092077679373 0.0000000000000000
9.0884858992275568 6.5423398164140822 0.0000000000000000
8.6112800476274849 6.5419388804829426 0.0000000000000000
1.2714675608127199 7.7338665665583548 0.0000000000000000
1.2113014087161580 4.7652804601661067 0.0000000000000000
8.0583394719704362 0.9352321714355663 0.0000000000000000
8.9978429346594808 2.2379884259909821 0.0000000000000000
8.7235811935287639 2.2464805830762620 0.0000000000000000
5.2236266464577108 1.2025488601764240 0.0000000000000000
6.7025644208673221 1.2113070035391680 0.0000000000000000
3.7386330026617580 8.9579952262964078 0.0000000000000000
4.7681939417409849 1.0818250349819680 0.0000000000000000
1.0818250349819700 5.2318060582590116 0.0000000000000000
6.2492579160081920 1.0834189222852579 0.0000000000000000
2.2745768176102148 1.0390443384323600 0.0000000000000000
2.2662723525069000 1.2715297896900271 0.0000000000000000
3.3766377917410368 9.0353959525165166 0.0000000000000000
1.0328983825642510 3.7335291174613818 0.0000000000000000
5.1564289172581521 0.9686391347928489 0.0000000000000000
0.9686391347928544 4.8435710827418479 0.0000000000000000
6.6314289172581633 0.9686391347928456 0.0000000000000000
6.7029995369524160 8.7746553877430173 0.0000000000000000
5.2333395141453387 8.9346656096735124 0.0000000000000000
6.7024183463409086 8.9251176765536080 0.0000000000000000
9.0765925964863250 2.1182454759187288 0.0000000000000000
8.6112800476274654 2.1169388804829139 0.0000000000000000
3.3419277824184830 0.9823230043317708 0.0000000000000000
4.7717508969960347 1.2254780080905689 0.0000000000000000
1.2253446122568790 5.2279995369524457 0.0000000000000000
6.2467508969960770 1.2254780080906120 0.0000000000000000
1.3104822999749750 4.8182586445917401 0.0000000000000000
2.2774255605619751 8.7753010267317322 0.0000000000000000
3.7565925273441381 8.7734822134921622 0.0000000000000000
1.3059288169971031 3.3424616375720300 0.0000000000000000
8.9270582887289542 3.7620803384878130 0.0000000000000000
8.7753028119825984 3.2975744982826392 0.0000000000000000
4.8440711830028960 1.3325383624279601 0.0000000000000000
1.3370482292786590 5.1523043459401254 0.0000000000000000
1.3779995369524460 4.9246553877430754 0.0000000000000000
6.3190711830029063 1.3325383624279610 0.0000000000000000
9.0639252733418925 1.9423071636140961 0.0000000000000000
5.1912878005190333 1.2988027517605261 0.0000000000000000
6.6662878005190516 1.2988027517605329 0.0000000000000000
5.2481284947412199 1.1365997875337670 0.0000000000000000
5.1296507956497290 9.0504540745311228 0.0000000000000000
9.0639252733418836 4.8923071636141078 0.0000000000000000
6.7162665427053563 1.1453392761383749 0.0000000000000000
1.3888534457967530 6.4573704505370486 0.0000000000000000
1.1322587278400320 6.7134723615667902 0.0000000000000000
0.9019828528152494 6.4858860658127497 0.0000000000000000
7.7115276384332159 1.1322587278400431 0.0000000000000000
7.9348725095991668 0.9076591330783517 0.0000000000000000
1.3888534457967510 7.9323704505370474 0.0000000000000000
3.3438296021593401 1.3060804501382359 0.0000000000000000
1.3070797370014200 3.7069904913752199 0.0000000000000000
3.5753421840775932 0.9188046356142715 0.0000000000000000
1.1292892753363979 4.7607776070555783 0.0000000000000000
6.5725272612971963 9.0724049567275600 0.0000000000000000
0.9539221301345768 6.3226331884177576 0.0000000000000000
1.1679176025098621 6.2352533960326264 0.0000000000000000
7.8530320085910983 9.0722548524759770 0.0000000000000000
7.8423071636140111 8.6360747266581175 0.0000000000000000
0.9686391347928349 7.7935710827418676 0.0000000000000000
1.1737461908821321 7.7144861553216169 0.0000000000000000
9.0639252733418907 7.8423071636140627 0.0000000000000000
4.8468023676446936 8.6550679225427718 0.0000000000000000
8.6550679225427665 5.1531976323553126 0.0000000000000000
9.0311703978406808 6.3189195498617998 0.0000000000000000
3.7129884259910368 1.0021570653405960 0.0000000000000000
2.2060431747499698 1.3315283899092329 0.0000000000000000
2.1132592542290900 1.3806013022817321 0.0000000000000000
0.9228909751540960 3.5998686236192481 0.0000000000000000
0.9939568252500282 3.3434716100907669 0.0000000000000000
4.9370827926951062 0.9152601950168681 0.0000000000000000
6.4093211125776142 0.9250142584201951 0.0000000000000000
1.3332278491443521 6.6247638309597168 0.0000000000000000
7.8020993495155953 1.3330790156760159 0.0000000000000000
1.2576502200779229 1.8364695570035201 0.0000000000000000
8.7312930026069164 1.8498076518986830 0.0000000000000000
5.2162514373914126 1.0289814442691390 0.0000000000000000
1.0289814442691430 4.7837485626085874 0.0000000000000000
2.0322587278399999 1.3884723615667931 0.0000000000000000
0.9220004630475600 2.1253446122569000 0.0000000000000000
3.5919931086348020 1.3888621854467911 0.0000000000000000
1.3782491030039501 3.4495219919094202 0.0000000000000000
4.9822587278400210 1.3884723615667920 0.0000000000000000
0.9115276384332099 4.9822587278400201 0.0000000000000000
6.4572587278400038 1.3884723615667920 0.0000000000000000
1.9033087719107820 0.9611604451887039 0.0000000000000000
2.2874436337966211 8.8798588552211903 0.0000000000000000
1.8965215194048639 9.0445624090086074 0.0000000000000000
1.3567036899406011 1.9374561731610120 0.0000000000000000
8.8325316136056120 2.2930770597154542 0.0000000000000000
3.2830113325960970 8.8650324222585066 0.0000000000000000
5.0177412721599994 0.9115276384332023 0.0000000000000000
6.4927412721599804 0.9115276384331992 0.0000000000000000
1.2576928363859159 2.2639252733418891 0.0000000000000000
1.0425129650649301 1.8416722913590839 0.0000000000000000
3.7214444397969011 1.2763891444484381 0.0000000000000000
1.3774183463409400 5.0751176765535408 0.0000000000000000
1.3884858992275320 6.5423398164140991 0.0000000000000000
1.3783148318384040 3.5992050354800771 0.0000000000000000
0.9198567285204349 3.4498241693458360 0.0000000000000000
2.1248686236192511 9.0771090248459121 0.0000000000000000
0.9152601950168886 5.0629172073049071 0.0000000000000000
3.5069792315408850 1.3886991425062789 0.0000000000000000
3.5085063457126440 0.9056441477781205 0.0000000000000000
1.8197442991914781 1.2146490052550700 0.0000000000000000
0.9225816536590671 1.9748823234464670 0.0000000000000000
3.3957020136554839 0.9467895467787756 0.0000000000000000
1.0867407457709131 3.2943986977182620 0.0000000000000000
4.8439598520059350 0.9590235839998953 0.0000000000000000
4.8492836800350032 9.0364789179872123 0.0000000000000000
5.1534784805951164 8.6554375909913173 0.0000000000000000
0.9590235839998934 5.1560401479940658 0.0000000000000000
9.0472210369097716 5.1382617813111908 0.0000000000000000
6.3271570653405824 0.9620115740089703 0.0000000000000000
6.3268055375325130 9.0460579870763773 0.0000000000000000
6.6273043459401224 8.6629517707213122 0.0000000000000000
1.0434450388125229 6.2570607934649267 0.0000000000000000
9.0332278491443692 6.6247638309597026 0.0000000000000000
1.0319362798358860 7.7471354027793824 0.0000000000000000
2.1251176765535340 0.9225816536590703 0.0000000000000000
1.1107830196628969 2.2858263777575178 0.0000000000000000
0.9115276384332061 7.9322587278399634 0.0000000000000000
1.8169576028068299 1.1245669779406560 0.0000000000000000
2.2034784805951211 0.9554375909913506 0.0000000000000000
0.9935710827418376 6.6563608652071533 0.0000000000000000
7.7686391347928643 0.9935710827418409 0.0000000000000000
1.9751313763807490 0.9228909751540961 0.0000000000000000
1.3635304429964790 2.1576502200779220 0.0000000000000000
1.1761868116972061 2.2860026587605962 0.0000000000000000
3.7680770597154249 1.1674683863943749 0.0000000000000000
3.4066713030443321 1.3577907922320549 0.0000000000000000
3.2861465542032509 1.1676295494629290 0.0000000000000000
1.1748748605780379 3.7590379663769231 0.0000000000000000
1.8144058450788600 8.8910135598402107 0.0000000000000000
8.8349675777414571 1.8080113325960800 0.0000000000000000
8.6686391347928815 1.8935710827418200 0.0000000000000000
8.8082737571631853 3.7624926366533651 0.0000000000000000
8.8798033676408643 3.2877439081141948 0.0000000000000000
2.2954093573839010 1.1765119341613519 0.0000000000000000
7.9322587278399652 1.3884723615667940 0.0000000000000000
0.9895177000250173 2.2317413554082428 0.0000000000000000
1.1703314042045949 1.8062059756882660 0.0000000000000000
1.9751313763807039 8.6228909751541210 0.0000000000000000
1.1677412721600060 3.2865276384332058 0.0000000000000000
5.0617704879097118 1.3762313783142750 0.0000000000000000
6.5367704879096973 1.3762313783142750 0.0000000000000000
8.6744615771766984 2.2162701077651881 0.0000000000000000
3.5998686236192641 9.0771090248459050 0.0000000000000000
8.6228909751541156 3.5998686236192938 0.0000000000000000
0.9337485626085782 6.5960185557308453 0.0000000000000000
3.6912500938679842 1.3254622976267461 0.0000000000000000
1.2119940165361300 6.7006637854294224 0.0000000000000000
7.7243362145705854 1.2119940165361349 0.0000000000000000
0.9672745003202522 3.6717776956286028 0.0000000000000000
1.9020993495155660 1.3330790156760330 0.0000000000000000
0.9636575643090546 1.9103990456342881 0.0000000000000000
1.3822102356214050 2.0790827889527481 0.0000000000000000
7.8312970598586631 0.9498210268652884 0.0000000000000000
3.7568691630200139 8.8728371192610904 0.0000000000000000
8.6752728320918617 4.8478126976315350 0.0000000000000000
6.3218023676446542 8.6550679225428659 0.0000000000000000
8.6743972734997943 6.6432668607434842 0.0000000000000000
8.6619285568768021 6.3233062071725818 0.0000000000000000
8.6677365388817229 7.8051430405614104 0.0000000000000000
3.7625703298990940 1.0805660103983601 0.0000000000000000
5.2372221757356474 8.8083095105525242 0.0000000000000000
4.7701524394262353 8.8895155419071568 0.0000000000000000
8.8925484415033953 5.2323578681697516 0.0000000000000000
8.6228909751540908 5.0748686236192553 0.0000000000000000
8.8348580139786925 4.7577292191654079 0.0000000000000000
6.2448603107270593 8.8057067679764405 0.0000000000000000
8.8304658580883029 6.7235226027126993 0.0000000000000000
8.8680207684591217 6.2363008574937000 0.0000000000000000
7.7038351214590328 8.8204892908593333 0.0000000000000000
8.8798033676408288 7.7127439081142146 0.0000000000000000
3.2865141007724992 1.0826601835858880 0.0000000000000000
0.9148866272117057 6.4227444257675881 0.0000000000000000
8.1771090248458975 1.0751313763807990 0.0000000000000000
1.8363669973382459 1.0420047737035949 0.0000000000000000
8.1851708799358907 8.9256101845159765 0.0000000000000000
8.7730754608397170 8.1844156633997649 0.0000000000000000
3.4959492756210220 8.6038979268309728 0.0000000000000000
9.0961020731689892 3.4959492756210411 0.0000000000000000
8.1774183463408967 1.2251176765535470 0.0000000000000000
1.1676295494628799 8.1888534457967115 0.0000000000000000
1.0826601835858589 8.1884858992274570 0.0000000000000000
6.6912514373914167 1.0289814442691461 0.0000000000000000
7.7523347560264426 8.9895574062371715 0.0000000000000000
0.4147320335539803 5.5256529454385266 0.0000000000000000
0.8725157954829200 1.2528596883235901 0.0000000000000000
9.4923696315583932 4.4246406258986939 0.0000000000000000
9.4227768126338010 8.7489793809672172 0.0000000000000000
0.4967245743623474 6.1231601455670734 0.0000000000000000
0.5023404725192850 8.7712105276074883 0.0000000000000000
9.5097770453684305 7.0048928977485092 0.0000000000000000
1.4167480398591339 0.3668510755623521 0.0000000000000000
6.4486443257811850 8.6079344547354069 0.0000000000000000
8.6079344547354619 5.0263556742186637 0.0000000000000000
4.9736443257812901 8.6079344547354744 0.0000000000000000
9.0025871862964095 4.8100087293668956 0.0000000000000000
8.6162747173315495 1.9817149942570120 0.0000000000000000
8.6079344547354317 3.5513556742187071 0.0000000000000000
2.0236443257813099 8.6079344547354211 0.0000000000000000
1.3922139639489599 4.9735649943416913 0.0000000000000000
9.0025299125854055 7.7601975354889570 0.0000000000000000
9.0025787646446993 1.8600364918318331 0.0000000000000000
8.6162747173315530 6.4067149942570198 0.0000000000000000
2.0763556742187150 9.0920655452644592 0.0000000000000000
1.3635535229238080 6.3580160583046466 0.0000000000000000
9.0025299125853699 3.3351975354890340 0.0000000000000000
5.0682850057429798 0.9162747173316267 0.0000000000000000
3.5513556742186840 9.0920655452645249 0.0000000000000000
7.7162747173315882 1.0817149942570199 0.0000000000000000
4.9317149942570158 1.3837252826683950 0.0000000000000000
0.9162747173316099 4.9317149942570184 0.0000000000000000
1.2671504895058550 3.7386902051795450 0.0000000000000000
8.6162747173315939 7.8817149942569751 0.0000000000000000
0.9077860360510579 2.0764350056582850 0.0000000000000000
1.9817149942570160 1.3837252826683699 0.0000000000000000
6.5432850057429670 0.9162747173316053 0.0000000000000000
1.3398024645109290 2.2025299125853892 0.0000000000000000
1.3025299125853880 1.8601975354890710 0.0000000000000000
0.9079344547354895 3.5513556742186698 0.0000000000000000
2.0236443257813290 0.9079344547354853 0.0000000000000000
1.0817149942570461 6.7087252826683912 0.0000000000000000
1.2182850057429859 3.2912747173316368 0.0000000000000000
4.7577444417091552 1.1764572382972189 0.0000000000000000
1.1764350056582660 5.2422139639489318 0.0000000000000000
6.4067149942570198 1.3837252826683619 0.0000000000000000
1.3922555582908580 3.4985427617027778 0.0000000000000000
3.3114464770762302 1.2669839416953210 0.0000000000000000
7.7601975354890929 8.6974700874145672 0.0000000000000000
6.7172139639489963 8.8235649943416448 0.0000000000000000
1.3635535229237410 7.8330160583046968 0.0000000000000000
3.3350364918319131 8.6974212353552716 0.0000000000000000
6.2327444417091034 1.1764572382972309 0.0000000000000000
9.0635535229237334 6.3580160583047247 0.0000000000000000
7.8817149942570026 1.3837252826683220 0.0000000000000000
0.9162747173316788 7.8817149942569973 0.0000000000000000
1.2671140317601370 8.1636602850808302 0.0000000000000000
8.1920655452644535 1.1236443257813751 0.0000000000000000
8.7631962527386325 0.2576756334662632 0.0000000000000000
8.7960980960466504 0.5877674201879280 0.0000000000000000
9.2011077346659693 0.7478128327341720 0.0000000000000000
8.7754620934590477 0.9707972728593316 0.0000000000000000
9.1418930763557942 1.1607710501891171 0.0000000000000000
8.5501135094677316 0.7529492868129453 0.0000000000000000
8.8504701929708141 1.3084023323398790 0.0000000000000000
8.6205289713872020 1.1588952342838290 0.0000000000000000
8.6239797477813056 1.4128820436400880 0.0000000000000000
0.4997475851550486 6.6007553815698428 0.0000000000000000
0.5615672292001022 6.9205292152437012 0.0000000000000000
5.6594214783833916 9.7156971491882569 0.0000000000000000
4.0710010676538113 0.3614229025127285 0.0000000000000000
9.1081576600446326 1.4867112914016269 0.0000000000000000
2.9430911317418218 9.5961732043855008 0.0000000000000000
1.3247971071586491 8.2022240853628396 0.0000000000000000
1.4449646233635891 8.3840236234753789 0.0000000000000000
1.3677894437578990 8.1368543509061695 0.0000000000000000
1.3068210497948880 8.4701669454990913 0.0000000000000000
1.1325960468911260 8.5260770634020560 0.0000000000000000
1.2726748266721839 8.6496240487742835 0.0000000000000000
1.5836556956890839 8.2471883942623059 0.0000000000000000
1.6770029792990500 8.1174812007199773 0.0000000000000000
1.7198766064935631 7.9493587525405554 0.0000000000000000
1.8315974922166141 8.0652067586632228 0.0000000000000000
1.8739494999648560 7.9159339046807213 0.0000000000000000
1.9808439587961910 8.0304135592427919 0.0000000000000000
2.0255510113510020 7.8813041830708412 0.0000000000000000
1.9190339912302630 7.7671887529348336 0.0000000000000000
2.0710432075166691 7.7320506294465829 0.0000000000000000
2.1775543407668279 7.8461320188061716 0.0000000000000000
2.2230844253305380 7.6968635265748464 0.0000000000000000
2.3295940401344741 7.8109441119993477 0.0000000000000000
2.3751366244726180 7.6616665294709989 0.0000000000000000
2.2686298529031070 7.5475846387787238 0.0000000000000000
2.4206810692567751 7.5123877667971524 0.0000000000000000
2.5271880829994560 7.6264700510389094 0.0000000000000000
2.5727326990274459 7.4771910813535643 0.0000000000000000
2.4662255352822529 7.3631087465358540 0.0000000000000000
2.6182773190926469 7.3279120523519614 0.0000000000000000
2.7247844367223029 7.4419944070139010 0.0000000000000000
2.7703290870853370 7.2927153649682070 0.0000000000000000
2.6638219721023231 7.1786330091756563 0.0000000000000000
2.8158737469025859 7.1434363188605809 0.0000000000000000
2.7093666306380388 7.0293539636201574 0.0000000000000000
2.8614184063208832 6.9941572729248724 0.0000000000000000
2.9679255226249479 7.1082396281482776 0.0000000000000000
3.0134701821790828 6.9589605821540417 0.0000000000000000
2.9069630658846588 6.8448782269264541 0.0000000000000000
3.0590148417777341 6.8096815361406158 0.0000000000000000
3.1655219580779521 6.9237638913656960 0.0000000000000000
3.2110666176755318 6.7744848453527453 0.0000000000000000
3.1045595013743790 6.6604024901280710 0.0000000000000000
3.2566112772728721 6.6252057993399056 0.0000000000000000
3.3631183935740410 6.7392881545645498 0.0000000000000000
3.4086630531715589 6.5900091085516310 0.0000000000000000
3.3021559368704270 6.4759267533269718 0.0000000000000000
3.4542077127691071 6.4407300625387016 0.0000000000000000
3.5607148290702360 6.5548124177633600 0.0000000000000000
3.6062594886677890 6.4055333717504270 0.0000000000000000
3.4997523723666570 6.2914510165257704 0.0000000000000000
3.6518041482653389 6.2562543257374976 0.0000000000000000
3.5452970319642052 6.1421719705128339 0.0000000000000000
3.6973488078628871 6.1069752797245620 0.0000000000000000
3.8038559241640191 6.2210576349492230 0.0000000000000000
3.8494005837615708 6.0717785889362910 0.0000000000000000
3.7428934674604379 5.9576962337116264 0.0000000000000000
3.8949452433591238 5.9224995429233580 0.0000000000000000
4.0014523596602540 6.0365818981480217 0.0000000000000000
4.0469970192578018 5.8873028521350808 0.0000000000000000
3.9404899029566791 5.7732204969104277 0.0000000000000000
4.0925416788553619 5.7380238061221576 0.0000000000000000
4.1990487951564690 5.8521061613467937 0.0000000000000000
4.2445934547540363 5.7028271153338723 0.0000000000000000
4.1380863384529150 5.5887447601092237 0.0000000000000000
4.2901381143516026 5.5535480693209589 0.0000000000000000
4.3966452306527204 5.6676304245456048 0.0000000000000000
4.4421898902502850 5.5183513785326914 0.0000000000000000
4.5486970065514090 5.6324337337573498 0.0000000000000000
4.5942416661489709 5.4831546877444266 0.0000000000000000
4.1836309980504716 5.4394657140962952 0.0000000000000000
4.7007487824500940 5.5972370429690894 0.0000000000000000
4.7462934420476541 5.4479579969561573 0.0000000000000000
4.8528005583487781 5.5620403521808228 0.0000000000000000
4.8983452179463347 5.4127613061678890 0.0000000000000000
5.0048523342474613 5.5268436613925536 0.0000000000000000
5.0503969938450144 5.3775646153796224 0.0000000000000000
4.9438898775438940 5.2634822601549587 0.0000000000000000
5.0959416534425692 5.2282855693666912 0.0000000000000000
4.9894345371414479 5.1142032141420284 0.0000000000000000
5.1414863130401232 5.0790065233537556 0.0000000000000000
5.0349791967389930 4.9649241681290954 0.0000000000000000
5.1870309726376753 4.9297274773408244 0.0000000000000000
5.1569041101461410 5.4916469706042870 0.0000000000000000
5.0805238563365460 4.8156451221161642 0.0000000000000000
5.2325756322352257 4.7804484313278914 0.0000000000000000
5.1260685159340973 4.6663660761032304 0.0000000000000000
5.2781202918327770 4.6311693853149549 0.0000000000000000
5.3846274081339072 4.7452517405396160 0.0000000000000000
5.4301720677314593 4.5959726945266830 0.0000000000000000
5.1716131755316477 4.5170870300902957 0.0000000000000000
5.5366791840325904 4.7100550497513458 0.0000000000000000
5.5822238436301443 4.5607760037384164 0.0000000000000000
5.1113594505485880 5.6409260166172182 0.0000000000000000
5.2634112264472694 5.6057293258289498 0.0000000000000000
5.6887309599312710 4.6748583589630783 0.0000000000000000
5.7342756195288276 4.5255793129501489 0.0000000000000000
5.2178665668497093 5.7550083718418623 0.0000000000000000
5.3699183427483952 5.7198116810536117 0.0000000000000000
5.3243736831508359 5.8690907270665242 0.0000000000000000
5.4764254590495209 5.8338940362782781 0.0000000000000000
5.8407827358299542 4.6396616681748100 0.0000000000000000
5.8863273954275099 4.4903826221618814 0.0000000000000000
5.7798202791263833 4.3763002669372160 0.0000000000000000
5.9318720550250621 4.3411035761489538 0.0000000000000000
5.8253649387239346 4.2270212209242839 0.0000000000000000
5.9774167146226178 4.1918245301360173 0.0000000000000000
5.8709095983214894 4.0777421749113518 0.0000000000000000
6.0229613742201717 4.0425454841230817 0.0000000000000000
5.4308807994519670 5.9831730822912030 0.0000000000000000
5.5829325753506511 5.9479763915029453 0.0000000000000000
5.9164542579190416 3.9284631288984202 0.0000000000000000
6.0685060338177221 3.8932664381101469 0.0000000000000000
5.5373879157530972 6.0972554375158738 0.0000000000000000
5.6894396916517787 6.0620587467276117 0.0000000000000000
5.9928345117286357 4.6044649773865469 0.0000000000000000
6.1750131501188523 4.0073487933348062 0.0000000000000000
6.2205578097164018 3.8580697473218719 0.0000000000000000
5.9619989175165973 3.7791840828854859 0.0000000000000000
5.6438950320542256 6.2113377927405429 0.0000000000000000
5.7959468079529062 6.1761411019522718 0.0000000000000000
6.3270649260175338 3.9721521025465298 0.0000000000000000
6.3726095856150806 3.8228730565335969 0.0000000000000000
5.0195613996329671 4.5522837208785703 0.0000000000000000
5.0651060592305148 4.4030046748656320 0.0000000000000000
4.9130542833318342 4.4382013656539074 0.0000000000000000
4.9585989429293829 4.2889223196409754 0.0000000000000000
4.8065471670307032 4.3241190104292464 0.0000000000000000
4.8520918266282536 4.1748399644163152 0.0000000000000000
4.7000400507295730 4.2100366552045863 0.0000000000000000
4.7455847103271234 4.0607576091916542 0.0000000000000000
4.5935329344284428 4.0959542999799243 0.0000000000000000
4.6390775940259958 3.9466752539669958 0.0000000000000000
4.4870258181273144 3.9818719447552642 0.0000000000000000
4.5325704777248648 3.8325928987423370 0.0000000000000000
4.3805187018261842 3.8677895895306031 0.0000000000000000
4.4260633614237328 3.7185105435176720 0.0000000000000000
4.2740115855250540 3.7537072343059399 0.0000000000000000
5.7504021483553567 6.3254201479652021 0.0000000000000000
5.9024539242540373 6.2902234571769293 0.0000000000000000
5.5983503724566717 6.3606168387534794 0.0000000000000000
6.4791167019162144 3.9369554117582570 0.0000000000000000
6.5246613615137630 3.7876763657453241 0.0000000000000000
4.3195562451226079 3.6044281882930069 0.0000000000000000
4.1675044692239247 3.6396248790812780 0.0000000000000000
4.1219598096263717 3.7889039250942109 0.0000000000000000
4.0154526933252424 3.6748215698695472 0.0000000000000000
3.9699080337276889 3.8241006158824820 0.0000000000000000
3.8634009174265591 3.7100182606578169 0.0000000000000000
3.8178562578290069 3.8592973066707530 0.0000000000000000
4.4716080210212867 3.5692314975047390 0.0000000000000000
3.7113491415278790 3.7452149514460880 0.0000000000000000
3.6658044819303250 3.8944939974590218 0.0000000000000000
5.7048574887578054 6.4746991939781360 0.0000000000000000
5.5528057128591186 6.5098958847664106 0.0000000000000000
3.7568938011254311 3.5959359054331559 0.0000000000000000
3.6048420252267510 3.6311325962214260 0.0000000000000000
4.3651009047201628 3.4551491422800762 0.0000000000000000
4.5171526806188433 3.4199524514918052 0.0000000000000000
5.9479985838515876 6.1409444111639964 0.0000000000000000
6.0545057001527169 6.2550267663886538 0.0000000000000000
6.1000503597502682 6.1057477203757244 0.0000000000000000
6.2065574760513984 6.2198300756003793 0.0000000000000000
6.2521021356489364 6.0705510295874499 0.0000000000000000
6.3586092519500799 6.1846333848121091 0.0000000000000000
6.4041539115476178 6.0353543387991850 0.0000000000000000
6.3130645923525277 6.3339124308250376 0.0000000000000000
6.4651163682512092 6.2987157400367693 0.0000000000000000
6.4195717086536606 6.4479947860496978 0.0000000000000000
6.6311684778148949 3.9017587209699851 0.0000000000000000
6.6767131374124462 3.7524796749570499 0.0000000000000000
6.5702060211113160 3.6383973197323889 0.0000000000000000
6.7222577970099993 3.6032006289441192 0.0000000000000000
5.6593128291602497 6.6239782399910698 0.0000000000000000
5.5072610532615833 6.6591749307793329 0.0000000000000000
6.6157506807088726 3.4891182737194550 0.0000000000000000
6.7678024566075532 3.4539215829311880 0.0000000000000000
3.6503866848243010 3.4818535502084940 0.0000000000000000
3.4983349089256190 3.5170502409967659 0.0000000000000000
4.4106455643177149 3.3058700962671441 0.0000000000000000
4.5626973402163964 3.2706734054788709 0.0000000000000000
6.5716234845523367 6.4127980952614312 0.0000000000000000
6.5260788249547934 6.5620771412743579 0.0000000000000000
5.6137681695626940 6.7732572860039983 0.0000000000000000
5.4617163936640196 6.8084539767922507 0.0000000000000000
3.5438795685231712 3.3677711949838360 0.0000000000000000
3.3918277926244889 3.4029678857721049 0.0000000000000000
6.6781306008534713 6.5268804504860896 0.0000000000000000
4.4561902239152609 3.1565910502542152 0.0000000000000000
4.6082419998139477 3.1213943594659379 0.0000000000000000
6.6325859412559280 6.6761594964990163 0.0000000000000000
6.7832202537135906 3.8665620301816941 0.0000000000000000
6.6612953403064257 3.3398392277065239 0.0000000000000000
6.8133471162051054 3.3046425369182550 0.0000000000000000
5.5682235099651383 6.9225363320169162 0.0000000000000000
5.4161717340664506 6.9577330228051659 0.0000000000000000
6.7846377171546024 6.6409628057107399 0.0000000000000000
6.8301823767521572 6.4916837596978230 0.0000000000000000
3.4373724522220410 3.2536888397591781 0.0000000000000000
3.2853206763233600 3.2888855305474429 0.0000000000000000
3.2397760167258061 3.4381645765603750 0.0000000000000000
6.7376755941160278 4.0158410761946461 0.0000000000000000
6.8897273700147226 3.9806443854063511 0.0000000000000000
6.8441827104171598 4.1299234314193036 0.0000000000000000
6.7390930575570636 6.7902418517236693 0.0000000000000000
6.8911448334557406 6.7550451609353921 0.0000000000000000
3.1332689004246790 3.3240822213357140 0.0000000000000000
3.0877242408271242 3.4733612673486460 0.0000000000000000
3.1788135600222289 3.1748031753227832 0.0000000000000000
6.9962344863158394 4.0947267406310299 0.0000000000000000
6.9506898267182899 4.2440057866439638 0.0000000000000000
6.8456001738581982 6.9043242069483242 0.0000000000000000
4.5017348835128166 3.0073120042412782 0.0000000000000000
4.6537866594114981 2.9721153134530049 0.0000000000000000
6.7068399999039752 3.1905601816935918 0.0000000000000000
6.8588917758026664 3.1553634909053190 0.0000000000000000
6.9976519497568752 6.8691275161600531 0.0000000000000000
6.9521072901593346 7.0184065621729834 0.0000000000000000
6.8000555142606540 7.0536032529612536 0.0000000000000000
3.0267617841235510 3.2099998661110498 0.0000000000000000
3.0723064437211001 3.0607208200981209 0.0000000000000000
7.1041590660580143 6.9832098713847124 0.0000000000000000
5.5226788503675843 7.0718153780298447 0.0000000000000000
5.3706270744689011 7.1070120688181282 0.0000000000000000
5.2641199581677682 6.9929297135934272 0.0000000000000000
2.9202546678224199 3.0959175108863870 0.0000000000000000
2.9657993274199730 2.9466384648734558 0.0000000000000000
5.2185752985702143 7.1422087596063966 0.0000000000000000
3.1178511033186509 2.9114417740851861 0.0000000000000000
5.1120681822690939 7.0281264043817204 0.0000000000000000
5.0665235226715319 7.1774054503946596 0.0000000000000000
7.0586144064604639 7.1324889173976436 0.0000000000000000
2.8137475515212902 2.9818351556617282 0.0000000000000000
7.1027416026169696 4.2088090958556919 0.0000000000000000
7.0571969430194201 4.3580881418686230 0.0000000000000000
6.7523846595015264 3.0412811356806602 0.0000000000000000
6.9044364354002399 3.0060844448923691 0.0000000000000000
6.6003328836028459 3.0764778264689312 0.0000000000000000
6.9653988921038650 3.2694458461299578 0.0000000000000000
2.8592922111188428 2.8325561096487948 0.0000000000000000
4.5472795431103634 2.8580329582283510 0.0000000000000000
4.6993313190090484 2.8228362674400742 0.0000000000000000
4.8058384353101786 2.9369186226647348 0.0000000000000000
4.8513830949077290 2.7876395766517970 0.0000000000000000
4.9600164063704089 7.0633230951699906 0.0000000000000000
4.9144717467728478 7.2126021411829244 0.0000000000000000
3.7723115982314539 4.0085763526836846 0.0000000000000000
3.6202598223327742 4.0437730434719557 0.0000000000000000
7.1497037256555656 6.8339308253717777 0.0000000000000000
7.2106661823591454 7.0972922266093708 0.0000000000000000
4.9578902112088610 2.9017219318764660 0.0000000000000000
5.0034348708064131 2.7524428858635268 0.0000000000000000
5.4771341907700286 7.2210944240427981 0.0000000000000000
7.1651215227615994 7.2465712726223090 0.0000000000000000
5.1099419871075433 2.8665252410881972 0.0000000000000000
5.1554866467050990 2.7172461950752611 0.0000000000000000
6.6458775432003989 2.9271987804560009 0.0000000000000000
2.7072404352201609 2.8677528004370658 0.0000000000000000
2.7682028919237380 3.1311142016746589 0.0000000000000000
7.2092487189181016 4.3228914510803502 0.0000000000000000
7.1637040593205494 4.4721704970932858 0.0000000000000000
7.2547933785156458 4.1736124050674146 0.0000000000000000
5.2619937630062266 2.8313285502999310 0.0000000000000000
5.3075384226037832 2.6820495042869910 0.0000000000000000
4.8079646304717150 7.0985197859582332 0.0000000000000000
4.7624199708741628 7.2477988319711830 0.0000000000000000
3.7267669386339022 4.1578553986966176 0.0000000000000000
3.5747151627352198 4.1930520894848868 0.0000000000000000
5.9472898521310809 4.7537440233994701 0.0000000000000000
2.7527850948177139 2.7184737544241342 0.0000000000000000
4.8535092900692911 6.9492407399452434 0.0000000000000000
7.3171732986602773 7.2113745818340256 0.0000000000000000
4.5928242027079200 2.7087539122154118 0.0000000000000000
4.4407724268092323 2.7439506030036962 0.0000000000000000
4.4863170864067907 2.5946715569907499 0.0000000000000000
4.3342653105081101 2.6298682477790201 0.0000000000000000
7.3613004948167831 4.2876947602920694 0.0000000000000000
5.6291859666687314 7.1858977332544827 0.0000000000000000
5.5836413070711606 7.3351767792674529 0.0000000000000000
4.6544953911320190 4.3593157012175148 0.0000000000000000
7.2716286390627376 7.3606536278469594 0.0000000000000000
7.1195768631640597 7.3958503186352518 0.0000000000000000
3.6812222790363509 4.3071344447095496 0.0000000000000000
3.5291705031376668 4.3423311354978207 0.0000000000000000
4.6559128545730282 7.1337164767464936 0.0000000000000000
4.6103681949754769 7.2829955227594514 0.0000000000000000
4.3798099701056614 2.4805892017660871 0.0000000000000000
4.2277581942069737 2.5157858925543639 0.0000000000000000
2.6007333189190320 2.7536704452124030 0.0000000000000000
7.4068451544143246 4.1384157142791320 0.0000000000000000
5.7356930829698403 7.2999800884791934 0.0000000000000000
5.6901484233722881 7.4492591344921246 0.0000000000000000
5.8422001992709633 7.4140624437038500 0.0000000000000000
6.0993416280297703 4.7185473326111982 0.0000000000000000
5.2164491034086691 2.9806075963128631 0.0000000000000000
5.4140455389049063 2.7961318595116631 0.0000000000000000
5.4595901985024646 2.6468528134987261 0.0000000000000000
5.8099471416179158 3.8143807736737489 0.0000000000000000
6.0537969684322093 4.8678263786241303 0.0000000000000000
6.2058487443309014 4.8326296878358566 0.0000000000000000
4.6552041228525338 5.7465160889820091 0.0000000000000000
2.6462779785165860 2.6043913991994718 0.0000000000000000
2.7983297544152692 2.5691947084112030 0.0000000000000000
7.4236804149614217 7.3254569370586724 0.0000000000000000
7.4692250745589526 7.1761778910457430 0.0000000000000000
3.6356776194387979 4.4564134907224808 0.0000000000000000
3.4836258435401160 4.4916101815107528 0.0000000000000000
3.3771187272389831 4.3775278262860917 0.0000000000000000
3.3315740676414349 4.5268068722990273 0.0000000000000000
3.2250669513403030 4.4127245170743663 0.0000000000000000
3.1795222917427530 4.5620035630872984 0.0000000000000000
3.0730151754416219 4.4479212078626382 0.0000000000000000
3.0274705158440720 4.5972002538755712 0.0000000000000000
2.9209633995429400 4.4831178986509101 0.0000000000000000
2.8754187399453910 4.6323969446638458 0.0000000000000000
2.9819258562465221 4.7464792998885050 0.0000000000000000
2.8298740803478419 4.7816759906767814 0.0000000000000000
2.7689116236442590 4.5183145894391856 0.0000000000000000
2.9363811966489730 4.8957583459014398 0.0000000000000000
2.7843294207502929 4.9309550366897152 0.0000000000000000
2.8908365370514262 5.0450373919143727 0.0000000000000000
2.7387847611527461 5.0802340827026491 0.0000000000000000
2.8452918774538789 5.1943164379273066 0.0000000000000000
2.6932401015551970 5.2295131287155820 0.0000000000000000
3.4380811839425660 4.6408892275236830 0.0000000000000000
2.7997472178563281 5.3435954839402413 0.0000000000000000
2.6476954419576462 5.3787921747285150 0.0000000000000000
4.5038610786743556 7.1689131675347886 0.0000000000000000
4.4583164190767954 7.3181922135477198 0.0000000000000000
2.9973436533525599 5.1591197471390364 0.0000000000000000
2.7542025582587750 5.4928745299531752 0.0000000000000000
2.6021507823600931 5.5280712207414462 0.0000000000000000
7.2260839794651952 7.5099326738598942 0.0000000000000000
7.5133522707154654 4.2524980695037859 0.0000000000000000
5.0209788630739736 7.3266844964075899 0.0000000000000000
2.6322776448516110 4.9661517274779916 0.0000000000000000
6.1455950193478097 5.9564686743627897 0.0000000000000000
7.0740322035665164 7.5451293646481803 0.0000000000000000
5.7966555396734174 7.5633414897167874 0.0000000000000000
5.9487073155721131 7.5281447989284924 0.0000000000000000
5.2788290235532722 6.0183697730794083 0.0000000000000000
4.7911293699246817 3.9114785631787292 0.0000000000000000
4.3518093027756732 7.2041098583230543 0.0000000000000000
4.3062646431781104 7.3533889043359872 0.0000000000000000
4.4127717594792388 7.4674712595606536 0.0000000000000000
4.2607199835805600 7.5026679503489193 0.0000000000000000
4.3973539623732227 7.0548308123101240 0.0000000000000000
2.7086578986612242 5.6421535759661063 0.0000000000000000
2.5566061227625450 5.6773502667543756 0.0000000000000000
4.1542128672794298 7.3885855951242583 0.0000000000000000
4.1086682076818759 7.5378646411371886 0.0000000000000000
2.6918226381141399 2.4551123531865402 0.0000000000000000
5.5660973148035904 2.7609351687233930 0.0000000000000000
5.6116419744011461 2.6116561227104609 0.0000000000000000
2.8438744140128240 2.4199156623982709 0.0000000000000000
4.2151753239830114 7.6519469963618523 0.0000000000000000
2.4942262026179018 2.6395880899877420 0.0000000000000000
2.4486815430203501 2.7888671360006740 0.0000000000000000
5.0489795304039724 2.6031638398505752 0.0000000000000000
4.2733028538045312 2.3665068465414270 0.0000000000000000
4.1212510779058409 2.4017035373297060 0.0000000000000000
7.1805393198676493 7.6592117198728316 0.0000000000000000
7.5588969303130078 4.1032190234908494 0.0000000000000000
7.5757321908600979 7.2902602462703880 0.0000000000000000
7.6654040466141398 4.2173013787155060 0.0000000000000000
7.6198593870166000 4.3665804247284434 0.0000000000000000
5.6446037637747333 7.5985381805050558 0.0000000000000000
5.5051348581000212 2.4975737674857932 0.0000000000000000
5.6571866339987018 2.4623770766975301 0.0000000000000000
2.8144562832418090 4.3690355434262509 0.0000000000000000
2.6624045073431279 4.4042322342145246 0.0000000000000000
2.7079491669406770 4.2549531882015907 0.0000000000000000
2.5558973910419960 4.2901498789898644 0.0000000000000000
2.6014420506395450 4.1408708329769306 0.0000000000000000
2.4493902747408671 4.1760675237652052 0.0000000000000000
2.4038456151433150 4.3253465697781337 0.0000000000000000
2.4949349343384122 4.0267884777522678 0.0000000000000000
2.4500990064614152 5.5632679115297190 0.0000000000000000
2.4045543468638622 5.7125469575426546 0.0000000000000000
2.5110614631649950 5.8266293127673094 0.0000000000000000
7.6212768504576349 7.1409812002574551 0.0000000000000000
5.5219701186470820 5.6846149902653504 0.0000000000000000
6.1603040847333412 4.9819087338487966 0.0000000000000000
6.3123558606320227 4.9467120430605256 0.0000000000000000
4.0021610913807493 7.4237822859125284 0.0000000000000000
3.9566164317831918 7.5730613319254569 0.0000000000000000
5.7511108800758644 7.7126205357297186 0.0000000000000000
2.3590096872663149 5.8618260035555876 0.0000000000000000
2.4655168035674508 5.9759083587802451 0.0000000000000000
2.7373672977116961 2.3058333071736081 0.0000000000000000
2.3421744267192208 2.6747847807760121 0.0000000000000000
2.2973384988421839 4.2112642145534780 0.0000000000000000
2.2525025709651820 5.7477436483309337 0.0000000000000000
2.2966297671216682 2.8240638267889442 0.0000000000000000
4.4253546297032127 2.3313101557531528 0.0000000000000000
4.3188475134020834 2.2172278005284940 0.0000000000000000
5.8877448588685564 7.2647833976908593 0.0000000000000000
4.1822135346094207 2.6650649385673120 0.0000000000000000
4.8829274208403106 5.0001208589173656 0.0000000000000000
6.4938257673017157 2.9623954712442671 0.0000000000000000
6.5393704268992687 2.8131164252313341 0.0000000000000000
5.8554918012154697 3.6651017276608231 0.0000000000000000
5.7034400253167883 3.7002984184490830 0.0000000000000000
7.7277839667587704 7.2550635554821046 0.0000000000000000
7.6822393071612334 7.4043426014950473 0.0000000000000000
5.5506795176975814 2.3482947214728629 0.0000000000000000
5.7027312935962664 2.3130980306846030 0.0000000000000000
7.0284875439689696 7.6944084106611079 0.0000000000000000
7.1349946602701060 7.8084907658857654 0.0000000000000000
6.2668112010344714 5.0959910890734594 0.0000000000000000
6.4188629769331538 5.0607943982851893 0.0000000000000000
3.7877293953374802 4.4212167999342116 0.0000000000000000
3.8501093154820691 7.4589789767007986 0.0000000000000000
3.8045646558845050 7.6082580227137244 0.0000000000000000
7.4523898140118741 3.9891366682661960 0.0000000000000000
7.6044415899105564 3.9539399774779138 0.0000000000000000
2.8607096745599030 5.6069568851778406 0.0000000000000000
2.8894190736103789 2.2706366163853389 0.0000000000000000
2.3134650276687729 6.0111050495685241 0.0000000000000000
2.4199721439699120 6.1251874047931798 0.0000000000000000
7.7719111629152779 4.3313837339401626 0.0000000000000000
7.7263665033177400 4.4806627799530983 0.0000000000000000
2.2517938392446339 4.3605432605664056 0.0000000000000000
2.7829119573092500 2.1565542611606761 0.0000000000000000
2.6308601814105659 2.1917509519489471 0.0000000000000000
5.5990591041771793 7.7478172265179897 0.0000000000000000
5.7055662204783051 7.8618995817426516 0.0000000000000000
7.4979344736094244 3.8398576222532612 0.0000000000000000
7.6499862495081121 3.8046609314649849 0.0000000000000000
7.5434791332069819 3.6905785762403260 0.0000000000000000
7.6955309091056607 3.6553818854520541 0.0000000000000000
7.5890237928045376 3.5412995302273980 0.0000000000000000
7.7733286263563190 7.1057845094691752 0.0000000000000000
2.1452867229435020 4.2464609053417499 0.0000000000000000
2.1901226508205380 2.7099814715642809 0.0000000000000000
7.7410755687032129 3.5061028394391212 0.0000000000000000
7.6345684524021120 3.3920204842144699 0.0000000000000000
7.7866202283007686 3.3568237934261900 0.0000000000000000
7.6801131119996606 3.2427414382015329 0.0000000000000000
7.8321648878983190 3.2075447474132570 0.0000000000000000
7.7256577715971844 3.0934623921885960 0.0000000000000000
7.8777095474958649 3.0582657014003201 0.0000000000000000
7.7712024311947276 2.9441833461756590 0.0000000000000000
7.9232542070934091 2.9089866553873831 0.0000000000000000
7.8167470907922798 2.7949043001627238 0.0000000000000000
7.6646953148935957 2.8301009909509980 0.0000000000000000
7.7102399744911496 2.6808219449380588 0.0000000000000000
7.5581881985924682 2.7160186357263321 0.0000000000000000
7.6037328581900212 2.5667395897134022 0.0000000000000000
7.4516810822913389 2.6019362805016670 0.0000000000000000
7.4972257418888999 2.4526572344887372 0.0000000000000000
7.3451739659902149 2.4878539252770029 0.0000000000000000
7.3907186255877724 2.3385748792640730 0.0000000000000000
7.2386668496890874 2.3737715700523401 0.0000000000000000
7.2842115092866440 2.2244925240394089 0.0000000000000000
7.1321597333879581 2.2596892148276750 0.0000000000000000
7.6492775177875840 2.4174605437004719 0.0000000000000000
7.8798357426574608 7.2198668646938184 0.0000000000000000
6.3740270490561359 6.5972738320626050 0.0000000000000000
6.0082523088346509 5.0171054246370499 0.0000000000000000
6.3733183173355963 5.2100734442981231 0.0000000000000000
6.5253700932342813 5.1748767535098574 0.0000000000000000
3.6959313444218509 3.3325745041955610 0.0000000000000000
3.8956539750796382 7.3096999306878656 0.0000000000000000
5.8092384098973842 2.4271803859092560 0.0000000000000000
5.8547830694949443 2.2779013398963328 0.0000000000000000
5.7482759531938239 2.1638189846716731 0.0000000000000000
3.6980575395833850 7.4941756674890634 0.0000000000000000
3.6525128799858209 7.6434547135019884 0.0000000000000000
2.5720239198685850 6.0899907140048972 0.0000000000000000
7.1777043929855182 2.1104101688147439 0.0000000000000000
7.0256526170868359 2.1456068596030100 0.0000000000000000
2.2679203680712319 6.1603840955814606 0.0000000000000000
2.3744274843723678 6.2744664508061163 0.0000000000000000
6.5709147528318308 5.0255977074969174 0.0000000000000000
6.6774218691329610 5.1396800627215873 0.0000000000000000
6.6318772095354106 5.2889591087345176 0.0000000000000000
6.7839289854340947 5.2537624179462492 0.0000000000000000
6.7383843258365363 5.4030414639591804 0.0000000000000000
6.8904361017352169 5.3678447731709200 0.0000000000000000
6.8448914421376550 5.5171238191838450 0.0000000000000000
6.9969432180363400 5.4819271283955819 0.0000000000000000
7.0424878776338957 5.3326480823826534 0.0000000000000000
7.1489949939350206 5.4467304376073198 0.0000000000000000
7.1034503343374658 5.5960094836202510 0.0000000000000000
7.2555021102361481 5.5608127928319826 0.0000000000000000
7.3010467698337047 5.4115337468190523 0.0000000000000000
7.4075538861348331 5.5256161020437116 0.0000000000000000
7.3620092265372801 5.6748951480566436 0.0000000000000000
7.5140610024359669 5.6396984572683690 0.0000000000000000
7.4685163428384200 5.7889775032813029 0.0000000000000000
7.6205681187370997 5.7537808124930274 0.0000000000000000
7.5750234591395582 5.9030598585059604 0.0000000000000000
7.4530985457323888 5.3763370560307839 0.0000000000000000
7.7270752350382370 5.8678631677176813 0.0000000000000000
7.6815305754407008 6.0171422137306161 0.0000000000000000
7.7726198946357794 5.7185841217047511 0.0000000000000000
7.5294787995420194 6.0523389045188960 0.0000000000000000
7.6359859158431576 6.1664212597435517 0.0000000000000000
6.7986380508196174 4.2792024774322339 0.0000000000000000
5.1106507188280634 4.2537256288526981 0.0000000000000000
5.7489846849143422 3.5510193724361581 0.0000000000000000
5.5969329090156581 3.5862160632244291 0.0000000000000000
5.9010364608130290 3.5158226816478870 0.0000000000000000
2.1445779912229850 2.8592605175772139 0.0000000000000000
5.4007539369604380 6.5450925755546496 0.0000000000000000
7.2870464361687910 7.7732940750974757 0.0000000000000000
7.2415017765712468 7.9225731211104167 0.0000000000000000
7.3935535524699283 7.8873764303221341 0.0000000000000000
4.6692044565175257 3.3847557607035470 0.0000000000000000
2.2510851075241129 2.9733428728018758 0.0000000000000000
2.2356673104180911 2.5607024255513471 0.0000000000000000
6.9219804276678367 7.5803260554364478 0.0000000000000000
6.8764357680702846 7.7296051014493763 0.0000000000000000
6.7699286517691553 7.6155227462247037 0.0000000000000000
2.9959261899115059 2.3847189716100030 0.0000000000000000
3.0414893131118030 2.2355196894476852 0.0000000000000000
3.1479810430773130 2.3495355747968381 0.0000000000000000
7.6668215100551844 6.9917021542445186 0.0000000000000000
6.7243839921715907 7.7648017922376340 0.0000000000000000
4.4708992893007640 2.1820311097402190 0.0000000000000000
4.3643921729996293 2.0679487545155588 0.0000000000000000
7.8791270109369149 5.8326664769294077 0.0000000000000000
7.9246716705344671 5.6833874309164809 0.0000000000000000
3.1935446791554618 2.2003385082970368 0.0000000000000000
3.3000339302113448 2.3143436846106922 0.0000000000000000
7.8188732859538819 6.9565054634562467 0.0000000000000000
2.2223757084736890 6.3096631415943891 0.0000000000000000
3.7590199962869431 7.7575370687266529 0.0000000000000000
3.6069682203882572 7.7927337595149178 0.0000000000000000
3.5004611040871350 7.6786514042902443 0.0000000000000000
3.4549164444895681 7.8279304503031746 0.0000000000000000
2.0380708749218561 2.7451781623525511 0.0000000000000000
5.9003277290925089 2.1286222938834101 0.0000000000000000
6.0068348453936284 2.2427046491080742 0.0000000000000000
5.7938206127913858 2.0145399386587428 0.0000000000000000
2.7534938265382221 4.1056741421886516 0.0000000000000000
6.3873186510005873 2.8483131160196029 0.0000000000000000
7.4839341399444734 6.2016179505318307 0.0000000000000000
2.3288828247748228 6.4237454968190502 0.0000000000000000
7.8784182792164161 4.4454660891648121 0.0000000000000000
7.8328736196188800 4.5947451351777460 0.0000000000000000
7.9239629388139594 4.2961870431518818 0.0000000000000000
7.6808218437202020 4.6299418259660357 0.0000000000000000
7.7873289600213411 4.7440241811906843 0.0000000000000000
7.9687988666909639 2.7597076093744430 0.0000000000000000
2.1768310488761409 6.4589421876073274 0.0000000000000000
2.0997420633459520 4.3957399513546838 0.0000000000000000
1.9932349470448201 4.2816575961300254 0.0000000000000000
2.0387796066423660 4.1323785501170907 0.0000000000000000
7.3297561688842023 2.0752134780264768 0.0000000000000000
7.2232490525830766 1.9611311228018120 0.0000000000000000
7.8020380254067918 3.7694642406767049 0.0000000000000000
2.6764048410081189 2.0424719059360150 0.0000000000000000
2.5243530651094370 2.0776685967242861 0.0000000000000000
5.5535144445796281 7.8970962725309199 0.0000000000000000
5.6600215608807547 8.0111786277555819 0.0000000000000000
5.8120733367794317 7.9759819369673171 0.0000000000000000
3.3388418828392501 2.1713549911625232 0.0000000000000000
2.0990333316254302 3.0085395635901451 0.0000000000000000
2.2055404479265559 3.1226219188148079 0.0000000000000000
8.0311787868355928 5.7974697861411446 0.0000000000000000
6.8308911084727120 7.8788841474623101 0.0000000000000000
7.3164645669397412 5.8241741940695766 0.0000000000000000
7.6352771841226543 4.7792208719789828 0.0000000000000000
7.7417843004237881 4.8933032272036332 0.0000000000000000
6.6178768758704702 7.6507194370129596 0.0000000000000000
6.5723322162728994 7.7999984830258899 0.0000000000000000
6.8294736450316478 5.1044833719333136 0.0000000000000000
6.9801079574892722 2.2948859056159479 0.0000000000000000
6.8736008411881508 2.1808035503912802 0.0000000000000000
5.6417688368927026 2.0497366294470032 0.0000000000000000
5.4470073282784961 7.7830139173062562 0.0000000000000000
2.8283783075844968 2.0072513231714542 0.0000000000000000
6.2815202664199763 4.1214311485594521 0.0000000000000000
5.2479934293412462 5.1930888785784157 0.0000000000000000
6.3579005202295811 4.7974329970475686 0.0000000000000000
5.7658199454614092 6.7380605952157069 0.0000000000000000
3.2706116109378471 4.2634454710614316 0.0000000000000000
5.5513882494181042 3.7354951092373541 0.0000000000000000
5.4448811331169749 3.6214127540127001 0.0000000000000000
4.4877345498478549 5.3690723325197647 0.0000000000000000
3.5137527060316431 3.9296906882472951 0.0000000000000000
6.3417739914030324 2.9975921620325350 0.0000000000000000
3.8788187145325841 4.1226587079083474 0.0000000000000000
2.2062491796470858 4.5098223065793377 0.0000000000000000
4.4414811585297613 4.1311509907681989 0.0000000000000000
3.7127666049689192 6.5196157269750854 0.0000000000000000
5.5205526552060320 2.9102142147363299 0.0000000000000000
5.6726044311047197 2.8750175239480540 0.0000000000000000
2.1614132517701008 6.0463017403568031 0.0000000000000000
6.2212665414369122 5.2452701350863924 0.0000000000000000
6.3277736577380326 5.3593524903110552 0.0000000000000000
6.1757218818393538 5.3945491810993191 0.0000000000000000
4.3041384480165794 3.1917877410424911 0.0000000000000000
4.7168753112766062 7.3970778779841213 0.0000000000000000
3.4509601292801042 2.2801833228650681 0.0000000000000000
3.4832044401465820 2.1143685379734798 0.0000000000000000
3.3932452560655260 6.1773686613011112 0.0000000000000000
3.4387899156630781 6.0280896152881711 0.0000000000000000
4.0315792221517874 5.4746624048845662 0.0000000000000000
4.0771238817493396 5.3253833588716333 0.0000000000000000
3.9250721058506621 5.3605800496599034 0.0000000000000000
3.9706167654482138 5.2113010036469714 0.0000000000000000
3.8185649895495328 5.2464976944352424 0.0000000000000000
4.1226685413469042 5.1761043128587101 0.0000000000000000
7.5736059956985544 3.1286590829768679 0.0000000000000000
3.4063506580391678 2.4285866982909821 0.0000000000000000
3.8641096491470819 5.0972186484223121 0.0000000000000000
6.5870412816583919 6.8254385425119448 0.0000000000000000
3.6672219453713710 6.6688947729880201 0.0000000000000000
3.8192737212700520 6.6336980821997402 0.0000000000000000
6.8743095729087873 3.5680039381558371 0.0000000000000000
3.7120578732484022 5.1324153392105822 0.0000000000000000
3.6665132136508518 5.2816943852235143 0.0000000000000000
7.3465914294312640 5.2622547008061202 0.0000000000000000
6.4328633105981394 2.6990340700066731 0.0000000000000000
4.2123403971009488 2.1031454453038370 0.0000000000000000
4.2578850566984956 1.9538663992909009 0.0000000000000000
4.1058332807998159 1.9890630900791790 0.0000000000000000
2.5411883256565209 5.2647098195038566 0.0000000000000000
7.0116522834218680 4.5073671878815533 0.0000000000000000
7.1181593997229928 4.6214495431062197 0.0000000000000000
3.2867381397643931 6.0632863060764466 0.0000000000000000
3.3322827993619542 5.9140072600635127 0.0000000000000000
6.6171681441498951 6.2635190492484991 0.0000000000000000
2.4809346006734749 6.3885488060307551 0.0000000000000000
7.5904412562456054 6.3157003057564873 0.0000000000000000
7.7424930321442931 6.2805036149682110 0.0000000000000000
2.2833381651772742 6.5730245428319831 0.0000000000000000
2.1312863892785909 6.6082212336202586 0.0000000000000000
3.3484093281884539 7.7138480950785020 0.0000000000000000
3.3028646685908840 7.8631271410914270 0.0000000000000000
3.3939539877860261 7.5645690490655886 0.0000000000000000
2.2377935055797220 6.7223035888449090 0.0000000000000000
2.0857417296810401 6.7575002796331898 0.0000000000000000
1.9645414106884160 7.6179597175961860 0.0000000000000000
5.7665286771818751 8.1252609829802402 0.0000000000000000
5.6873134964902672 1.9004575834340729 0.0000000000000000
6.0523795049911904 2.0934256030951488 0.0000000000000000
6.1588866212923152 2.2075079583198129 0.0000000000000000
2.7219364490519529 1.8931888779270341 0.0000000000000000
7.3480088928723823 8.0366554763350706 0.0000000000000000
7.5000606687710629 8.0014587855467880 0.0000000000000000
7.1959571169737000 8.0718521671233443 0.0000000000000000
8.0753059829920897 2.8737899645991081 0.0000000000000000
5.4014626686809439 7.9322929633191919 0.0000000000000000
5.2949555523798129 7.8182106080945228 0.0000000000000000
8.0304700551150958 4.4102693983765322 0.0000000000000000
8.0760147147126400 4.2609903523635966 0.0000000000000000
2.0541974037484030 4.5450189973676203 0.0000000000000000
2.1607045200495389 4.6591013525922751 0.0000000000000000
4.5164439488983108 2.0327520637272860 0.0000000000000000
4.6229510651994454 2.1468344189519430 0.0000000000000000
5.5352617205915813 1.9356542742223339 0.0000000000000000
8.0767234464331672 5.6481907401282143 0.0000000000000000
7.9702163301320397 5.5341083849035506 0.0000000000000000
8.1832305627342841 5.7622730953528860 0.0000000000000000
1.8867278307436861 4.1675752409053679 0.0000000000000000
1.9322724903412341 4.0182961948924323 0.0000000000000000
6.9191455007857101 2.0315245043783450 0.0000000000000000
6.7670937248870340 2.0667211951666160 0.0000000000000000
5.9185804530805619 8.0900642921919719 0.0000000000000000
2.0534886720278740 3.1578186096030758 0.0000000000000000
2.1599957883290002 3.2719009648277400 0.0000000000000000
1.9469815557267420 3.0437362543784152 0.0000000000000000
6.2044312808898781 2.0582289123068800 0.0000000000000000
8.1208506425896481 2.7245109185861769 0.0000000000000000
3.7134753366893838 7.9068161147395868 0.0000000000000000
3.2304894823121240 2.0620874371699651 0.0000000000000000
7.3753008284817563 1.9259344320135510 0.0000000000000000
7.2687937121806394 1.8118520767888810 0.0000000000000000
8.2273577588907720 2.8385932738108410 0.0000000000000000
6.7215490652894907 2.2160002411795898 0.0000000000000000
6.6914222027979493 2.7779197344430622 0.0000000000000000
6.2352668751019049 2.8835098068078708 0.0000000000000000
6.1897222155043483 3.0327888528208029 0.0000000000000000
5.6733131628252496 4.2622179117125452 0.0000000000000000
5.3993364735194218 3.7706918000256331 0.0000000000000000
5.2928293572182916 3.6566094448009729 0.0000000000000000
6.6928396662389718 5.5523205099721089 0.0000000000000000
6.7993467825400948 5.6664028651967744 0.0000000000000000
3.5583707025256341 2.3934167839119840 0.0000000000000000
3.5129766190854790 2.5425543475619570 0.0000000000000000
7.1931221900915299 2.5230506160652681 0.0000000000000000
7.4061364226937956 2.7512153265145831 0.0000000000000000
6.4636989048101947 3.5243149645077252 0.0000000000000000
3.5600060973497212 5.1676120299988550 0.0000000000000000
3.5144614377521690 5.3168910760117889 0.0000000000000000
5.4904257927145261 3.4721337079997681 0.0000000000000000
7.4369720169059050 3.5764962210156530 0.0000000000000000
7.4383894803469230 6.3508969965447619 0.0000000000000000
7.3318823640457946 6.2368146413201000 0.0000000000000000
3.1963575522897720 7.7490447858667526 0.0000000000000000
3.1508128926921959 7.8983238318796731 0.0000000000000000
2.1922488459821721 6.8715826348578544 0.0000000000000000
2.0401970700834910 6.9067793256461210 0.0000000000000000
7.3024642332748337 8.1859345223480098 0.0000000000000000
7.8938360763224766 4.8581065364153471 0.0000000000000000
1.8411831711461379 4.3168542869183018 0.0000000000000000
8.1376859031367061 5.9115521413658172 0.0000000000000000
4.1513779403973610 1.8397840440662441 0.0000000000000000
7.8928251696743512 3.4699641182352718 0.0000000000000000
2.8739077403693760 1.8579676314964650 0.0000000000000000
2.7674763955884392 1.7439083939710831 0.0000000000000000
5.2494108927822589 7.9674896541074602 0.0000000000000000
5.1429037764811323 7.8534072988827814 0.0000000000000000
2.0732075847632370 6.3421676590103759 0.0000000000000000
5.8393652723889504 1.8652608926458150 0.0000000000000000
5.7328581560878336 1.7511785374211430 0.0000000000000000
4.3034297162960389 1.8045873532779659 0.0000000000000000
2.2840579649603900 7.9602154299078167 0.0000000000000000
2.4361010578609950 7.9250262592605853 0.0000000000000000
1.7346760548450051 4.2027719316936434 0.0000000000000000
8.1817418999721596 4.3717033595813666 0.0000000000000000
2.0086527441508562 4.6942980433805577 0.0000000000000000
2.1151598604519939 4.8083803986052089 0.0000000000000000
4.6684957247969896 1.9975553729390070 0.0000000000000000
4.7750028410981260 2.1116377281636600 0.0000000000000000
8.2279365021043738 4.2252321035741653 0.0000000000000000
7.8482914167249298 5.0073855824282827 0.0000000000000000
6.4658250999717879 7.6859161278012138 0.0000000000000000
6.5113697595693552 7.5366370817882853 0.0000000000000000
6.4202804403742224 7.8351951738141334 0.0000000000000000
3.7737290616725110 6.7829771282126794 0.0000000000000000
3.9257808375711871 6.7477804374243959 0.0000000000000000
3.9713254971687291 6.5985013914114594 0.0000000000000000
5.7945293445119024 3.4017403264232291 0.0000000000000000
3.7421847357399258 4.5704958459471428 0.0000000000000000
3.8942365116386068 4.5352991551588726 0.0000000000000000
7.6969483725467374 6.4297826609811457 0.0000000000000000
7.8490001484454197 6.3945859701928640 0.0000000000000000
7.9815897690108644 3.1609671308403451 0.0000000000000000
5.6144769012832008 8.1604576737685210 0.0000000000000000
5.7209840175843327 8.2745400289931652 0.0000000000000000
7.1504124573761496 8.2211312131362853 0.0000000000000000
7.2600096391460740 8.3361563395245426 0.0000000000000000
2.0079440124303169 3.3070976556160079 0.0000000000000000
2.1144511287314449 3.4211800108406711 0.0000000000000000
2.2665029046301282 3.3859833200524010 0.0000000000000000
2.2209582450325742 3.5352623660653379 0.0000000000000000
2.3730100209312548 3.5000656752770611 0.0000000000000000
3.9993261644986808 1.8749807348545200 0.0000000000000000
6.5267875566753171 7.9492775290388176 0.0000000000000000
4.1969225999949016 1.6905049980533100 0.0000000000000000
5.0973591168835766 8.0026863448957126 0.0000000000000000
4.9908520005824526 7.8886039896710294 0.0000000000000000
2.8768362049259131 7.4067977195315908 0.0000000000000000
2.0689064691338919 3.5704590568536192 0.0000000000000000
5.9641251126781158 7.9407852461790487 0.0000000000000000
6.0706322289792434 8.0548676014037088 0.0000000000000000
6.9661076238243123 4.6566462338944854 0.0000000000000000
4.0778326134698606 6.7125837466361178 0.0000000000000000
4.1233772730674012 6.5633047006231724 0.0000000000000000
4.2298843893685349 6.6773870558478299 0.0000000000000000
4.2754290489660729 6.5281080098348809 0.0000000000000000
4.3819361652672102 6.6421903650595384 0.0000000000000000
4.4274808248647508 6.4929113190465886 0.0000000000000000
4.5339879411659023 6.6069936742712327 0.0000000000000000
4.5795326007634349 6.4577146282582936 0.0000000000000000
4.4730254844622861 6.3436322730336494 0.0000000000000000
4.6250772603609658 6.3084355822453562 0.0000000000000000
4.7315843766621128 6.4225179374700030 0.0000000000000000
4.7771290362596499 6.2732388914570700 0.0000000000000000
4.8836361525607916 6.3873212466817160 0.0000000000000000
3.8655271125880701 7.8716194239513184 0.0000000000000000
3.8199824529905162 8.0208984699642514 0.0000000000000000
3.9720342288891950 7.9857017791759688 0.0000000000000000
7.0726147401254336 4.7707285891191518 0.0000000000000000
5.3986277417988973 2.3834914122611228 0.0000000000000000
2.0843242662399151 3.9830995041041590 0.0000000000000000
4.6383688623054748 2.5594748662024620 0.0000000000000000
6.1448862876273296 4.5692682865982448 0.0000000000000000
3.6650482024416910 2.5073385391147438 0.0000000000000000
3.6195319401132888 2.6565908184573570 0.0000000000000000
5.6431863003337117 4.8241374049759980 0.0000000000000000
6.2822289981404680 5.5086315363239837 0.0000000000000000
6.1301772222417821 5.5438282271122361 0.0000000000000000
6.0236701059406670 5.4297458718875760 0.0000000000000000
3.1942313571282508 3.5874436225733071 0.0000000000000000
3.0421795812295680 3.6226403133615759 0.0000000000000000
3.1486866975306960 3.7367226685862409 0.0000000000000000
7.3458826977107758 3.8750543130415780 0.0000000000000000
5.0658147909510181 5.7902050626301111 0.0000000000000000
6.0089610405551719 6.4043058124015548 0.0000000000000000
5.2472846976207430 3.8058884908139059 0.0000000000000000
5.1407775813196128 3.6918061355892480 0.0000000000000000
5.1863222409171579 3.5425270895763141 0.0000000000000000
7.4818079447828856 2.0400167872382098 0.0000000000000000
4.8675096237342901 4.5874804116668413 0.0000000000000000
4.0609973529227954 3.5255425238566160 0.0000000000000000
2.6168598477455780 4.5535112802274602 0.0000000000000000
8.1430501708011462 4.5152528293964487 0.0000000000000000
5.4315895311724773 7.3703734700557328 0.0000000000000000
5.3537918139218661 3.9199708460385652 0.0000000000000000
3.0884329725476540 4.8605616551131599 0.0000000000000000
4.9123455516113079 3.0510009778893989 0.0000000000000000
4.2453021864745466 7.0900275030983879 0.0000000000000000
7.5456053283686133 7.8521797395338453 0.0000000000000000
7.6521124446697453 7.9662620947585037 0.0000000000000000
7.6976571042672912 7.8169830487455734 0.0000000000000000
7.8041642205684152 7.9310654039702353 0.0000000000000000
7.8497088801659718 7.7817863579573068 0.0000000000000000
2.9356724649284418 3.5085579581369091 0.0000000000000000
2.8901278053308812 3.6578370041498371 0.0000000000000000
8.0143435262885241 2.6104285633615052 0.0000000000000000
3.6209685540533010 5.4309734312364499 0.0000000000000000
3.4689167781546182 5.4661701220247192 0.0000000000000000
3.9537815049011340 2.0242597808674532 0.0000000000000000
6.1133419616947506 2.3567870043327388 0.0000000000000000
3.8472743886000011 1.9101774256427939 0.0000000000000000
5.7349843512493273 5.9127797007146743 0.0000000000000000
5.1576128418666629 6.8788473583687120 0.0000000000000000
8.1215377095590213 4.1116177133504710 0.0000000000000000
2.8151650149623522 5.7562359311907700 0.0000000000000000
7.2863377044482416 6.3860936873330321 0.0000000000000000
7.3928448207493727 6.5001760425576949 0.0000000000000000
7.1798305881471132 6.2720113321083648 0.0000000000000000
2.3898452814783702 6.6871068980566317 0.0000000000000000
4.5185701440598116 6.1943532270207102 0.0000000000000000
6.2653937375934348 2.3215903135444851 0.0000000000000000
3.0443057763911008 7.7842414766550831 0.0000000000000000
2.9987611486618571 7.9335205323908884 0.0000000000000000
3.1052682384060200 8.0476028795130894 0.0000000000000000
2.9532164952609108 8.0827995802943864 0.0000000000000000
2.1467041863846221 7.0208616808707927 0.0000000000000000
1.9946524104859411 7.0560583716590672 0.0000000000000000
2.3905565397877919 8.0743053354712657 0.0000000000000000
7.9562159964670940 7.8958687131819723 0.0000000000000000
8.0017606560646541 7.7465896671690366 0.0000000000000000
4.9453073409848862 8.0378830356839615 0.0000000000000000
4.8388002246837676 7.9238006804592764 0.0000000000000000
4.7932555650861932 8.0730797264722014 0.0000000000000000
4.6867484487850781 7.9589973712475146 0.0000000000000000
4.6412037891875073 8.1082764172604342 0.0000000000000000
4.5346966728863993 7.9941940620357537 0.0000000000000000
4.4891520132888099 8.1434731080486618 0.0000000000000000
8.1222681060307380 5.4989116941152911 0.0000000000000000
1.8881452941848120 6.9419760164343929 0.0000000000000000
1.8426006345872561 7.0912550624473383 0.0000000000000000
2.6154397638820490 1.7791097052141420 0.0000000000000000
3.4093717848920009 7.9772094963161111 0.0000000000000000
8.3336420226127501 4.3358515177917383 0.0000000000000000
3.9264895692916508 8.1349808251888707 0.0000000000000000
8.1663953021872029 2.5752318725732430 0.0000000000000000
8.0598881858860754 2.4611495173485771 0.0000000000000000
4.8205475006956693 1.9623586821507240 0.0000000000000000
4.9270546169968057 2.0764410373753779 0.0000000000000000
7.5273526043804413 1.8907377412252830 0.0000000000000000
7.6338597206815697 2.0048200964499432 0.0000000000000000
1.9809919396162090 6.6510096771863640 0.0000000000000000
1.9631080845533180 4.8435770893934933 0.0000000000000000
2.0696152008544551 4.9576594446181446 0.0000000000000000
8.0003431926236068 4.9721888916400134 0.0000000000000000
8.2897376790353903 5.8763554505775701 0.0000000000000000
8.3352823386329788 5.7270764045646416 0.0000000000000000
1.6891313952474569 4.3520509777065763 0.0000000000000000
1.5826242789463250 4.2379686224819189 0.0000000000000000
6.8126383844845826 1.9174421491536791 0.0000000000000000
6.6605866085859056 1.9526388399419530 0.0000000000000000
4.3489743758935813 1.6553083072650321 0.0000000000000000
4.2424672595924449 1.5412259520403759 0.0000000000000000
8.3799413377088747 4.1898326279521276 0.0000000000000000
8.4864406306276710 4.3038811857044843 0.0000000000000000
4.9725992765943507 1.9271619913624420 0.0000000000000000
5.0791063928954969 2.0412443465871029 0.0000000000000000
5.1246510524930473 1.8919653005741750 0.0000000000000000
2.9126038501567271 1.7065991102479019 0.0000000000000000
2.8118788447074459 1.5942808624283751 0.0000000000000000
3.0597235807264478 8.1968819261111996 0.0000000000000000
2.9076718051474360 8.2320786169970006 0.0000000000000000
7.6055725390174462 8.1112416192343346 0.0000000000000000
5.8817819305656318 1.7175993368634450 0.0000000000000000
5.7768297250708693 1.6018481846976489 0.0000000000000000
1.9175634249557840 4.9928561354064289 0.0000000000000000
2.0240705412569180 5.1069384906310811 0.0000000000000000
4.8380914929632608 6.5366002926946507 0.0000000000000000
7.4986432053299552 5.2270580100178501 0.0000000000000000
7.3921360890288321 5.1129756547931660 0.0000000000000000
6.3593179836706710 7.5718337725765368 0.0000000000000000
6.4048626432682383 7.4225547265636118 0.0000000000000000
8.0157609897296140 5.3848293388906310 0.0000000000000000
7.2246665160241168 4.7355318983308887 0.0000000000000000
5.0335617332979439 2.1905233926000331 0.0000000000000000
5.9781254463430997 5.5790249179004920 0.0000000000000000
5.8716183300419882 5.4649425626758266 0.0000000000000000
2.3274653613337031 3.6493447212899950 0.0000000000000000
5.1884484360786836 7.7041282528698600 0.0000000000000000
4.3826448969877037 8.0293907528240158 0.0000000000000000
4.3371002373900982 8.1786697988369212 0.0000000000000000
4.4436073536912160 8.2927521540615778 0.0000000000000000
4.2915555777925114 8.3279488448498213 0.0000000000000000
6.0832150992032172 2.9187064975961459 0.0000000000000000
5.0342704650184782 3.5777237803645980 0.0000000000000000
7.8637092138309050 5.4200260296789118 0.0000000000000000
3.8802361779736452 6.8970594834373324 0.0000000000000000
3.7281844020749682 6.9322561742256141 0.0000000000000000
5.9465811204105812 3.3665436356349550 0.0000000000000000
2.7836206890297581 3.5437546489251730 0.0000000000000000
2.7380760294321980 3.6930336949381011 0.0000000000000000
2.4185546805288110 3.3507866292641300 0.0000000000000000
4.9901432688619396 6.5014036019063521 0.0000000000000000
5.0798151246160170 3.4284447343516589 0.0000000000000000
4.8843448842813348 7.7745216344463568 0.0000000000000000
3.7715917501330818 2.6213864802808811 0.0000000000000000
3.7260531624339031 2.7706597906173931 0.0000000000000000
3.5740023985182838 2.8058555254595832 0.0000000000000000
2.2672116363506700 4.7731837078169344 0.0000000000000000
5.6270597715071657 3.0242965699609941 0.0000000000000000
6.2962293318054794 3.1468712080454670 0.0000000000000000
3.7105961632821680 2.3580563068253140 0.0000000000000000
2.4788084055118840 2.2269476427372159 0.0000000000000000
2.3723012892107560 2.1128652875125540 0.0000000000000000
6.6472950066414107 5.7015995559850401 0.0000000000000000
6.7538021229425382 5.8156819112097047 0.0000000000000000
3.1024338190904852 2.4988035424971828 0.0000000000000000
3.5754238944557462 5.5802524772493847 0.0000000000000000
6.8154733113667154 7.4662437002117743 0.0000000000000000
6.0530882367117123 3.4806259908596111 0.0000000000000000
2.1761223171555910 5.0717417998428029 0.0000000000000000
2.1305776575580508 5.2210208458557368 0.0000000000000000
1.9785258816593729 5.2562175366440167 0.0000000000000000
3.4079543214510388 5.2028087207871270 0.0000000000000000
2.0850329979605080 5.3702998918686724 0.0000000000000000
1.9329812220618261 5.4054965826569461 0.0000000000000000
3.4534989810485901 5.0535296747741949 0.0000000000000000
3.7576025328459530 4.9831362931976519 0.0000000000000000
3.9096543087446358 4.9479396024093862 0.0000000000000000
3.6805120344864979 2.9199354908491348 0.0000000000000000
3.8325642303296981 2.8847384017550231 0.0000000000000000
4.9291808121583189 6.2380422006687724 0.0000000000000000
2.9672167908610261 5.7210392404025017 0.0000000000000000
3.0127614504585871 5.5717601943895758 0.0000000000000000
2.9216721312634730 5.8703182864154231 0.0000000000000000
7.8945448080429603 6.2453069241799426 0.0000000000000000
8.0010519243440861 6.3593892794046116 0.0000000000000000
7.9555072647465339 6.5086683254175188 0.0000000000000000
4.5802413324839613 7.8449150160228607 0.0000000000000000
4.1689219326649294 6.4140256546102368 0.0000000000000000
6.1287597588007792 2.7694274515832160 0.0000000000000000
7.7123661696527410 6.8424231082315892 0.0000000000000000
7.5603143937540516 6.8776197990198558 0.0000000000000000
2.5573148547459379 7.0645506544053607 0.0000000000000000
4.8226736958571683 6.1239598454441282 0.0000000000000000
2.8922540004923931 7.8194381674432636 0.0000000000000000
2.1011595267870722 7.1701407268837301 0.0000000000000000
2.5426067796982612 8.0391097266819500 0.0000000000000000
2.4970618693808340 8.1883891316695347 0.0000000000000000
7.9106713368695338 8.0451477591949008 0.0000000000000000
8.0627231127682180 8.0099510684066431 0.0000000000000000
5.6260888580176243 1.6370876310780460 0.0000000000000000
5.6715898206536766 1.4878071598787119 0.0000000000000000
7.1053828086900674 8.3705673876764912 0.0000000000000000
7.2150658256119060 8.4856187021526210 0.0000000000000000
6.9984465166293193 8.2563540920124723 0.0000000000000000
6.0250875693817036 8.2041466474166249 0.0000000000000000
6.1771393452803780 8.1689499566283317 0.0000000000000000
8.2441930194378124 6.0256344965904924 0.0000000000000000
1.8566009682521769 4.7294947341688482 0.0000000000000000
8.4417894549340780 5.8411587597893302 0.0000000000000000
8.4873341145316648 5.6918797137763892 0.0000000000000000
4.7140403843945311 1.8482763269260700 0.0000000000000000
5.5689322416856601 8.3097367197814744 0.0000000000000000
5.6754393579868108 8.4238190750061186 0.0000000000000000
8.5938412308327656 5.8059620690010814 0.0000000000000000
1.7360935182861330 6.9771727072226710 0.0000000000000000
1.6905488586885740 7.1264517532355969 0.0000000000000000
1.7970554040949689 7.2405322399127332 0.0000000000000000
1.6450039550609410 7.2757304424007376 0.0000000000000000
1.5384970421182149 7.1616483845492178 0.0000000000000000
5.2038662331847032 8.1167687001203817 0.0000000000000000
7.6794043802791281 1.8555410504370120 0.0000000000000000
7.7859114965802547 1.9696234056616690 0.0000000000000000
8.1678127656282964 5.3496326481023591 0.0000000000000000
1.8126130832915071 7.6530341024647797 0.0000000000000000
4.4036474347364853 8.4437350903277721 0.0000000000000000
4.2469417083020717 8.4775118725716165 0.0000000000000000
4.3591886969305724 8.5933454483343841 0.0000000000000000
1.6281689385438720 4.0886895764689832 0.0000000000000000
8.2119399617847542 2.4259528265603132 0.0000000000000000
8.1054328454836266 2.3118704713356530 0.0000000000000000
8.3184470780858693 2.5400351817849729 0.0000000000000000
8.1075590406452154 6.4734716346292638 0.0000000000000000
8.0620143810476623 6.6227506806421736 0.0000000000000000
3.7744377933929671 8.1701775159771781 0.0000000000000000
7.5728972639780050 1.7414586952123530 0.0000000000000000
3.8948069681797159 1.7694863109626930 0.0000000000000000
3.7473813124265249 1.7916608541847421 0.0000000000000000
3.0141789163625661 8.3461609706699349 0.0000000000000000
2.8621271396695058 8.3813576612158407 0.0000000000000000
1.8264741057606939 5.2914142274322868 0.0000000000000000
1.7809294461631420 5.4406932734452198 0.0000000000000000
1.8874365624642759 5.5547756286698808 0.0000000000000000
1.7353847865655940 5.5899723194581536 0.0000000000000000
1.8418919028667271 5.7040546746828138 0.0000000000000000
1.6898401269680470 5.7392513654710919 0.0000000000000000
1.7963472432691800 5.8533337206957476 0.0000000000000000
1.5833330106669119 5.6251690102464353 0.0000000000000000
1.5377883510693640 5.7744480562593701 0.0000000000000000
1.4312812347682320 5.6603657010347144 0.0000000000000000
1.5327856772796600 4.3912564863917627 0.0000000000000000
1.4298568460361261 4.2738334495863466 0.0000000000000000
1.0741334256086630 8.7122234497544824 0.0000000000000000
1.2347040401620570 8.8465425932438482 0.0000000000000000
1.4929524058999430 7.3109274647499456 0.0000000000000000
1.3864452972305350 7.1968451206851878 0.0000000000000000
4.2017331673542930 8.6268934675349627 0.0000000000000000
4.3130023764274501 8.7424287252269828 0.0000000000000000
6.2528108673695577 7.4577514173518464 0.0000000000000000
6.2983555269671161 7.3084723713389419 0.0000000000000000
6.4504073028658038 7.2732756805506842 0.0000000000000000
6.3439001865646834 7.1591933253260116 0.0000000000000000
6.1918484106659921 7.1943900161142738 0.0000000000000000
6.2373930702635620 7.0451109701013390 0.0000000000000000
6.0853412943648646 7.0803076608896127 0.0000000000000000
6.1308859539624434 6.9310286148766744 0.0000000000000000
4.4884432815683448 6.7562727202841879 0.0000000000000000
4.9445986092644176 6.6506826479192904 0.0000000000000000
5.1856135091966262 2.1553267018117550 0.0000000000000000
6.1161768885768151 7.9055885553907590 0.0000000000000000
8.3808269982305568 5.5777973585516829 0.0000000000000000
7.8952535397635106 7.6325073119443658 0.0000000000000000
8.0473053156622090 7.5973106211560957 0.0000000000000000
8.1538124319633436 7.7113929763807558 0.0000000000000000
8.1993570915609020 7.5621139303678166 0.0000000000000000
8.0928499752597638 7.4480315751431414 0.0000000000000000
8.2449017511584621 7.4128348843548739 0.0000000000000000
8.1383946348573186 7.2987525291302164 0.0000000000000000
8.2904464107560170 7.2635558383419712 0.0000000000000000
8.1839392944548628 7.1494734831172924 0.0000000000000000
8.3359910703535629 7.1142767923290267 0.0000000000000000
8.4424981866546993 7.2283591475536797 0.0000000000000000
8.2294839540524158 7.0001944371043736 0.0000000000000000
7.5287700678215126 4.6651385167543324 0.0000000000000000
7.4832254082239489 4.8144175627672769 0.0000000000000000
7.1791218564265531 4.8848109443438226 0.0000000000000000
5.7791115474058543 2.9890998791727199 0.0000000000000000
6.9205629642267441 4.8059252799074166 0.0000000000000000
6.8140558479256299 4.6918429246827440 0.0000000000000000
7.1342859285495530 6.4212903781212951 0.0000000000000000
5.2318669005146976 3.3932480435633772 0.0000000000000000
5.9767079829020897 2.8046241423714879 0.0000000000000000
4.7925468333657388 6.6858793387075908 0.0000000000000000
1.9778171499387860 3.8690171488794980 0.0000000000000000
5.0952329217220527 3.8410851816021818 0.0000000000000000
8.0458878522211599 4.8229098456270840 0.0000000000000000
4.7294581815005827 2.2609167741765939 0.0000000000000000
7.4054826189479570 8.2972640905563892 0.0000000000000000
7.2400843131301400 5.1481723455814414 0.0000000000000000
3.0420350729945418 1.8005802194321530 0.0000000000000000
2.8445831457333211 3.8071160501627679 0.0000000000000000
1.8257653740401030 3.9042138396677699 0.0000000000000000
1.8713100336376560 3.7549347936548370 0.0000000000000000
3.2411934801668418 6.2125653520893778 0.0000000000000000
1.6385771365692681 4.5060069779325902 0.0000000000000000
7.1167419362819544 1.8470487675771430 0.0000000000000000
7.1622865958795154 1.6977697215642129 0.0000000000000000
7.0102348199808322 1.7329664123524740 0.0000000000000000
7.0557794795783986 1.5836873663395441 0.0000000000000000
7.2078312554770871 1.5484906755512819 0.0000000000000000
7.1017399785036677 1.4345351918543621 0.0000000000000000
7.2571260160414486 1.3953947872188861 0.0000000000000000
7.1479789614836502 1.2846411507094790 0.0000000000000000
5.4897170609940176 2.0849333202352631 0.0000000000000000
3.9397811712361621 4.3860201091459423 0.0000000000000000
4.0462882875372914 4.5001024643706016 0.0000000000000000
4.0918329471348471 4.3508234183576713 0.0000000000000000
4.1983400634359764 4.4649057735823314 0.0000000000000000
4.1527954038384207 4.6141848195952617 0.0000000000000000
4.3048471797371066 4.5789881288069871 0.0000000000000000
4.2593025201395527 4.7282671748199192 0.0000000000000000
4.4113542960382386 4.6930704840316437 0.0000000000000000
4.3658096364406944 4.8423495300445776 0.0000000000000000
4.5178614123393732 4.8071528392563003 0.0000000000000000
4.4723167527418370 4.9564318852692324 0.0000000000000000
5.3089558860448207 5.4564502798160142 0.0000000000000000
3.3007384734293792 3.7015259777979712 0.0000000000000000
3.2551938138318222 3.8508050238109051 0.0000000000000000
3.1031420379331411 3.8860017145991730 0.0000000000000000
7.7403668369827017 2.1189024516745989 0.0000000000000000
4.0764151500288177 3.9381829711071430 0.0000000000000000
2.3267566296131998 2.2621443335254838 0.0000000000000000
2.2202495133120732 2.1480619783008201 0.0000000000000000
2.2657941729096311 1.9987829322878901 0.0000000000000000
2.1137423970109470 2.0339796230761560 0.0000000000000000
2.0681977374133900 2.1832586690890872 0.0000000000000000
1.9627785756369300 2.0681606011465301 0.0000000000000000
1.9161459615147081 2.2184553598773551 0.0000000000000000
2.0074166064639312 1.9197279823985089 0.0000000000000000
1.8564830060489319 1.9538807462267200 0.0000000000000000
2.0226530778158360 2.3325377151020188 0.0000000000000000
1.8709603840604980 2.3692856618852751 0.0000000000000000
5.1400688495990767 2.3046057478246880 0.0000000000000000
6.2366843385429052 5.6579105823369167 0.0000000000000000
4.3665183681611328 6.2295499178090097 0.0000000000000000
3.3609499392130280 2.5777274579563958 0.0000000000000000
5.4757167273290124 4.4466936485137438 0.0000000000000000
8.1808943786087926 2.9839033923907530 0.0000000000000000
8.3316330797826588 2.9430341415031021 0.0000000000000000
8.2968039462933518 3.0930481028511370 0.0000000000000000
8.3790375688879077 2.8017896684338339 0.0000000000000000
8.4834040155769532 2.9066242049334750 0.0000000000000000
8.5309805437855850 2.7661229509172061 0.0000000000000000
8.6379684269892660 2.8822822474589489 0.0000000000000000
8.6834329587696963 2.7326570445598168 0.0000000000000000
8.7904250037609000 2.8488343202686099 0.0000000000000000
7.0277788122484317 6.3072080228966252 0.0000000000000000
7.0733234718459883 6.1579289768836976 0.0000000000000000
6.9212716959473113 6.1931256676719642 0.0000000000000000
6.9668163555448501 6.0438466216590321 0.0000000000000000
3.4233721185570691 5.6154491680376566 0.0000000000000000
3.3168650022559381 5.5013668128130142 0.0000000000000000
7.5911499879661637 7.7029006935209123 0.0000000000000000
4.9880170737004006 2.3398024386129652 0.0000000000000000
7.0417791459134706 3.9454476946180939 0.0000000000000000
4.3503918393346579 4.4297090827940586 0.0000000000000000
6.0839238309237391 4.3059068853606748 0.0000000000000000
3.5298792348581922 5.7295315232623114 0.0000000000000000
3.8795274462531109 5.5098590956728417 0.0000000000000000
2.3575922238252400 3.0874252280265382 0.0000000000000000
5.4750079956084790 3.0594932607492602 0.0000000000000000
1.7816381778836821 6.8278936612097283 0.0000000000000000
3.5284608471961771 2.9551316240071972 0.0000000000000000
5.1253597842135621 3.2791656883387210 0.0000000000000000
7.3644569234052897 1.5079690757884940 0.0000000000000000
6.0979241645887514 1.9441465570822190 0.0000000000000000
6.2495355861418869 1.9093609804526910 0.0000000000000000
6.3564096643976420 2.0231007405450692 0.0000000000000000
6.9058538988412259 5.7804852204214328 0.0000000000000000
7.9533810695849567 2.3470671621239179 0.0000000000000000
7.8924186128813840 2.0837057608863270 0.0000000000000000
7.9379632724789362 1.9344267148733929 0.0000000000000000
8.0444703887800628 2.0485090700980511 0.0000000000000000
8.0900150483776052 1.8992300240851230 0.0000000000000000
6.2072662077719762 7.6070304633648016 0.0000000000000000
4.9733080083148851 3.3143623791270049 0.0000000000000000
6.2661024693139504 3.7087907013089390 0.0000000000000000
4.2137578605420130 4.8775462208328539 0.0000000000000000
3.8017297290024539 2.0594564716557251 0.0000000000000000
3.9082368453035849 2.1735388268803848 0.0000000000000000
6.8147645796461784 6.0790433124472996 0.0000000000000000
3.3014472051499122 5.0887263655624704 0.0000000000000000
3.3469918647474639 4.9394473195495374 0.0000000000000000
6.1411706404894248 1.7985843330403219 0.0000000000000000
4.5634060719369227 4.6578737932433700 0.0000000000000000
6.0376704396056677 3.0679855436090828 0.0000000000000000
3.4990436406461400 4.9042506287612646 0.0000000000000000
3.4219538289964451 2.8410491758441601 0.0000000000000000
8.1531037002427507 6.3241925886163308 0.0000000000000000
3.2559025455523609 5.2380054115754131 0.0000000000000000
5.9171629896395492 5.3156635166629069 0.0000000000000000
5.7651112137408642 5.3508602074511620 0.0000000000000000
5.8260736704444298 5.6142216086887560 0.0000000000000000
5.9325807867455511 5.7283039639134294 0.0000000000000000
5.5815151119096216 3.1735756159739168 0.0000000000000000
4.6699131882380520 4.7719561484680320 0.0000000000000000
2.2370847738591819 5.3351032010803952 0.0000000000000000
5.8106558733384137 5.2015811614382317 0.0000000000000000
5.6586040974397296 5.2367778522264992 0.0000000000000000
5.6130594378421854 5.3860568982394312 0.0000000000000000
3.2117753504621360 8.1616852334426291 0.0000000000000000
3.7870202293312509 3.0340168237534431 0.0000000000000000
3.9390721849872050 2.9988199625784562 0.0000000000000000
5.9788341780637682 6.9662253056649286 0.0000000000000000
6.0243788376613514 6.8169462596520054 0.0000000000000000
3.1346863638657161 6.0984829968647194 0.0000000000000000
3.0891417042681528 6.2477620428776399 0.0000000000000000
1.9483990191678520 5.8181370299074811 0.0000000000000000
3.1192685667597089 5.6858425496142431 0.0000000000000000
1.9028543595703060 5.9674160759204167 0.0000000000000000
1.7508025836716290 6.0026127667086797 0.0000000000000000
1.8573096999727561 6.1166951219333416 0.0000000000000000
5.8274911338854860 8.3886223842178147 0.0000000000000000
5.7819464742879703 8.5379014302307557 0.0000000000000000
6.0222526424996552 2.6553450963585661 0.0000000000000000
7.6058590533516108 6.7283407530069228 0.0000000000000000
2.6028595141671058 6.9152716084685952 0.0000000000000000
3.8935276651157151 3.1480988761911739 0.0000000000000000
2.9826345879670382 6.1336796876529771 0.0000000000000000
2.9370899283694638 6.2829587336658950 0.0000000000000000
6.2198490779958862 2.4708693595574029 0.0000000000000000
6.4959519624633506 7.1239966345377521 0.0000000000000000
6.6024590787644692 7.2380789897624176 0.0000000000000000
6.2829377298611213 6.8958319240884220 0.0000000000000000
4.4120630277586654 6.0802708717960714 0.0000000000000000
5.0966503851630751 6.6154859571310007 0.0000000000000000
5.1421950447606140 6.4662069111181442 0.0000000000000000
4.5641148036573256 6.0450741810077568 0.0000000000000000
7.4538072774529303 6.7635374437951903 0.0000000000000000
6.3996706851135361 1.8717931097830349 0.0000000000000000
6.3719008538945614 2.4356726687691430 0.0000000000000000
6.4174455134921278 2.2863936227562220 0.0000000000000000
6.5239526297932589 2.4004759779808640 0.0000000000000000
4.9747254717558427 6.0887631546558474 0.0000000000000000
4.8682183554547391 5.9746807994312414 0.0000000000000000
4.1396589335783842 8.3631928659228727 0.0000000000000000
3.0898504359887879 7.6349624306422159 0.0000000000000000
5.0812325880570253 6.2028455098805324 0.0000000000000000
2.2532113026855209 7.1349440360944758 0.0000000000000000
2.5881510268847641 7.8898309200194188 0.0000000000000000
1.5996873226894559 7.4247955054339911 0.0000000000000000
2.2385619002330790 8.1094359296078977 0.0000000000000000
1.3856311999425990 5.8091895198599008 0.0000000000000000
1.2792118963315440 5.6954865206250327 0.0000000000000000
5.8225825566810627 1.4522893431437280 0.0000000000000000
5.7171618927597621 1.3384812437445530 0.0000000000000000
1.0001598868045121 8.9317351719233020 0.0000000000000000
1.2053822905288150 9.0797203128643957 0.0000000000000000
4.0646289952228853 1.5746463115969449 0.0000000000000000
8.4943262904300472 7.0729330028902444 0.0000000000000000
8.6018806474274641 7.1859908416731386 0.0000000000000000
8.6397530318875422 5.6582690956933579 0.0000000000000000
8.7459541969743224 5.7710297236636956 0.0000000000000000
8.5321097622445627 4.1551398661417158 0.0000000000000000
8.6386363199852259 4.2693062095293426 0.0000000000000000
4.3945190354911281 1.5060292612520980 0.0000000000000000
4.2880119191899961 1.3919469060274401 0.0000000000000000
4.5021882970988027 1.6190266393558079 0.0000000000000000
2.9553336252363751 1.5564612500838979 0.0000000000000000
2.8567639884722560 1.4448005998019691 0.0000000000000000
2.7061770051640011 1.4804441951069400 0.0000000000000000
2.7517139982202452 1.3311628100516320 0.0000000000000000
8.0169071477145835 8.1580580588801652 0.0000000000000000
8.1691850114933171 8.1238380810414021 0.0000000000000000
7.8667898779312964 8.1858858017497944 0.0000000000000000
8.1595157623999768 4.9389702308226298 0.0000000000000000
8.2066864861669302 4.7823359911375523 0.0000000000000000
3.8805282353131010 8.2824598133501564 0.0000000000000000
8.4237541372236464 4.0428922647848360 0.0000000000000000
1.9396380440040240 8.1761243005912370 0.0000000000000000
6.7050650803630258 1.7987537997884151 0.0000000000000000
8.4520303204096994 4.4544241046112454 0.0000000000000000
5.6309533496538666 8.5721097657810041 0.0000000000000000
5.7365782565678893 8.6870157503706906 0.0000000000000000
1.9011871773730020 1.8065012493781649 0.0000000000000000
2.9678247743585300 8.4919430121646418 0.0000000000000000
2.8164475653574681 8.5300538728433821 0.0000000000000000
2.7100528814191431 8.4164572322417435 0.0000000000000000
2.9199366716482729 8.6398751286526814 0.0000000000000000
2.7704898461220422 8.6790112915379325 0.0000000000000000
2.8745831967590210 8.7914101707206207 0.0000000000000000
2.7254931592081348 8.8291947987455099 0.0000000000000000
2.8403650267094540 8.9519298072089590 0.0000000000000000
8.5497108278024410 7.3390159774372439 0.0000000000000000
8.7013467632017178 7.3031017369159752 0.0000000000000000
8.7582825507134743 7.1501783008516089 0.0000000000000000
8.8552677820717527 7.2707675159371288 0.0000000000000000
8.9077081294560472 7.1192909998846670 0.0000000000000000
9.0159726893151220 7.2567977113659810 0.0000000000000000
1.4909915944287870 5.9198511130432534 0.0000000000000000
4.8994822548705699 8.1859506226385363 0.0000000000000000
1.4532579405424479 8.5443189023326607 0.0000000000000000
7.0605697281265849 8.5200696366034627 0.0000000000000000
7.1666531713951551 8.6340227302568184 0.0000000000000000
7.3197034692181733 8.5991808984373996 0.0000000000000000
7.2753043255643899 8.7487675947577195 0.0000000000000000
7.2989979926381423 1.2484137146595040 0.0000000000000000
7.1926113884837557 1.1355157295557341 0.0000000000000000
7.6962396408262279 5.0425822732165928 0.0000000000000000
8.0613056493271760 5.2355502928776723 0.0000000000000000
8.2151304401254066 5.2023226247732666 0.0000000000000000
6.3747357807766409 7.9844742198270726 0.0000000000000000
6.4812428970777294 8.0985565750517416 0.0000000000000000
6.6332946729764126 8.0633598842635230 0.0000000000000000
6.5907617148911983 8.2098272102465231 0.0000000000000000
6.7403037395295744 8.1769736194832383 0.0000000000000000
5.3832099446928954 1.9708509650106030 0.0000000000000000
5.4287546042904449 1.8215719189976620 0.0000000000000000
8.0774321781537406 7.0353911278926331 0.0000000000000000
7.8027467571273537 5.1566646284412778 0.0000000000000000
4.2908468460720961 6.9407484570854567 0.0000000000000000
3.9846168745443098 2.8495408881677391 0.0000000000000000
4.0911241946288106 2.9636230502896921 0.0000000000000000
7.6051503216310703 5.3411403652425227 0.0000000000000000
7.4082626178553674 6.9128164898081259 0.0000000000000000
6.7685111883280609 4.8411219706956867 0.0000000000000000
6.6620040720269467 4.7270396154710017 0.0000000000000000
6.7075487316245148 4.5777605694580759 0.0000000000000000
6.5554969557258307 4.6129572602463220 0.0000000000000000
6.6010416153234006 4.4636782142334006 0.0000000000000000
6.4489898394247174 4.4988749050216406 0.0000000000000000
6.4945344990222598 4.3495958590087254 0.0000000000000000
2.1298689258374690 3.8338204580912278 0.0000000000000000
6.3424827231235783 4.3847925497969884 0.0000000000000000
3.0435970446705891 6.3970410888905658 0.0000000000000000
2.8915452687718788 6.4322377796788146 0.0000000000000000
2.7850381524707828 6.3181554244541598 0.0000000000000000
2.7394934928731960 6.4674344704670830 0.0000000000000000
2.8460006091742871 6.5815168256917378 0.0000000000000000
2.6939488332756061 6.6167135164800124 0.0000000000000000
5.4624251253845282 8.1956543645568196 0.0000000000000000
2.6925313698346360 3.8423127409510349 0.0000000000000000
6.0096697722756822 7.7915062001661237 0.0000000000000000
4.0175788884867600 7.8364227331630527 0.0000000000000000
1.9771682652421709 2.4820753037807841 0.0000000000000000
1.8251264638474709 2.5173150850133572 0.0000000000000000
1.7216559923175201 2.4056487146539700 0.0000000000000000
1.6735342477254020 2.5527133512057461 0.0000000000000000
1.7796118498607700 2.6664266381868869 0.0000000000000000
1.6274602068233610 2.7014891887044188 0.0000000000000000
1.7339839676476090 2.8155939006408741 0.0000000000000000
1.5819183213129910 2.8507719608359809 0.0000000000000000
1.4754088932725420 2.7366865005124592 0.0000000000000000
1.6884226635269299 2.9648505899420150 0.0000000000000000
1.4305929939528470 2.8852853524638791 0.0000000000000000
1.3234782691882601 2.7717694116106260 0.0000000000000000
3.2096491542342660 4.0000840698238376 0.0000000000000000
3.0575973783355890 4.0352807606121051 0.0000000000000000
2.5250617968299398 3.4648689844887870 0.0000000000000000
2.5706064564274960 3.3155899384758580 0.0000000000000000
6.3887361144415920 5.6227138915486439 0.0000000000000000
2.2363760421385992 3.9479028133158889 0.0000000000000000
2.1915401142616302 5.4843822470933317 0.0000000000000000
6.3431914548440256 5.7719929375615822 0.0000000000000000
2.4332637459143269 2.3762266887501480 0.0000000000000000
6.0986328963092511 3.3313469448466702 0.0000000000000000
5.8702008666009649 2.6905417871468371 0.0000000000000000
3.6819310107568719 5.6943348324740466 0.0000000000000000
6.6017503470438577 5.8508786019979748 0.0000000000000000
2.5860242535335138 3.7282303857263668 0.0000000000000000
6.2051400126103857 3.4454293000713272 0.0000000000000000
2.8291653486273169 3.3944756029122418 0.0000000000000000
3.8346915183761010 7.0463385294502654 0.0000000000000000
3.6826397424774160 7.0815352202385400 0.0000000000000000
3.5761326261762871 6.9674528650138914 0.0000000000000000
3.5305879665787421 7.1167319110268199 0.0000000000000000
3.4240808502776030 7.0026495558021651 0.0000000000000000
3.3785361906800642 7.1519286018151060 0.0000000000000000
3.4850433069811819 7.2660109570397520 0.0000000000000000
3.3329915310825009 7.3012076478280363 0.0000000000000000
3.2264844147813752 7.1871252926033877 0.0000000000000000
3.1809397551838461 7.3364043386163278 0.0000000000000000
3.3764099955184359 2.9903274385215721 0.0000000000000000
5.2774115601122444 3.2439689975504451 0.0000000000000000
3.8486918520410560 4.6845782011717993 0.0000000000000000
3.6966400761423732 4.7197748919600677 0.0000000000000000
5.5065523215410508 5.2719745430147782 0.0000000000000000
5.5520969811386003 5.1226954970018461 0.0000000000000000
5.8400740041094537 3.2524612804102970 0.0000000000000000
4.1240860047878822 7.9505050883876791 0.0000000000000000
2.7696203553647920 5.9055149772036932 0.0000000000000000
3.9867432942747718 7.0111418386619890 0.0000000000000000
7.1188681314435440 6.0086499308707673 0.0000000000000000
7.7579108292502941 6.6931440622186766 0.0000000000000000
8.0921412435391478 6.0608311873787439 0.0000000000000000
8.1229768377512865 6.8861120818797126 0.0000000000000000
8.2747235774303327 6.8512001724501346 0.0000000000000000
2.4508077382401749 6.9504682992690912 0.0000000000000000
4.2600112518600124 6.1154675625843726 0.0000000000000000
4.4576076873562256 5.9309918257831420 0.0000000000000000
2.8312915450792162 7.5560767656568606 0.0000000000000000
2.2076666430198300 7.2842230818102296 0.0000000000000000
2.0556148671895298 7.3194197728966621 0.0000000000000000
2.6946578663484448 8.0039135459348678 0.0000000000000000
1.8580450950465901 7.5038665466865027 0.0000000000000000
8.2112954510426590 6.5901407167437966 0.0000000000000000
8.8492009151295257 2.6968753721210961 0.0000000000000000
8.9741230697179670 2.8012883907245829 0.0000000000000000
5.9318490818670213 8.4975863727747019 0.0000000000000000
2.8995809490861379 1.2946893397240760 0.0000000000000000
2.7968027635636350 1.1817446718541440 0.0000000000000000
7.1248858030156406 8.7795397702260445 0.0000000000000000
7.2305801338271269 8.8974709148146029 0.0000000000000000
5.4200005533301976 8.3420205015035229 0.0000000000000000
8.3476245157453732 7.5257626434374290 0.0000000000000000
8.1937187013645350 2.0124570497390790 0.0000000000000000
8.2393749131908240 1.8632120380291450 0.0000000000000000
6.1249595398698036 8.3168951526689661 0.0000000000000000
9.0620121502887763 7.0770163167698774 0.0000000000000000
8.3126907315939924 5.3176696941613057 0.0000000000000000
5.5205520581753627 1.5278193941644069 0.0000000000000000
5.8635306699420386 1.3015414788117561 0.0000000000000000
5.7619450300526447 1.1889495829915719 0.0000000000000000
1.7101872219312690 6.1485179316428331 0.0000000000000000
1.8112398184453320 6.2855699869215282 0.0000000000000000
1.2380705897060249 5.8400137998887063 0.0000000000000000
1.1272330840316329 5.7270359999926983 0.0000000000000000
1.3394411817242049 7.3398192164977702 0.0000000000000000
1.2337098841294709 7.2290884376530933 0.0000000000000000
8.5724693997904815 2.6226650568749519 0.0000000000000000
8.2084235561836980 7.9727863443287443 0.0000000000000000
4.1608089457818416 8.7717958005206569 0.0000000000000000
4.2681208463498104 8.8909456908819831 0.0000000000000000
6.9065043118175611 1.6191616375542239 0.0000000000000000
7.0851049516259659 8.9243440063414923 0.0000000000000000
7.1723301984046852 9.0497185335205472 0.0000000000000000
7.3332998274868837 9.0112154168490886 0.0000000000000000
7.2683402747676187 9.1911049024454350 0.0000000000000000
2.6799793754348742 8.9856585752964016 0.0000000000000000
1.7542981188469320 1.8359489761376619 0.0000000000000000
1.4390190808032650 7.0505190442831793 0.0000000000000000
1.2830206507528981 2.9145556652898801 0.0000000000000000
1.1746396638430210 2.8036754480354040 0.0000000000000000
1.4208092932839611 8.7300236320916333 0.0000000000000000
8.6857161440041644 4.1266591641773598 0.0000000000000000
8.7907289346084898 4.2342859444350802 0.0000000000000000
8.7345841229004932 4.3568018721691466 0.0000000000000000
8.8805305666783774 4.3501862076663587 0.0000000000000000
8.9484679286638187 4.1947915844054453 0.0000000000000000
1.6796804866385431 5.3347514877742004 0.0000000000000000
8.2523833064885928 2.2814363605064241 0.0000000000000000
7.9833781105575543 1.7897479747464189 0.0000000000000000
2.0545751986273451 1.7779989685079149 0.0000000000000000
4.5501144699923124 8.4068345092862469 0.0000000000000000
8.7936365396693255 5.6309855944567078 0.0000000000000000
8.8983214598939995 5.7371959553758503 0.0000000000000000
1.0910701493422501 5.8683118467607489 0.0000000000000000
0.9654061349953438 5.7654569189647527 0.0000000000000000
1.6113899154950300 8.4113899154950413 0.0000000000000000
1.7236150867596070 8.2892608438346400 0.0000000000000000
1.4314430115037899 8.9566850613198650 0.0000000000000000
1.3938545350786851 9.2072963199425129 0.0000000000000000
1.1638885064127940 9.3638893524591378 0.0000000000000000
1.4883701090809589 5.5132146205083181 0.0000000000000000
7.3419743927157137 1.0998095355892090 0.0000000000000000
7.2375759660617263 0.9863747655097731 0.0000000000000000
7.0897502565969592 1.0209007212305690 0.0000000000000000
7.1204946265933557 0.8936422011231742 0.0000000000000000
1.7288709871471759 5.1876741651428588 0.0000000000000000
8.9416816458548176 5.5996607693634992 0.0000000000000000
9.0285111773147602 5.7101103951588756 0.0000000000000000
1.7266196952802959 3.7923774404290449 0.0000000000000000
1.7726714429688319 3.6432531057108801 0.0000000000000000
5.0185273902518528 1.7836922867664351 0.0000000000000000
5.1701957120905888 1.7426862545612389 0.0000000000000000
1.3850278434500980 4.4224443592831308 0.0000000000000000
1.2784014509803781 4.3084733601111624 0.0000000000000000
1.3242518061306501 4.1600786057023509 0.0000000000000000
1.1720136108478330 4.1942796488338114 0.0000000000000000
1.1264689512502839 4.3435586948467462 0.0000000000000000
0.9958550902940437 4.2143412434311367 0.0000000000000000
9.0590160625066538 4.3424631162814240 0.0000000000000000
9.1399821787868181 4.1531273891026501 0.0000000000000000
6.4379004556018486 8.2388898105014192 0.0000000000000000
7.0250302257598740 9.0588366141620451 0.0000000000000000
5.5934061769841970 8.7197870487945703 0.0000000000000000
5.6918574769935661 8.8365030696991287 0.0000000000000000
5.8379677368011347 8.7996752512635048 0.0000000000000000
5.8030425152665330 8.9591162767989623 0.0000000000000000
5.6423935867553903 8.9958182021916535 0.0000000000000000
1.6356383826384859 6.8656420777384746 0.0000000000000000
5.6192355316956091 1.2234773331378130 0.0000000000000000
5.6593857723268410 1.0754799439851470 0.0000000000000000
5.8080440559545536 1.0407229818727390 0.0000000000000000
5.6887005834238487 0.9466709623586562 0.0000000000000000
4.1223326048576618 8.9174047128254390 0.0000000000000000
4.2050844818979156 9.0434718380123282 0.0000000000000000
4.3679358316020007 9.0039506933379130 0.0000000000000000
4.3265013737189806 9.1908940445234339 0.0000000000000000
1.2178144193235869 2.6660335222045348 0.0000000000000000
1.0621823380649389 2.6979232217474398 0.0000000000000000
1.0230526831359310 2.8448061241536200 0.0000000000000000
0.8867329715457968 2.7196757151183011 0.0000000000000000
0.8169627474617706 2.9068328351623771 0.0000000000000000
9.1675260444720266 7.2034795162171301 0.0000000000000000
8.5543153022413989 5.9569342436702950 0.0000000000000000
1.0029125693341809 5.6061369547040876 0.0000000000000000
0.8407029114284710 5.6439623323430661 0.0000000000000000
0.7812829442614263 5.8444926271286466 0.0000000000000000
5.7990264318052400 9.1495183219947567 0.0000000000000000
5.5888260707575794 9.1776066319071532 0.0000000000000000
2.7921394315325938 9.1579052618724326 0.0000000000000000
2.5890812511254082 9.1910016623276949 0.0000000000000000
7.3900098938673082 0.9513744914995546 0.0000000000000000
8.1207237312751239 8.2634470612917603 0.0000000000000000
8.2677808421986470 8.2378460471009038 0.0000000000000000
1.7889412300618530 1.6979934385940840 0.0000000000000000
1.6563854846067150 1.7244926252212260 0.0000000000000000
2.6563979310055470 1.2175456498184309 0.0000000000000000
2.6969219662775830 1.0691924621785041 0.0000000000000000
2.8439973157511118 1.0328870826277450 0.0000000000000000
2.7256082410591560 0.9404207018869812 0.0000000000000000
0.9483918554838504 8.5664093502005336 0.0000000000000000
7.7249490398766927 1.7062620044240879 0.0000000000000000
2.6308326293194888 8.7124418123333864 0.0000000000000000
4.4400636950886812 1.3567502152391671 0.0000000000000000
4.3316748237678571 1.2444246636879390 0.0000000000000000
4.1834703802750726 1.2788527305570290 0.0000000000000000
4.2228342680990574 1.1277526945431631 0.0000000000000000
4.3758374614489419 1.0909172000670211 0.0000000000000000
4.2711927962338354 0.9752897295485358 0.0000000000000000
4.0441753029591654 9.0530205852530017 0.0000000000000000
8.8504486149254085 5.8788262238563860 0.0000000000000000
4.4279127679169648 0.9093920037891534 0.0000000000000000
1.6751310615825550 6.7138113059850761 0.0000000000000000
5.9759992511816540 1.4174237546070310 0.0000000000000000
6.0683358442127382 1.5534105797802140 0.0000000000000000
4.0791877830843637 1.0182848478323980 0.0000000000000000
3.9927651463463532 0.8435160012967888 0.0000000000000000
3.8926425511068929 0.6925835007643784 0.0000000000000000
3.7157402312573251 0.5081727346985079 0.0000000000000000
3.4950843563610210 0.5137142477138672 0.0000000000000000
3.2008894800617420 0.5677790630527326 0.0000000000000000
2.9417277962564139 0.7029808503577485 0.0000000000000000
8.3252885880790934 4.8967431909946830 0.0000000000000000
1.1876405908255681 7.3771800956737579 0.0000000000000000
1.0773118235315280 7.2681784840468504 0.0000000000000000
1.1404741719782641 7.1113554857196526 0.0000000000000000
0.9562727097294927 7.1475063244364039 0.0000000000000000
0.8939108412489654 7.3265190155655588 0.0000000000000000
0.7298133003254091 7.1653242207274781 0.0000000000000000
0.7063549506054027 7.5166411272067437 0.0000000000000000
8.9414326863451734 7.4214977053857192 0.0000000000000000
9.1296185940869155 7.4203033016993718 0.0000000000000000
4.4742970006786500 8.7149126730668751 0.0000000000000000
8.8965273191890883 2.9611679118952821 0.0000000000000000
9.0744362121851587 2.9326261098496729 0.0000000000000000
1.5680616937546881 2.4418446762871961 0.0000000000000000
3.7307458691842279 8.3163042345562150 0.0000000000000000
3.6259128457677079 8.2018444624207287 0.0000000000000000
8.3016268480895441 5.0629427359016059 0.0000000000000000
6.6942571296798628 8.3267212855011579 0.0000000000000000
3.8053392414976290 1.6301963520526010 0.0000000000000000
3.9227239097500850 1.5505695602967180 0.0000000000000000
3.6429517611000630 1.6649488407813620 0.0000000000000000
3.4814056026666682 1.6975225684855870 0.0000000000000000
3.3061450089824440 1.6775472775953020 0.0000000000000000
3.3725074052348121 1.8208582281391230 0.0000000000000000
3.5272779253721240 1.8694674522701309 0.0000000000000000
3.2139791874287842 1.8038570098593580 0.0000000000000000
3.1563887017494872 1.6715064563603961 0.0000000000000000
3.4295765671575720 1.9613197171680590 0.0000000000000000
7.6236439430204266 1.5834140288324801 0.0000000000000000
1.6877139318064300 1.5776502021775050 0.0000000000000000
1.5346371543005830 1.6327538522013929 0.0000000000000000
1.5920689082286570 1.4615196299329980 0.0000000000000000
1.5279043990281660 1.3029299472415130 0.0000000000000000
1.4698785518091531 1.1302492213623960 0.0000000000000000
1.3493746505115660 1.2846749922468159 0.0000000000000000
1.2787895639252820 1.0823132502973929 0.0000000000000000
1.4257236214922120 1.4839911094816169 0.0000000000000000
1.4268155335491490 0.9386588575629256 0.0000000000000000
1.1897400319676641 0.8399837453750951 0.0000000000000000
1.2204465215032481 1.4491108658492120 0.0000000000000000
1.1322839996860570 1.2568647883857289 0.0000000000000000
9.2787208654018620 7.5537519997454003 0.0000000000000000
8.3845840081510872 4.7442739096986406 0.0000000000000000
8.4242630814480481 4.5960461970968476 0.0000000000000000
8.2557276032418567 4.6300797836192071 0.0000000000000000
1.6858234204475910 1.9753525644990479 0.0000000000000000
1.6651775453722759 2.1469326903246890 0.0000000000000000
4.5400974245688310 8.5567433484266111 0.0000000000000000
0.8389202246086563 6.9407331391458724 0.0000000000000000
8.5733458155711215 3.0468929008809180 0.0000000000000000
8.4465740292891951 3.1263289452531091 0.0000000000000000
8.3750152582564077 3.2663927531336738 0.0000000000000000
8.2024807807209381 3.2342765028707579 0.0000000000000000
8.2633146627954250 3.3727630773049619 0.0000000000000000
8.1079477999104395 3.3575285304546130 0.0000000000000000
8.1633830385550219 3.5089368806058818 0.0000000000000000
3.1185285341730391 8.4538377204223565 0.0000000000000000
4.4204132963590483 8.8642195292576851 0.0000000000000000
7.5156409073281782 1.4711577342272300 0.0000000000000000
4.3217993193145654 0.7493324438617244 0.0000000000000000
4.5170192500909128 0.7050305576261494 0.0000000000000000
7.4070802999961831 1.3555113581889440 0.0000000000000000
8.2154558487200102 8.3914004438699781 0.0000000000000000
8.3748583682935500 8.4564326936766978 0.0000000000000000
4.0558333614340256 8.6573127802789074 0.0000000000000000
0.9226818638056680 9.1850015836877699 0.0000000000000000
8.7438625660130107 3.0051970078713328 0.0000000000000000
7.4270783900247359 8.7150783182399376 0.0000000000000000
7.4892699782758623 8.5511244988955593 0.0000000000000000
7.5811476180149384 8.4318558956201972 0.0000000000000000
7.3604078591712554 8.4433879403534924 0.0000000000000000
7.3786938921768481 8.8666885964940150 0.0000000000000000
3.1390923659590930 1.9413721047680139 0.0000000000000000
2.8011647977775649 8.1179961393264115 0.0000000000000000
6.8479856037881399 8.2899769523805436 0.0000000000000000
4.8990539496668699 6.7999616939322687 0.0000000000000000
5.9332895184661769 7.1155043516778527 0.0000000000000000
5.8267824021650503 7.0014219964532023 0.0000000000000000
6.1617215481744019 7.7563095093777834 0.0000000000000000
2.8004559495778691 6.7307958717041902 0.0000000000000000
5.7812377425674537 7.1507010424661530 0.0000000000000000
6.0397966347672387 7.2295867069026354 0.0000000000000000
7.6506949812286482 5.1918613192295666 0.0000000000000000
4.7470021737681787 6.8351583847205308 0.0000000000000000
4.7014575141705759 6.9844374307334842 0.0000000000000000
6.1007590914708762 7.4929481081400846 0.0000000000000000
6.7854301072504706 8.0280850901410936 0.0000000000000000
6.4034451798271412 4.6481539510345700 0.0000000000000000
5.3112788521165326 8.2300056794426695 0.0000000000000000
4.4428986219707829 6.9055517662971546 0.0000000000000000
8.2490550001408476 6.4390584635726160 0.0000000000000000
8.3166412240275349 6.2862969001951292 0.0000000000000000
7.5441878649275349 5.0777789640048860 0.0000000000000000
7.3311736323252514 4.8496142535555533 0.0000000000000000
8.2971698066543595 7.6735436457613364 0.0000000000000000
8.2484563316979322 7.8218522920988161 0.0000000000000000
7.9709250618525624 6.9213087726679774 0.0000000000000000
7.8644179455514269 6.8072264174433474 0.0000000000000000
8.1154534042652919 5.0889071189446824 0.0000000000000000
3.0744326388899950 7.2223219833884826 0.0000000000000000
7.0123610151423721 5.8945675756460982 0.0000000000000000
5.2921206254977582 2.2694090570364200 0.0000000000000000
6.6164594124293821 4.8763186614839649 0.0000000000000000
6.7692199200486094 6.2283223584602370 0.0000000000000000
5.7805290108468741 5.7635006547017209 0.0000000000000000
7.9863428589586380 7.3339492199184599 0.0000000000000000
7.9407981993610601 7.4832282659314240 0.0000000000000000
5.0945241900015290 2.4538847938376289 0.0000000000000000
2.6484041736927120 6.7659925624866837 0.0000000000000000
4.1366688341194688 2.8143440233295451 0.0000000000000000
4.2431759810333372 2.9284263495458860 0.0000000000000000
8.7367121353097534 2.5705776647622880 0.0000000000000000
6.7082574633450003 5.9649609572226350 0.0000000000000000
4.3202649768431636 4.9916285760575203 0.0000000000000000
4.4267720931442973 5.1057109312821716 0.0000000000000000
4.5788238690429797 5.0705142404938801 0.0000000000000000
2.5404795939359599 3.8775094317393211 0.0000000000000000
5.9150367944780999 1.1540623533693890 0.0000000000000000
5.2767028283917341 1.8567686097859151 0.0000000000000000
5.3236164982039220 1.7134037684806600 0.0000000000000000
4.2747203172456052 5.1409076220704488 0.0000000000000000
2.9980523850730458 6.5463201349034756 0.0000000000000000
7.3767182919228134 4.7003352075426150 0.0000000000000000
7.4222629515203700 4.5510561615296723 0.0000000000000000
7.9253804022549978 7.0705878186809032 0.0000000000000000
4.1850743167721838 8.2138743780059826 0.0000000000000000
4.0301617144671864 2.7002616712803409 0.0000000000000000
4.0757064109343606 2.5509825903301020 0.0000000000000000
3.9691993007781741 2.4369002292825579 0.0000000000000000
4.7474193275755239 8.2210991387381132 0.0000000000000000
7.4541347186392652 8.1501381454582589 0.0000000000000000
7.5613339795128436 8.2746956147675021 0.0000000000000000
7.7029813130978697 8.3375600731754727 0.0000000000000000
5.1267772476545321 6.0535664638675639 0.0000000000000000
3.9411986346772201 7.1604208846749247 0.0000000000000000
7.4376807486263861 4.9636966087802179 0.0000000000000000
5.7041487570372720 5.0874988062135564 0.0000000000000000
4.9424724141028502 2.4890814846259008 0.0000000000000000
4.8969277545052776 2.6383605306388360 0.0000000000000000
6.8750183046291982 4.9552043259203691 0.0000000000000000
5.0516199625700864 8.1511251622878227 0.0000000000000000
4.5332792094454391 5.2197932865068211 0.0000000000000000
4.6853309853441090 5.1845965957185438 0.0000000000000000
7.7887464234623689 7.5184249567197066 0.0000000000000000
5.0511057255655656 6.7647650031439559 0.0000000000000000
5.2031575014642044 6.7295683123557266 0.0000000000000000
8.7003483471338736 5.9200444242257708 0.0000000000000000
7.9393807359200181 4.7088274904024088 0.0000000000000000
5.2010313063026548 2.5679671490623059 0.0000000000000000
4.7904206382041643 2.5242781754141590 0.0000000000000000
2.2819207017361500 3.7986237673029430 0.0000000000000000
6.5849150864968218 2.6638373792184100 0.0000000000000000
6.7369668623955024 2.6286406884301332 0.0000000000000000
6.8434739786966379 2.7427230436547752 0.0000000000000000
6.8890186382941732 2.5934439976418351 0.0000000000000000
6.9955257545953229 2.7075263528664708 0.0000000000000000
6.7825115219930483 2.4793616424171931 0.0000000000000000
6.9499810949978009 2.8568053988794140 0.0000000000000000
7.1020328708964700 2.8216087080911092 0.0000000000000000
7.0564882112989462 2.9708877541040559 0.0000000000000000
7.2085399871976454 2.9356910633157298 0.0000000000000000
7.1629953276001359 3.0849701093286770 0.0000000000000000
7.3150471034988023 3.0497734185403789 0.0000000000000000
7.2695024439012998 3.1990524645533238 0.0000000000000000
7.1174506680026086 3.2342491553416370 0.0000000000000000
7.2239577843037832 3.3483315105662488 0.0000000000000000
7.3760095602023954 3.3131348197780088 0.0000000000000000
7.0719060084050778 3.3835282013545829 0.0000000000000000
7.1784131247062568 3.4976105565792230 0.0000000000000000
7.0263613488075567 3.5328072473675340 0.0000000000000000
7.1328684651087499 3.6468896025922160 0.0000000000000000
6.9808166892101129 3.6820862933804790 0.0000000000000000
7.0873238055110974 3.7961686486051751 0.0000000000000000
7.0109435517014056 3.1201668001170129 0.0000000000000000
6.9829428843714059 7.8436874566740409 0.0000000000000000
6.9374121678364036 7.9929534854646178 0.0000000000000000
6.9345632978917164 2.4441649516288959 0.0000000000000000
6.5694972893908101 2.2511969319679812 0.0000000000000000
6.4629779410245378 2.1371259965810072 0.0000000000000000
3.1199772984887102 7.0730429373750532 0.0000000000000000
7.2407930448506903 6.5353727333459624 0.0000000000000000
7.0887412689519778 6.5705694241342112 0.0000000000000000
6.0552144318732672 7.6422271541531241 0.0000000000000000
6.9822341526508591 6.4564870689095519 0.0000000000000000
5.8246562070034180 2.8398208331597679 0.0000000000000000
4.2887206423818700 2.7791473018736861 0.0000000000000000
3.2720290743803582 7.0378462465898188 0.0000000000000000
7.0130697468629251 7.2817679634105890 0.0000000000000000
6.9065626305617913 7.1676856081859226 0.0000000000000000
7.0866150737903961 2.4089682608406102 0.0000000000000000
5.3839186764133800 3.3580513527751070 0.0000000000000000
8.1496600420465217 2.1632426337207802 0.0000000000000000
4.1293423997506764 1.4208619324018690 0.0000000000000000
7.2702111756216770 4.5862528523179504 0.0000000000000000
7.3157558352192327 4.4369738063050121 0.0000000000000000
8.2731242469405988 5.4642539594682162 0.0000000000000000
8.4161423693436834 5.4320079818761204 0.0000000000000000
8.5279815148407003 5.5484129865220986 0.0000000000000000
7.8181645542333271 5.5693050756918234 0.0000000000000000
1.9021456278497200 4.5802156881559037 0.0000000000000000
7.7880376917418266 6.1312245689552691 0.0000000000000000
6.6788532756365662 7.9140678210282092 0.0000000000000000
2.7990384861357751 3.9563950961757119 0.0000000000000000
7.4390982120674876 7.7380973843091629 0.0000000000000000
7.4846428716650362 7.5888183382962451 0.0000000000000000
7.5126435389949382 2.8652976817392628 0.0000000000000000
5.3405002119773659 7.6689315620815961 0.0000000000000000
5.2339930956762419 7.5548492068569297 0.0000000000000000
5.0819413197775560 7.5900458976451812 0.0000000000000000
8.0959430406447748 4.6698257307620263 0.0000000000000000
3.4696255098751481 6.8533705097892268 0.0000000000000000
7.4229716832408847 5.9382565492942394 0.0000000000000000
5.1274859793751144 7.4407668516322598 0.0000000000000000
3.5614235607906930 7.9420128055278472 0.0000000000000000
3.5164667059053820 8.0907035608166726 0.0000000000000000
5.4746986295582598 1.6744965683883259 0.0000000000000000
6.8922472460181483 8.1418986828989297 0.0000000000000000
6.9555277144299907 8.4041355092690271 0.0000000000000000
7.0439875842510453 8.1069932420890591 0.0000000000000000
7.2856289727276931 4.9988932995684916 0.0000000000000000
7.1335771968290107 5.0340899903567626 0.0000000000000000
7.0880325372314559 5.1833690363697071 0.0000000000000000
5.4462985965579893 6.3958135295417513 0.0000000000000000
5.4918432561555441 6.2465344835288050 0.0000000000000000
5.3397914802568822 6.2817311743170627 0.0000000000000000
2.9510902620344601 3.9211984053874400 0.0000000000000000
4.8653656109579657 1.8147858304367650 0.0000000000000000
4.7632670589492907 1.6964001494551850 0.0000000000000000
6.5407878903402867 5.5875172007603702 0.0000000000000000
2.0394883383629621 5.5195789378816098 0.0000000000000000
6.5099522961282599 4.7622363062592612 0.0000000000000000
4.9277633487173356 3.4636414251399521 0.0000000000000000
4.8822186891198029 3.6129204711528868 0.0000000000000000
4.7757115728186594 3.4988381159282458 0.0000000000000000
4.7301669132211126 3.6481171619411570 0.0000000000000000
1.4299829329496700 7.4791044962985698 0.0000000000000000
5.3250824148713498 7.2562911148310683 0.0000000000000000
6.0075435771141521 3.6299050368725498 0.0000000000000000
5.7181490907022789 2.7257384779351170 0.0000000000000000
5.6880222282107606 3.2876579711985761 0.0000000000000000
1.6349821535553251 5.4786094556499529 0.0000000000000000
4.6404950574670458 6.7210760294958769 0.0000000000000000
6.3137733240731064 7.7211128185894609 0.0000000000000000
6.8280561815906058 2.3300825964042402 0.0000000000000000
5.0055610659679806 6.9140440491569821 0.0000000000000000
7.0711972766843942 1.9963278135900770 0.0000000000000000
3.1802310234632651 5.9492039508517980 0.0000000000000000
4.1696306643854548 7.8012260423747746 0.0000000000000000
6.5540794922847816 1.8385564847172651 0.0000000000000000
6.5932358062056942 1.6782547798205361 0.0000000000000000
6.4409953067723684 1.7240708412316319 0.0000000000000000
6.7518898297571264 1.6529980471022689 0.0000000000000000
7.5147697341564950 7.0268988450328020 0.0000000000000000
7.5743147274190576 4.5158594707413844 0.0000000000000000
7.4678076111179177 4.4017771155167278 0.0000000000000000
1.7492589187709351 4.6161918713130401 0.0000000000000000
1.7122447040113511 4.7575069067770528 0.0000000000000000
1.5980420760523510 4.6506090697325160 0.0000000000000000
1.4614286546367929 4.5517824027022966 0.0000000000000000
8.5997786657241093 4.4161415636266508 0.0000000000000000
5.2171578351291972 4.3678079840773520 0.0000000000000000
5.2627024947267422 4.2185289380644200 0.0000000000000000
5.1561953784256138 4.1044465828397723 0.0000000000000000
5.3692096110278769 4.3326112932890783 0.0000000000000000
5.4147542706254308 4.1833322472761489 0.0000000000000000
6.6921309345184774 4.1651201222075684 0.0000000000000000
6.5856238182173410 4.0510377669829074 0.0000000000000000
8.5838868097969954 3.9955948758990698 0.0000000000000000
1.6767195470268690 3.9403276378626888 0.0000000000000000
7.5883150610840122 2.1540991424628739 0.0000000000000000
1.3020965397080611 7.0822876496999854 0.0000000000000000
7.3017555015542470 6.7987341345834746 0.0000000000000000
6.9646901603832703 1.8822454583654069 0.0000000000000000
3.1956488205692910 6.3618443981023063 0.0000000000000000
5.9031626559745511 7.6774238449414369 0.0000000000000000
7.3914273573083511 3.7257752670286219 0.0000000000000000
5.8562005329359614 5.0523021154252996 0.0000000000000000
4.6860397170645811 6.5717969834829351 0.0000000000000000
4.0455794907973672 3.1129021382211728 0.0000000000000000
4.0000348662489174 3.2621811510210241 0.0000000000000000
4.1520866562862810 3.2269844468336131 0.0000000000000000
5.6424775686132067 3.4369370172115028 0.0000000000000000
3.3617009301329541 3.9648873790355692 0.0000000000000000
8.1060993736693767 7.8600064184893910 0.0000000000000000
7.8622917503898408 2.6456252541497638 0.0000000000000000
6.1294684905212922 4.1566278393477383 0.0000000000000000
6.4798254336367211 5.3241557995227842 0.0000000000000000
2.6778223044491569 4.8168726814650586 0.0000000000000000
2.5257705285504750 4.8520693722533350 0.0000000000000000
2.4802258689529348 5.0013484182662662 0.0000000000000000
2.5713151881480112 4.7027903262404038 0.0000000000000000
7.7564933658092521 3.9187432866896410 0.0000000000000000
7.9085451417079327 3.8835465959013540 0.0000000000000000
7.9583095034633686 3.7303280422616441 0.0000000000000000
8.0613002012995878 3.8476933205086028 0.0000000000000000
7.8630004821103743 4.0328256419142914 0.0000000000000000
8.1079610448110273 3.6960734938324720 0.0000000000000000
8.2128609039533202 3.8127386427960972 0.0000000000000000
8.2547991317925913 3.6603514813772380 0.0000000000000000
7.9971595563085556 3.5771868014925650 0.0000000000000000
8.1672530054726984 3.9622381354821692 0.0000000000000000
7.2099574506385977 5.7100918388449076 0.0000000000000000
3.6686164492561080 8.0554088215743747 0.0000000000000000
3.4748084857282562 8.2324743393301514 0.0000000000000000
1.9181661141739259 3.6060558588553482 0.0000000000000000
1.8160842027448290 3.4933236224513000 0.0000000000000000
1.9491072337254860 7.2053352831230706 0.0000000000000000
2.9062543341574592 5.4576778391649032 0.0000000000000000
3.0583061100561371 5.4224811483766420 0.0000000000000000
4.5774064056018959 2.2961134649648729 0.0000000000000000
7.3151006871164528 1.6616855459468660 0.0000000000000000
3.6349684091622700 3.0692135565849310 0.0000000000000000
4.7161665795560541 6.0098774902194991 0.0000000000000000
5.2935380889388037 5.0438098325654810 0.0000000000000000
3.1641044946367138 4.1493631158367688 0.0000000000000000
3.0120527187380368 4.1845598066250389 0.0000000000000000
6.4181542452126319 3.6735940105206630 0.0000000000000000
2.1754135854350221 3.6845414120782820 0.0000000000000000
4.0007436279397366 4.6493815103835319 0.0000000000000000
6.3894448461622311 7.0099142793130982 0.0000000000000000
5.4610076619435013 5.4212535890276996 0.0000000000000000
5.5675147782446306 5.5353359442523642 0.0000000000000000
3.8024384607229820 3.4466568594202291 0.0000000000000000
2.5103527314444478 4.4394289250027974 0.0000000000000000
5.4154630023459500 5.5705326350406779 0.0000000000000000
7.3003380381131997 4.0243333590545110 0.0000000000000000
1.9635740272910069 3.4567350918368711 0.0000000000000000
1.8570441199097960 3.3426457831112861 0.0000000000000000
1.6831296020458679 3.3929443152627412 0.0000000000000000
1.7493851202304940 3.2282119911796259 0.0000000000000000
7.6191506552960728 2.9793800369639389 0.0000000000000000
4.8072558987512268 5.7113193981937256 0.0000000000000000
3.4226633868365308 4.2282487802731579 0.0000000000000000
7.7109487062116902 4.0680223327025740 0.0000000000000000
2.9517989937550131 5.3083987931519712 0.0000000000000000
3.1501041609717668 6.5111234441152153 0.0000000000000000
2.0235803796927918 3.7198047880688021 0.0000000000000000
4.7610025074331546 4.4733980564421749 0.0000000000000000
7.6948221773851451 2.2681814976875350 0.0000000000000000
6.2969380635260208 4.5340715958099249 0.0000000000000000
2.9349382885992781 2.1213813254210132 0.0000000000000000
3.4527902493280660 3.6663292870096980 0.0000000000000000
3.5908416915617449 5.9928929244998903 0.0000000000000000
4.4099368325971744 1.9186697085026261 0.0000000000000000
1.9016288766922109 3.1930738731758499 0.0000000000000000
2.9966349216320110 3.7719193593745062 0.0000000000000000
1.8404772135128009 2.9296576252723838 0.0000000000000000
2.9665080591404882 4.3338388526379763 0.0000000000000000
2.7233669640467091 4.6675936354521266 0.0000000000000000
1.7949622389364230 3.0789433283172052 0.0000000000000000
1.6475090501608380 3.1098128792702520 0.0000000000000000
6.4805341653572732 6.7113561872872776 0.0000000000000000
4.6095027734438982 1.7324953098173150 0.0000000000000000
5.3383740168158376 3.5073303987880400 0.0000000000000000
3.5151701694726989 6.7040914637762912 0.0000000000000000
6.5562056874463224 6.0001576480109184 0.0000000000000000
6.1911396789453637 5.8071896283498594 0.0000000000000000
2.2826294334567230 5.1858241550674684 0.0000000000000000
3.1648132263572601 5.5365635036013021 0.0000000000000000
4.0602886212022664 2.1383421360921111 0.0000000000000000
3.4072455897305112 3.8156083330226309 0.0000000000000000
6.9198542325063226 3.4187248921428921 0.0000000000000000
3.0113439870175229 2.7973594188605242 0.0000000000000000
3.1633957629162008 2.7621627280722518 0.0000000000000000
7.4362632851853281 2.1892958332511419 0.0000000000000000
2.4031368834227949 2.9381461820136061 0.0000000000000000
2.5096439997239250 3.0522285372382680 0.0000000000000000
2.3737187526518020 4.8872660630416007 0.0000000000000000
6.4644076365306979 4.9115153522722537 0.0000000000000000
4.0631235480843237 7.6871436871501171 0.0000000000000000
4.3216824402841496 7.7660293515864867 0.0000000000000000
5.5212613869265592 4.2974146025008029 0.0000000000000000
5.5668060465241220 4.1481355564878788 0.0000000000000000
5.7188578224228044 4.1129388656996140 0.0000000000000000
5.6123507061216804 3.9988565104749458 0.0000000000000000
2.1291701686209432 2.4466631607709881 0.0000000000000000
2.0836271714407220 2.5959493885246410 0.0000000000000000
6.8581830440821427 1.7681631031407250 0.0000000000000000
5.4441724013964548 2.2342123662481850 0.0000000000000000
2.5264792602710231 6.2392697600178204 0.0000000000000000
5.5808292441726683 1.7867410855902639 0.0000000000000000
2.1596164872875172 1.8859024872659531 0.0000000000000000
2.3113937376203548 1.8497042046420800 0.0000000000000000
2.2048317162060580 1.7354215310502890 0.0000000000000000
2.3588636375313641 1.7087730392317340 0.0000000000000000
4.2130491288214813 3.4903458330683508 0.0000000000000000
4.3356827739491566 5.4042690233080322 0.0000000000000000
1.8860389799813440 2.7804015569910110 0.0000000000000000
5.7952380762323950 4.7889407141877323 0.0000000000000000
5.3390827485363532 4.8945307865525471 0.0000000000000000
7.2562108419566984 6.9480131805964396 0.0000000000000000
3.9853258308337169 4.2367410631330094 0.0000000000000000
4.1373776067324020 4.2015443723447419 0.0000000000000000
4.5648235353779256 7.4322745687723923 0.0000000000000000
4.6713306516790576 7.5463569239970472 0.0000000000000000
4.8233824275777382 7.5111602332087788 0.0000000000000000
4.5192788757803726 7.5815536147853049 0.0000000000000000
4.7778377679801887 7.6604392792216913 0.0000000000000000
3.3175737339767721 6.8885672005773673 0.0000000000000000
2.5824373099581028 1.3597273720352030 0.0000000000000000
2.5542200121365251 1.5202437731467771 0.0000000000000000
5.3236649514303283 4.4818903393020157 0.0000000000000000
6.5081277233991317 1.9875221762538720 0.0000000000000000
2.6609870439020891 1.6298314586854861 0.0000000000000000
4.1072507442408686 4.7634638656081929 0.0000000000000000
3.3462831330269349 3.5522469317850369 0.0000000000000000
3.6055507569472680 5.0183329839859230 0.0000000000000000
5.6277685032277001 4.4114969577254808 0.0000000000000000
2.3127562959482191 4.6239046618040014 0.0000000000000000
6.4482811077041626 3.1116745172572000 0.0000000000000000
6.4027364481066158 3.2609535632701250 0.0000000000000000
4.5479882748308906 4.2452333459928582 0.0000000000000000
4.7147491161150761 3.2354767146906092 0.0000000000000000
4.7448759786065988 2.6735572214271381 0.0000000000000000
3.6803770606579489 1.9297285490778731 0.0000000000000000
6.1764306135599956 6.7817495688637504 0.0000000000000000
6.0699234972588663 6.6676672136390689 0.0000000000000000
5.9178717213601821 6.7028639044273532 0.0000000000000000
1.2201577935208521 4.4456580129464154 0.0000000000000000
2.9496727985934310 1.1467976298584190 0.0000000000000000
3.0091036353196259 1.0117646696129119 0.0000000000000000
2.5397708622154549 2.4903090439748099 0.0000000000000000
7.5448965966480497 6.4649793517694158 0.0000000000000000
2.9503816157935909 2.5339983869000182 0.0000000000000000
5.8569092646564958 6.4395025031898392 0.0000000000000000
1.9476902874472699 4.4309366421429619 0.0000000000000000
3.6014990762905290 2.2415689386147482 0.0000000000000000
7.0270700805278716 4.9200076351321016 0.0000000000000000
3.9089455770241148 3.5607392146448911 0.0000000000000000
5.4925519878760500 7.6337348712933251 0.0000000000000000
1.9638168162738869 6.2307774771580000 0.0000000000000000
4.9284720804378637 4.8508418129044362 0.0000000000000000
4.7764203045391813 4.8860385036926939 0.0000000000000000
4.1997575268769953 7.2393065491113244 0.0000000000000000
6.9262868167640210 1.4612129463917740 0.0000000000000000
2.6662334778282282 8.5647663404419276 0.0000000000000000
2.5629323893915830 8.4472356854397823 0.0000000000000000
4.5318617460043438 2.4453925109778072 0.0000000000000000
2.5853155218130111 2.3410299979618778 0.0000000000000000
6.3109241264483220 2.1723245906755788 0.0000000000000000
4.3363915056696571 6.7914694110724954 0.0000000000000000
4.0322879538723111 6.8618627926490596 0.0000000000000000
3.2860294080438850 4.6760859183119550 0.0000000000000000
3.1339776321452031 4.7112826091002278 0.0000000000000000
2.2069579113676432 5.8970226943438719 0.0000000000000000
3.9243633741301340 3.9733796618954140 0.0000000000000000
5.8576179963769919 7.8267028909543832 0.0000000000000000
6.5569144191669171 7.3873580357753514 0.0000000000000000
1.7946644228384641 4.4670427406948949 0.0000000000000000
6.1441775559067899 3.1820678988337372 0.0000000000000000
2.6616957756226070 3.0170318464499970 0.0000000000000000
5.2024487697436914 5.3423679245913513 0.0000000000000000
5.5962241772951398 2.1990156754599322 0.0000000000000000
3.9559077000626881 6.1858609441609520 0.0000000000000000
3.9103630404651422 6.3351399901738796 0.0000000000000000
3.7274756703544329 5.5450557864611172 0.0000000000000000
4.5024436152333376 4.3945123920057858 0.0000000000000000
4.3959364989322109 4.2804300367811301 0.0000000000000000
4.0617060846433226 4.9127429116211196 0.0000000000000000
3.8332740549350319 4.2719377539212813 0.0000000000000000
3.2713203426583881 5.6506458588259472 0.0000000000000000
5.3685008793073496 2.9454109055245992 0.0000000000000000
2.5551886593214790 2.9029494912253351 0.0000000000000000
4.9740167400354167 4.7015627668915014 0.0000000000000000
1.7807217059234619 4.0536457369151471 0.0000000000000000
1.5256015704623309 3.9873579466920641 0.0000000000000000
2.1747065161318471 2.2973482060544681 0.0000000000000000
2.2812139095025299 2.4114317582359188 0.0000000000000000
4.2284669259275001 3.9029862803188728 0.0000000000000000
4.1829222663299461 4.0522653263318062 0.0000000000000000
1.5241087774512569 2.5889666104426019 0.0000000000000000
1.3697184541839520 2.6292698661186562 0.0000000000000000
4.0308704904312664 4.0874620171200746 0.0000000000000000
7.2253752477446671 6.1227322860954381 0.0000000000000000
3.5592973656291962 3.7804116422343599 0.0000000000000000
2.4353899410759010 6.5378278520436890 0.0000000000000000
6.5547882240052964 3.2257568724818602 0.0000000000000000
3.2544483020241830 2.4636467733685690 0.0000000000000000
3.3308653359209051 3.1396064845345149 0.0000000000000000
7.3781357553638820 7.4747359830716036 0.0000000000000000
2.6161511160250530 3.1663108924629282 0.0000000000000000
8.2285759498337203 5.6130838753634880 0.0000000000000000
4.9593076746499110 5.6761227074054670 0.0000000000000000
5.5380966474736057 7.4844558252803939 0.0000000000000000
2.5698951127109559 1.9283887537979669 0.0000000000000000
4.9754342034764409 7.4759635424205264 0.0000000000000000
1.4761171626451930 4.1238862672572667 0.0000000000000000
1.9315948364266760 2.6311876276138300 0.0000000000000000
4.3349740422286311 4.0170686355435361 0.0000000000000000
2.3877194095645868 2.5255071312126618 0.0000000000000000
6.4952432307427213 5.7367962467733058 0.0000000000000000
6.4496985711451611 5.8860752927862423 0.0000000000000000
2.7226582323261801 3.2803932476875892 0.0000000000000000
3.9110717721856298 7.7223403779383872 0.0000000000000000
5.3860448715749234 7.5196525160686676 0.0000000000000000
6.2808115346994624 2.7342307607949530 0.0000000000000000
6.3116471289115150 3.5595116552959971 0.0000000000000000
3.7730203299519820 5.3957767404481780 0.0000000000000000
6.7089661950655870 7.3521613449870973 0.0000000000000000
3.3477005964679738 6.3266477073140397 0.0000000000000000
6.9366894930532883 6.6057661149224742 0.0000000000000000
6.6935483979595327 6.9395208977365836 0.0000000000000000
3.0428883129501059 5.0098407011260946 0.0000000000000000
7.2996293063926601 2.6371329712899190 0.0000000000000000
6.1147594251357873 5.1311877798617243 0.0000000000000000
3.5460057636847102 7.5293723582773282 0.0000000000000000
5.0188526679124346 3.1650833331140640 0.0000000000000000
3.8781070623862961 2.7354610843720488 0.0000000000000000
6.2675199327549871 6.4831914768379342 0.0000000000000000
7.9563597838036921 3.3189171173522820 0.0000000000000000
8.2732630836458334 4.0765080691155360 0.0000000000000000
2.6771135727286288 3.4296722937005151 0.0000000000000000
5.6284772349481909 5.7986973454900088 0.0000000000000000
3.4682080464340910 4.0789697342602276 0.0000000000000000
4.2291756576480326 5.2901866680833738 0.0000000000000000
2.9048368849630011 2.6832771251820442 0.0000000000000000
6.2513934039284713 4.6833506418228952 0.0000000000000000
5.0643973275099867 3.0158042871011301 0.0000000000000000
2.5867329852540668 5.1154307734909228 0.0000000000000000
2.9525077254769951 6.6955991809157567 0.0000000000000000
4.8815099573992642 2.2257200833883100 0.0000000000000000
3.9860345625542331 5.6239414508974992 0.0000000000000000
5.1730306389726648 7.2914878056193242 0.0000000000000000
7.5427704014864556 2.3033781884758051 0.0000000000000000
7.8013292936862637 2.3822638529122071 0.0000000000000000
1.9925299911651930 2.8944622800269530 0.0000000000000000
5.9458723886900682 1.9793432478704820 0.0000000000000000
2.3428831584397281 4.0619851685405450 0.0000000000000000
4.8689270871752948 7.3618811871958529 0.0000000000000000
4.1667957375033966 2.2524244913167690 0.0000000000000000
7.6661127783346457 5.6045017664800998 0.0000000000000000
4.7602937757126274 3.0861976686776709 0.0000000000000000
3.7583112645664669 6.3703366809621524 0.0000000000000000
2.4956436660589718 5.4139888655167860 0.0000000000000000
4.8976364862257951 4.0255609184033867 0.0000000000000000
4.9431811458233632 3.8762818723904560 0.0000000000000000
6.6627128037474721 6.1142400032355750 0.0000000000000000
6.0692147655382307 5.2804668258746510 0.0000000000000000
8.3962461582574672 5.9863923364417762 0.0000000000000000
1.6006361750216920 6.0352531111647014 0.0000000000000000
4.5781151373224214 3.6833138527294089 0.0000000000000000
1.9939436787653950 5.6688579838945454 0.0000000000000000
2.6631132390636711 5.7914326219790384 0.0000000000000000
7.1945396535325798 5.2974513915943824 0.0000000000000000
3.0568887487157590 2.6480808139285581 0.0000000000000000
4.7918381016452152 5.2986789509432182 0.0000000000000000
6.8287649133111250 3.7172829841687771 0.0000000000000000
6.9352720296123511 3.8313653393934022 0.0000000000000000
2.3583009555457681 4.4746256157910631 0.0000000000000000
1.8292330514235791 6.6874716601042756 0.0000000000000000
1.7206757211800969 6.5645322599721423 0.0000000000000000
1.6858553567661640 6.3976753641722670 0.0000000000000000
1.8434929852706570 6.4516864293157496 0.0000000000000000
2.3884278180372811 3.9127061225275979 0.0000000000000000
8.2728404241713953 2.6890464086997801 0.0000000000000000
2.3120475642276839 3.2367042740394680 0.0000000000000000
5.3853361398544211 6.1324521283041236 0.0000000000000000
2.0093614758714251 6.0814984311450786 0.0000000000000000
2.1163492008705949 6.1951320908076832 0.0000000000000000
5.9612901857960638 2.3919836951209859 0.0000000000000000
3.1185598350391679 4.2986421618497026 0.0000000000000000
5.5079697849820741 8.0463753185438662 0.0000000000000000
5.3560689261885068 8.0814311133483976 0.0000000000000000
6.0383791713261914 4.4551859313736006 0.0000000000000000
5.2017400380231980 3.9551675368268371 0.0000000000000000
2.9956281523823520 1.4135062626353769 0.0000000000000000
4.4568989556357881 4.5437914380187134 0.0000000000000000
4.6089507315344740 4.5085947472304433 0.0000000000000000
6.8603092392436817 5.9297642664343648 0.0000000000000000
5.5278772893237367 8.4548241818307428 0.0000000000000000
2.1908313825410470 4.0971818593288170 0.0000000000000000
1.9338551427738631 6.7934105965878508 0.0000000000000000
5.7644024820203601 3.9636598196866761 0.0000000000000000
7.9866893168860544 4.5573977788799951 0.0000000000000000
4.2894293826310808 4.1663476815564682 0.0000000000000000
2.4178546643278329 1.9636194950752450 0.0000000000000000
5.4911345244350311 4.8593340957642681 0.0000000000000000
2.8600009428393589 4.2197564974133126 0.0000000000000000
6.1610128164538427 6.3691091216132856 0.0000000000000000
2.4640993401263680 3.2015075832511979 0.0000000000000000
5.7636937502998267 2.5764594319221841 0.0000000000000000
4.0147439613998843 2.2876211822991399 0.0000000000000000
4.6236597969199744 3.5340348067164840 0.0000000000000000
1.6444010124047830 5.8874583555571398 0.0000000000000000
6.9051451671207467 4.3932848326568941 0.0000000000000000
6.7229665287305131 4.9904010167086392 0.0000000000000000
6.9359807613327806 5.2185657271579853 0.0000000000000000
4.5623168593876020 1.8831899074003331 0.0000000000000000
5.8113646050589693 6.5887815492027526 0.0000000000000000
4.8212562324162080 3.3495590699152942 0.0000000000000000
2.9812171245259980 3.3592789121239779 0.0000000000000000
5.3530830822013389 2.5327704582740460 0.0000000000000000
6.7236752604510386 6.3776014044731593 0.0000000000000000
6.4335720423186560 4.0862344577711696 0.0000000000000000
3.8171430613064881 2.4721011354258660 0.0000000000000000
7.8174558225128248 4.1821046879272270 0.0000000000000000
5.5058435898205511 3.8847741552502830 0.0000000000000000
5.2332843639557307 6.1676488190923218 0.0000000000000000
2.0035222103010129 6.4929738222183140 0.0000000000000000
3.5901329598412439 4.6056925367354102 0.0000000000000000
5.9884364397248344 1.8328916325373690 0.0000000000000000
4.2585937857804286 3.3410667895558972 0.0000000000000000
4.8219649641367361 4.7367594576797707 0.0000000000000000
4.7154578478356051 4.6226771024551052 0.0000000000000000
5.0041436025269279 4.1396432736280513 0.0000000000000000
6.5863325499378442 5.4382381547474452 0.0000000000000000
4.0448708240962299 1.7257016888415910 0.0000000000000000
7.4825166765034803 3.4272171750026961 0.0000000000000000
4.0161614250457749 5.0620219576340482 0.0000000000000000
5.7195665541433058 5.5001392534640949 0.0000000000000000
4.5494057382719086 7.0196341215218654 0.0000000000000000
4.1682132009444732 5.0268252668457842 0.0000000000000000
6.9513985584387772 5.6312061744085060 0.0000000000000000
3.8648183808675949 6.4844190361868081 0.0000000000000000
3.4674770441235658 2.6917905604272390 0.0000000000000000
7.8335823513393636 5.9819455229423326 0.0000000000000000
4.3672270998816876 7.6167503055735750 0.0000000000000000
4.8668008920137602 3.2002800239023408 0.0000000000000000
6.6634215354680322 7.5014403910000276 0.0000000000000000
2.9055456024369071 4.0704774514003752 0.0000000000000000
3.3624096618534871 5.3520877668000706 0.0000000000000000
5.2465759659002078 2.4186881030493592 0.0000000000000000
5.8414914675504610 6.0268620559393558 0.0000000000000000
5.8870361271480176 5.8775830099264139 0.0000000000000000
5.9935432434491389 5.9916653651510590 0.0000000000000000
7.4687642021546079 1.6237234110013450 0.0000000000000000
6.0390879030466866 5.8423863191380736 0.0000000000000000
4.2438847230335286 4.3156267275694002 0.0000000000000000
3.3161562705353971 4.1141664250485013 0.0000000000000000
5.1709044438111169 3.1298866423257921 0.0000000000000000
4.1976313130627467 3.0777054034937370 0.0000000000000000
3.2089404225137592 2.6128836820593291 0.0000000000000000
1.5411235469238049 2.9956125926611681 0.0000000000000000
6.5092435644077522 3.3750359184947891 0.0000000000000000
6.7979293190990919 2.8920020896677130 0.0000000000000000
1.8735027649728440 5.1438588969085632 0.0000000000000000
2.8747100082248709 3.2451965568993142 0.0000000000000000
4.4560581424528483 1.7688795376031801 0.0000000000000000
3.3925365243450121 4.7901682735366089 0.0000000000000000
3.5445883002436900 4.7549715827483379 0.0000000000000000
7.8342910830599219 7.3691459107067594 0.0000000000000000
7.0410704141928511 2.5582473068535410 0.0000000000000000
3.2404847484463311 4.8253649643248817 0.0000000000000000
3.1949400888487829 4.9746440103378156 0.0000000000000000
2.7549112900275641 6.8800749176968186 0.0000000000000000
7.7572020975297793 5.3059436744542454 0.0000000000000000
3.6370950828798501 7.2308142662514800 0.0000000000000000
2.4637303640126609 1.8157705579058190 0.0000000000000000
5.6740218945457359 5.6494182994770297 0.0000000000000000
7.0894660317123170 7.9577583730578727 0.0000000000000000
7.8468739532838274 2.2329848068992648 0.0000000000000000
5.3096646177653479 6.8436506675804711 0.0000000000000000
5.5717825490596864 1.3765412069945220 0.0000000000000000
3.7884381270579981 5.8084171876986961 0.0000000000000000
4.5574045502882790 1.4660212107050841 0.0000000000000000
4.6600507995301994 1.5784050629627779 0.0000000000000000
3.1493954292512369 5.1239230563507583 0.0000000000000000
8.3195559865008892 2.1361779567889938 0.0000000000000000
3.2573200100562820 8.0124061874286703 0.0000000000000000
4.3952277660692722 2.8932296500991730 0.0000000000000000
4.3209737085636064 6.3788289638219462 0.0000000000000000
5.2795377552737950 7.4055701608439968 0.0000000000000000
8.0282516667983614 3.0165417743094141 0.0000000000000000
3.1038507696536888 5.2732021023637046 0.0000000000000000
8.3822270950578144 6.9643054747928144 0.0000000000000000
8.5406137932525912 6.9106768684111408 0.0000000000000000
8.6514900243679378 7.0290816730185313 0.0000000000000000
7.3774270236433441 6.0875355953071706 0.0000000000000000
2.4648080718469130 4.5887079710157339 0.0000000000000000
3.9551989683421902 4.7986605563964577 0.0000000000000000
3.7436021991809629 7.3448966214761544 0.0000000000000000
2.2216669767531290 4.9224627538298726 0.0000000000000000
6.1140506934152743 3.7439873920972131 0.0000000000000000
6.8596005075231936 4.5425638786698226 0.0000000000000000
5.6578953657192317 3.8495774644620160 0.0000000000000000
3.6510954165448242 4.8690539379729953 0.0000000000000000
7.3627179582578197 7.0620955358210944 0.0000000000000000
7.3325910957663307 7.6240150290845454 0.0000000000000000
4.6706219199584957 6.1591565362324214 0.0000000000000000
3.3646708004568131 8.1250410676127025 0.0000000000000000
3.3160320926974651 8.2686400188655220 0.0000000000000000
6.9675250872653844 7.4310470094235122 0.0000000000000000
7.4212188654383606 1.7761148605464090 0.0000000000000000
2.5096716724223569 1.6691457087520649 0.0000000000000000
3.3154366461633882 2.7269764479427132 0.0000000000000000
7.5596056620335128 5.4904194112554450 0.0000000000000000
3.7557386587814272 2.2083485965522471 0.0000000000000000
3.6481740894339061 2.0913362653112100 0.0000000000000000
5.4602989302230016 4.0340532012632204 0.0000000000000000
2.6469867102370910 3.9915917869639861 0.0000000000000000
5.8824223594235416 8.6448874690533568 0.0000000000000000
4.5956105332710644 8.2573455243155145 0.0000000000000000
4.7064414723072856 8.3616856578355208 0.0000000000000000
3.0737239071621532 5.8351215956271583 0.0000000000000000
4.2144665922624700 6.2647466085973083 0.0000000000000000
1.8134690905753781 4.8765212105873452 0.0000000000000000
4.0974447172206174 8.5123789669940386 0.0000000000000000
3.6363863511593149 5.8436138784869636 0.0000000000000000
5.9311633233045304 2.9539031883844360 0.0000000000000000
5.8856186637069960 3.1031822343973730 0.0000000000000000
2.4795171372323890 3.6141480305017128 0.0000000000000000
6.5106610278487649 6.1494366940238470 0.0000000000000000
3.8031471924435061 4.8338572471847252 0.0000000000000000
6.8757270363497343 6.3424047136848927 0.0000000000000000
3.2699009260888161 2.8762469489626241 0.0000000000000000
5.0496882621244721 3.9903642276151170 0.0000000000000000
6.3571917885090601 3.4102326092830562 0.0000000000000000
7.9695039876196478 4.1468923983055808 0.0000000000000000
4.9887258054209278 3.7270028263775292 0.0000000000000000
2.6315689131310709 3.5789513397134418 0.0000000000000000
6.2506846722079299 3.2961502540583969 0.0000000000000000
5.9921257800081236 3.2172645896220211 0.0000000000000000
2.6175685794661181 5.9407116679919598 0.0000000000000000
8.0151900879615425 3.9974689675770780 0.0000000000000000
4.0168701567662648 6.4492223453985256 0.0000000000000000
8.3969535270571747 7.3776381935665691 0.0000000000000000
8.3606522005927353 2.3938739226077952 0.0000000000000000
7.1482862622145307 4.0595300498427846 0.0000000000000000
2.4346812093553960 5.1506274642791983 0.0000000000000000
7.7557846340887107 2.5315428989251201 0.0000000000000000
5.0356879284594900 6.3521245558934591 0.0000000000000000
3.4843345752606369 5.8788105692752364 0.0000000000000000
3.6216772857738300 6.8181738190009540 0.0000000000000000
3.2243578940983562 3.0255244402541330 0.0000000000000000
2.0549061354689711 5.9322193851321430 0.0000000000000000
6.4342807740391574 5.4734348455357136 0.0000000000000000
3.8626096651419539 2.3227610462109181 0.0000000000000000
4.9298895438788684 7.6252425884334318 0.0000000000000000
7.0579056747399180 5.7452885296331724 0.0000000000000000
5.2311581687942077 2.0060476557988460 0.0000000000000000
7.8304521288716504 1.8220282354925510 0.0000000000000000
6.9815254209303266 5.0692866811450390 0.0000000000000000
7.9856341272380309 5.9467488321540589 0.0000000000000000
5.3229562197098019 3.0946899515375259 0.0000000000000000
5.9627076492370978 5.1663844706499766 0.0000000000000000
3.5894241483613851 3.2184922245754000 0.0000000000000000
4.6243685286405070 4.9212351944809569 0.0000000000000000
4.6397863257465417 5.3338756417314972 0.0000000000000000
2.2980472305627342 5.5984646023180016 0.0000000000000000
2.4192634122493462 4.7379870170286740 0.0000000000000000
1.5863975814967011 7.0140457111674914 0.0000000000000000
5.4000452052399206 5.1578921877901358 0.0000000000000000
4.8359652978017191 2.3749991294012380 0.0000000000000000
8.3167623620758206 3.9293349719887840 0.0000000000000000
5.5359704523120641 3.3228546619868400 0.0000000000000000
7.8478231221103218 3.6180713212595599 0.0000000000000000
3.2419022118873659 7.5997657398538729 0.0000000000000000
7.5897325245250897 4.9284999179919318 0.0000000000000000
3.9236515500009310 2.5861821984952988 0.0000000000000000
7.5301875312625626 7.4395392922833263 0.0000000000000000
3.8339827866555569 5.6591381416857711 0.0000000000000000
3.4829168647302020 3.1044100279971318 0.0000000000000000
2.3281740930542618 5.0365451090545346 0.0000000000000000
2.4339724776348350 3.7634270765146480 0.0000000000000000
8.5208567917317612 7.5096052325660771 0.0000000000000000
6.0846325626442219 5.6931072731251557 0.0000000000000000
7.0165417818552829 8.6637434439270198 0.0000000000000000
7.2709199073422131 5.9734532400825087 0.0000000000000000
2.1459954546640669 5.6336612931062700 0.0000000000000000
2.1004507950665130 5.7829403391192074 0.0000000000000000
5.4294633360109312 3.2087723067621829 0.0000000000000000
1.7748488783959271 5.0304862801343564 0.0000000000000000
7.7577356406835527 8.0739048409468630 0.0000000000000000
2.7556163271996441 8.2672590465592073 0.0000000000000000
7.8034554888478578 6.5438650162057677 0.0000000000000000
7.9099626051489693 6.6579473714304163 0.0000000000000000
6.7530933912220714 4.4284815234451536 0.0000000000000000
1.3312865413063939 5.5326595759479016 0.0000000000000000
1.1697039199701049 5.5583246841691754 0.0000000000000000
7.1644127910410633 5.8593708848578387 0.0000000000000000
3.7414758194521651 3.1832956331179698 0.0000000000000000
7.9078364099874028 2.4963462081368331 0.0000000000000000
7.0421625904620893 1.1658812999293700 0.0000000000000000
5.9157455261985223 2.5412627411339090 0.0000000000000000
5.7335668878083084 3.1383789251856462 0.0000000000000000
5.3545005456423631 5.3071712338030750 0.0000000000000000
7.7116574379322067 5.4552227204671739 0.0000000000000000
5.3082471543242917 4.0692498920515039 0.0000000000000000
2.3891365497578492 5.2999065102921250 0.0000000000000000
6.2976467952464859 5.9212719835745178 0.0000000000000000
4.6839135219030306 2.4101958201895219 0.0000000000000000
5.0363966601800048 7.7393249436581062 0.0000000000000000
5.5976416407361498 4.9734164509889203 0.0000000000000000
4.3812274335467301 5.2549899772951010 0.0000000000000000
5.3376652850953299 2.1201300110235111 0.0000000000000000
7.7432017638648318 7.6677040027326502 0.0000000000000000
2.8305828120683452 6.1688763784412490 0.0000000000000000
2.3435918901602970 5.4491855563050589 0.0000000000000000
4.3496831026016682 3.0425086997794630 0.0000000000000000
6.1595953530128309 3.5947083460842721 0.0000000000000000
7.0431966093544256 6.7198484701471273 0.0000000000000000
4.0477057509783201 7.2745032398995946 0.0000000000000000
7.9092538734284794 5.2707469836659397 0.0000000000000000
7.1475775304939910 2.6723296620781878 0.0000000000000000
6.2359756068224286 4.2707101945723682 0.0000000000000000
5.7202752858637993 6.8873396412286594 0.0000000000000000
4.6846222536235569 3.7973962079540771 0.0000000000000000
5.9942519751696786 7.3788657529155230 0.0000000000000000
4.1843397297709792 6.8266661018607877 0.0000000000000000
8.0318875185561502 7.1846701739055447 0.0000000000000000
5.4455898648374763 5.0086131417771993 0.0000000000000000
3.7891468587785289 7.1956175754631948 0.0000000000000000
4.4737342161828346 7.7308326607982121 0.0000000000000000
8.2005626511546268 6.1744637096645896 0.0000000000000000
5.9017451925335216 4.9030230694123880 0.0000000000000000
7.9987061520100626 2.1978966508439992 0.0000000000000000
5.7496934166348366 4.9382197602006466 0.0000000000000000
8.4640532395536798 2.5108143446829319 0.0000000000000000
3.2257756830608342 5.7999249048388712 0.0000000000000000
4.0624148163638054 6.2999432993855979 0.0000000000000000
4.1065420044469292 3.3762634854945790 0.0000000000000000
6.2226840048779604 8.0196709106153623 0.0000000000000000
4.8366740295222463 3.7621995171658051 0.0000000000000000
7.6366946475637008 7.5536216475079883 0.0000000000000000
7.9562323822494720 5.1219072496663109 0.0000000000000000
4.5031523469538346 5.7817127797702490 0.0000000000000000
2.2987559622929572 6.9856649900781509 0.0000000000000000
3.8479830654305509 3.2973778654296559 0.0000000000000000
3.3778274589595121 5.7647282140505887 0.0000000000000000
5.2942468206593016 6.4310102203299397 0.0000000000000000
5.8730357934830248 8.2393433382048915 0.0000000000000000
6.7545108546631258 7.2028822989741643 0.0000000000000000
3.9544902211327151 3.4114601833111649 0.0000000000000000
2.7240756957672292 6.0547940232166031 0.0000000000000000
3.2103578859548119 5.3872844575883576 0.0000000000000000
4.7322931083826472 7.8097183252346127 0.0000000000000000
6.0677973020972100 2.5060660503456540 0.0000000000000000
5.9783108461429526 8.3527290333314852 0.0000000000000000
4.1387950701734333 6.9759451478737233 0.0000000000000000
5.8723270617625918 6.8521429504403084 0.0000000000000000
2.8761274716659169 6.0195973324283401 0.0000000000000000
4.8373827612427904 5.1493999049303021 0.0000000000000000
2.4052630786397442 7.0997473452817319 0.0000000000000000
4.0932504105758856 7.1252241938866563 0.0000000000000000
8.4235378953337676 2.6548042500258031 0.0000000000000000
4.1079594759613558 6.1506642533726588 0.0000000000000000
6.6465862749209323 4.3143991682204819 0.0000000000000000
4.7308756449416327 5.0353175497056126 0.0000000000000000
6.3293248807831706 8.1332099099991488 0.0000000000000000
6.1904309472248773 4.4199892405853003 0.0000000000000000
5.1566056702620964 8.2575296367110980 0.0000000000000000
6.6304597460943997 2.5145583332055161 0.0000000000000000
5.6747306262662924 7.0366186872415426 0.0000000000000000
3.5915504232822810 7.3800933122644121 0.0000000000000000
3.1617889207674090 8.3075777158767661 0.0000000000000000
7.6514037129491737 6.5790617069940396 0.0000000000000000
6.1743044183983447 2.6201484055703150 0.0000000000000000
6.1463037510684382 7.3436690621271694 0.0000000000000000
3.0281792475645930 5.9844006416400690 0.0000000000000000
6.8610179709642569 7.3169646541988387 0.0000000000000000
4.1535041355589097 6.0013852073597294 0.0000000000000000
6.2759341464925207 8.2745192396417639 0.0000000000000000
4.5949503978694866 6.8703550755087832 0.0000000000000000
6.3263561942970146 2.5849517147820551 0.0000000000000000
8.1359059213776970 1.7521394533076371 0.0000000000000000
8.2810902964406807 1.7162467328659290 0.0000000000000000
7.2540846467951337 2.7864120173028302 0.0000000000000000
6.4784079701956978 2.5497550239937770 0.0000000000000000
7.1952483852531177 6.6846517793588616 0.0000000000000000
6.6480037383620001 7.0887999437494909 0.0000000000000000
6.5414966220608841 6.9747175885248476 0.0000000000000000
7.4993519370504984 6.6142583977823151 0.0000000000000000
2.3443006218921432 6.8363859440646637 0.0000000000000000
8.0469156324940077 6.2100352612351966 0.0000000000000000
6.5400791586197862 4.2003168129958164 0.0000000000000000
7.3473001611518107 6.6494550885705834 0.0000000000000000
3.1353950955864129 7.4856833846292350 0.0000000000000000
6.3880273827211127 4.2355135037840794 0.0000000000000000
3.4394986473836000 7.4152900030526823 0.0000000000000000
6.2682286644755241 7.8703918646024267 0.0000000000000000
7.9401426423992216 6.0960153828075896 0.0000000000000000
6.6149720587628176 2.1018675635151700 0.0000000000000000
4.6257859920815090 7.6956359700099481 0.0000000000000000
8.0164697214501359 6.7720297266550782 0.0000000000000000
8.3505591758333164 6.1263970683698199 0.0000000000000000
6.6760044056919670 2.3652792871925312 0.0000000000000000
3.2874468714849590 7.4504866938409560 0.0000000000000000
4.3055559114575690 5.9661885165714459 0.0000000000000000
2.6785310361696761 6.2040730692295316 0.0000000000000000
4.9137630150523162 5.8254017534183591 0.0000000000000000
4.4281895565852736 7.8801117068111148 0.0000000000000000
4.2761377806865726 7.9153083975993974 0.0000000000000000
6.4349895057597566 6.8606352333001954 0.0000000000000000
4.6096594632549488 5.8957951349948736 0.0000000000000000
4.2305974303024581 8.0645887583424258 0.0000000000000000
6.3284823894586300 6.7465528780755069 0.0000000000000000
7.3605917630962923 2.9004943725275059 0.0000000000000000
8.1680088736616057 6.7373116205749071 0.0000000000000000
8.3199563566545720 6.7008646553791111 0.0000000000000000
4.3511005710551389 5.8169094705584978 0.0000000000000000
6.1154681568563412 6.5183881676261759 0.0000000000000000
7.4670988793974331 3.0145767277521940 0.0000000000000000
2.6329863765721111 6.3533521152424584 0.0000000000000000
4.0785463726060316 8.0997856682523874 0.0000000000000000
4.0329582422594363 8.2487726295244279 0.0000000000000000
5.3552092773628717 6.6943716215675373 0.0000000000000000
4.7617112391536356 5.8605984442066177 0.0000000000000000
2.4963523978079092 6.8011892532689959 0.0000000000000000
5.1723219072521296 5.9042874178547180 0.0000000000000000
5.1877397043581954 6.3169278651052432 0.0000000000000000
6.2219752731574909 6.6324705228508396 0.0000000000000000
8.3307303732419449 8.0764608943718148 0.0000000000000000
7.4215542197999280 3.1638557737650990 0.0000000000000000
5.9634163809576748 6.5535848584144389 0.0000000000000000
2.5874417169745318 6.5026311612553886 0.0000000000000000
3.9884577473277569 8.3975352601480981 0.0000000000000000
5.0202701313534286 5.9394841086429730 0.0000000000000000
7.5280613361010218 3.2779381289897791 0.0000000000000000
7.1938309218121512 3.9102510038298490 0.0000000000000000
2.5418970573841722 6.6519102072652334 0.0000000000000000
7.3304649006048628 3.4624138657909720 0.0000000000000000
5.2487021610617486 6.5802892663428318 0.0000000000000000
7.2849202410073390 3.6116929118039711 0.0000000000000000
7.2393755814097709 3.7609719578169161 0.0000000000000000
2.9223808632856909 7.2575186740502584 0.0000000000000000
3.0288879795933430 7.3716010292722496 0.0000000000000000
2.9377986603051802 7.6701591213389424 0.0000000000000000
2.7857468592116592 7.7053557380090147 0.0000000000000000
2.9833433202464752 7.5208800751785150 0.0000000000000000
2.5117701964747390 7.2138296998441316 0.0000000000000000
2.3597184191467040 7.2490263910787007 0.0000000000000000
2.6792397820800580 7.5912733962478756 0.0000000000000000
2.3141739171251570 7.3983054586028096 0.0000000000000000
2.1621244581841279 7.4335028419210341 0.0000000000000000
2.3457825466005202 8.2228626995907241 0.0000000000000000
2.1936782430716311 8.2516306475595158 0.0000000000000000
2.4816440307713341 7.7757485817192844 0.0000000000000000
2.6043822015325300 8.3017003935355760 0.0000000000000000
2.6336951591698079 7.7405522896344499 0.0000000000000000
2.8467094034237759 7.9687170912630592 0.0000000000000000
2.4565099725810891 8.3330158113095809 0.0000000000000000
2.7402023859218070 7.8546346253840120 0.0000000000000000
2.6492483069895458 8.1530613306179234 0.0000000000000000
1.7515529019823091 7.3897692723738588 0.0000000000000000
2.1165814496758650 7.5827824211229222 0.0000000000000000
1.7062687383472830 7.5388069051406719 0.0000000000000000
1.6501212446845539 7.6989701343325594 0.0000000000000000
2.0100779733321130 7.4686894708603688 0.0000000000000000
1.9035712877941140 7.3546030768698314 0.0000000000000000
2.1322190764170430 7.9953082383981986 0.0000000000000000
2.0867452823947659 8.1443483097536795 0.0000000000000000
3.0865987776682351 2.0887723729342418 0.0000000000000000
2.9841584255291700 1.9695541628705571 0.0000000000000000
4.7971830999811491 0.3424552837349878 0.0000000000000000
1.7676752503295361 7.8017254589322063 0.0000000000000000
1.0717809972824250 4.0524748297007189 0.0000000000000000
0.9104760581904983 4.0223275414735049 0.0000000000000000
0.7910127498349715 4.1987880922636984 0.0000000000000000
0.9173739728582202 4.3698823209840567 0.0000000000000000
2.0443261555257899 8.2910559951459177 0.0000000000000000
0.4727487117149386 7.2254880469722043 0.0000000000000000
8.3696794613304384 3.7775388245442438 0.0000000000000000
1.5593177234372659 7.5798221659835061 0.0000000000000000
8.4252501722306761 6.8174273884552496 0.0000000000000000
5.3737759242397489 1.5683693965581551 0.0000000000000000
6.9918177501710170 1.3059468128661020 0.0000000000000000
1.3454834841082159 5.9493094234483701 0.0000000000000000
8.2497434718763145 1.0851230624119561 0.0000000000000000
8.2039000077350028 1.0166332977940999 0.0000000000000000
0.8482458121720298 7.8952316141229399 0.0000000000000000
0.6434405514403502 7.7984868511582608 0.0000000000000000
0.8643897521857404 7.9760514400490283 0.0000000000000000
7.8952316141229453 1.4517541878279701 0.0000000000000000
7.9760514400490301 1.4356102478142581 0.0000000000000000
9.1020995295128753 6.3003546645837201 0.0000000000000000
9.2431743483481057 6.1789023927257993 0.0000000000000000
9.0335357930873883 6.2546219070758546 0.0000000000000000
7.6921744359086661 8.6839242809309027 0.0000000000000000
7.6790019058466372 8.7607450639204920 0.0000000000000000
1.4020995295128771 7.7753546645836931 0.0000000000000000
1.3361672894544270 7.7337867927565682 0.0000000000000000
1.2149694909342781 5.2999166270081943 0.0000000000000000
1.2797051451279009 5.2559753222330556 0.0000000000000000
4.7000348462595776 1.2149954290130569 0.0000000000000000
4.7460999922650391 1.2833667022059940 0.0000000000000000
1.2047683858770331 3.2232458121720158 0.0000000000000000
1.1239485599508661 3.2393897521858341 0.0000000000000000
1.4499651537404310 3.4600045709869409 0.0000000000000000
1.4039000077349060 3.3916332977939860 0.0000000000000000
0.8502565281236421 3.5898769375880821 0.0000000000000000
0.6131736790871418 3.6278405759154930 0.0000000000000000
0.6979326812606516 3.9108834150361331 0.0000000000000000
0.8982090217317126 3.6477817162050350 0.0000000000000000
1.9851230624119161 0.8502565281236391 0.0000000000000000
1.9643571343673940 0.6074974536637164 0.0000000000000000
1.9166332977939831 0.8960999922650942 0.0000000000000000
3.2729004704871061 1.3246453354163190 0.0000000000000000
3.3414642069126890 1.3703780929241780 0.0000000000000000
1.9952316141229709 1.4517541878279869 0.0000000000000000
2.0760514400491572 1.4356102478141439 0.0000000000000000
3.5898769375880981 9.1497434718763788 0.0000000000000000
3.6720332550363870 9.4054166954643108 0.0000000000000000
3.6583667022060231 9.1039000077349588 0.0000000000000000
1.4078255640913271 2.2160757190690168 0.0000000000000000
1.4238389167270240 2.1352299176982918 0.0000000000000000
2.1148769375881349 9.1497434718762811 0.0000000000000000
2.1565479980099291 9.4154397668356360 0.0000000000000000
2.1833667022059990 9.1039000077349801 0.0000000000000000
1.3160757190690171 1.7921744359086720 0.0000000000000000
1.2377250519234539 1.7793970482181789 0.0000000000000000
0.8500833729918122 2.1149694909342971 0.0000000000000000
0.8940246777669497 2.1797051451279281 0.0000000000000000
0.6252052223611663 2.1497752726746571 0.0000000000000000
0.7063366463578409 2.3084570515885452 0.0000000000000000
1.3248396411952750 3.7772589921446298 0.0000000000000000
1.3703780929241891 3.7085357930872971 0.0000000000000000
6.4202316141229732 1.4517541878279769 0.0000000000000000
6.5010514400491681 1.4356102478141239 0.0000000000000000
5.0547683858770256 0.8482458121720083 0.0000000000000000
4.9823603126237552 0.8680858257216368 0.0000000000000000
8.5502565281236098 5.0648769375880756 0.0000000000000000
8.5952626393793565 5.1285118195082946 0.0000000000000000
8.5482458121719702 7.8952316141229177 0.0000000000000000
8.5643897521859227 7.9760514400492228 0.0000000000000000
0.8482458121720025 4.9452316141229726 0.0000000000000000
0.5488938841750681 4.8749520230808878 0.0000000000000000
0.6903468366204529 4.4236292824030592 0.0000000000000000
0.5772403091009578 5.0950100026968723 0.0000000000000000
0.5139003822990053 4.1868691845298169 0.0000000000000000
0.8680858257216505 5.0176396873762537 0.0000000000000000
0.4100701459912950 3.7586910016896380 0.0000000000000000
4.9452316141229717 1.4517541878280040 0.0000000000000000
5.0260514400492209 1.4356102478140880 0.0000000000000000
6.1750348462595470 1.2149954290130640 0.0000000000000000
6.2210999922652306 1.2833667022060611 0.0000000000000000
6.5297683858770101 0.8482458121719956 0.0000000000000000
6.6770648970432616 0.5793164690877405 0.0000000000000000
6.4579207212338030 0.8703889401179100 0.0000000000000000
4.9351230624118791 8.5502565281236294 0.0000000000000000
4.8714881804916939 8.5952626393793636 0.0000000000000000
1.4499166270081889 4.9350305090656796 0.0000000000000000
1.4059753222330580 4.8702948548720446 0.0000000000000000
1.0952316141230101 6.7767541878279802 0.0000000000000000
1.1760514400492490 6.7606102478140420 0.0000000000000000
7.6482458121719947 1.0952316141229810 0.0000000000000000
7.6643897521859978 1.1760514400492870 0.0000000000000000
1.4020995295129310 6.3003546645836579 0.0000000000000000
1.3335357930872120 6.2546219070757969 0.0000000000000000
3.2669865516420140 8.6838672868617728 0.0000000000000000
3.2522827261578300 8.7607135015073823 0.0000000000000000
9.0160757190689829 3.2671744359086539 0.0000000000000000
8.9352299176982051 3.2511610832729918 0.0000000000000000
1.9851230624119069 8.5502565281236045 0.0000000000000000
1.9214881804916670 8.5952626393794098 0.0000000000000000
9.0161425383985261 4.7419541620994883 0.0000000000000000
8.9392557844621567 4.7268478961201916 0.0000000000000000
9.1200536927760005 4.5351563788670406 0.0000000000000000
9.2768838382264533 4.6188436723568893 0.0000000000000000
8.5502565281236151 3.5898769375881132 0.0000000000000000
8.5952626393794098 3.6535118195083340 0.0000000000000000
8.5482458121719507 1.9952316141229729 0.0000000000000000
8.5654740221677326 2.0712456722156150 0.0000000000000000
6.7749166270081860 8.7850305090656313 0.0000000000000000
6.7309753222330286 8.7202948548719892 0.0000000000000000
8.5482458121719702 6.4202316141229732 0.0000000000000000
8.5654740221677415 6.4962456722156334 0.0000000000000000
9.0160757190690060 7.6921744359086066 0.0000000000000000
8.9352299176979368 7.6761610832731089 0.0000000000000000
9.0161327131381874 1.7919865516419540 0.0000000000000000
8.9392864984925886 1.7772827261577899 0.0000000000000000
6.4101230624117820 8.5502565281236436 0.0000000000000000
6.3464881804916331 8.5952626393794223 0.0000000000000000
8.4580792074071702 1.0546701001464180 0.0000000000000000
4.0823181243561510 1.1696032747321250 0.0000000000000000
5.2588412377142530 8.3897069485517477 0.0000000000000000
1.8901967900687300 8.3312871246619675 0.0000000000000000
6.9075450666208207 8.5473321205046329 0.0000000000000000
6.2922073216360150 1.7668122930395369 0.0000000000000000
1.6196003591537680 8.5566374509579823 0.0000000000000000
5.0066197820417528 8.2957705069855514 0.0000000000000000
1.4745588465217720 6.8912878193693494 0.0000000000000000
9.4345147064329193 7.7204454268349076 0.0000000000000000
9.5087726978614953 7.9690668338378208 0.0000000000000000
0.6902648489797746 4.6600892202820070 0.0000000000000000
1.9427922283948851 1.6557923037638340 0.0000000000000000
0.4322337051664813 3.3415375441384771 0.0000000000000000
6.0774312579428820 8.4580390018698939 0.0000000000000000
5.5378414511762166 0.9585503139103974 0.0000000000000000
5.5935987181625180 0.7845146456590606 0.0000000000000000
1.3855451603807329 3.0209678369695170 0.0000000000000000
8.8362735942060358 4.0850068984221570 0.0000000000000000
0.9990992831589157 3.0085961999804209 0.0000000000000000
2.3002601938571958 8.3852084812963881 0.0000000000000000
4.9215910148809563 1.6699059997533781 0.0000000000000000
4.8604356797124044 8.3313180332211925 0.0000000000000000
5.9241440493177882 1.5647774701260071 0.0000000000000000
5.9607812418006230 1.0144509710517731 0.0000000000000000
6.0211013196368706 0.8665086932010488 0.0000000000000000
6.1378576859559164 0.6445573233046095 0.0000000000000000
7.9700059608366329 8.3014768271961135 0.0000000000000000
6.1782614447921986 1.6663581809916239 0.0000000000000000
7.8822058866114268 1.6749192104052830 0.0000000000000000
0.8012087815258859 2.5198188367754630 0.0000000000000000
0.6269671584599850 2.6910466956804511 0.0000000000000000
0.5483172656525093 3.0052572346579800 0.0000000000000000
8.3914843934301082 9.6400844827633048 0.0000000000000000
8.6153584703343657 9.3386612277910146 0.0000000000000000
8.9359840356936324 9.2220524635979420 0.0000000000000000
8.6681409262024580 9.0393695140099748 0.0000000000000000
8.9331431483913875 8.9038150272583287 0.0000000000000000
8.6968758069302972 8.7442356625530149 0.0000000000000000
8.9837247084313319 8.6169179059856145 0.0000000000000000
9.2536787364120681 8.5245583005345456 0.0000000000000000
8.7680220926941352 8.5087812727368402 0.0000000000000000
8.5586589679229341 8.4687257301664509 0.0000000000000000
8.4697189925399243 9.1788026624675663 0.0000000000000000
8.3257372121292033 9.3221722795095534 0.0000000000000000
8.1369628199780486 9.3828253143225400 0.0000000000000000
7.9185486698342364 9.4991858051049736 0.0000000000000000
5.4713829384098851 8.6053618984148468 0.0000000000000000
1.8123959731546979 2.1013458353723631 0.0000000000000000
1.1492121918957949 9.6663022837338328 0.0000000000000000
1.6589628594006429 4.9068773056303856 0.0000000000000000
3.1057435398122850 1.5300261039690211 0.0000000000000000
1.7690722779000090 2.2559437143908290 0.0000000000000000
8.7017916107509041 5.5055226930065091 0.0000000000000000
1.2322643665158950 4.0414214127587691 0.0000000000000000
1.5508527140992181 9.4806829528193433 0.0000000000000000
5.5483177715356682 8.8612073589869169 0.0000000000000000
2.3829295603022889 1.5575534611813879 0.0000000000000000
3.8346918106514858 8.4252763126765018 0.0000000000000000
8.7892297654196820 7.4231151309327474 0.0000000000000000
1.5642624963172891 3.8303947203787900 0.0000000000000000
4.0319742838030992 1.2980728017929100 0.0000000000000000
0.7263570519063773 8.9776508041809748 0.0000000000000000
3.9506516043610080 8.5480118246097625 0.0000000000000000
2.5074028414212890 8.6022047038006733 0.0000000000000000
1.5949000687265320 3.2486811051336271 0.0000000000000000
8.9443100841323062 4.4952568526325978 0.0000000000000000
0.6789058565185071 3.2264075461472159 0.0000000000000000
8.9836774346163892 4.0458337522058558 0.0000000000000000
2.5803338840235219 0.9553965306989182 0.0000000000000000
2.6477369497797700 0.7578855995556307 0.0000000000000000
1.3805941506263459 4.0213019668303138 0.0000000000000000
8.3809202937914993 0.4555190469133249 0.0000000000000000
6.8102366498339286 8.4319602186489426 0.0000000000000000
0.5783653815908589 5.3336489984736906 0.0000000000000000
1.5915411324588069 0.8644271840424149 0.0000000000000000
1.7015587878814931 0.6898479446064596 0.0000000000000000
3.0213918868049570 8.7448425410360802 0.0000000000000000
2.9880957613489669 8.9024663689571781 0.0000000000000000
2.9692089331311942 9.0866403711009340 0.0000000000000000
8.6524148834625780 7.4431423210488026 0.0000000000000000
8.4522480115904557 3.9106407299383110 0.0000000000000000
4.4776787492927257 1.2085826303188130 0.0000000000000000
1.9804230164702381 9.6863703309040989 0.0000000000000000
1.0548201552382450 6.9797360482124544 0.0000000000000000
8.7930059615356697 1.4925208847155980 0.0000000000000000
9.4176746085789702 4.7935672848233324 0.0000000000000000
9.4835706558005270 5.0320580593104038 0.0000000000000000
9.3527190361255936 7.2675191131508834 0.0000000000000000
1.6127270058039380 2.2977143135128890 0.0000000000000000
6.0303550581837690 1.6889369222231640 0.0000000000000000
8.4685079143020996 1.2585925933185080 0.0000000000000000
8.4281482848569862 1.4634771699629290 0.0000000000000000
8.5669823571893193 1.5773988307979261 0.0000000000000000
8.4305590797681802 1.6617152656553751 0.0000000000000000
8.3148103239080378 1.5631942662131839 0.0000000000000000
8.1025215381180598 0.9644785827802882 0.0000000000000000
8.1562804211102620 0.9510810283614509 0.0000000000000000
8.1147700599666113 0.8955721814843535 0.0000000000000000
8.0390939417099752 0.8773619344971141 0.0000000000000000
8.0829072645924178 0.5967510701672151 0.0000000000000000
1.2199177332138660 6.2452552137515029 0.0000000000000000
1.2644556999120320 6.2122871578307199 0.0000000000000000
1.2048649894130761 6.1769111174887481 0.0000000000000000
1.1281277280311530 6.1893176914066217 0.0000000000000000
8.9199349275387796 6.2454297906616851 0.0000000000000000
8.9644591387770589 6.2123220732127624 0.0000000000000000
8.9048856226029329 6.1771206097809674 0.0000000000000000
8.8178330117892028 6.1854904192853022 0.0000000000000000
2.2353322795692701 9.0024641638390648 0.0000000000000000
2.2488811441084779 9.0562689462544750 0.0000000000000000
2.3042008533351130 9.0147012108318290 0.0000000000000000
2.3249641681920452 8.9355628431803584 0.0000000000000000
3.4550650724612622 1.3795702093383111 0.0000000000000000
3.4105408612229740 1.4126779267872349 0.0000000000000000
3.4701143773970720 1.4478793902190250 0.0000000000000000
3.5462356019795291 1.4339142792289410 0.0000000000000000
3.7103322795692582 9.0024641638390790 0.0000000000000000
3.7238811441084838 9.0562689462544714 0.0000000000000000
3.7792008533351131 9.0147012108318236 0.0000000000000000
3.7999641681920489 8.9355628431803300 0.0000000000000000
1.8646677204307300 0.9975358361609461 0.0000000000000000
1.8511188558915199 0.9437310537455499 0.0000000000000000
1.7957991466648831 0.9852987891681808 0.0000000000000000
1.7857174607634181 1.0589472865806220 0.0000000000000000
1.0371208097228961 3.3132178867140341 0.0000000000000000
1.0451934898987341 3.2583238235027090 0.0000000000000000
0.9781774591325900 3.2755574672682379 0.0000000000000000
0.9389591262638590 3.3405847666910491 0.0000000000000000
0.8178948445618412 3.0907832150781420 0.0000000000000000
2.1628791902771050 1.3617821132859640 0.0000000000000000
2.1548065101012699 1.4166761764972851 0.0000000000000000
2.2218225408674099 1.3994425327317599 0.0000000000000000
2.2657735502807790 1.3357418739561699 0.0000000000000000
8.8267587324823733 3.2861418442052521 0.0000000000000000
8.8552239649954725 3.2385156237060140 0.0000000000000000
8.7867141958721504 3.2287915097745001 0.0000000000000000
8.7160730387185001 3.2700689054576091 0.0000000000000000
8.8267587324823680 7.7111418442052528 0.0000000000000000
8.8552239649954068 7.6635156237060400 0.0000000000000000
8.7867141958721362 7.6537915097745017 0.0000000000000000
8.7229932424972603 7.6957168074041391 0.0000000000000000
2.2888894225873009 8.8267676828705852 0.0000000000000000
2.3367531883276542 8.8553034376856044 0.0000000000000000
2.3462585720152771 8.7867268502592140 0.0000000000000000
2.3049314476102172 8.7160623272133950 0.0000000000000000
1.4020879729540330 0.6868595509825086 0.0000000000000000
4.6859541485768048 8.7773726369894050 0.0000000000000000
8.7855738286975189 5.3058190327626438 0.0000000000000000
3.6974633146628242 0.8911521894391088 0.0000000000000000
1.7904899330115860 1.3233990830866631 0.0000000000000000
1.4571111672556629 1.9767999247191250 0.0000000000000000
8.1202384430518215 1.4047630991122431 0.0000000000000000
1.0891103393484269 3.8311129956557952 0.0000000000000000
1.3396538807650160 6.7356787213093501 0.0000000000000000
6.2154899330115860 0.9766009169133373 0.0000000000000000
7.6942787344247368 1.3351544069333470 0.0000000000000000
5.1722281310428331 1.4063629674608960 0.0000000000000000
3.6983990830866511 8.5904899330115612 0.0000000000000000
8.1210655171779642 9.1232112576092206 0.0000000000000000
2.2233990830866581 8.5904899330115523 0.0000000000000000
6.6472281310428389 1.4063629674609039 0.0000000000000000
8.5904899330115523 3.3516009169133398 0.0000000000000000
8.3370254432740545 1.9680664958969381 0.0000000000000000
1.4073365113617711 2.4910294014319212 0.0000000000000000
9.3828941831271973 5.3318584684010917 0.0000000000000000
9.3278205551886657 5.6031171081849438 0.0000000000000000
8.3093652366316917 3.5326560660862318 0.0000000000000000
1.0151095303467339 1.0160022750987570 0.0000000000000000
6.9702222212500793 0.9159033272841300 0.0000000000000000
6.9550440082095877 0.7284416193250252 0.0000000000000000
9.0044518989312206 5.8496510426492190 0.0000000000000000
9.1793733536750537 5.8102513336146799 0.0000000000000000
9.1430503265084919 6.0364191925963384 0.0000000000000000
9.4086799885481156 6.0343846705867703 0.0000000000000000
0.8786683267935562 8.4036714524727820 0.0000000000000000
0.7084254170825056 8.3091788003463112 0.0000000000000000
0.5599709097676977 8.0859240811288817 0.0000000000000000
0.8893212786906274 8.1396538807649801 0.0000000000000000
8.3919250637142202 0.8662925881998670 0.0000000000000000
8.3008781846046684 0.7120221133503835 0.0000000000000000
0.9983585798311754 1.4431137164165790 0.0000000000000000
0.7426190725743231 1.4926205562203130 0.0000000000000000
0.4801868091296730 1.7442580087271620 0.0000000000000000
8.5401948337473268 8.8686501113868133 0.0000000000000000
8.4897089766832714 8.7269457893601725 0.0000000000000000
1.4575280544819389 6.0658255886440102 0.0000000000000000
1.5671712571174170 6.1787862851624116 0.0000000000000000
8.8021704595452910 6.9981460018024482 0.0000000000000000
1.0476112870339700 4.4889473234610078 0.0000000000000000
3.5537220165536270 1.9932441043601510 0.0000000000000000
2.5905197990061768 8.8506354281589417 0.0000000000000000
1.5392124376363800 5.3780775870873470 0.0000000000000000
8.2984091830809419 4.4838929653494759 0.0000000000000000
9.4837634891116416 8.2959115082933597 0.0000000000000000
5.9470416770902332 8.9113370891714858 0.0000000000000000
5.9681187782785354 9.0763334096792576 0.0000000000000000
6.0745852253185983 9.2893473124372665 0.0000000000000000
6.2166079048683560 9.0231453410003510 0.0000000000000000
3.0702844868108370 8.5885403472950212 0.0000000000000000
8.0541929956374911 1.4183272649991800 0.0000000000000000
0.9078435257179122 8.0608880541862984 0.0000000000000000
1.4152581505849160 2.0405449007426650 0.0000000000000000
6.5795909332357354 1.4186472386688760 0.0000000000000000
5.1045909332357482 1.4186472386688671 0.0000000000000000
1.2608880541863321 6.7171564742820431 0.0000000000000000
7.7085517336799727 1.2602452722103850 0.0000000000000000
7.2334817075841684 0.8190184252722708 0.0000000000000000
7.4683242224721367 0.7747663881372422 0.0000000000000000
7.2485503393825041 0.5231719942851076 0.0000000000000000
7.5776579082742668 0.4739277999382079 0.0000000000000000
6.9671543694811504 0.4140006727087145 0.0000000000000000
6.2821959846336526 0.3597750979701160 0.0000000000000000
5.8783336290555228 0.3833560972777525 0.0000000000000000
1.0303697459290959 7.4276584942683641 0.0000000000000000
1.0999479105195931 7.6311837353279151 0.0000000000000000
5.8422461584017276 0.8923215839426539 0.0000000000000000
8.9498909812769796 6.9773635636519780 0.0000000000000000
5.3921889462505384 8.4718141635652486 0.0000000000000000
8.0402256764848268 1.6519326609253140 0.0000000000000000
8.6486664184767950 3.3149946858517390 0.0000000000000000
2.2600057561067808 8.6486635411966528 0.0000000000000000
8.3472931552378995 6.5459185567650993 0.0000000000000000
6.5005363657091113 8.6076036618372669 0.0000000000000000
6.5394699654910102 8.5501993541254269 0.0000000000000000
6.6160319891197190 8.5957184925853927 0.0000000000000000
6.4747547438786173 8.5531987997643473 0.0000000000000000
8.6347088988427956 6.3594355991108582 0.0000000000000000
8.5963870725265537 6.3016294968718256 0.0000000000000000
8.6638057298989164 6.2652397744993680 0.0000000000000000
8.5752129375736725 6.3619876662833290 0.0000000000000000
8.6358273284954894 1.9336464117057111 0.0000000000000000
8.5976919071214031 1.8757087782325279 0.0000000000000000
8.6819058994554794 1.8158361104906851 0.0000000000000000
8.5756975904231751 1.9366456850744380 0.0000000000000000
9.0394570318094800 7.7966568429101217 0.0000000000000000
9.1075782194836350 7.7835960800795316 0.0000000000000000
9.1209737177668693 7.8610432936362624 0.0000000000000000
9.0596967190844282 7.7399564363825197 0.0000000000000000
8.6078830388954692 3.5008864007639611 0.0000000000000000
8.5605659383581862 3.4475299893993441 0.0000000000000000
8.5553279920225407 3.5229298003940239 0.0000000000000000
2.0741135992360462 8.6078830388954515 0.0000000000000000
2.1274700106006712 8.5605659383581703 0.0000000000000000
2.0520701996059869 8.5553279920225300 0.0000000000000000
9.0394651738193552 1.8966300023006180 0.0000000000000000
9.1075795764852572 1.8835916066446381 0.0000000000000000
9.3504891287629732 1.7555105814695311 0.0000000000000000
9.1209739439337980 1.9610425480638130 0.0000000000000000
9.0597197881124227 1.8398803879888850 0.0000000000000000
5.0255363657091374 8.6076036618373415 0.0000000000000000
5.0644699654910292 8.5501993541254642 0.0000000000000000
5.1287054630544429 8.5954907563418814 0.0000000000000000
4.9997547438786674 8.5531987997643828 0.0000000000000000
6.7174210746101028 8.8755231438025710 0.0000000000000000
6.7748047686157529 8.9144677618399584 0.0000000000000000
6.7295099307815542 8.9787050957793468 0.0000000000000000
6.7718712868366069 8.8497172818099621 0.0000000000000000
6.8962076878909846 9.1221067359656409 0.0000000000000000
7.0277889809412786 9.2289018262207918 0.0000000000000000
8.6076036618373131 4.9744636342908244 0.0000000000000000
8.5501993541254198 4.9355300345089317 0.0000000000000000
8.5963970626691779 4.8653103697238684 0.0000000000000000
8.5531987997643597 5.0002452561212998 0.0000000000000000
3.3716300023006638 8.6605348261806441 0.0000000000000000
3.3585916066446688 8.5924204235147261 0.0000000000000000
3.4360425480637908 8.5790260560661835 0.0000000000000000
3.3148803879889281 8.6402802118875588 0.0000000000000000
8.6356768958436376 7.8355750713423102 0.0000000000000000
8.6081000773768146 7.7731723368775887 0.0000000000000000
8.5746306922701017 7.8359280621040561 0.0000000000000000
1.3924210746100760 5.0255231438025589 0.0000000000000000
1.4498047686157660 5.0644677618399516 0.0000000000000000
1.4042817220512911 5.1410318743939802 0.0000000000000000
1.4468712868365980 4.9997172818099767 0.0000000000000000
9.0394665774279712 4.8466253752231623 0.0000000000000000
9.1075798104200345 4.8335908354650856 0.0000000000000000
9.1209739829229211 4.9110424195338931 0.0000000000000000
9.0597237650035112 4.7898672779360032 0.0000000000000000
6.5913535882942309 0.9358273284955356 0.0000000000000000
6.6492912217674256 0.8976919071214258 0.0000000000000000
6.6913048139701390 0.9641175673151967 0.0000000000000000
6.5883543149255352 0.8756975904232096 0.0000000000000000
1.3837173596639269 6.4058314629325794 0.0000000000000000
1.4516512682357789 6.4198337413903346 0.0000000000000000
1.4343893294164849 6.4965118721066686 0.0000000000000000
1.4241146986681921 6.3611925108530372 0.0000000000000000
7.7358273284955157 1.0336464117057400 0.0000000000000000
7.6976919071214187 0.9757087782325526 0.0000000000000000
7.7818946187553450 0.9158560022238944 0.0000000000000000
7.6756975904231997 1.0366456850744521 0.0000000000000000
4.8837297617492599 1.3643689210412719 0.0000000000000000
4.8271041390742813 1.4030596307365770 0.0000000000000000
4.8869414272514993 1.4244919670557530 0.0000000000000000
0.9358273284955350 4.8836464117057528 0.0000000000000000
0.8976919071214278 4.8257087782325607 0.0000000000000000
0.9641175673151887 4.7836951860298651 0.0000000000000000
0.8756975904232122 4.8866456850744537 0.0000000000000000
1.0336464117057720 6.6891726715044566 0.0000000000000000
0.9757087782325868 6.7273080928785527 0.0000000000000000
0.9336951860298660 6.6608824326848062 0.0000000000000000
1.0366456850744761 6.7493024095767797 0.0000000000000000
9.0394570318094054 3.3716568429101992 0.0000000000000000
9.1075782194835426 3.3585960800796140 0.0000000000000000
9.3242251265799538 3.2108379701459562 0.0000000000000000
9.1209737177668444 3.4360432936363119 0.0000000000000000
9.0596967190843838 3.3149564363825759 0.0000000000000000
2.0244636342908620 9.0923963381625690 0.0000000000000000
1.9855300345089770 9.1498006458744126 0.0000000000000000
1.9212945369455010 9.1045092436580290 0.0000000000000000
1.7490503615504800 9.2802559050032052 0.0000000000000000
1.9030973625954799 9.4085019154081735 0.0000000000000000
2.0502452561213378 9.1468012002355454 0.0000000000000000
5.1163535882942330 0.9358273284955529 0.0000000000000000
5.1742912217674242 0.8976919071214448 0.0000000000000000
5.3458354282539098 0.7107446369144844 0.0000000000000000
5.2163048139701313 0.9641175673151887 0.0000000000000000
5.5243392376802198 0.5027053247537734 0.0000000000000000
5.1133543149255392 0.8756975904232235 0.0000000000000000
5.1733191442448963 0.5251348283752511 0.0000000000000000
6.3587297617492782 1.3643689210412391 0.0000000000000000
6.3021041390743138 1.4030596307365530 0.0000000000000000
6.3619414272515096 1.4244919670557290 0.0000000000000000
7.7966568429101830 8.6605429681905619 0.0000000000000000
7.7835960800795423 8.5924217805163536 0.0000000000000000
7.8610432936362047 8.5790262822331105 0.0000000000000000
7.7399564363825739 8.6403032809155533 0.0000000000000000
1.2204038468883360 3.7579375601365448 0.0000000000000000
1.1891926283991201 3.8220519494638761 0.0000000000000000
1.2609319957869241 3.7980981039858221 0.0000000000000000
3.4994636342908318 9.0923963381626578 0.0000000000000000
3.4605300345089440 9.1498006458745103 0.0000000000000000
3.3903103697238448 9.1036029373306100 0.0000000000000000
3.1625103717967171 9.3104537620957935 0.0000000000000000
2.9447687275879311 9.2987186159064947 0.0000000000000000
3.3835880318069278 9.4613525599120543 0.0000000000000000
3.5252452561213121 9.1468012002356147 0.0000000000000000
1.3033431570897871 2.2394570318094100 0.0000000000000000
1.3164039199203881 2.3075782194835641 0.0000000000000000
1.2340844057915721 2.3245643076391080 0.0000000000000000
1.3600435636174100 2.2596967190843991 0.0000000000000000
6.2328513700577597 1.1259033281103781 0.0000000000000000
6.1855614142385287 1.0725324075916851 0.0000000000000000
6.1802384144529876 1.1479776806024720 0.0000000000000000
0.9075789253899393 2.0244768561974369 0.0000000000000000
0.8501952313842427 1.9855322381600460 0.0000000000000000
0.9051086872088663 1.8978334358378059 0.0000000000000000
0.8531287131634104 2.0502827181900130 0.0000000000000000
1.3382534345758610 1.8958483445013661 0.0000000000000000
1.4095829534703961 1.8983601514797390 0.0000000000000000
1.3598569464350569 1.8427475509808460 0.0000000000000000
1.9350677895013839 1.3644590299159260 0.0000000000000000
1.8676654226701921 1.3877557160004050 0.0000000000000000
1.9353212895211049 1.4214492058834400 0.0000000000000000
2.0755363657091670 0.9076036618373486 0.0000000000000000
2.1144699654910561 0.8501993541254829 0.0000000000000000
2.1787054630544711 0.8954907563419152 0.0000000000000000
2.3638049279543831 0.6822987680667915 0.0000000000000000
2.0497547438786929 0.8531987997643912 0.0000000000000000
3.2912826403361288 1.2191685370673930 0.0000000000000000
3.2233487317642919 1.2051662586096401 0.0000000000000000
3.2406106705835431 1.1284881278933041 0.0000000000000000
3.2508853013318491 1.2638074891469420 0.0000000000000000
1.3925774212499591 3.5503673315171662 0.0000000000000000
1.4499662729827620 3.5878903978574610 0.0000000000000000
1.4469528812528021 3.5243610124128688 0.0000000000000000
0.9071495076475801 3.4994539419407289 0.0000000000000000
0.8469445824321136 3.4604605726665230 0.0000000000000000
0.8524570145877650 3.5252294252828009 0.0000000000000000
1.2662702382507220 3.3106310789587559 0.0000000000000000
1.3228958609256991 3.2719403692634459 0.0000000000000000
1.2630585727484951 3.2505080329442690 0.0000000000000000
4.7568407076799577 1.1256376802265149 0.0000000000000000
4.6993409097795737 1.0868828274208111 0.0000000000000000
4.7477062820245894 1.0274607534980651 0.0000000000000000
4.7027921810856528 1.1507946349915199 0.0000000000000000
1.1256339747866859 5.2431523599297316 0.0000000000000000
1.0868822098475031 5.3006579348220519 0.0000000000000000
1.0274606505691810 5.2522935254090140 0.0000000000000000
0.8693630752362989 5.4475329115113826 0.0000000000000000
1.1507841362453459 5.2971881771417824 0.0000000000000000
1.3837173596638290 7.8808314629326013 0.0000000000000000
1.4516512682356839 7.8948337413903484 0.0000000000000000
1.4388960858661359 7.9829872481325523 0.0000000000000000
1.4241146986681290 7.8361925108530599 0.0000000000000000
0.9358273284955853 7.8336464117057840 0.0000000000000000
0.8976919071214491 7.7757087782325813 0.0000000000000000
0.9672449268333397 7.7285133648308051 0.0000000000000000
0.8869455427636831 7.5058946423934616 0.0000000000000000
0.8756975904232456 7.8366456850744530 0.0000000000000000
7.8350677895014069 1.3644590299158890 0.0000000000000000
7.7682066800149387 1.3894350479784670 0.0000000000000000
7.8354295409900523 1.4217850722790319 0.0000000000000000
9.0837173596638188 6.4058314629326123 0.0000000000000000
9.1516512682356765 6.4198337413903577 0.0000000000000000
9.1343893294164751 6.4965118721066570 0.0000000000000000
9.3888610847311771 6.5676808262062121 0.0000000000000000
9.3850445391053174 6.3582933266673543 0.0000000000000000
9.3504517717642486 6.7709213771557710 0.0000000000000000
9.2342440004803610 6.9881066404324281 0.0000000000000000
9.1241146986681247 6.3611925108530762 0.0000000000000000
9.0233990830866357 6.7345100669884479 0.0000000000000000
8.1923963381625793 1.1755363657091800 0.0000000000000000
8.2498006458744335 1.2144699654910589 0.0000000000000000
8.2036029373306008 1.2846896302760931 0.0000000000000000
8.2468012002355557 1.1497547438787139 0.0000000000000000
1.2191902187448109 8.1837351533565581 0.0000000000000000
1.2051698722224911 8.2516542338509709 0.0000000000000000
1.1284887301620661 8.2343898236856390 0.0000000000000000
1.2638689205664251 8.2241651141311429 0.0000000000000000
5.8556180530593442 0.6881632448736936 0.0000000000000000
5.9801991785281006 8.7484406395526513 0.0000000000000000
2.8825628125968992 0.8839346964637300 0.0000000000000000
3.2620320689478648 8.4124367134292513 0.0000000000000000
1.9390558830108251 6.3606350749247937 0.0000000000000000
8.4298475674450906 7.6581790125957392 0.0000000000000000
9.2488153601351097 9.4302726390964224 0.0000000000000000
8.9408610279849743 5.9874247198420090 0.0000000000000000
1.0479819324138790 7.6912874016840940 0.0000000000000000
8.1580004143992859 1.3492997351955309 0.0000000000000000
0.8660494269719585 4.5535968631430377 0.0000000000000000
8.1307561155891506 3.1133378012385768 0.0000000000000000
2.5736330114247181 0.4493281063202620 0.0000000000000000
2.2008706823805499 0.3846104263285009 0.0000000000000000
2.9617994359532571 0.4008226504451072 0.0000000000000000
0.9311265404710998 0.5117834324722982 0.0000000000000000
6.5509597387552123 8.3449700565285099 0.0000000000000000
7.8374318361513149 8.3264613484710157 0.0000000000000000
8.1867907674162552 1.6252375140880311 0.0000000000000000
4.5074072548694248 1.0520172109120309 0.0000000000000000
5.4338481005151653 1.4091726239155149 0.0000000000000000
3.9700329577035220 1.4277587642880680 0.0000000000000000
3.2893904526571842 1.9404998849830970 0.0000000000000000
1.4841656519354269 3.1287799814259039 0.0000000000000000
8.3892758678657664 1.8122207411711220 0.0000000000000000
2.4319896219451551 8.4669643938743615 0.0000000000000000
3.0384150830371528 1.2769210517657379 0.0000000000000000
7.4258117735685580 1.2070594642935140 0.0000000000000000
1.6936261517347910 3.5481578440210160 0.0000000000000000
3.5961495921485040 8.3366271141439441 0.0000000000000000
7.7071034250448784 8.2038263667734128 0.0000000000000000
5.5298562358627530 1.1181320418434970 0.0000000000000000
3.9296506152064028 9.1379168107755238 0.0000000000000000
4.0777952789281784 9.2341863840091385 0.0000000000000000
4.2403561678731698 9.4749625555526240 0.0000000000000000
3.9613920813042980 9.5349995950432920 0.0000000000000000
4.5479736144378800 9.4749967724488311 0.0000000000000000
8.4982045959545527 6.0830247743465939 0.0000000000000000
5.4250138404951596 0.8660148309610958 0.0000000000000000
0.6626513609097291 5.4964805840160276 0.0000000000000000
8.5822237986746632 4.5545840943068141 0.0000000000000000
3.8544645526493189 9.2774856684618996 0.0000000000000000
4.5126478759137640 8.9695885449591017 0.0000000000000000
4.5404113994682618 9.1481215909270492 0.0000000000000000
6.2541237070194837 1.0320278200334800 0.0000000000000000
6.2858256492928746 0.9929591901239418 0.0000000000000000
6.2711349349639018 0.9393378559018327 0.0000000000000000
6.3350447396490841 0.8979603109375334 0.0000000000000000
7.7543282908028166 1.3098075218198750 0.0000000000000000
1.3919327781865800 1.9772374227415821 0.0000000000000000
1.1255336154490330 3.7742090850548449 0.0000000000000000
1.0773070998305330 3.7598712268391830 0.0000000000000000
1.0333893396200931 3.7939636733537809 0.0000000000000000
0.9707042493032909 3.7507532138080300 0.0000000000000000
1.8564821768411339 1.3089166534376111 0.0000000000000000
1.8325193130164350 1.2646773221978380 0.0000000000000000
1.7773577725402130 1.2577298341376770 0.0000000000000000
1.7635871304860811 1.1828503872027749 0.0000000000000000
2.1679723855951609 8.6291240917235115 0.0000000000000000
2.2067370218212750 8.6609674375139534 0.0000000000000000
8.6291240917235044 3.4070276144048361 0.0000000000000000
8.6609685295432541 3.3682633612926152 0.0000000000000000
8.3501060991384914 5.2024262566131716 0.0000000000000000
0.5451411078388008 5.7458501024065178 0.0000000000000000
1.8124100784696060 8.1958720456942089 0.0000000000000000
1.7514810110094130 8.4393634682450802 0.0000000000000000
8.3512432118680060 8.3312552900969017 0.0000000000000000
8.4111535884676236 8.2192507688290508 0.0000000000000000
8.5936370325390286 8.1222281310428599 0.0000000000000000
8.5813527613311074 8.0545909332357333 0.0000000000000000
3.2378726192323950 1.5646814564287479 0.0000000000000000
1.6418241138574119 7.8403802666498947 0.0000000000000000
8.5573332045063815 5.4095242079476158 0.0000000000000000
0.6977933145059045 6.7374323464514960 0.0000000000000000
5.2447340461027068 9.6780742166440898 0.0000000000000000
5.3961591009074654 9.3735665596520725 0.0000000000000000
5.1192990710778936 9.4497569314038614 0.0000000000000000
4.8837833584248376 9.7031169154851291 0.0000000000000000
4.8557252214706201 9.4115941636205882 0.0000000000000000
6.0333151108582150 8.5878174007736092 0.0000000000000000
0.8717198307614444 8.7571669025873842 0.0000000000000000
0.9610401743027369 2.5776629547252381 0.0000000000000000
5.0811267820431860 1.6487029732067000 0.0000000000000000
6.2219385083638059 8.4146068745901843 0.0000000000000000
3.4243248110960089 8.3634377287940573 0.0000000000000000
1.4318449465562990 8.0808590961901228 0.0000000000000000
1.3659046751256629 8.0732497835153385 0.0000000000000000
1.3334514364429220 8.1009326211998438 0.0000000000000000
3.2194244532290850 8.8391508665055341 0.0000000000000000
3.2769631157214261 8.8182447158757871 0.0000000000000000
3.2104395017515448 8.9317847920548381 0.0000000000000000
3.2569378761840371 9.0064332991484211 0.0000000000000000
3.3193116603090549 9.0534597479262526 0.0000000000000000
3.2962438672247489 8.7806075857678323 0.0000000000000000
1.3603131786909279 5.2287554271784558 0.0000000000000000
1.3023042609201521 5.1964910940937452 0.0000000000000000
1.2617276138440701 5.2096473848631710 0.0000000000000000
0.9262539628494894 2.2584030454225230 0.0000000000000000
0.9521570603994474 2.2029341861149789 0.0000000000000000
0.9854027196548714 2.3302584424647810 0.0000000000000000
1.0710665011016161 2.3501635921606878 0.0000000000000000
1.1484241476506580 2.3393113872635820 0.0000000000000000
0.9391771406102191 2.1626871660568279 0.0000000000000000
1.3737460371504919 4.7915969545774484 0.0000000000000000
1.3478429396005469 4.8470658138849814 0.0000000000000000
1.3145972803450969 4.7197415575352091 0.0000000000000000
1.2150878709824560 4.6773624010375494 0.0000000000000000
1.3608228593898650 4.8873128339431684 0.0000000000000000
8.8607989806805527 4.6942693868572114 0.0000000000000000
8.8816105423921954 4.7527578368600496 0.0000000000000000
8.7682080432575198 4.6854173494126448 0.0000000000000000
8.6936321044613383 4.7304601933666834 0.0000000000000000
8.6487670069865512 4.7914823160106312 0.0000000000000000
8.9196955936928681 4.7702444184848236 0.0000000000000000
8.7543563576970200 4.4994685813424304 0.0000000000000000
8.8608491334944368 1.7444244532290649 0.0000000000000000
8.8817552841241536 1.8019631157213829 0.0000000000000000
8.7728720909817888 1.7384816027504799 0.0000000000000000
8.9193924142322079 1.8212438672246820 0.0000000000000000
6.7037554321557291 8.6396868306209225 0.0000000000000000
6.6714910945169494 8.6976957398715520 0.0000000000000000
6.6846473848852286 8.7382723861970266 0.0000000000000000
2.4543962815752098 1.4346881383568040 0.0000000000000000
4.7016388299912224 9.2774214104951209 0.0000000000000000
6.9920451960778971 8.7960171311295845 0.0000000000000000
1.0429803654910070 6.1885441528242273 0.0000000000000000
0.8569496734914859 6.0364191925963517 0.0000000000000000
0.7065156924441669 6.1658367555993809 0.0000000000000000
1.0850477981107549 6.2348230417965924 0.0000000000000000
0.9539864741411794 6.2157788327484633 0.0000000000000000
0.9022428187896812 6.2920818922891710 0.0000000000000000
1.1270309549637880 6.2383562062855020 0.0000000000000000
7.9607095754343966 0.8442766815242562 0.0000000000000000
7.9817020030444006 0.9026024423967921 0.0000000000000000
7.8728459804815163 0.8384694017227640 0.0000000000000000
8.0195010725804199 0.9219557846115227 0.0000000000000000
0.9440991275713817 5.2313733140233287 0.0000000000000000
0.8887905361222053 5.1679587804209657 0.0000000000000000
1.0085852121377010 5.1886996954377462 0.0000000000000000
4.7686266696019786 0.9440991363238372 0.0000000000000000
4.8320412176296728 0.8887905371641608 0.0000000000000000
4.8113002697387373 1.0085852307512579 0.0000000000000000
8.7160997477537787 6.1975851092629632 0.0000000000000000
8.7302560224025552 6.2725886063265692 0.0000000000000000
4.5755570318511403 0.8663962756678728 0.0000000000000000
6.2671644572149212 8.6142624173836104 0.0000000000000000
6.2078695946813136 8.6797720498267754 0.0000000000000000
6.1777603015418752 8.7667467612394177 0.0000000000000000
8.5526716534965264 6.5768021368543854 0.0000000000000000
8.5914449883136381 6.6567125233018416 0.0000000000000000
8.6553134460551870 6.7000174513382298 0.0000000000000000
1.8421644572149589 8.6142624173835927 0.0000000000000000
1.7820624742566931 8.6799626320628125 0.0000000000000000
1.7623267541802261 8.7726559559457016 0.0000000000000000
8.6142624173835944 3.7328355427850402 0.0000000000000000
8.6797720498267807 3.7921304053186540 0.0000000000000000
8.7535546935210107 3.8068669805859492 0.0000000000000000
8.5526716534965121 2.1518021368543412 0.0000000000000000
8.5914526435132395 2.2314748146139252 0.0000000000000000
8.6709828916594489 2.2921171993284331 0.0000000000000000
1.1615858551458771 1.7340426948320129 0.0000000000000000
1.1171061522447330 1.7911574208999901 0.0000000000000000
1.0841616722315970 1.8251830299940450 0.0000000000000000
1.0485825685439820 1.7702160155435520 0.0000000000000000
0.9551007347504941 1.8026235151580861 0.0000000000000000
8.6142624173834577 5.2078355427849843 0.0000000000000000
8.6918327135489850 5.2663636679106292 0.0000000000000000
8.7778707572147283 5.2419348863000579 0.0000000000000000
8.8302299414446015 5.2471601528557281 0.0000000000000000
1.2882579087427111 7.6677721286394487 0.0000000000000000
1.1952714347648301 7.6385301191450381 0.0000000000000000
1.1216275311005981 7.7063649212708221 0.0000000000000000
4.7921644572150113 8.6142624173834861 0.0000000000000000
4.7295389127476710 8.6892088737354278 0.0000000000000000
4.7525103215903322 8.7817197382316596 0.0000000000000000
4.7672116370152304 8.8364434431471341 0.0000000000000000
7.6363464350764616 8.8302702784260898 0.0000000000000000
7.6407409410229734 8.9185203831468929 0.0000000000000000
7.6822881063958954 8.9827259337688741 0.0000000000000000
7.4739003634374752 9.1324945234380195 0.0000000000000000
7.3961918355697494 9.3866910333162359 0.0000000000000000
7.6407379466721750 9.3279451145342520 0.0000000000000000
6.7098586575460084 9.0583567182317051 0.0000000000000000
6.8123463641407476 9.2927438657163162 0.0000000000000000
6.9938770224662443 9.5528400133299272 0.0000000000000000
6.6119803037930840 9.5747481661681650 0.0000000000000000
6.6437080340583909 9.1167362179427478 0.0000000000000000
6.5686668185681230 9.1321797934120905 0.0000000000000000
1.0473800097549510 8.2467157708291356 0.0000000000000000
0.9638756266665494 8.1989360792755690 0.0000000000000000
0.9504590355100188 8.1094625375998586 0.0000000000000000
9.1634005977385797 2.0312602989961790 0.0000000000000000
9.3975022550754268 2.1198663036603751 0.0000000000000000
9.3506181262561210 2.3464114416859010 0.0000000000000000
9.2056724724615897 2.5068808028699952 0.0000000000000000
9.3931751241537000 1.9670349465633601 0.0000000000000000
9.0411548584828356 2.6263836421404601 0.0000000000000000
9.1775742870292341 2.7358034128203230 0.0000000000000000
9.3344634150425154 2.9149764900106119 0.0000000000000000
9.4874945379522497 2.5675973310994200 0.0000000000000000
9.1095100669884221 2.2233990830866599 0.0000000000000000
8.9024125935585374 2.5649649666685148 0.0000000000000000
9.1496356320163414 2.1272173516819182 0.0000000000000000
9.0725344156103809 2.1723182742153142 0.0000000000000000
9.0394507044787904 2.2077651589174878 0.0000000000000000
9.0539203357904920 2.2608070139064509 0.0000000000000000
8.9982675620046422 2.3090676635249578 0.0000000000000000
8.9209283543291011 2.3692335626485339 0.0000000000000000
9.1634006010539721 4.9812602880667960 0.0000000000000000
9.1587481602587069 5.0689060082849711 0.0000000000000000
9.1172777381966821 5.1310438075280747 0.0000000000000000
9.1634005785066996 3.5062603623952100 0.0000000000000000
9.3877964306157420 3.5774003807280179 0.0000000000000000
9.3562229196208619 3.8298954521655788 0.0000000000000000
9.1095100669884204 3.6983990830866569 0.0000000000000000
9.1829785724210122 3.9697994021442620 0.0000000000000000
9.3706995241612852 4.0942275338922416 0.0000000000000000
9.1496356300539183 3.6022173581511989 0.0000000000000000
9.0725344155252525 3.6473182744959880 0.0000000000000000
9.0394507044645795 3.6827651589642749 0.0000000000000000
9.0539203357875895 3.7358070139157862 0.0000000000000000
8.9993567475938097 3.7839976647532572 0.0000000000000000
8.9156184279664785 3.8317272683452668 0.0000000000000000
8.8381420259435295 3.8349377639435480 0.0000000000000000
1.8416432505374440 9.0848585991171884 0.0000000000000000
1.5909749051910891 9.1439291581390219 0.0000000000000000
1.7829581721204679 9.0195940039200924 0.0000000000000000
1.7686697372164191 8.9461965486510167 0.0000000000000000
9.1634005785067281 7.9312603623951361 0.0000000000000000
9.1586179112847645 8.0181501146098988 0.0000000000000000
9.1167372940090896 8.0791306868482042 0.0000000000000000
0.8676269688803223 6.6122463767179616 0.0000000000000000
0.8383847053689883 6.5294919457804532 0.0000000000000000
0.8529265887942886 6.4562266814296017 0.0000000000000000
0.6178309495511080 6.3674644914291871 0.0000000000000000
0.8593787585754998 6.3680109697872114 0.0000000000000000
3.5062602989961160 8.5365994022613716 0.0000000000000000
3.6022173516818872 8.5503643679835992 0.0000000000000000
3.6473182742152952 8.6274655843895225 0.0000000000000000
3.6827651589175892 8.6605492955212604 0.0000000000000000
3.7358070139064710 8.6460796642096991 0.0000000000000000
3.7832136917314809 8.7007204670089422 0.0000000000000000
3.8319487153198182 8.7813045433027739 0.0000000000000000
3.8047043762027299 8.8523965618776170 0.0000000000000000
3.7568691630200139 8.8271628807389018 0.0000000000000000
1.0127536232820229 4.7176269688803334 0.0000000000000000
1.1061152244078509 4.6847853368383987 0.0000000000000000
5.2823730311196639 1.0127536232820180 0.0000000000000000
5.3116285502924931 1.0952087510465049 0.0000000000000000
5.3014078334639674 1.1956674186386760 0.0000000000000000
2.2583567494625192 0.9151414008827170 0.0000000000000000
2.3133012051088540 0.9786267566082041 0.0000000000000000
2.3433806639062751 1.0803370562125560 0.0000000000000000
6.7573730311196698 1.0127536232820400 0.0000000000000000
6.7858116512405973 1.0962491663565930 0.0000000000000000
6.7757843206842807 1.1987570931849141 0.0000000000000000
6.9643373762627281 1.0499223950996059 0.0000000000000000
3.2282842712005211 1.0473799585416530 0.0000000000000000
3.2661230876635612 0.9681863364263862 0.0000000000000000
3.3282158634124301 0.9266485446849764 0.0000000000000000
1.4467157287995269 6.5776200414582986 0.0000000000000000
1.3989360749868569 6.6611243785592800 0.0000000000000000
1.3094625374137601 6.6745409647166571 0.0000000000000000
9.1467157287995740 6.5776200414582471 0.0000000000000000
9.0972774221625770 6.6610051281183464 0.0000000000000000
9.0087858146580366 6.6731675842114768 0.0000000000000000
8.9646555157346217 6.6932556471589528 0.0000000000000000
8.9577254728451052 6.7477972194948768 0.0000000000000000
8.8888735268221026 6.7714389942498281 0.0000000000000000
8.7932440787035056 6.7834901305278779 0.0000000000000000
8.7204366131468181 6.7568073062469614 0.0000000000000000
5.2083567494624994 8.6151414008826794 0.0000000000000000
5.2670418278795381 8.6804059960798465 0.0000000000000000
5.2816558669464966 8.7536680654275028 0.0000000000000000
7.9312603623950144 8.5365994214932162 0.0000000000000000
8.0193164011194664 8.5420944188706294 0.0000000000000000
8.0832988043633947 8.5842363124406429 0.0000000000000000
8.1043525830059018 1.3352260990765150 0.0000000000000000
4.9070254172039656 0.6148295755755344 0.0000000000000000
5.4865803262936517 1.2585394956774090 0.0000000000000000
2.3322263297374191 1.2880464332465711 0.0000000000000000
2.3501218028864739 1.1922436270574450 0.0000000000000000
2.2977391379413672 1.1259593116467390 0.0000000000000000
2.2793259164081521 1.0859571910830821 0.0000000000000000
3.6269505825194508 1.4471777206539860 0.0000000000000000
3.7065038134663060 1.4084261710364270 0.0000000000000000
3.7671126729410709 1.3289792795622730 0.0000000000000000
0.9355129757700179 5.9096969667429624 0.0000000000000000
1.6588010934529389 6.2664952389906006 0.0000000000000000
8.8715880034551589 2.3167109566910828 0.0000000000000000
8.8240487699337482 2.3591094261826120 0.0000000000000000
5.2307718336663491 1.6042594863809809 0.0000000000000000
7.4594604174804822 1.0737479415046380 0.0000000000000000
8.0630342071136347 1.3642696117441679 0.0000000000000000
8.6350643530612423 8.0633259080679522 0.0000000000000000
8.6609349483342370 8.1091137201178789 0.0000000000000000
8.6434263348635838 8.1753050782361036 0.0000000000000000
8.7218808755016468 8.2043053649492261 0.0000000000000000
8.7417005703007646 8.1562157315661779 0.0000000000000000
8.7846434203440253 8.2538948064288391 0.0000000000000000
5.1133259080679281 1.3649356469386851 0.0000000000000000
5.1591137201177748 1.3390650516657121 0.0000000000000000
5.2253050782356256 1.3565736651363460 0.0000000000000000
5.2527764930719014 1.2694162171481600 0.0000000000000000
5.2050300697190366 1.2577103674570711 0.0000000000000000
6.5883259080679268 1.3649356469386871 0.0000000000000000
6.6341137201177922 1.3390650516657170 0.0000000000000000
6.7003050782357096 1.3565736651363620 0.0000000000000000
6.7283288700102348 1.2713908534663350 0.0000000000000000
6.6796501840718747 1.2538302683685949 0.0000000000000000
8.7617880492721838 2.2987527205557399 0.0000000000000000
1.2546761204345060 2.5358380886296419 0.0000000000000000
2.5719860686678970 1.1131536665231840 0.0000000000000000
9.1430503265084919 3.0864191925963360 0.0000000000000000
9.0775637977844781 5.2101232353221061 0.0000000000000000
9.0204964301683734 5.2625316681145291 0.0000000000000000
8.9471302512621040 5.2791994005228897 0.0000000000000000
8.8644046856552006 5.3066920738212691 0.0000000000000000
6.4873323399846408 9.1594914691470031 0.0000000000000000
6.4053324877471303 9.1573433438728031 0.0000000000000000
6.3417884600599157 9.1147528824945407 0.0000000000000000
6.2683216057723943 9.0770496960429572 0.0000000000000000
6.2862052102873678 9.0103319571367564 0.0000000000000000
6.2584928139003129 8.9648709158000432 0.0000000000000000
6.2027760670883003 8.9577178044409624 0.0000000000000000
6.1852544309247692 8.8882557345257389 0.0000000000000000
1.7405085308529029 8.8623323399847322 0.0000000000000000
1.8039562209697180 8.8253965008761650 0.0000000000000000
1.8218923493310211 8.7841383066542278 0.0000000000000000
9.0775637977843431 8.1601232353222226 0.0000000000000000
9.0211077319360911 8.2116665060004550 0.0000000000000000
8.9473918249387676 8.2291683903752819 0.0000000000000000
8.8673340441890218 8.2597826773124012 0.0000000000000000
8.9510095702809362 8.4389146927471046 0.0000000000000000
3.3951691457992430 0.8687865483625683 0.0000000000000000
3.4670451389943659 0.8428098519461527 0.0000000000000000
3.5409902900049151 0.8556799342005926 0.0000000000000000
3.6290577812399731 0.8611410356644182 0.0000000000000000
3.6361433411869619 0.9307323086896928 0.0000000000000000
3.6807467086755019 0.9612041256425062 0.0000000000000000
3.7352161701732860 0.9463430815193541 0.0000000000000000
3.7839832572773990 1.0017700690397020 0.0000000000000000
3.8442335626486952 1.0790716456712179 0.0000000000000000
3.7917109566910869 1.1284119965449100 0.0000000000000000
3.8341094261826369 1.1759512300663191 0.0000000000000000
3.7737469106033501 1.2382023091848120 0.0000000000000000
5.3094914691471340 8.8376676600152120 0.0000000000000000
5.3061971047401544 8.9150787408598475 0.0000000000000000
5.2630618916425291 9.0057242839380081 0.0000000000000000
8.1601232353224926 8.6224362022157859 0.0000000000000000
8.2123512988345109 8.6791028734949887 0.0000000000000000
8.2426773482496927 8.7763867189785980 0.0000000000000000
2.4688540574473619 0.8519329625801371 0.0000000000000000
7.4611633746303720 8.9740957969046633 0.0000000000000000
8.9209414374994314 1.5236165390905181 0.0000000000000000
6.3806099127112246 8.3672390280428921 0.0000000000000000
4.7150821486311951 8.8430809903190006 0.0000000000000000
4.7027662875259546 8.9268143738716255 0.0000000000000000
4.7212625738350500 9.0147597579613468 0.0000000000000000
4.7830379586263918 9.0436724661942716 0.0000000000000000
4.8126837702952576 9.1182876286873658 0.0000000000000000
4.8822360457196234 9.0930925564900011 0.0000000000000000
4.9078040987766061 9.1483094310248561 0.0000000000000000
4.9832370533457606 9.1389152981424502 0.0000000000000000
5.0552826655372316 9.1718926189281369 0.0000000000000000
5.1012606557313500 9.1227258805119824 0.0000000000000000
5.1744229418202590 9.1206574663653726 0.0000000000000000
5.2061077447366344 9.0584630138614273 0.0000000000000000
7.7149074583192530 9.0581889759988066 0.0000000000000000
7.7820075119631973 9.1165384433259327 0.0000000000000000
7.8576208703491348 9.1335014663664218 0.0000000000000000
7.9344429330398976 9.1644135220628602 0.0000000000000000
8.0276784153450400 9.1508134492806938 0.0000000000000000
8.0767201937596269 9.0732830659946728 0.0000000000000000
8.1047072872060877 9.0239044215551889 0.0000000000000000
8.1463213343775198 9.0560374159389880 0.0000000000000000
8.2143983391138953 9.0052174033630497 0.0000000000000000
8.2635998663327719 8.9305943820907938 0.0000000000000000
8.2334818755921297 8.8613971190140450 0.0000000000000000
8.4933330085219083 8.3380098347080356 0.0000000000000000
1.6402048601786119 3.6743214413712080 0.0000000000000000
0.4576637533812853 2.3367750630719528 0.0000000000000000
9.2541611608689944 4.3674762916258176 0.0000000000000000
8.4454047824326999 5.2928856046070978 0.0000000000000000
7.7001703178549379 8.8738444818470938 0.0000000000000000
1.2252341157597311 7.7065548960507186 0.0000000000000000
8.6910936307419728 5.1906018781062961 0.0000000000000000
4.8038739166090796 8.6873575452843319 0.0000000000000000
8.6297993488085236 2.1673561121322171 0.0000000000000000
8.6297873556624438 6.5927285224099306 0.0000000000000000
8.6902043324215974 3.7185168571944152 0.0000000000000000
1.8562376257510960 8.6891585660789232 0.0000000000000000
6.2814831428055644 8.6902043324216010 0.0000000000000000
9.1056566187844794 8.3983145695923227 0.0000000000000000
3.6423913885942460 1.3701663672877860 0.0000000000000000
2.2874938008496000 1.2239810891719400 0.0000000000000000
5.9874185059722436 1.2577331338481510 0.0000000000000000
6.2353846642699633 8.8618409478537234 0.0000000000000000
8.9606390438685590 2.2571392496755611 0.0000000000000000
8.8728371192611046 6.7068691630200128 0.0000000000000000
6.3651687657690914 0.9445202132494248 0.0000000000000000
1.8181308369799860 1.1728371192610920 0.0000000000000000
8.9598312342310269 3.7304797867505122 0.0000000000000000
3.7321223684260598 1.0393684823403440 0.0000000000000000
1.0021920243727820 3.7051045394117841 0.0000000000000000
3.7306891496472230 8.7384352206146936 0.0000000000000000
1.2195113076530579 6.9732632132545209 0.0000000000000000
7.6631720689030578 0.6964657801551167 0.0000000000000000
7.8379068843077464 0.5990134454701423 0.0000000000000000
7.9228193648401781 0.3258984159331371 0.0000000000000000
2.2539872680865560 8.7417909917436027 0.0000000000000000
8.7417942260739334 3.3210131856408980 0.0000000000000000
8.8255076923843969 6.2431664320191036 0.0000000000000000
3.5478371192610898 1.3818691630200139 0.0000000000000000
1.8316218196651179 1.0819928574697260 0.0000000000000000
2.2301045394117840 1.2978079756272169 0.0000000000000000
2.2713947534466650 8.9177943351148397 0.0000000000000000
3.7479585611188839 8.9176337400972621 0.0000000000000000
1.1697450978379240 4.7303258825708570 0.0000000000000000
1.8223114141172989 0.4032435410923473 0.0000000000000000
1.2544686303780030 3.0298085100459149 0.0000000000000000
5.4974400676395616 8.9996496342191854 0.0000000000000000
8.4760504967519505 9.0112226109772564 0.0000000000000000
8.5883616020073923 2.4806439412046362 0.0000000000000000
6.4199343865616676 0.5669130345561996 0.0000000000000000
7.8823662599026818 8.6270414388811343 0.0000000000000000
8.6455916758280296 4.8901432987178692 0.0000000000000000
5.1098312342308851 8.6445202132494110 0.0000000000000000
1.3810001936470071 7.9747012745202586 0.0000000000000000
1.0030569877241660 7.7723009143308479 0.0000000000000000
1.3818691630200131 6.4978371192610958 0.0000000000000000
9.0818691630200092 6.4978371192611188 0.0000000000000000
6.6551045394117976 1.0021920243727980 0.0000000000000000
3.2931308369799872 1.1271628807388980 0.0000000000000000
6.5862209489380668 8.6460364176005911 0.0000000000000000
0.9470455003875894 1.9394002290542420 0.0000000000000000
2.1598312342309631 0.9445202132494528 0.0000000000000000
1.3539636253267311 5.1112209259929173 0.0000000000000000
1.2176337400972770 2.2729585611188790 0.0000000000000000
1.9401687657689770 9.0554797867505155 0.0000000000000000
5.1801045394117748 1.0021920243727711 0.0000000000000000
9.0729585611188703 7.8823662599026987 0.0000000000000000
1.0021920243727711 4.8198954605882252 0.0000000000000000
3.4573662599026989 8.6270414388811290 0.0000000000000000
3.4151687657689771 9.0554797867505155 0.0000000000000000
0.9698954605882379 6.6228079756272464 0.0000000000000000
7.8048113513301756 0.9701891077585165 0.0000000000000000
8.1535202232292878 1.2583113469218981 0.0000000000000000
9.0729585611188757 3.4573662599027171 0.0000000000000000
9.0729585611188632 4.9323662599026799 0.0000000000000000
8.7048123832513689 1.8701843553728319 0.0000000000000000
9.0729585611188739 1.9823662599027110 0.0000000000000000
6.6804797867504897 8.9598312342310695 0.0000000000000000
1.1271628807387710 8.1818691630200000 0.0000000000000000
1.5528307474082270 6.7656662999838186 0.0000000000000000
7.9748076614660697 8.6017014117047701 0.0000000000000000
9.0744148532755879 6.5937079197190194 0.0000000000000000
1.3746123119451010 6.5937221162000856 0.0000000000000000
5.1935940642667688 8.6905800197580945 0.0000000000000000
3.5487919627325608 8.5972401535770953 0.0000000000000000
5.2398857460212822 1.0763314758758640 0.0000000000000000
2.2429047552457542 0.9892857806789002 0.0000000000000000
9.0994145722054611 7.9729804792677426 0.0000000000000000
1.0755388138620761 4.7558756376321902 0.0000000000000000
3.3036299021820490 1.0321497916347930 0.0000000000000000
0.9101350211817058 6.5481996158197093 0.0000000000000000
6.7136059375066566 1.0779614598616520 0.0000000000000000
9.1027598464228312 2.0737919627325461 0.0000000000000000
1.0312778905188991 8.1746123174591627 0.0000000000000000
9.1027598438997188 3.5487919710502029 0.0000000000000000
9.0996186289313741 5.0241647126920181 0.0000000000000000
1.8564059357332230 9.0094199802418533 0.0000000000000000
6.6330319607918966 9.0431152753658299 0.0000000000000000
0.9208193098217731 7.9718644497656648 0.0000000000000000
7.9718197440403777 1.3792942087552000 0.0000000000000000
7.7270414388811171 8.7823662599027355 0.0000000000000000
4.8901687657691157 8.6445202132494092 0.0000000000000000
2.1585154573982819 9.0541836832709954 0.0000000000000000
3.6335154573982869 9.0541836832709919 0.0000000000000000
1.2978079756272001 7.7698954605882014 0.0000000000000000
8.1541836832709986 1.0414845426017521 0.0000000000000000
1.1278825026957120 3.2948318064513309 0.0000000000000000
8.9971140581450069 6.2966070772015579 0.0000000000000000
4.9796332626151276 0.9197433206182123 0.0000000000000000
8.6445202132494110 5.1098312342308851 0.0000000000000000
0.9474609336486588 3.6314157537059648 0.0000000000000000
1.9414845426017151 0.9458163167290256 0.0000000000000000
2.0721174973042942 1.3801681935486629 0.0000000000000000
1.2162522854164430 1.8282279236654120 0.0000000000000000
1.3701025115855630 2.1175035355210410 0.0000000000000000
3.3778859418550260 1.3283929227984570 0.0000000000000000
6.4541930083136352 0.9221547561781316 0.0000000000000000
6.4968197440404190 1.3792942087551670 0.0000000000000000
8.9176476512586422 3.3038883171615572 0.0000000000000000
5.0218197440404353 1.3792942087551601 0.0000000000000000
1.2971140581449470 6.2966070772015303 0.0000000000000000
8.6207057912448413 7.9718197440404346 0.0000000000000000
0.9197433206182206 5.0203667373848813 0.0000000000000000
1.1718644497657269 6.7041806901781804 0.0000000000000000
8.6181308369799829 2.0728371192610511 0.0000000000000000
7.7208193098218310 1.1718644497657380 0.0000000000000000
8.6445202132494217 3.6348312342309059 0.0000000000000000
1.9401687657690900 8.6445202132494234 0.0000000000000000
8.6181308369799847 6.4978371192610567 0.0000000000000000
6.3651687657691429 8.6445202132493968 0.0000000000000000
8.9176476512585658 7.7288883171615810 0.0000000000000000
1.2152100714131779 5.9684171176777454 0.0000000000000000
6.1790851758269412 9.6467898734650603 0.0000000000000000
6.3308394490534852 9.4231545640740126 0.0000000000000000
1.1473801518781279 2.9544069912508730 0.0000000000000000
1.6353123606524760 5.0889057817854706 0.0000000000000000
6.3311073830184927 1.6436831678354811 0.0000000000000000
4.0308979935076010 8.7848156156833319 0.0000000000000000
8.0235350696504124 3.4465066896281229 0.0000000000000000
0.6051557684067959 5.9492628707638113 0.0000000000000000
7.9733961073995978 9.1024579706611455 0.0000000000000000
9.0088241656235617 5.1905825904916716 0.0000000000000000
5.2470678866414859 8.8724565975840530 0.0000000000000000
3.4501446488809151 0.9138495220471189 0.0000000000000000
6.4503159816794113 9.0965779919691894 0.0000000000000000
9.0092910338309569 8.1391632132710079 0.0000000000000000
8.1416083873083913 8.6906500273031071 0.0000000000000000
1.2833337887015031 7.4630998508631263 0.0000000000000000
7.7916243886764596 9.0407091594559503 0.0000000000000000
6.6401021291749718 0.2917943333285118 0.0000000000000000
2.1103070586196302 1.6556216151034671 0.0000000000000000
1.1071066131966221 2.5578349333852279 0.0000000000000000
8.3206878154283519 7.9194356340059260 0.0000000000000000
2.1450738254166080 8.3720316028156425 0.0000000000000000
3.0955047268947968 9.1764031408420355 0.0000000000000000
0.4515768329909487 4.5704136010525609 0.0000000000000000
6.9529899790598728 8.9590629767574654 0.0000000000000000
7.2812507934470956 9.7416802886780758 0.0000000000000000
7.6401187848839527 9.6151707847181385 0.0000000000000000
0.5425451896896104 9.2249617820305829 0.0000000000000000
8.4263842275266576 8.5903075985970982 0.0000000000000000
1.5440542297841930 8.8036872664815924 0.0000000000000000
8.3730154826087357 3.4242982367400798 0.0000000000000000
2.5315056306311230 1.2366007708019440 0.0000000000000000
8.7413860316521337 7.7459838016997704 0.0000000000000000
8.6900346721449750 7.7603670874561423 0.0000000000000000
8.6463315229123996 7.7063912067489477 0.0000000000000000
0.9739441772131043 3.3793379479419250 0.0000000000000000
0.9436229524786872 3.4036762660036590 0.0000000000000000
0.8800475118374921 3.3899614451200821 0.0000000000000000
8.3775634808580364 2.2817293475137759 0.0000000000000000
1.0409449161784829 5.9938822184622156 0.0000000000000000
1.4189570346888780 5.4152692618045410 0.0000000000000000
2.2520010691210750 1.6353842919142789 0.0000000000000000
4.7899079898552648 1.3507089772813761 0.0000000000000000
1.3600920101447240 3.3242910227186249 0.0000000000000000
1.4158307032841260 3.6422911435394512 0.0000000000000000
6.2649079898553062 1.3507089772813790 0.0000000000000000
4.7899438887306092 1.2624877085225310 0.0000000000000000
1.3600561112693630 3.4125122914774662 0.0000000000000000
1.3343100852128820 3.6760193594843860 0.0000000000000000
6.2649438887306941 1.2624877085225570 0.0000000000000000
1.3042999652732441 1.5628901091746290 0.0000000000000000
8.8297324349432884 8.1965060497168700 0.0000000000000000
8.7388335509744977 4.0100948325500818 0.0000000000000000
1.4035267196460539 1.6243165437797309 0.0000000000000000
9.2035133462115848 9.0642485892838547 0.0000000000000000
4.9129907453480213 0.8545346361147790 0.0000000000000000
0.8545346359411232 5.0870092543270857 0.0000000000000000
1.0377812383189100 5.4763092726778320 0.0000000000000000
0.9474522890812778 0.7890335538922100 0.0000000000000000
5.1078358919738669 8.3733205790987171 0.0000000000000000
0.7182025079023802 1.7445728740530679 0.0000000000000000
2.5329084275742102 9.0016467347660942 0.0000000000000000
3.0300564970792840 1.6608463126671680 0.0000000000000000
1.3476518295264390 6.9683819079223106 0.0000000000000000
1.6318319654984621 1.8417755256327550 0.0000000000000000
3.6825295812073282 9.7267881794289348 0.0000000000000000
0.9257441149424810 6.3579560963531243 0.0000000000000000
0.6509522855535230 3.4185424586510300 0.0000000000000000
8.8713517607008932 3.7728991772517730 0.0000000000000000
8.7752871444754454 6.7133684759991130 0.0000000000000000
8.6126603850474908 8.6031259483534477 0.0000000000000000
0.6605226833298652 6.5660065867220556 0.0000000000000000
1.5637366809625191 1.0160523780043400 0.0000000000000000
8.4444216797523950 6.2034120228184353 0.0000000000000000
6.7941194087518726 1.5371534313054800 0.0000000000000000
0.7314964645512685 8.5418095410241914 0.0000000000000000
0.5270521573713076 8.3978784126506163 0.0000000000000000
2.4993831940216231 9.6214063711390789 0.0000000000000000
8.0781033652425336 3.2394313782763660 0.0000000000000000
4.1627868942981072 0.8591986288538895 0.0000000000000000
4.1195791241096247 0.6269451157507220 0.0000000000000000
1.5831401751499119 5.2488478444378703 0.0000000000000000
8.3679738009922655 6.3959113050542147 0.0000000000000000
4.7176982147398210 0.6761095787719481 0.0000000000000000
1.5793840666949110 8.9514749717773014 0.0000000000000000
9.4623104645290894 1.4329002223454090 0.0000000000000000
1.3609425056707620 3.6377511183263822 0.0000000000000000
1.3348926525912961 3.3732625214382841 0.0000000000000000
6.2901073474086990 1.3017374785616980 0.0000000000000000
4.8151073474087323 1.3017374785617311 0.0000000000000000
1.8804696057581409 6.5729358977708996 0.0000000000000000
5.4714325275495739 8.7562262398853168 0.0000000000000000
8.8479204446949105 5.5216749268373304 0.0000000000000000
7.1630574122852897 9.3733791416485914 0.0000000000000000
8.3728584033500422 3.6347239489907501 0.0000000000000000
9.3096106121618938 8.2571019928075522 0.0000000000000000
2.6967076242066899 9.3739676633162663 0.0000000000000000
2.4208506399512268 9.2976744798521835 0.0000000000000000
5.7919315127456166 9.3942955071180414 0.0000000000000000
9.0743817754257314 6.9501762504503706 0.0000000000000000
4.6646278673848078 8.4744932281217942 0.0000000000000000
3.0719815331259248 0.8384238656777447 0.0000000000000000
8.3711016180368674 7.8033228685859628 0.0000000000000000
3.9967786724268799 8.9377266356790788 0.0000000000000000
8.0623142364627327 8.3717987969081005 0.0000000000000000
9.0941849266494774 5.5446284738979656 0.0000000000000000
8.1818697121115402 8.8711217719415316 0.0000000000000000
4.8208517472462677 8.9986286734237861 0.0000000000000000
5.4269639529567479 9.1373477822398126 0.0000000000000000
0.6144149024405576 1.1699877450762759 0.0000000000000000
1.0305438098720969 8.4335515739598463 0.0000000000000000
0.4414283615666585 7.7253433306897143 0.0000000000000000
4.4461524325698072 0.4886924800488318 0.0000000000000000
1.0500706622675300 1.5665953507045600 0.0000000000000000
6.3940636610472588 0.8613886516200913 0.0000000000000000
0.9143308783748172 3.7102222084123508 0.0000000000000000
8.9473720780290478 5.4871031966206623 0.0000000000000000
3.6264118171839539 1.7960985324732210 0.0000000000000000
1.2385159585556340 5.4651340182803976 0.0000000000000000
1.7524735363386330 1.1143547330065180 0.0000000000000000
4.9806987409028682 9.0830913790028927 0.0000000000000000
5.0704237572029420 9.0723775968783968 0.0000000000000000
0.9875708880911285 1.8517166259786699 0.0000000000000000
0.3848427222839162 1.9911102317044349 0.0000000000000000
0.6231475747787700 1.9294405023688810 0.0000000000000000
1.5404583734002391 7.6857190537238544 0.0000000000000000
8.8725143342131485 2.2787030804772570 0.0000000000000000
3.7537030804772500 1.1274856657868839 0.0000000000000000
4.8951435893523936 9.0533484069865207 0.0000000000000000
8.7746787949049718 4.7516992630371133 0.0000000000000000
1.0276850000096951 2.2788352697698890 0.0000000000000000
1.2723149999903061 4.7711647302301214 0.0000000000000000
3.2766992630371812 8.9253212050948854 0.0000000000000000
8.7762994510702175 1.8040693077775229 0.0000000000000000
0.9854360359189197 6.2744782295824901 0.0000000000000000
7.8763044920457146 0.9041009655364974 0.0000000000000000
3.9492975688118999 1.6597559186818560 0.0000000000000000
7.6870532114230379 8.4542553608291335 0.0000000000000000
1.3106674766866160 4.5271682052272588 0.0000000000000000
1.4222566250579729 3.9205157555669201 0.0000000000000000
1.1707318537116480 4.7707893030712212 0.0000000000000000
1.8048908268977379 1.5783405107464510 0.0000000000000000
2.4659049163036149 9.1284015256895081 0.0000000000000000
2.5145661840207172 8.7575920405318826 0.0000000000000000
0.7257574256410466 5.2892315551876070 0.0000000000000000
6.1956914239504757 1.5441781116477411 0.0000000000000000
0.8955557895257920 1.6157513286525640 0.0000000000000000
3.1227678954807279 1.4103382771329420 0.0000000000000000
8.9935212948477350 3.0389498921916500 0.0000000000000000
1.5905388464609009 4.7658421558892918 0.0000000000000000
2.1564212235296720 0.6409709670108987 0.0000000000000000
3.3506977078507192 2.0535048127940660 0.0000000000000000
8.4278999397220531 3.0128779864987738 0.0000000000000000
1.5436340019519710 8.6663187757835658 0.0000000000000000
7.4729156238275580 8.3909831125544567 0.0000000000000000
8.6876742770159225 1.5586613837145129 0.0000000000000000
0.4012295929644141 6.2959629020892143 0.0000000000000000
0.9268612493350679 5.1131780559664790 0.0000000000000000
4.8868219437627758 0.9268612494797852 0.0000000000000000
6.0889109883560852 1.4494730202801940 0.0000000000000000
8.7990891006704661 5.9843585701956270 0.0000000000000000
8.4730393329221165 2.3671629402382979 0.0000000000000000
6.1836388155968347 8.8313403487883999 0.0000000000000000
8.5592217690870722 0.9607208964604781 0.0000000000000000
1.5550498259769789 1.7726211835269441 0.0000000000000000
1.1265162328555400 1.8252778741003310 0.0000000000000000
9.1509494955065698 8.7481515116255277 0.0000000000000000

CELL_DATA 9335
SCALARS f:C2d double 3
LOOKUP_TABLE default
0.9999985842542558 0.9999998715180881 0.0000009037477749
0.9999996358376317 0.9999998224282834 0.0000004398624655
1.0000095667396141 0.9999965674964522 -0.0000083738982289
1.0006425639580283 0.9950728598435012 -0.0250855283177747
0.9999991475725961 1.0000036780134467 -0.0000009935325806
0.9999753283944440 1.0000000154595035 0.0000004222267590
0.9999944472596609 0.9999955876614296 0.0000013900457470
0.9999975440112226 1.0000232838609853 -0.0000003837866936
1.0000073638293803 1.0000220397361976 0.0000120784783471
1.0000220396262121 1.0000030601683620 -0.0000059775677445
1.0000014517308904 1.0000118388334323 0.0000128523390497
1.0000010120483516 1.0000001909197158 0.0000002847469036
1.0000008387452213 1.0000027138316125 0.0000004259177886
1.0000080330734284 0.9999988267579081 0.0000008617782108
0.9999998385638460 0.9999993471487150 0.0000002191977463
0.9999992266649433 0.9999985622159495 0.0000011288477596
1.0000017002867363 1.0000000287288895 -0.0000003699388483
0.9999999961374865 1.0000003896586325 0.0000007966423659
0.9999995756713707 1.0000004911496820 0.0000007729762768
1.0000055829046497 1.0000021811516930 -0.0000044415442023
1.0000022617850197 0.9999979160979489 -0.0000002305656425
1.0000033393021317 1.0000010870823013 0.0000017161693572
1.0000023659871162 0.9999971651304971 -0.0000105147836900
0.9999986543472988 1.0000025786017610 -0.0000007142817555
1.0000000085020633 1.0000001977265469 -0.0000001556146230
0.9999974027466505 1.0000033673140252 0.0000015842780071
1.0000067439468716 0.9999998580323015 -0.0000009523327031
0.9582048021544263 1.0001227380503990 0.0110483182800808
0.9999945791316821 1.0000187245086223 0.0000060728335821
1.0000005152125846 0.9999935867063077 0.0000057552340912
0.9999976199827283 1.0000236328500840 0.0000006275786507
0.9520475919126747 1.0000589230747170 -0.0071866244948213
1.0000079145048502 1.0000164854590292 0.0000116194990441
1.0005804365845870 0.9853733206889231 -0.0240209590613765
0.9864844336736446 1.0004953339100999 0.0222024425841676
1.0003808270499945 0.9682539953796174 -0.0191865390002696
1.0005022429339203 0.9762302460676182 0.0221007307611536
1.0006214244711589 0.9848801550721427 -0.0248276168589469
0.9498395310894402 1.0000010126400825 0.0024326076217784
0.9776348699860441 1.0004492781812824 -0.0207937846346048
1.0003861296786145 0.9680538398508610 -0.0192874459027960
0.9529120417803153 1.0000134092202937 0.0022804085391046
1.0002729252486855 0.9602325417805304 0.0161764830511942
0.9501434236022662 1.0000018852087706 0.0024132115798255
0.9529121388787166 1.0000008258069115 0.0022822293147043
0.9999911817053370 1.0000006814364184 -0.0000037227080863
0.9999999443828274 0.9999978894414198 0.0000005541544492
0.9999994064927231 1.0000003911867335 0.0000001970974283
0.9999949295513076 0.9999971222078237 -0.0000055214002618
1.0000073528432423 0.9999993914519621 0.0000033698345222
1.0000000973819960 1.0000000888957412 -0.0000002135152875
1.0000001120000557 1.0000015327772087 0.0000004685625408
1.0000003438356746 0.9999982264788629 0.0000015488496687
0.9999998026105593 0.9999997599327045 0.0000022911866093
1.0000004887730622 1.0000018758426443 0.0000021077423191
0.9999978358750113 1.0000005351432457 0.0000010882879895
1.0000002735964035 1.0000001859101559 0.0000000934361349
1.0000000091568755 1.0000004165995657 0.0000000338793184
1.0000001588776612 0.9999999008057185 0.0000004973376150
1.0000037971580737 0.9999992881649219 -0.0000013229071276
0.9999985110211214 0.9999940624673759 0.0000031714249580
0.9999997399068671 0.9526380307983625 0.0023012413603278
1.0000007258206982 0.9999995965180067 -0.0000043083077449
0.9999986510274054 1.0000050626392569 0.0000025719864625
1.0000012783439092 1.0000016606853552 -0.0000008294579693
0.9999966607860382 1.0000004025950362 -0.0000057688902592
0.9999613538448031 1.0000021171060958 -0.0000082550645000
1.0198127840527833 1.0006732298816461 -0.0264081841703552
1.0006744268263648 1.0198092002619097 0.0264051366440563
1.0000005773045555 0.9999990641338874 -0.0000006188084737
1.0003000031686082 0.9589102557012114 -0.0167025555242838
0.9999947577423544 0.9999921107297221 -0.0000043467044678
1.0000017497073221 1.0000014903029411 -0.0000082829884932
0.9999997035270596 1.0000003742568013 0.0000008625437012
0.9999961644087211 1.0000033591198414 0.0000011890941229
1.0000005907415155 1.0000014531008481 0.0000001617919383
0.9434984486228267 1.0000987946486750 0.0093900812246645
1.0000009617173364 1.0000000109520217 0.0000052044855948
1.0000001798832980 1.0000047296555412 0.0000016404085261
1.0000048974517688 1.0000007158825914 0.0000016212241505
1.0000054847617359 1.0000007857642015 -0.0000011991295570
0.9999990001316830 0.9999998599945482 0.0000002221353112
0.9999968502856236 1.0000005031096442 0.0000004327511913
0.9999817771665938 1.0000046811742416 -0.0000028613594952
1.0000023904150950 0.9999991634698714 -0.0000023026962677
1.0000009488708994 1.0000004192382161 0.0000034574328810
0.9999817772017042 1.0000001735039932 -0.0000061975766534
0.9999989614628999 1.0000016676702030 0.0000042778494946
0.9999987789200155 0.9999881041056427 -0.0000004971889827
1.0000023904121307 1.0000009901550859 -0.0000017434021685
0.9999992939212980 1.0000001713525830 -0.0000030161385669
0.9999985428766450 0.9999968123443180 -0.0000025640507453
1.0000008038645987 0.9999992306491746 -0.0000007023623076
1.0000003096702401 0.9999881041175316 0.0000034555808998
1.0000034331669889 1.0000005447812288 -0.0000024576118516
0.9999988611176996 0.9999993684075407 0.0000013601296550
1.0000095450942870 1.0000014652188030 0.0000053345212978
1.0000009811644759 0.9999991229591905 -0.0000005677617661
0.9999993429856027 0.9999983429995577 0.0000014805641405
1.0000016773448586 1.0000029024239860 -0.0000124553951809
0.9999996557664245 1.0000026411591294 -0.0000102745175300
0.9999991752683833 1.0000015439391954 -0.0000009178171248
1.0000004869654644 0.9999997263844718 -0.0000000167221922
1.0000004307247163 0.9999991129183821 -0.0000005189085320
1.0000018694153772 1.0000010507626349 0.0000003134988105
1.0000008790602248 0.9999980807878804 0.0000047259963961
0.9999952611134820 1.0000008116245005 -0.0000002462818914
1.0000023471314679 0.9999987968455110 0.0000019506169667
1.0000004136323004 1.0000013362244404 -0.0000001229392546
0.9999983993583800 0.9999999697504481 -0.0000002430166730
0.9999967962959763 0.9999810240312289 -0.0000067496536711
1.0000028479628353 0.9999998659373361 0.0000009716968546
1.0000001960634979 1.0000006976220073 -0.0000006819835033
0.9999990116237040 0.9999985505108806 0.0000022073227383
0.9999996835540048 0.9999994077352378 -0.0000005750184357
0.9663134193610411 1.0004175372372450 0.0203268650095574
1.0002280536260315 1.0653113659273663 0.0158202517345608
0.9657727793222918 1.0004365887910736 0.0206484355265594
1.0000576887435690 0.9490587388064142 0.0076209915430390
0.9999936457113292 1.0000135340115754 -0.0000071558441758
1.0000027998506236 0.9471676913305483 -0.0025551243018894
1.0000009468498252 0.9999999724784002 -0.0000009512332834
0.9999990961460841 1.0000004607740987 0.0000010415416145
0.9999982754655684 1.0000000000840081 0.0000017959422552
0.9999940704114469 1.0000029272114477 0.0000024010013745
0.9999998750531832 0.9999974106764865 -0.0000002255133370
0.9999985106817757 1.0000000032188421 -0.0000024136062798
1.0000006689107244 0.9999980264439767 0.0000016125764195
0.9999989604947228 1.0000007279575747 0.0000023951158247
0.9999992764881186 0.9999991357916000 0.0000002726688643
0.9999992779739183 1.0000004549533672 0.0000011540267395
0.9999987009857160 0.9999974827224595 0.0000031165851288
1.0000008521706714 0.9999998653024268 0.0000005404646339
1.0000023116986700 0.9999999002724332 -0.0000017341535599
0.9999979083690697 1.0000019237656199 0.0000027739179691
0.9999990563261663 1.0000008347777560 0.0000015184110807
1.0000008040033497 1.0000001963544312 0.0000001648277496
0.9999990359208164 1.0000007508612936 -0.0000019863585483
0.9999954090372211 1.0000012719647640 -0.0000013148089890
1.0000024805100665 0.9999994769702851 0.0000021935772111
0.9999999427582118 0.9999992882042849 0.0000002207581040
1.0000032530455083 1.0000018035504428 -0.0000022710846429
0.9999968114453850 0.9999996326319506 -0.0000037896328376
0.9999992540297257 0.9999997906636836 0.0000018414825147
0.9999909275779504 1.0000022557649062 -0.0000030438806772
1.0000003559740185 0.9999931939956066 0.0000006313643241
0.9999986647013573 0.9999976021437373 0.0000021236904146
1.0000025936809454 0.9999997707331493 -0.0000011137067838
0.9999999522495971 0.9999999909826816 0.0000000422620139
0.9999973110559998 0.9999999559295513 -0.0000008985682244
1.0000002292116679 0.9999963942842539 0.0000042524121632
1.0000071459327120 0.9999990055407787 0.0000025395569606
1.0000028915940364 1.0000020135839385 0.0000003146071474
0.9999955519287229 1.0000002534514936 0.0000023963543482
1.0000010462802924 1.0000035967253149 -0.0000004199445389
1.0000003243354068 0.9999966267934439 0.0000017663987388
0.9999848884356833 0.9999937399755499 0.0000047601682945
1.0000028915930559 1.0000020135838035 0.0000003146067175
0.9999976947464670 0.9999999164023290 -0.0000001268318531
1.0000003193246394 0.9999992535282100 0.0000028983262696
1.0000036869751232 0.9999989760549254 -0.0000018715914528
0.9999942280740011 0.9999975118773892 0.0000022386328822
0.9999922478210294 1.0000101289436558 0.0000061802731795
0.9999962548469771 1.0000009039952831 -0.0000004398676611
0.9999972261990460 1.0000014387278728 0.0000009194547907
1.0000004102767794 0.9999993083189038 0.0000013056123975
0.9999944668789225 0.9999914038726221 -0.0000088590378285
0.9999934834215461 1.0000248286532070 -0.0000044171850512
0.9999981175652506 1.0000001821767128 -0.0000009949098328
0.9999947164501737 0.9999997060655839 0.0000070583802656
1.0000029970134956 1.0000132478423025 0.0000073789747185
0.9999914657284452 1.0000205089749796 -0.0000067285149868
0.9999956922858068 1.0000019883814228 0.0000021009068386
1.0000006804458299 0.9999976047226804 0.0000016129772144
1.0000000120541266 0.9999990466252353 0.0000014751135698
1.0000003051102295 1.0000007976753214 0.0000002129119121
0.9999985846706858 0.9999998462799683 -0.0000003381529360
0.9999987371470863 1.0000040828210728 0.0000093931795745
1.0000026176797829 1.0000040674401340 -0.0000036721889507
1.0000056629262877 0.9999916628191323 -0.0000086064088886
0.9999949614172396 1.0000054255964890 0.0000049422182972
0.9999968339657427 1.0000050413548001 0.0000055456596443
1.0000224394718529 1.0000011709687682 -0.0000101006782492
0.9999991116237082 0.9999946049067087 -0.0000040901511236
1.0000023973359813 0.9999995339220092 0.0000003538348036
1.0000005078363017 0.9999995339227321 -0.0000002607526537
1.0000014896809939 0.9999941823633058 -0.0000002398745307
1.0000023973382408 0.9999995339231390 0.0000003538327057
0.9999983983328621 0.9999984756634815 0.0000008334986646
1.0710275630678583 1.0001476453202518 0.0134500357560476
0.9999984604120160 0.9999999785785404 0.0000025002946593
0.9999901489324331 0.9999793298205977 0.0000082417711197
1.0000002537862571 0.9999982516077581 -0.0000021837526398
0.9999836985466924 1.0000051905862923 0.0000003857797243
1.0000005636866238 0.9999956864687914 -0.0000042246565427
1.0000000294585047 0.9999882268747226 -0.0000015273631807
0.9999957717151698 1.0000010326805890 -0.0000001305993292
0.9999914558395354 0.9999982793300181 -0.0000042441133069
0.9999995112026689 1.0000000297999738 0.0000003774933563
1.0000091996782217 0.9999935774669826 -0.0000042757839706
0.9999925889683415 0.9999821336198386 0.0000044350337997
0.9999932150682493 0.9999938385154516 0.0000040765492675
0.9999910353758319 0.9999960998131664 0.0000153389721504
0.9999999960988440 1.0000067403261479 0.0000008851598285
0.9999955374762900 0.9999891444697010 -0.0000017322886333
1.0000019772699358 1.0000052271770463 0.0000024272171877
0.9999916383250356 0.9999932089443720 -0.0000034934460552
1.0078357535409153 1.0003721606960296 0.0191752393566375
0.9948549588775947 1.0006890018954246 0.0261894559391496
1.0000018658939074 0.9999957616456544 -0.0000081879864802
0.9575215648062908 1.0001296073145041 0.0112312409231568
1.0000013653794757 0.9999995760299146 0.0000007201698700
1.0000046035529626 1.0000024417110376 -0.0000036811503634
0.9999975499764451 1.0000009521026811 0.0000051895414195
0.9999990268966751 1.0000007548340308 -0.0000001647405828
0.9999991772358281 1.0000001701432446 0.0000005027061741
1.0000003487420164 1.0000021208153769 -0.0000009773064762
0.9999991246541996 1.0000035291215024 0.0000057602084778
0.9656088013201660 1.0002337117380242 -0.0149532821249617
1.0000011131971329 0.9999980950667654 0.0000006997983313
0.9999993634867339 1.0000037981335308 0.0000015062256808
1.0000009690715375 0.9999989863254443 -0.0000046719685080
1.0000003567550948 0.9999998045566462 0.0000002299984417
0.9999989311953942 1.0000214312877058 -0.0000128206224262
1.0000042262954478 1.0000012670145260 -0.0000012577751103
0.9999997904847417 1.0000024084801520 0.0000054952858793
0.9999923592729869 1.0000000375987799 -0.0000020050524979
0.9999985479140399 0.9999999920792665 0.0000032375958549
1.0000000606965651 0.9999987130605789 -0.0000000618924403
0.9999996397585162 1.0000004771729567 -0.0000001317618132
0.9999968720841389 0.9999998700054508 -0.0000016301886834
1.0000001656268016 1.0000014442968990 -0.0000001308993952
0.9999938874267643 1.0000000900614712 0.0000007477193737
1.0000000758850007 1.0000002045786518 0.0000004749041270
0.9999999939279958 0.9999996625703602 0.0000000977609792
1.0000003427094541 1.0000000809545344 -0.0000012780521676
0.9999972337254881 0.9999999410980894 0.0000004514758310
1.0000069243375596 0.9999933782605047 0.0000053228475700
0.9999994650339415 1.0000083776337276 -0.0000004114918910
0.9999991956949541 1.0000236875924489 0.0000007865768659
0.9999976384849021 0.9999999483812935 -0.0000008133672633
1.0000004879800208 0.9999979819124293 -0.0000032596223417
0.9999983355679319 1.0000034398651025 0.0000092244731863
1.0000027579965078 1.0000077806931766 -0.0000004507856517
0.9999989638265772 0.9999989996864684 0.0000030252979519
1.0000001023042777 0.9999969897485482 -0.0000001212236264
1.0000002719264030 1.0000001223070074 0.0000002633735992
1.0000031030591010 1.0000017593208628 0.0000015774809727
1.0000003590695146 1.0000000226367816 0.0000002705658753
1.0000007251722169 1.0000005501168665 -0.0000005207922768
1.0000001910456127 1.0000000577466976 -0.0000006034744355
1.0000004148920256 1.0000001657851019 0.0000002788543736
1.0000009839505883 0.9999986518302149 -0.0000008379698219
0.9999979983958260 1.0000045113765388 0.0000017314380064
0.9999920685030683 1.0000004862480805 -0.0000011680235370
1.0000022196159100 1.0000020889448120 -0.0000029114070761
0.9999991922710051 0.9999923701458301 -0.0000038331501031
1.0000000022693074 0.9999963398239197 0.0000027824429571
0.9999986678692353 1.0000000925522612 0.0000018652045173
0.9999999202661636 1.0000006061462159 0.0000013066271022
0.9999975890739231 0.9999926145643626 0.0000003329702706
0.9999991535543390 1.0000010942700714 0.0000010544798745
0.9999999951075196 0.9999994698730855 0.0000002934968763
0.9999970243092363 1.0000007514439846 0.0000061513827470
1.0000016656242419 1.0000038453687234 -0.0000006288683905
0.9999871369059306 0.9999956097084187 -0.0000025018871172
0.9999996353433882 1.0000005420615510 0.0000004366959375
1.0000001488106958 0.9999993775358744 -0.0000003867053543
1.0000005504386242 0.9999994859297409 -0.0000015829004998
1.0000022582263484 1.0000003315090122 0.0000039112861143
1.0000029389647060 1.0000040480454082 -0.0000019703349896
0.9999998971332580 1.0000000749224867 -0.0000000637643584
1.0000017016780149 0.9999987558195691 -0.0000005682836441
1.0000043082131123 1.0000158307637554 0.0000024262742982
0.9999994018124084 0.9999982661204914 -0.0000023667175055
1.0000015399660820 1.0000019079071834 -0.0000034039837787
1.0000004781507550 0.9999963553260672 0.0000005075581583
1.0000104215492984 1.0000021146387457 -0.0000022510190747
0.9999982154055285 1.0000012613822005 -0.0000010699041217
0.9999992648904019 1.0000001889629451 -0.0000003524790454
0.9999999034005600 0.9999951764520059 -0.0000004494258776
1.0000000746728017 0.9999996313631558 -0.0000002235469310
0.9999990361762409 1.0000000781510312 -0.0000004336843956
0.9999985746925253 1.0000083635965529 0.0000040497022511
1.0000031013370578 0.9999925438830159 0.0000035394480134
1.0000000993156588 1.0000008732551795 -0.0000004226335996
1.0000022223787992 1.0000004339238444 0.0000004794391955
0.9999989719959744 0.9999983689761116 0.0000004149452449
0.9999998198586045 0.9999991536101303 -0.0000011409986980
0.9999986672781346 1.0000005997183079 -0.0000005825384025
1.0000002231794112 0.9999948783962329 0.0000007432296789
0.9999998604083861 1.0000001865871582 0.0000009253142101
0.9999937870696812 0.9999998889948761 -0.0000044626637787
0.9999968505061273 0.9999991929610467 0.0000008493815947
1.0000009300360377 0.9999974259563706 -0.0000002951985737
1.0000031794512603 1.0000005660585791 -0.0000017920738451
1.0000004296095122 1.0000017479557413 0.0000028104593661
1.0000031946987484 0.9999935417452105 0.0000020610476115
1.0000005300492738 0.9999996368152406 0.0000016008569923
0.9999957619234169 0.9999834881380486 0.0000029427565217
0.9999968627237562 0.9999968295683066 -0.0000041863017791
0.9999998760380207 1.0000037831298050 -0.0000004054140077
0.9999991077690686 1.0000012185459808 -0.0000020228022020
1.0000000166824567 0.9999983725284880 0.0000003017803156
1.0000014430842956 1.0000002398534200 0.0000011862453185
1.0000009990537451 1.0000005664047553 0.0000013472561583
0.9999936283126238 0.9999995664753061 -0.0000041300985385
1.0000000628142010 0.9999992094549085 -0.0000000311325273
1.0000005404296064 1.0000007933700634 0.0000014703551241
0.9999984408267449 1.0000022369317159 0.0000016724983727
1.0000004906125677 1.0000002356760078 -0.0000022662419287
0.9999987961576023 1.0000019124161796 -0.0000001932629477
1.0000003291274098 1.0000004630263239 0.0000007322687542
0.9999992643397637 1.0000007200833358 -0.0000005272707000
0.9999982619824402 0.9999981004892939 0.0000012638266627
1.0000025348181598 0.9999950166798073 -0.0000011905523374
0.9999969426600536 0.9999999983535084 -0.0000025305654528
0.9999863907494446 0.9999888859788487 -0.0000027067532444
0.9999865844850720 0.9999979148716465 -0.0000086055545246
1.0000062014423685 1.0000053152868995 -0.0000064701345683
0.9999912186840679 1.0000009596323967 -0.0000002320055467
0.9999969436367221 0.9999992256591442 -0.0000007570970070
1.0000001811467725 1.0000021588830392 0.0000082383299419
0.9999909540848452 0.9999974965906668 0.0000132423788574
1.0000000185406892 0.9999981469126406 -0.0000007049080602
1.0000085269563292 0.9999910335124845 0.0000042894748436
1.0000047611291354 0.9999996378231024 -0.0000032351253083
0.9999974586362695 0.9999961952702124 -0.0000027801304374
1.0000073980412993 1.0000013193821924 0.0000005293623710
1.0000018741665559 0.9999993113379612 -0.0000004066438211
0.9999967850252741 0.9999996368011103 -0.0000012014692944
0.9999993654474463 1.0000007627517271 0.0000004854058051
0.9999994924817631 1.0000012400432974 0.0000015057860666
1.0000009127094396 1.0000000859968874 -0.0000004052993833
0.9999988724442163 0.9999995018360859 -0.0000000539851936
0.9999972500760006 1.0000002964178596 -0.0000005047601548
1.0000001046761338 1.0000001128533922 -0.0000000103652353
0.9999994335196799 0.9999969824465590 0.0000029256873149
0.9999989668646229 0.9999989410832676 -0.0000018925983708
0.9999992347923016 1.0000020672700158 0.0000008614643570
0.9999972180820528 1.0000018927415459 0.0000005230278563
1.0000005864468773 1.0000013205210854 0.0000036058581087
1.0000004107445184 1.0000002599524229 0.0000012207628399
1.0000018066332781 1.0000023406459955 -0.0000002274349810
1.0000010208660508 1.0000013029581674 0.0000010496811757
0.9999987685319845 1.0000030706465117 0.0000007732955253
1.0000063446514018 1.0000014395296444 0.0000012323307452
0.9999967372939903 0.9999997862257839 -0.0000018259906381
0.9999986736289989 0.9999993069966980 -0.0000000758922593
0.9999982378277062 1.0000003131131849 0.0000019565987792
0.9999970941376705 0.9999986220542795 -0.0000007914533779
1.0000012097564990 1.0000060621460465 0.0000007384113144
1.0000046007168548 1.0000039111383270 0.0000016056685181
1.0000004271469667 1.0000052330716234 0.0000066273497135
0.9999938229128654 1.0000044793805345 0.0000087155619982
1.0000020336768043 0.9999982774836478 0.0000003470278282
0.9999988651681950 0.9999977645330961 -0.0000001179333827
0.9999982733269239 0.9999956267455270 -0.0000007545306009
0.9999960994981515 0.9999926408813496 0.0000039554765017
0.9999985826751147 1.0000003157638366 0.0000070542353011
1.0000027880316729 0.9999990495976381 -0.0000010095536353
0.9999997624345921 0.9999996592461015 -0.0000003585945375
1.0000004035421171 0.9999996966837702 -0.0000009811572451
0.9999998112439074 1.0000032766287006 -0.0000012081165575
1.0000011361633658 0.9999981765441661 -0.0000032164966015
1.0000105650832940 1.0000019328647665 0.0000021611763156
0.9999959831192778 1.0000007786467875 -0.0000007663767506
0.9999977217787575 0.9999997528192405 0.0000025531083375
0.9999999015129263 0.9999998587371036 -0.0000000841452678
1.0000003702545941 0.9999986619788626 0.0000014821611689
0.9999995804605977 1.0000005706538633 -0.0000004797756201
1.0000000985258279 1.0000001764011610 0.0000008069348092
0.9999999363450887 1.0000011799217601 -0.0000015701430157
0.9999988722476990 1.0000013743532654 0.0000013771441119
1.0000062888052212 1.0000002491498434 -0.0000083295312849
1.0000037479678319 1.0000127556971568 0.0000013978517798
0.9999940044397232 0.9999939510584003 0.0000011961269846
0.9999958712753659 0.9999930101336405 0.0000014316004785
1.0000011833087437 0.9999930836420134 0.0000000465948681
1.0000002152812775 1.0000002575766307 0.0000012095467796
1.0000004754675256 1.0000018794479324 0.0000013559629742
0.9999979803876055 1.0000047016839195 0.0000022143695447
1.0000007928551129 1.0000091321185673 0.0000006216986840
1.0000083862387930 0.9999937040423518 -0.0000004095165122
1.0000012457743888 0.9999967743197208 0.0000008449505544
0.9999997632523794 0.9999983081452193 0.0000001770472862
0.9999999595689104 0.9999973127096267 -0.0000007767065334
0.9711400867346608 1.0003147618513928 0.0174552911118345
0.9999988118220768 0.9999998203410961 -0.0000004217200388
0.9999930725155922 1.0000034115361378 0.0000048098308433
0.9999983447792891 1.0000000634479465 0.0000018704495469
1.0000012623447505 0.9999994367378706 0.0000028073066894
0.9999995695734003 0.9999969497902985 -0.0000013374176065
0.9999995443525590 1.0000019300452367 0.0000004618826591
0.9999962947634768 1.0000177064580933 0.0000066426270847
0.9999850103959117 0.9999979085643629 0.0000052075207765
0.9999982696271588 0.9999990014153123 -0.0000024274884309
0.9999920986820507 0.9999982569899268 0.0000005548600385
0.9999860526476072 1.0000008003392793 0.0000017499475159
0.9999980731420027 1.0000038484359741 0.0000070397413659
1.0000013170372921 1.0000001455417695 -0.0000005268940406
0.9999995169744951 1.0000042354918239 0.0000000792434128
0.9999920986827765 0.9999961588397593 -0.0000011813669445
0.9999973137624592 0.9999860526475355 -0.0000016745055527
1.0000001455415333 1.0000013170373419 0.0000005268939767
1.0000019043572266 0.9999991678946035 -0.0000010532256499
0.9999987555164169 1.0000000671228098 0.0000009336843812
1.0000013170374129 1.0000001455414658 -0.0000005268939127
0.9999987556145973 0.9999941811447131 0.0000099357175433
1.0000013724425942 1.0000014169878599 -0.0000018953900063
0.9999961588379546 0.9999920986830181 0.0000011813673922
0.9999896269000262 1.0000014170395468 0.0000075003127658
0.9999970894531445 1.0000004918510892 0.0000025760378126
0.9999989966797047 0.9999997879259757 0.0000047299690860
1.0000149789696899 1.0000033332204390 -0.0000075863101002
0.9999997721662822 1.0000025208151058 0.0000014749853694
0.9999999579721582 0.9999979674409590 -0.0000037901947958
0.9999992355259887 1.0000016404642036 -0.0000033208593581
0.9999970529537565 0.9999802384356625 -0.0000015747674219
0.9999968641492528 1.0000027728928558 0.0000008516456854
1.0000010498504266 0.9999841319790446 -0.0000020674450697
0.9999974678568080 0.9999992831895598 -0.0000018011524638
1.0000000788582504 0.9999978257096461 0.0000005625374382
0.9999994534856275 1.0000003117244358 0.0000007090696809
1.0000003859044997 0.9999998849060935 0.0000002421139100
1.0000008904563140 0.9999998540949480 -0.0000008233365696
1.0000004563028082 0.9999938312722667 -0.0000007274702309
0.9999938403738925 1.0000004555758328 0.0000007292228730
1.0000011327707943 0.9999973613627279 0.0000005558195163
1.0000007853258555 1.0000002651752451 0.0000016130760604
1.0000010981416503 1.0000024088918518 -0.0000020265172272
0.9796302584665649 1.0003606598238028 -0.0189509361535246
0.9999983930070375 1.0000122913645226 -0.0000050073374199
1.0000108317553071 1.0000034011125751 -0.0000077489155115
1.0000074350729524 0.9999981199594914 -0.0000013492401353
1.0004356118385302 0.9874331689356366 -0.0206581286171074
0.9999925114674325 1.0000037726892939 0.0000023125608219
1.0000013059539141 1.0000060885820903 0.0000022326428317
1.0000005300485180 0.9999999580502880 -0.0000003831048689
1.0000077020357268 1.0000004271423490 -0.0000016832158595
0.9726045283745018 1.0002943776892297 0.0165794693933437
1.0000273612165982 0.9569138471313947 0.0064585829334269
0.9999990261478070 1.0000005571669792 -0.0000006741504501
1.0000010903553898 0.9999999644133153 0.0000015687439038
1.0000000944467895 1.0000012001608325 -0.0000002940916204
0.9999992400657491 0.9999959381611271 0.0000009847875418
0.9999995440792154 1.0000029469056924 0.0000010719198962
1.0000011096004062 0.9999920700321526 0.0000028101788587
0.9999892282568931 1.0000006010015090 0.0000034342029064
1.0000034235381798 1.0000001187613941 0.0000009599866554
1.0000009547765161 1.0000022676935547 -0.0000008973835543
1.0000001240275658 1.0000010197186167 -0.0000003322399924
1.0000002712121805 0.9999996977034531 -0.0000022541944445
1.0000017110337838 0.9999985272894175 -0.0000024390726155
0.9999984805532247 1.0000000257481032 0.0000000941817805
0.9999973165410884 1.0000017258252083 0.0000026246729241
0.9999921231524366 0.9999995284731324 -0.0000013473128642
1.0000050678601582 0.9999989964027471 0.0000005268600429
0.9999994588095480 0.9999976886904349 -0.0000000735419779
0.9999877789218538 0.9999992233857461 -0.0000008069105940
1.0000010224142299 1.0000008362476807 -0.0000008697286285
0.9999974801967557 1.0000000328249874 0.0000004657561650
1.0000072761305079 1.0000009884934233 0.0000003145133122
1.0000026629596133 1.0000012192068743 0.0000019299482921
1.0000000074673692 0.9999999979204889 0.0000019467976534
0.9999964401432776 1.0000000814195706 0.0000003477547217
1.0000026440756313 0.9999973379815301 -0.0000015431398883
0.9999992336194014 0.9999960007445303 0.0000009991683616
0.9999997736399779 0.9999998007950024 0.0000004938823204
1.0000002905357293 0.9999996340199483 -0.0000003879292465
0.9999998390441482 0.9999989649632445 0.0000006349390872
0.9999994776498307 1.0000003769058230 0.0000016595960181
1.0000013242825292 1.0000011089595553 0.0000014206988530
1.0000002214994665 1.0000000494528560 -0.0000000717752601
1.0000015988094568 1.0000031282726169 -0.0000009536857764
0.9999982240742611 1.0000000694857460 0.0000004967632803
0.9999948597934034 1.0000019085684555 0.0000018057750166
0.9999995010167265 0.9999935178617878 -0.0000040401714489
1.0000018870143270 0.9999935178528060 -0.0000027466908303
0.9999935178495063 0.9999985547325856 0.0000020648384094
1.0000057120424504 1.0000009759915582 0.0000051340991509
1.0000057120257804 1.0000016135975944 0.0000031280546874
0.9999995010162718 0.9999935178604804 -0.0000040401726959
0.9999991514818606 1.0000002003308892 -0.0000001549043299
0.9999935178602672 0.9999995010164707 0.0000040401730227
1.0000003968398190 1.0000085134531680 -0.0000018283837160
1.0000009276756305 1.0000133435749132 -0.0000005812464331
0.9999999942132806 1.0000008049113467 0.0000008824419105
0.9999995780018481 1.0000045830068476 -0.0000025208026062
0.9999967720605528 1.0000005519917075 0.0000007406183256
0.9999974570405790 1.0000058915683410 -0.0000020493076338
0.9999997619503967 1.0000011691107780 -0.0000005258868940
0.9999982133166255 1.0000091795724042 -0.0000047236137567
0.9999997667624314 1.0000000496561430 -0.0000000024732608
1.0000007300708555 1.0000016702912049 0.0000017338909799
1.0000000222166785 1.0000081632351958 0.0000026552036228
1.0000005430183510 1.0000005011805020 0.0000001919456251
0.9999956694218061 1.0000010156285888 -0.0000027281877449
0.9999999701267942 1.0000016230816351 0.0000017434460652
0.9999996195950528 1.0000001381601538 0.0000005178486707
1.0000005553622104 0.9999943313448969 0.0000025588208918
0.9999992523424142 0.9999948966993781 0.0000029812924137
0.9999998287526740 1.0000002968789312 0.0000007173486816
0.9999980768428968 0.9999968000559095 0.0000008170011441
0.9999986183882612 0.9999959720522547 0.0000029982533591
0.9999996173687230 0.9999986440732210 -0.0000014626992169
0.9999997599344019 1.0000004618312195 -0.0000005664953074
0.9999953447047236 1.0000002058713999 0.0000014128107497
1.0000074699959807 1.0000002178890510 -0.0000040714080482
1.0000003930818371 0.9999997147019670 -0.0000003036009682
1.0000002252898290 1.0000017653936388 0.0000002267367793
1.0000004142162762 0.9999988615257152 0.0000017266292970
0.9999999469233938 1.0000050546703174 0.0000008917398254
0.9999999342803632 1.0000000939031541 0.0000002471501889
0.9999996350933984 0.9999970656763112 -0.0000002176777011
0.9999973384779500 1.0000122476260140 0.0000027250125046
1.0000061394349129 1.0000002990088632 -0.0000021607125919
1.0000005582351652 1.0000039042311073 0.0000007030138884
1.0000005314540632 1.0000006589571051 -0.0000002795036389
0.9999872916369879 1.0000005570031605 0.0000016612766760
1.0000001941661085 0.9999992662816136 -0.0000047973494390
0.9999976758936928 0.9999989443731930 0.0000010389494451
1.0000002687109808 1.0000004828963009 0.0000000631971057
1.0000034555300106 1.0000005072260063 0.0000007682866519
0.9999998149820637 0.9999998798447418 0.0000001206598669
1.0000062852480816 1.0000038240348017 0.0000077663074672
0.9606477684013413 1.0000327873788526 -0.0057824176359183
1.0000379902049117 0.9606473703378909 0.0057833950962771
0.9999930077171115 0.9999999542591627 -0.0000012295847054
1.0000019880310211 0.9999998595413231 -0.0000053353615843
0.9999996959060656 0.9999992015125855 -0.0000002528983347
0.9999992621338065 0.9999983593096343 -0.0000006078049452
1.0000000026018900 0.9999982932823710 0.0000011508835668
0.9999998083003226 0.9999987325979898 0.0000012368627505
1.0000002865889641 1.0000000313536150 0.0000000390171785
0.9999992409921934 0.9999802358623606 0.0000010093358105
0.9643284307073334 1.0002344302609170 -0.0145135785180809
0.9999775281039720 1.0000122236647071 0.0000004700576620
0.9999993010182167 0.9999775281035954 0.0000003418133669
1.0004448291655974 0.9660231351946861 -0.0205086566217610
0.9582431908344193 1.0001263124906254 0.0110347149558628
1.0000113643849040 1.0000011742731139 0.0000082890815987
0.9582431935126208 1.0001263076525131 0.0110347187657689
1.0651657852676550 1.0002557075085330 -0.0164586774652532
1.0001741091401990 0.9510761144868451 -0.0129121930350946
1.0000025148866714 0.9999942175760460 0.0000011782694700
1.0000049427863742 1.0000116193113773 -0.0000092808551505
0.9999998538399110 0.9999952562584034 0.0000003533145329
1.0001184124939619 0.9602049662153573 0.0105178031862325
1.0004984457321693 0.9760565974069462 0.0222569968318867
1.0000078545716948 0.9999956544726333 -0.0000039878085302
0.9944411180182758 1.0008106892128035 0.0281915977870082
0.9698622318126121 1.0003310150154199 0.0182002337531398
0.9999956730490603 0.9999919768239307 -0.0000052416101682
1.0000073158933935 0.9999963103848900 -0.0000009112274003
0.9999999846284670 1.0000006884868411 -0.0000002583908777
0.9999999139694419 1.0000039861332122 0.0000001648168260
1.0000009424019898 0.9999959777838651 -0.0000006532275356
0.9999993611922307 1.0000000734519785 -0.0000005577372798
1.0000000026197344 1.0000021102893037 -0.0000000475836712
0.9999999517640072 1.0000019633325645 0.0000000662307872
0.9999990467221239 1.0000044785648750 0.0000021114900390
0.9999999220773353 1.0000069441222494 0.0000012328905695
0.9999987840065857 0.9999974966021445 -0.0000015615337503
1.0000000157174718 0.9999981248140217 -0.0000008537053376
0.9999963788902126 0.9999991307234545 0.0000028472035662
0.9999994308224962 1.0000008207809314 0.0000007950538819
1.0000011468503256 0.9999986040933521 0.0000006157473718
1.0000062581101901 0.9999997403405713 0.0000006702497843
1.0000012651226551 0.9999921593545095 0.0000049104200029
0.9999982000867096 0.9999989680233712 -0.0000022314825940
1.0000099991014690 1.0000021003476443 -0.0000041044649969
0.9999950203091801 0.9999931746659212 -0.0000049096747561
0.9999957426101922 1.0000041498653500 0.0000004711260225
1.0000069314874969 0.9999996044454071 0.0000003013723570
1.0000015334347034 0.9999998835209338 -0.0000027255172349
1.0000000570923704 0.9999994959595538 0.0000017461605254
1.0000032109209391 1.0000019669266578 -0.0000015461197314
0.9999997548728887 0.9999994652531756 0.0000012346889756
0.9999991503592572 0.9999977889005582 0.0000008658742052
1.0000000281193300 1.0000000502570454 -0.0000000797083173
0.9999999819726821 0.9999997716935296 -0.0000001957794116
0.9999993839201983 0.9999991744984004 0.0000015551597267
1.0000018418548233 0.9999996024302881 0.0000001875755768
0.9999985333678113 0.9999994835253997 0.0000052727346294
1.0000001308343072 1.0000036352719570 0.0000028325036132
0.9999998228478401 0.9999985738325974 -0.0000002513885778
1.0000042329885541 0.9999996169784292 0.0000023635534735
0.9999988275190853 1.0000035534754790 0.0000006583226599
1.0000061170250429 0.9999929901741820 -0.0000050923461877
1.0000005138985579 1.0000011544259009 -0.0000005587762267
0.9999993375277325 0.9999999598477878 -0.0000014973924139
0.9999992845377501 0.9999977303434461 0.0000037150592202
1.0000000027963667 1.0000010915489648 -0.0000001053862909
0.9999992461341077 0.9999981283543112 0.0000014262087279
0.9999982168482507 0.9999997472530886 0.0000043355989120
0.9999950831998141 0.9999892820634612 -0.0000041347687283
0.9999988484259137 0.9999971387433441 0.0000014178337097
0.9999997570307818 1.0000018539219224 0.0000001617895847
1.0000032223024535 1.0000073633005842 -0.0000048684511242
1.0000005007674340 0.9999928374594412 -0.0000059581801157
0.9999999336978322 1.0000006902200438 -0.0000002369716163
0.9999998598838686 0.9999988871276654 -0.0000002011986722
1.0000001054101009 1.0000012154936899 -0.0000014349052536
0.9999996253768068 0.9999980346117398 0.0000014067193293
1.0000000028969203 0.9999987102599703 0.0000011327281622
0.9999971367057005 0.9999967653496967 0.0000008163507204
1.0000038946732994 0.9999998054876565 0.0000021526613229
1.0000024012345561 0.9999943489181171 0.0000015582923006
1.0000001501150164 1.0000014506568220 -0.0000013318355985
1.0000000716027149 1.0000020007314774 0.0000006737772429
1.0000000628071180 1.0000009342608467 -0.0000000340880826
1.0000033474457282 0.9999981045119868 -0.0000026660118211
1.0000082071876126 0.9999981299920718 -0.0000015532916441
0.9999999568457474 1.0000015477734456 0.0000022233216222
0.9999990085781054 1.0000004531345790 -0.0000024824915444
0.9999972637154491 0.9999998438531399 -0.0000013333713980
1.0000112158610845 1.0000012328483225 0.0000030416697598
1.0000016116493653 1.0000012706020009 0.0000008647699546
0.9999996819869901 0.9999995685776757 -0.0000006592703040
0.9552138613403166 1.0001419988835167 -0.0118363953693731
1.0001420039105162 0.9552138564586923 0.0118363919716113
0.9999988859913236 0.9999991304947268 0.0000027246923131
0.9999993742061154 0.9999992856379294 -0.0000000934673006
0.9999996825108257 0.9999996690691795 -0.0000000878709872
0.9999996126749162 0.9999999165343735 -0.0000009575857725
1.0000031404173124 1.0000010126605272 0.0000006650841141
1.0000006024182699 0.9999995789283357 -0.0000000948066035
1.0000003638738564 0.9999891410293705 0.0000032276193749
0.9999970856438452 0.9999942023271413 0.0000009725910658
1.0000017967922674 0.9999958568561695 -0.0000008942055767
0.9999986324419762 0.9999996747483372 0.0000002616296457
0.9999995054024025 0.9999995911792893 -0.0000009593086245
0.9999989201567443 0.9999998393873962 0.0000016274364547
1.0000015789074210 0.9999990901619225 0.0000000827665005
0.9999982756517640 0.9999689660514052 0.0000126050033676
1.0000002858468666 1.0000000603801467 0.0000001648539355
1.0000007409059359 1.0000010685826797 0.0000016078689356
0.9999963612793014 0.9999909567021489 0.0000001329915284
1.0000007867319773 0.9999982331343163 0.0000007178801369
0.9999999759541076 0.9999991342363814 -0.0000007127580351
1.0000004740672683 0.9999964762658775 -0.0000020862620337
1.0000023758934309 1.0000001948961821 0.0000007184162707
0.9999993748940769 1.0000019680773820 -0.0000009377131202
1.0000000128289808 0.9999994725111694 0.0000001591427788
1.0000007854751123 1.0000057686636090 -0.0000039510392406
0.9999981855679019 1.0000027144691668 -0.0000019091525020
1.0000031416195252 0.9999993587559354 0.0000021881476266
1.0000004013779626 1.0000001400303549 -0.0000004231645315
1.0000007768130110 0.9999974058324870 -0.0000018282669374
1.0000053839058740 0.9999995143293128 -0.0000002931119194
0.9999995143307157 0.9999966512330114 0.0000011616199117
0.9999879186739447 1.0000011457839328 -0.0000018443393191
1.0000011457817159 1.0000017606601479 -0.0000010898619138
0.9999998821185760 0.9999994596510168 -0.0000010344628336
1.0000007768087023 0.9999998369587857 -0.0000000289378186
1.0000011457819007 1.0000017606594871 -0.0000010898623383
1.0000106574794665 1.0000002417902965 0.0000029757526945
0.9999986454562485 0.9999994596546929 -0.0000019598603236
0.9999986454550105 1.0000013104512278 -0.0000013415303748
1.0000020201259041 1.0000007768084227 -0.0000001881911149
1.0000011457819540 1.0000017606591212 -0.0000010898623961
1.0000008601123656 1.0000003374798487 -0.0000004499586050
0.9999998957968071 1.0000017606575375 0.0000000946095264
0.9999987978732597 0.9999958510242201 0.0000003017705117
0.9999996234542989 0.9999958510303891 0.0000024336228551
1.0000011457824123 1.0000017606570322 -0.0000010898633517
0.9999995774900389 1.0000011457820104 0.0000008727326761
0.9999997682141998 1.0000000135273943 -0.0000002583703064
0.9999989713040580 1.0000020367183029 -0.0000002737489480
0.9999982640698430 0.9999986238409948 0.0000004473624864
0.9999999498124476 1.0000065424342435 -0.0000039742206389
0.9999855039470704 0.9999950288780109 0.0000031600942302
0.9999971606990321 0.9999902892221333 -0.0000039078506270
1.0000065109002676 1.0000038519067616 0.0000010378064827
1.0000041569006737 1.0000030129923034 0.0000002772519360
1.0000000122227033 1.0000013348770398 0.0000002729816472
1.0000062619157839 1.0000005476807527 -0.0000029361400731
0.9999973820127157 0.9999997974540792 -0.0000014083484443
1.0000002208416570 0.9999939129041837 -0.0000002079038732
0.9999966616514505 1.0000010319523669 -0.0000049691621127
1.0000068428439366 0.9999988201837922 -0.0000014747154613
0.9999971954874560 0.9999988722580446 0.0000025465772352
1.0000005317025387 1.0000012637686975 -0.0000003812893271
0.9999999476850023 0.9999995666194114 0.0000005269625472
1.0000032700354866 1.0000002123483651 -0.0000004856570231
1.0000065974640440 1.0000004910117981 -0.0000052538382760
0.9999981725289113 1.0000001221086245 0.0000016331212620
1.0000002123477185 1.0000032700353694 0.0000004856564718
0.9999990869845850 0.9999975976207395 0.0000005841612087
1.0000001340922042 1.0000000452033104 0.0000002277898861
1.0000012912234979 0.9999994448207652 0.0000007497859978
1.0000033690178780 0.9999936701818881 0.0000069895112467
1.0000000702133427 1.0000010888573563 0.0000003494108442
1.0000004638939692 1.0000021806842863 -0.0000035622916253
0.9999862888907604 1.0000026970121700 -0.0000040206168779
1.0000014546314848 0.9999987825573438 0.0000026135186427
1.0000004795932136 0.9999996038591403 -0.0000008057144966
1.0000010809099287 0.9999993954503458 0.0000000833072539
0.9999967566944811 0.9999945514315572 0.0000023359602454
0.9999998346441844 1.0000075426857129 0.0000044786938653
1.0000013951662985 1.0000004338687134 0.0000007360014222
1.0000013951662310 1.0000004338688271 0.0000007360011735
1.0000025675699677 0.9999937136204075 -0.0000054209356255
1.0000048766070528 1.0000006968593735 -0.0000031162679900
0.9999988970496755 1.0000025579080936 0.0000007798808073
1.0000009298211372 1.0000005242849976 -0.0000003369092854
1.0000010461428031 0.9999994697652208 -0.0000006115589238
0.9999932461622713 0.9999984978126579 0.0000059523467201
1.0000086607397314 0.9999989480387320 -0.0000026334583035
0.9999969005787490 0.9999986666854057 -0.0000002043500996
1.0000008702792560 0.9999956583593437 0.0000006250345916
1.0000002917910678 1.0000018003817188 0.0000000541090205
1.0000075730074991 1.0000006230507459 0.0000037147680451
1.0000001079321148 0.9999993900457365 -0.0000005033472998
1.0000004243997762 1.0000015844679497 0.0000000812061503
0.9999999276877537 0.9999999613260154 0.0000006222932004
1.0000005580217535 0.9999996538148868 -0.0000012826328555
1.0000032783175916 1.0000013084795183 -0.0000006382368396
1.0000021475548064 1.0000034036415932 0.0000031493356561
1.0000013326591539 1.0000065296482608 -0.0000031077870526
1.0000057853473430 0.9999977660873004 0.0000057814128099
1.0000058382071411 0.9999977426289712 0.0000058649826256
1.0000018273586668 0.9999972395246862 0.0000045171779329
0.9999977426281212 1.0000058382079653 -0.0000058649815136
0.9999921764371927 0.9999960341983717 -0.0000013965443661
0.9999859366898238 1.0000025238179873 0.0000060242161519
1.0000004395323965 1.0000004880187354 0.0000005025971537
0.9999961634022546 0.9999994463179523 0.0000017798772614
0.9999790187916417 0.9999985303878277 -0.0000079395115657
0.9999893050072119 1.0000045872709362 -0.0000021654072713
1.0000016418395459 1.0000002945150179 -0.0000045835865092
1.0000016573549348 0.9999922891538360 -0.0000011412024246
1.0000010206490111 0.9999893050068479 0.0000021303530875
0.9999930727627628 0.9999980397493053 -0.0000025697873188
1.0000006484261605 0.9999877449592762 0.0000010103955636
1.0000009663396583 0.9999996282547463 -0.0000113988306436
0.9999993740185619 1.0000021323024548 0.0000052991404872
1.0000008067179578 0.9999998816356518 0.0000007332042329
0.9999980397496500 0.9999930727630755 0.0000025697876404
1.0000077622746910 0.9999993900568406 -0.0000016552252059
1.0000056851425145 1.0000017631120393 -0.0000003613158170
0.9999995533537385 0.9999960341991115 -0.0000014053111048
1.0000004395325386 1.0000004880196520 0.0000005025979921
0.9999993900568352 1.0000077622743997 0.0000016552251913
0.9999866621346429 0.9999938244221769 -0.0000051989860691
0.9999921764357024 0.9999960341990822 -0.0000013965455954
0.9999960341986275 0.9999921764352974 0.0000013965458938
1.0000002485583859 0.9999995417719738 -0.0000008487035114
0.9999978736747597 0.9999970239379803 -0.0000002444923555
0.9999996458874398 0.9999998816347562 -0.0000001609056936
0.9999988192440850 1.0000002259830958 0.0000005678169816
1.0000005249710240 1.0000001369929583 0.0000004238519659
1.0000077622743002 0.9999993900570981 -0.0000016552251455
0.9999992450021433 1.0000029628375064 0.0000020835292482
0.9999958648878335 0.9999994817196084 0.0000023664071791
1.0000020640902332 1.0000033601228207 0.0000034575008273
1.0000005405058412 1.0000024003437420 -0.0000006227867687
1.0000012876411599 0.9999996675789766 -0.0000011798525117
0.9999920155597217 1.0000017631186215 0.0000025157351332
0.9999991638557836 1.0000001818814588 -0.0000000189601739
1.0000004880193039 1.0000004395305775 -0.0000005025983047
0.9999983545118460 1.0000010808977289 -0.0000031634495458
0.9999993430455058 0.9999960342123496 -0.0000037153388272
1.0000006484294086 1.0000013891129849 -0.0000017964453604
0.9999983039338310 1.0000019714648420 -0.0000021151247235
0.9999993900561559 0.9999941448229864 -0.0000011840221410
0.9999964381710372 0.9999877449954367 0.0000061269441473
0.9999960342048655 0.9999994481985303 0.0000025603255992
0.9999987167638587 1.0000017025799508 -0.0000028630665723
0.9999992785125945 1.0000017515913608 0.0000004898284474
0.9999957579521376 1.0000041483987145 0.0000026715240357
0.9999996917394786 0.9999966260343874 0.0000008873858511
0.9999973663074949 1.0000001162235337 0.0000010540396624
0.9999962568820727 1.0000028582726270 0.0000013632414369
1.0000008758468353 1.0000000119046482 0.0000002374105965
0.9999997426474361 0.9999999566764685 0.0000013239124890
1.0000037751606279 0.9999974867340852 0.0000013851728363
0.9999975236984515 1.0000002509165713 -0.0000019341835458
0.9999998059203368 0.9999997319401419 0.0000006419333809
0.9999984717074487 0.9999998350152858 0.0000002554924053
1.0000009504884437 1.0000041798513224 -0.0000002105521699
1.0000000215867595 0.9999980935769187 -0.0000005694021533
1.0000002119916147 0.9999972124798975 0.0000002478549346
1.0000003883876833 1.0000022714780565 -0.0000000382650697
1.0000000142932695 1.0000004601387391 -0.0000000341112355
1.0000000180544371 0.9999992391507098 -0.0000006801480445
0.9999979571726459 1.0000021561556851 -0.0000009284101438
1.0000032542158310 0.9999996234479890 0.0000000396956380
1.0000013104495147 1.0000011187807145 -0.0000005092672622
1.0000014034103788 0.9999996234488077 -0.0000005786375831
1.0000032542128752 0.9999996234486853 0.0000000396951654
1.0000009256109426 1.0000007959045198 -0.0000002784015394
0.9999981840380995 1.0000031352482139 0.0000061722499422
0.9999996392249052 0.9999998889028019 -0.0000011291603714
0.9999982484047293 1.0000010207376921 -0.0000004262269747
0.9999985329187689 0.9999994281826018 -0.0000002219434299
0.9999974458015880 0.9999999728566333 0.0000016620037614
1.0001009861701344 1.0704149820007023 -0.0103510686010651
1.0000005750532619 1.0000000897978412 -0.0000005702351387
1.0000002236274317 0.9999996342926394 -0.0000009066761729
1.0000010613148538 1.0000096834991377 -0.0000039695857193
1.0000000026525593 1.0000002207947940 -0.0000000208415181
0.9999997360794803 1.0000016646868053 0.0000003917908758
0.9999999378974459 0.9999999006487233 -0.0000008453908137
1.0000006191594208 1.0000005443302364 -0.0000001515484911
0.9999998482817957 0.9999991989478922 -0.0000000788802667
1.0000020658035282 1.0000030186849154 -0.0000017886304665
0.9999985700460114 1.0000002994528301 0.0000012764092453
0.9999975223973910 1.0000004915617751 0.0000097019580654
0.9999918966255655 1.0000005126158333 0.0000066582509562
0.9999947154458558 1.0000007047964459 0.0000008382171612
0.9999999970013851 1.0000028139464685 -0.0000019989914067
1.0000081232035771 1.0000030948817009 -0.0000172968282804
0.9999939743444622 1.0000174023791035 0.0000016561113723
1.0007101652840245 0.9860923221095635 -0.0262354321695674
1.0007434293772814 1.0037414855929372 -0.0272649240672341
1.0000140483456395 0.9999915517186215 -0.0000046954292536
0.9999994540684792 1.0000038300069183 0.0000024330756507
1.0000007505213462 1.0000042209374698 -0.0000019618049677
1.0000098930845458 1.0000015842231695 -0.0000154801038838
1.0000051525233011 1.0000028099210125 0.0000054518112391
0.9999766059797792 0.9999935403471706 -0.0000047196234588
1.0000174046271844 1.0000154924706859 -0.0000013636310133
1.0000060987968677 1.0000034483913272 0.0000070065083546
0.9999952075200782 1.0000052742904042 -0.0000063107546440
0.9999956339376641 1.0000036478046466 -0.0000039408916552
1.0000034483474294 1.0000026912846587 -0.0000021759945396
1.0000052743283339 1.0000037888432716 0.0000088089515768
0.9999983297939806 1.0000023778199856 0.0000034262280338
1.0000003855812478 1.0000072522743864 0.0000105647369019
1.0000034115544252 0.9999998737978830 0.0000091197111368
0.9999994898249760 1.0000010922752423 -0.0000009788718132
0.9999915209034526 0.9999988920138198 0.0000038767951261
1.0000000255156567 0.9999996352582671 -0.0000013716886485
1.0000006854532184 0.9999978523346618 0.0000000009970746
0.9999999943815061 1.0000006694163317 -0.0000016619197477
0.9999991753784161 0.9999991801513817 0.0000002045758567
1.0000020805421861 0.9487152162408080 -0.0024914866627084
1.0000030877733332 0.9999996805311965 0.0000023316573080
1.0000003471036947 1.0000040658683151 0.0000001174452073
1.0000079885380313 1.0000002340450849 0.0000012870335032
1.0000032537155463 0.9999954349971871 -0.0000033979175248
1.0000029091571934 0.9999992438070149 -0.0000000453497383
0.9999982023446976 1.0000019987893247 0.0000004232700158
0.9999997727904923 1.0000000146549259 -0.0000010594794156
1.0000015719148156 0.9999997549174071 -0.0000004178795908
1.0641330658183743 1.0004497119286091 -0.0217911940726295
0.9999997665489525 0.9999999339804037 0.0000000339919828
0.9999985422516406 1.0000006227143932 0.0000004840127999
1.0000006101219545 0.9999968482840631 -0.0000018800710917
1.0000012685655590 1.0000029845878486 -0.0000023236936976
1.0000085145434703 0.9999989050005191 0.0000041447319633
0.9999978940783379 0.9999974600412576 0.0000003344095987
1.0000037899818301 1.0000001109397920 0.0000015773470475
1.0000007118841112 1.0000006686338589 -0.0000017094954174
1.0000036247833777 0.9999934899915711 0.0000051795090050
1.0000029810326030 1.0000022902205687 -0.0000073428386431
0.9999993173373481 0.9999932630107435 -0.0000032730290102
1.0000005256443971 1.0000034058410663 -0.0000010473616536
1.0000005240945582 1.0000021462771878 -0.0000050744452632
1.0000002411905453 0.9999987924673449 0.0000001449296896
1.0002676321358333 1.0651260729086327 -0.0166596992088965
1.0000003642655781 0.9999973475552429 0.0000022060932557
1.0000018248289275 0.9999961723086371 0.0000022852754292
1.0000001279152482 0.9999991870258574 -0.0000015762170755
1.0000024751403274 1.0000002528354204 -0.0000048453812134
0.9999991047245198 1.0000011506875079 0.0000017133180619
0.9999928639440903 0.9999990696187864 -0.0000037330949664
0.9999919623177649 0.9999961829659030 0.0000011059898640
0.9999997745766562 1.0000000366896304 -0.0000013676628675
0.9999996375098286 1.0000036070933718 -0.0000005627231791
0.9999985268817431 0.9999998052842323 0.0000023092091173
0.9999969027184618 1.0000020803102514 -0.0000026148974045
0.9999998366695217 1.0000015396607269 -0.0000036708840154
1.0000002285270919 0.9999996304301325 0.0000003565735304
0.9999997846097126 0.9999988905422216 -0.0000036085713438
0.9999999595419579 0.9999995836425728 0.0000005728968368
0.9493753798717343 1.0000428362510771 0.0068561667129193
0.9618533017827440 1.0006418696233379 0.0250441699061323
1.0000139000019155 1.0000096910802931 -0.0000078674302252
1.0000044708657498 1.0000259117527996 -0.0000034639074561
1.0000002764381044 0.9999889507402256 0.0000031878081636
1.0000044989623154 0.9999785772472334 -0.0000015707256616
1.0000004086452114 0.9999916804400035 0.0000052224664240
0.9514843331807876 1.0001355379138048 -0.0118337290588949
1.0000019374232525 1.0000240373906724 0.0000045938406104
0.9462588292686726 1.0000122693189804 -0.0034673447159532
1.0000003058819087 1.0000175284544282 0.0000052692921272
0.9999948358605395 1.0000083081636069 -0.0000053389601759
1.0005929831959259 0.9757391713191980 -0.0241511245159601
0.9731381348345191 1.0005060594241408 0.0222824521116751
1.0007309640469155 0.9926074973519980 -0.0269820995620262
1.0053566085906491 1.0008526709648398 0.0294165804630613
1.0005021496896684 0.9714872530242231 -0.0222323319502275
1.0003180226230532 0.9590839405424719 -0.0173845481139417
1.0004762024707203 0.9667943272323897 0.0214172384846177
1.0006735520681909 0.9824954567973158 0.0257132035497992
0.9495348733669147 1.0003802361938610 -0.0186962384948989
1.0008913332074529 0.9976324297394130 -0.0299610156911130
1.0006384837986577 0.9769955128243387 -0.0250549662922156
0.9463664074273433 1.0000594650490264 0.0081906605021194
0.9460138058653415 1.0000100333769988 -0.0016784614218814
1.0005660655918758 0.9727337654326738 -0.0234787609796015
0.9456412308059522 1.0002573233492478 0.0157622962730650
0.9862111328376721 1.0006600984889336 -0.0254343665067361
1.0001694934878043 0.9476928165957392 0.0125016576829560
1.0003270653572145 0.9592347027562790 -0.0176806138901597
0.9479475984384105 1.0000131750876475 -0.0032241617178572
0.9456412444937368 1.0002703116974228 0.0157608327315756
1.0004141895581209 0.9626925941211996 0.0200271433516820
0.9476292661923286 1.0000521286496291 0.0069308274682216
0.9460913400582216 1.0000005356645689 -0.0017473051858357
0.9479476218453680 1.0000140911879534 -0.0032193237059916
0.9999994055782433 1.0000000037250074 -0.0000000286360323
1.0000006259317211 0.9999987821484041 -0.0000002704768775
0.9847127781798600 1.0006476597970502 0.0250995214888024
1.0000029770319940 0.9999932013416863 -0.0000079692513340
0.9549483867658315 1.0007681179395349 -0.0271259546747878
1.0007696130959141 0.9549477552156487 0.0271257259171343
0.9999983462478214 0.9999991338273652 -0.0000019495087719
0.9999980815032277 0.9999999300324232 0.0000042981109949
1.0000004205229391 1.0000004757876235 0.0000002920928432
0.9999931882774334 1.0000022035157388 -0.0000013925505469
0.9999995443812959 1.0000017466619895 -0.0000029369189228
1.0000003819558612 0.9999995443820997 0.0000030726454964
0.9999991667182299 1.0000008805895970 0.0000003851691254
1.0000025229618450 0.9999995443920763 0.0000044172614703
1.0000002809375725 0.9999888271794951 0.0000039279369147
1.0000004158808533 0.9999978030202407 0.0000003838133215
0.9999993654295701 1.0000029338093550 -0.0000022040117369
0.9999978160186251 0.9999991113437138 -0.0000021603559313
1.0000006936191486 1.0000002809236268 -0.0000011902279189
0.9999888271652575 1.0000013667514998 -0.0000011985414165
0.9999994213286730 0.9999990172420677 0.0000003974595310
1.0000006302095847 1.0000017466530196 -0.0000002075082434
1.0000008238377891 1.0000006936176917 -0.0000001744777802
1.0000001299076315 0.9999960191822932 -0.0000037011860677
1.0000014806018958 0.9999968962767023 -0.0000001560323915
1.0000054773532232 0.9999990472939455 0.0000016573032412
0.9999993345039896 0.9999993985603101 -0.0000005460290844
1.0000006118043052 1.0000011539072233 0.0000009960258239
0.9999991782505431 0.9999985744651952 0.0000018569006286
0.9999945289760678 0.9999990472914912 0.0000005684047333
0.9999989614011726 1.0000038247485832 -0.0000017493610617
1.0000017160395078 1.0000017466589508 0.0000025219080606
1.0000017160388621 1.0000003819516217 0.0000023861777328
1.0000003819514875 1.0000017160388621 -0.0000023861776955
1.0000025229465934 0.9999997543156220 0.0000019319893720
0.9999995443814380 1.0000017466618332 -0.0000029369186262
1.0000006118042679 1.0000011539071096 0.0000009960255570
1.0000025229447198 1.0000006302124036 0.0000016878502002
1.0000001298937395 1.0000022035138523 0.0000009265660763
1.0000008238442919 0.9999888271703008 0.0000025632400015
0.9999888271793956 1.0000002809375015 -0.0000039279370994
1.0000017160389190 1.0000003819513268 0.0000023861778918
0.9999997543157535 1.0000025229471974 -0.0000019319889812
1.0000000745506894 0.9999996494769707 -0.0000008270464410
1.0000013667512404 0.9999888271677728 0.0000011985418535
1.0000013667513079 0.9999888271657122 0.0000011985419068
0.9999982898256243 1.0000033303220668 0.0000046783747288
1.0000025229618450 0.9999995443923321 0.0000044172608450
1.0000008805910465 0.9999991667180016 -0.0000003851681111
1.0000008805907339 0.9999991667170930 -0.0000003851686298
0.9999914289213699 0.9999991948094815 -0.0000065298668914
1.0000013667508887 0.9999888271660249 0.0000011985429939
0.9999991218641628 1.0000012107123040 0.0000000915222852
1.0000045825420059 0.9999984933717586 -0.0000040576654671
0.9999994188555370 0.9999999293650293 -0.0000001381269813
0.9999994294034973 1.0000011168085059 -0.0000004616462655
1.0000022224507989 0.9999990977056682 0.0000016547981699
0.9999990995604563 0.9999991391677000 -0.0000012539258280
1.0000010501934236 1.0000002299777302 -0.0000011559806656
1.0000007622735680 1.0000027155806182 -0.0000007128346701
0.9999979588182033 0.9999997359781917 -0.0000003513896255
1.0000000689477904 0.9999998310917154 0.0000001400149558
0.9999989313542801 1.0000023637855691 0.0000054276337942
1.0000005010070077 0.9999964097944698 -0.0000005719228335
1.0000012203924407 0.9999981853908944 0.0000008724885654
1.0000002500650120 0.9999990038688195 -0.0000007114537100
1.0000012214170948 0.9999994214896056 0.0000021458098514
0.9999929318821714 0.9999992431348815 0.0000027011081567
0.9999990151461509 0.9999997193355475 0.0000002488079275
0.9999996143903936 0.9999999472381167 -0.0000000788771582
1.0000022607191656 1.0000027759342118 0.0000011295369630
0.9999918180213015 1.0000170625509714 -0.0000057561207010
0.9605456157722345 1.0002642062063323 -0.0160282746536212
0.9999954670763087 0.9999918047888009 -0.0000050455283986
1.0000008437632157 1.0000039175750490 -0.0000039964310390
1.0641844836240977 1.0004333820412841 -0.0215272418218781
1.0000292184250750 1.0693506492210054 -0.0049413863195857
1.0000003913678484 1.0000021580547080 -0.0000016280855963
0.9999988655462646 1.0000029765991081 0.0000014870791763
1.0000015397989375 1.0000024175015063 0.0000009088849649
1.0000009412650792 0.9999996407702377 0.0000004575673937
0.9999998781923393 0.9999999402735743 0.0000001204019671
0.9999999392065754 0.9999958952883661 0.0000039693794443
1.0000000480323397 0.9999999302210949 -0.0000001618821142
1.0000000302671208 0.9999995125041048 0.0000008368330197
0.9999906133108704 0.9999992679059363 0.0000068722670132
1.0000018601148990 0.9999995377943313 0.0000004901531624
1.0000002380611408 1.0000011169451486 -0.0000013108010389
1.0000003923681959 0.9999992200268697 0.0000015857562239
0.9999916440719847 1.0000005365961078 0.0000009468554760
1.0000028406759751 1.0000038364843922 -0.0000095182899464
1.0000005059576067 0.9999975940142987 -0.0000011909307319
1.0000004553570310 1.0000057826013524 -0.0000002161551753
0.9999979075992923 0.9999986847327834 -0.0000013103007350
1.0000014017085070 1.0000109815206955 -0.0000010927016442
1.0000006335839622 1.0000013793762896 0.0000058262168328
0.9999999075792712 1.0000034832722688 0.0000004900666950
1.0000000295224036 1.0000026722534676 0.0000008286595016
0.9999970821173003 0.9999986832969381 -0.0000024457896034
0.9999978780491076 0.9999999369678954 -0.0000004306705086
1.0000018358775278 1.0000001049737357 0.0000011024487611
1.0000000311580468 0.9999996821622984 0.0000000745312429
0.9999970020276289 1.0000012739102433 -0.0000001661130318
0.9999996236177594 0.9999990577433185 0.0000013621728577
0.9999974345552383 1.0000020866966597 -0.0000003762138720
0.9999992220477663 0.9999925757297010 0.0000008134169312
0.9999998326241603 0.9999922782368079 0.0000065998677356
0.9999998326241611 0.9999922782368648 0.0000065998676966
0.9999978025980469 0.9999961189449539 -0.0000063173004444
1.0000010258221195 1.0000008587385301 -0.0000006986216232
1.0000010258218681 1.0000039254861484 0.0000005539211546
1.0000006293181798 0.9999996291882849 0.0000001749409994
1.0000005544640846 1.0000021458697173 0.0000034837871865
1.0000002198095475 1.0000006614956225 -0.0000007236483964
0.9999995461884109 0.9999993462073565 0.0000012751703809
1.0000025220672384 1.0000000125541522 -0.0000043755263982
1.0000000739917201 0.9999936552601990 -0.0000030888879827
1.0000005354697294 1.0000014514276840 0.0000004750147641
0.9999964970042409 1.0000000407163738 -0.0000000294050115
1.0000015004498810 0.9999987006153485 0.0000016770392645
1.0002526616418086 0.9452416309326793 0.0155946183612741
1.0000125732939176 0.9471569541830956 -0.0038405203309437
1.0000066530524216 1.0000045429711739 0.0000147882204723
1.0000049927126757 0.9999919279544310 0.0000051380561475
1.0000010309688794 1.0000025820967522 0.0000015043740482
0.9999989704703727 1.0000014303251179 0.0000002682677080
0.9999994686417083 1.0000062145763871 -0.0000059047850261
1.0000007408812093 1.0000008489771455 -0.0000013151800349
0.9999997158867961 1.0000008408371468 -0.0000006974155042
1.0000001928257987 0.9999999157910302 0.0000003050072236
0.9999991012790184 0.9999989986321710 -0.0000040158860036
0.9999978958183747 0.9999982151954804 -0.0000045446848923
1.0000016657816855 1.0000003513524056 0.0000005981661307
1.0000027052767986 0.9999991136675528 -0.0000005251693640
0.9999991060382039 0.9999984662514732 -0.0000054018758104
0.9999899074976359 1.0000002420046228 0.0000039183586215
1.0000035685770456 0.9999999055091700 -0.0000016671560413
1.0000016657812592 1.0000003513519402 0.0000005981656680
1.0000001928253865 0.9999999157907318 0.0000003050075744
0.9999998189715301 0.9999958971969591 0.0000006866583319
1.0000003962768160 0.9999973691318071 0.0000007087894876
1.0000020750399901 1.0000004425255535 0.0000006466234370
0.9999999157909307 1.0000001928257152 -0.0000003050073346
1.0000013275241371 1.0000003918833444 0.0000014105685328
0.9999999789877363 1.0000008489753760 0.0000001665909130
1.0000022371411663 0.9999999176495251 -0.0000015652520234
1.0000018728985451 0.9999999158412800 -0.0000071459836347
0.9999977552493321 0.9999899074893573 -0.0000023389298671
1.0000005801947596 1.0000013724779686 0.0000001269645437
1.0000001228232611 0.9999980421542611 -0.0000013279128393
0.9999991060109922 1.0000011917379208 0.0000010365555629
1.0000001625127035 1.0000005055225405 0.0000006784827184
0.9999993939037422 1.0000021664726448 -0.0000006417327690
0.9999988470872165 0.9999999157920112 0.0000012139157573
1.0000014230059007 1.0000006122357343 0.0000001678217591
1.0000027076594202 0.9999990958231038 -0.0000000537191435
0.9999998388235906 0.9999906399619219 -0.0000033355092051
0.9999999157909165 1.0000001928253457 -0.0000003050074563
0.9999999789855620 1.0000008489753405 0.0000001665905337
0.9999933626224747 0.9999975470711210 0.0000025185942650
1.0000015269094720 1.0000015911022775 -0.0000021860018949
0.9999999157997740 1.0000003599918645 0.0000029660283070
1.0000011666133561 0.9999933626173338 -0.0000012505506332
0.9999887382487160 0.9999998388336737 -0.0000046487562403
0.9999965652445503 0.9999991060166165 -0.0000025822121750
1.0000002420047933 0.9999899074986591 -0.0000039183580602
0.9999976981766211 0.9999992087002377 -0.0000052220891075
0.9999937709100001 0.9999994199649104 0.0000056004720391
0.9999965652427597 0.9999991060155720 -0.0000025822135712
1.0000007847640395 0.9999899074926509 -0.0000025540315405
1.0000024130443961 0.9999899074847985 0.0000015389556415
0.9999983415325470 0.9999879961067046 0.0000020579793297
0.9999986878717524 0.9999988772077522 -0.0000041568702661
0.9999999984825482 0.9999954333561581 -0.0000013302475115
0.9999997406297594 1.0000002926376783 -0.0000001740855914
1.0000013363510318 1.0000007113635732 -0.0000014645307170
1.0000011534962809 1.0000018002761621 0.0000059363597215
0.9999983723644205 0.9999999494922220 0.0000002966238548
1.0001997198752184 0.9467913607574481 -0.0134750829286715
1.0005730875010654 0.9635477317190629 -0.0234904606793071
0.9999986140570580 1.0000008154150490 0.0000000535195332
0.9999988061656232 1.0000006023193337 0.0000000779835738
0.9999983011717587 0.9999999064374949 0.0000000986379628
0.9999998674898624 1.0000007566160394 -0.0000002154933795
0.9999992324314992 0.9999999237897291 -0.0000015673078621
0.9999934263495425 0.9999988106401624 -0.0000010129805314
1.0000001266436545 1.0000006893354552 0.0000011784353122
1.0000071860341919 0.9999972850321164 0.0000018382372730
1.0000009104708454 1.0000004800279321 -0.0000001023421566
0.9999911308248949 1.0000017269364396 -0.0000046026158076
1.0000005826974525 1.0000001702230492 0.0000001864895002
1.0000011128014865 1.0000005734074640 0.0000001651378181
0.9999978707121631 1.0000008043705642 0.0000015021256850
0.9999980567733859 0.9999992451833050 -0.0000008564914904
1.0000048071012315 0.9999998415559361 0.0000102155567783
0.9999984457043019 1.0000057875587347 0.0000082145878912
1.0000022929625831 1.0000003231667309 -0.0000002421534119
0.9999971270082161 1.0000003231712773 -0.0000021907537551
1.0000106012236643 1.0000110828579214 0.0000108698669400
1.0000024907114484 1.0000008352358551 -0.0000022051780931
0.9999973496589728 0.9999994161598231 -0.0000049828499774
1.0000072990435971 1.0000000866206524 0.0000030752340497
0.9999971645288508 1.0000048156150778 -0.0000000419396646
1.0000021593901773 0.9999959604424424 0.0000044552722679
1.0000000065917893 1.0000043761205386 0.0000009315778967
0.9999986335494137 1.0000012895086916 -0.0000042022259565
0.9999939485666578 1.0000033915684461 0.0000055797531131
0.9999909531173885 0.9999987660710435 0.0000015507922838
0.9999948296993137 1.0000032804486854 0.0000120089431154
1.0000000134151674 1.0000247758595715 0.0000007700738355
0.9999995245393560 0.9999993615710685 0.0000014092224405
0.9999982682889409 0.9999890111930532 -0.0000053711316782
0.9999988291884452 0.9999890209987432 -0.0000070645355882
0.9999960093642057 1.0000095293117277 -0.0000038112239019
0.9999978598640591 1.0000011873253190 0.0000038264196077
0.9999971459662078 1.0000037905613248 -0.0000040460087129
1.0000122886030280 0.9999991113355572 -0.0000055272939802
1.0000098142713676 0.9999988291501497 -0.0000033815896231
0.9999890111932441 0.9999982682888272 0.0000053711316236
1.0000018161285080 1.0000059610030345 -0.0000041560219975
0.9999988260995313 1.0000009336481492 0.0000020675622296
1.0000000839977055 0.9999990943238755 0.0000006800143381
1.0000008857905365 1.0000000308151622 -0.0000001498343664
1.0000020437545554 0.9999968584175920 0.0000017981537783
0.9999988260989628 1.0000009336485862 0.0000020675625316
1.0000008113091925 1.0000001155736324 0.0000043215981211
1.0000021601836342 0.9999994882872286 0.0000009762581262
1.0000005394065568 1.0000017861949368 -0.0000008690056282
0.9999990943236765 1.0000000839979772 -0.0000006800142706
1.0000021601974218 0.9999960093647654 0.0000038199599797
0.9999984306183527 1.0000011931236299 -0.0000005155754067
0.9999996509137563 1.0000014944546998 0.0000007578949580
1.0000000839981709 0.9999990943233070 0.0000006800139278
0.9999926013686002 1.0000013856426671 -0.0000002484566488
0.9999988291399783 0.9999963014165991 -0.0000001320075736
0.9999999224548404 1.0000008144611197 -0.0000002695215475
0.9999961827392763 0.9999945483383860 0.0000052934807825
0.9999980454569125 0.9999987541621590 0.0000005874990658
1.0000004141946068 0.9999977050407391 0.0000017442613273
0.9999990943238755 1.0000000839976646 -0.0000006800142333
1.0000008069848252 0.9999941293385766 0.0000007739831206
1.0000032180635050 1.0000059610199707 -0.0000058597387070
0.9999960093583851 1.0000022672816242 -0.0000026646899253
0.9999984233513595 1.0000003891084259 0.0000012862623810
1.0000011873251839 0.9999978598645423 -0.0000038264193421
1.0000098142708844 0.9999988291515423 -0.0000033815887207
1.0000018161292363 1.0000059610029493 -0.0000041560210169
1.0000095293115288 0.9999960093646638 0.0000038112238969
0.9999947911652920 0.9999960093641034 0.0000038286976014
1.0000008310069857 0.9999970363815475 -0.0000081051326328
0.9999986898391576 0.9999960093537987 0.0000015137973390
1.0000001174716049 0.9999989513084826 -0.0000003971736889
1.0000026567917699 1.0000008376293765 -0.0000005279674715
1.0000000830023044 1.0000062610676785 -0.0000036076165089
1.0000047961417493 1.0000041631240615 0.0000012430158532
1.0000016307354345 0.9999969287075140 -0.0000001279788241
0.9999994172184291 0.9999992538151833 0.0000004106563964
1.0000013191689303 0.9999934270660814 0.0000043985400552
1.0000001212610687 1.0000013300298896 -0.0000002845254054
1.0000006968644057 0.9999993761530648 -0.0000002520428456
0.9999979732934667 0.9999995610457038 -0.0000003570092677
1.0000046973559706 0.9999977387004999 0.0000021316982046
1.0000018062228071 1.0000006373312740 0.0000026171301628
0.9999997341086431 1.0000009732336279 -0.0000011266313635
1.0000028682743369 1.0000001100660885 -0.0000023629589728
0.9999989553701326 1.0000012952419211 0.0000009411187685
0.9999977989096479 0.9999948699404472 0.0000014229219395
1.0000058744550704 1.0000056786356959 0.0000014445210261
0.9999988934722497 1.0000022953638290 0.0000004880429964
1.0000002090876436 1.0000009190222285 0.0000022424097844
0.9999898645684576 0.9999995553392690 0.0000030827594248
0.9999990439741899 0.9999996418831599 -0.0000009136759817
1.0000044677371045 1.0000006304024989 0.0000017581199991
1.0000013795654423 1.0000008040621560 0.0000019499476906
1.0000058690783658 1.0000008244743059 0.0000028580005127
0.9999990779701582 1.0000035287814266 0.0000014127239930
1.0000011772131501 0.9999989195872534 -0.0000011809096722
0.9999999918278598 0.9999994879868079 0.0000008233402386
1.0000016425522817 0.9999941314174899 0.0000026235024858
1.0000009396911669 1.0000012126883722 0.0000020736602233
0.9999998071908632 1.0000004370983089 0.0000017237493356
0.9999947320198085 0.9999971156702014 -0.0000010653077349
0.9999995502145117 1.0000011610780637 -0.0000030847731635
0.9999999565103636 1.0000025449706702 -0.0000000196790653
0.9999988341187367 0.9999974618385157 -0.0000004334934868
1.0000012258464310 0.9999976075117833 0.0000047136729339
1.0000063290806094 1.0000001806299410 0.0000050470824612
1.0000000781622225 1.0000002955261020 -0.0000005606120633
0.9999998577297847 1.0000026300312128 -0.0000016703375892
0.9515263382620115 1.0003169723796193 0.0175675818364591
0.9999897093748273 1.0000000626590888 -0.0000095232347437
0.9697356507034347 1.0006246046063725 0.0248672132089645
0.9696195046353272 1.0005824925589966 0.0236159394273487
0.9486976382392286 1.0003224193712645 0.0173004474620726
1.0007691252516604 0.9877752177434563 0.0275999990819890
1.0002538882971763 0.9485523158379325 0.0153537989129659
1.0000225621542405 0.9425572430740294 0.0039774987044005
0.9999987706427025 0.9999932180219248 0.0000108551992303
1.0001149630366182 0.9428824024982193 -0.0100759633336051
1.0000015024847548 0.9999725951941560 -0.0000108396057288
1.0000050219461150 0.9425678882639863 0.0017840925909909
0.9999976917012011 0.9999978787760776 -0.0000059693941056
1.0000074970925992 0.9999980255585338 -0.0000002614881195
0.9999980223193268 0.9999981918642247 -0.0000082647073425
1.0000004908001479 1.0000047220801882 0.0000002725588455
1.0000000316166058 1.0000000333518644 -0.0000001926864099
0.9999996333428763 1.0000016457500389 0.0000007638747320
0.9999983499406239 1.0000012048383533 0.0000004020362540
0.9999999746823715 1.0000005341213567 -0.0000000848118192
0.9999994735501616 1.0000064189689266 0.0000041716305078
1.0000016591585641 1.0000002361883196 0.0000003830400337
1.0000058195968566 0.9999916823363634 -0.0000035927936278
0.9999992013073590 0.9999989538745020 0.0000006794943337
1.0000016789464066 1.0000010017227352 0.0000006700125800
0.9999981208054689 1.0000056445789567 0.0000018996010922
1.0000024051252427 1.0000045950679657 0.0000005314314764
1.0000003753519544 1.0000017731663844 0.0000025291209598
1.0000017716846030 1.0000003793336143 -0.0000025257922870
1.0000000295693989 1.0000016627889556 -0.0000018357942226
0.9999996432586221 1.0000007987691402 0.0000020600356163
1.0000025363785652 0.9999996005334909 -0.0000001492608718
0.9999982873160835 0.9999968842316024 -0.0000016776441957
1.0000008051061384 0.9999995730814888 -0.0000010245098639
1.0000021128752448 1.0000000039103154 -0.0000001054456672
0.9999978173044474 0.9999979754049872 -0.0000058492608034
1.0000011032766905 1.0000001485738135 0.0000066217087800
0.9999987774266795 1.0000017390701854 -0.0000001031511797
1.0000004008892756 1.0000059090550626 -0.0000012258312439
0.9999998993560518 0.9999977411247601 -0.0000028258537150
0.9999979760697520 0.9999998768727087 0.0000010014436295
1.0000000411265322 1.0000000432298863 -0.0000000346687251
0.9999976870037874 0.9999995734837995 -0.0000000299854034
1.0000056511466240 0.9999998788200480 0.0000016876531620
1.0000021835598809 0.9999940669926618 0.0000044759135846
0.9999988713724471 0.9999931820376194 0.0000034608591445
1.0000012831475755 1.0000011710457262 0.0000001810289700
1.0000034722407598 0.9999988713641186 0.0000004502515856
0.9999977004238064 0.9999997992057971 0.0000020942772791
0.9999988997425840 0.9999991288515480 -0.0000042645666856
1.0000020436629444 1.0000034374801567 0.0000084360651701
1.0000034722381734 0.9999988713656534 0.0000004502513334
1.0000011753547107 1.0000066353355497 -0.0000003601466349
0.9999987088337282 1.0000083249799543 -0.0000023811014134
1.0000024504319076 0.9999980491757514 0.0000001485318606
1.0000000939845397 0.9999966905502158 0.0000020337791404
0.9999901015858117 1.0000025128519048 0.0000091422931943
1.0000166917982216 0.9999999270489554 -0.0000070081337543
1.0000021153059850 1.0000000759940793 -0.0000001264471781
1.0000009480613561 0.9999981919473044 0.0000007374372521
0.9999995945709116 0.9999978029045966 0.0000002332700026
1.0000009193646515 0.9999993749349275 -0.0000000141212492
1.0000000167362229 1.0000035353968875 -0.0000006833798781
0.9999966958004676 0.9999992865184123 -0.0000016657589158
0.9999979170138187 0.9999884299691144 -0.0000010123309235
0.9999990189056264 0.9999993124047841 -0.0000016107141583
1.0000011308622321 1.0000003407919975 -0.0000003572216557
0.9999999934038553 0.9999944768539963 0.0000009596142855
0.9999948150532751 1.0000003758304321 -0.0000008405646147
0.9999973985721632 1.0000208202959853 0.0000056774120029
0.9999998508655408 0.9999985132985975 -0.0000008837977592
1.0000001394716620 1.0000001847232090 0.0000009612156040
1.0000208202954168 0.9999973985724190 -0.0000056774118821
1.0000001207983082 1.0000021145319047 0.0000003713566465
1.0000001277033197 0.9999983873529740 0.0000010613675247
1.0000052013973726 1.0000002086065924 -0.0000004578143237
0.9999952220020111 1.0000000492082997 0.0000012139122712
1.0000084083472291 1.0000190375676312 0.0000018640189628
0.9999979124997502 1.0000054456969130 0.0000036836671002
1.0000055632954929 1.0000036319832835 0.0000133444179161
0.9999972429769317 0.9999997943683806 -0.0000010652843100
1.0000003111991120 0.9999989580562613 0.0000005228227604
0.9999967855598463 0.9999938741618420 -0.0000115030405358
1.0000044315361438 0.9999999513440025 0.0000007735615890
0.9999962754743125 1.0000000644046942 -0.0000004756247070
0.9999999584973978 1.0000002370953684 -0.0000013735100988
1.0000002669414816 0.9999967620128674 -0.0000028111100997
0.9999990285005771 0.9999989308410316 0.0000007517590641
1.0000035896599604 0.9999998784145248 -0.0000005775274222
1.0000002063981666 0.9999938858685523 0.0000035838921446
1.0000015485566154 1.0000081691846114 0.0000042336941467
0.9999989243363360 1.0000001388626238 0.0000010324092756
1.0000004094441364 0.9999988486394089 0.0000002387473435
0.9999968343813233 1.0000009892573036 -0.0000022554746603
0.9999986709085864 0.9999987485188200 0.0000013869487232
1.0000051930669649 1.0000003137368425 -0.0000011018047741
0.9999996680743253 1.0000001088481858 -0.0000000253139316
1.0000000364326034 1.0000001401866909 -0.0000010565540577
1.0000019889005851 1.0000001229977833 0.0000000092174811
1.0000000093082879 1.0000023072264581 0.0000000120574578
1.0000059517797402 1.0000014083195401 -0.0000041585145202
1.0000011053189326 1.0000000649142018 0.0000003478766049
0.9999999242063703 0.9999999728381893 -0.0000004462048905
1.0000011915320266 1.0000010956601395 -0.0000004164799441
0.9999993488458153 1.0000027664027960 0.0000002995703551
0.9999993446981167 1.0000009172691193 0.0000012160950908
1.0000015499969694 1.0000004862128553 0.0000010703019766
1.0000004263739082 0.9999997241446054 0.0000040767298316
1.0000047999437338 1.0000012211433726 -0.0000006057320529
1.0000017172447435 0.9999995111982981 -0.0000000736797078
1.0000024149138840 0.9999991531132514 0.0000008388354086
0.9999959331934124 0.9999993910813770 0.0000016360187548
1.0000040802349575 0.9999905338668221 0.0000035171707735
0.9999998425644391 1.0000085728734254 -0.0000054332596859
0.9999967888329513 0.9999905338612969 0.0000026333093284
0.9999827414374169 0.9999975527330350 0.0000034760005448
1.0000178686490673 1.0000044099480290 -0.0000049782326854
1.0000178686534293 1.0000001816875770 -0.0000052783003958
1.0000007532688042 0.9999975547732751 0.0000063299724120
1.0000004199028492 1.0000046940851577 0.0000009125885088
0.9999982889208783 0.9999932507750419 -0.0000010860999236
0.9999991114004035 0.9999983754525801 0.0000006375001818
0.9999997033062031 0.9999996163738651 0.0000005874324628
0.9999942717901500 0.9999988051040526 -0.0000014542487357
0.9999947281463322 1.0000016267432168 -0.0000013096980859
0.9999978507596515 1.0000010826043879 -0.0000012175749506
1.0000012340266684 0.9999999559928807 0.0000002003650973
0.9999984442596256 1.0000004608057675 0.0000058301457723
1.0000002504745440 0.9999993035693464 -0.0000014050159752
0.9999993036475635 1.0000043624419817 -0.0000089311119486
0.9999979599235995 1.0000092899312392 0.0000091788439032
0.9999985569646448 1.0000027965591971 -0.0000037569526008
1.0000004792413602 1.0000018562305797 0.0000007834059965
0.9999998509344803 0.9999969335577533 0.0000000987883981
0.9999998477860613 1.0000032545740865 -0.0000002076882929
1.0000014729779141 1.0000046305543018 -0.0000031914385828
1.0000016379918863 1.0000003402290365 0.0000021858440008
1.0000001622735399 0.9999970369051275 -0.0000016629510687
0.9999992019147885 1.0000029968491468 -0.0000010415178934
1.0000017318378194 0.9999994191963477 -0.0000013140679370
0.9999992647357859 0.9999987103474576 -0.0000004574933091
0.9999977961918631 0.9999991633100761 0.0000008845786231
1.0000000682319383 0.9999957911146665 0.0000027045935282
0.9999998272927546 1.0000006070021086 -0.0000015526341581
0.9999996055938384 1.0000002124350587 0.0000013191322476
0.9999996135581577 0.9999977453926376 -0.0000047185550111
1.0000073549467186 1.0000015541380711 -0.0000004549977136
1.0000070728961377 0.9999974952135746 0.0000024881219286
0.9999993618746935 0.9999948677957502 0.0000001216070968
1.0000007400645010 0.9999996440383284 0.0000070760549381
0.9999994610088817 0.9999958254365738 0.0000006808518355
0.9999986271574604 1.0000022313967063 -0.0000015529461501
1.0000022847871408 1.0000016159277685 0.0000003803084833
1.0000004747268183 0.9999997615138303 0.0000009869061663
1.0000005695272940 0.9999965409945161 0.0000011517010298
1.0000001092745059 1.0000017089230040 0.0000001172090560
0.9999995792840992 0.9999998220996186 -0.0000000369103188
1.0000005026662024 0.9999970828479007 -0.0000015405960906
1.0000003468225682 1.0000012009078401 -0.0000024146512005
1.0000002845216156 1.0000034814861571 0.0000017842798862
0.9999995882785321 0.9999936751065173 -0.0000030540707241
0.9999990624741920 0.9999986023898439 -0.0000020035412937
1.0000001744153577 1.0000016666978131 -0.0000020950218518
0.9999990399283819 1.0000041279320420 0.0000009144234074
1.0000005514485497 0.9999915570608839 0.0000003090688245
0.9999982245501239 1.0000003300119624 0.0000011663678760
1.0000001432848793 0.9999996193851037 -0.0000009850174395
0.9999997348144234 0.9999967440272981 0.0000002676417709
0.9999982242865897 0.9999985693809786 -0.0000024124848229
1.0000002026485191 0.9999978139649958 -0.0000009042822634
1.0000005228075710 0.9999974636589580 -0.0000010320540183
1.0000002916565571 0.9999986248663234 0.0000039172340072
0.9999993995261460 0.9999993220332506 0.0000011795954546
0.9999998877518876 1.0000013655036102 0.0000008507905098
0.9999988114836698 1.0000000742048956 0.0000013080309016
0.9999999408942969 1.0000010058647071 0.0000014320692783
0.9999993209602478 0.9999982889031191 0.0000028847063528
0.9999995505156897 0.9999988953504400 -0.0000013184250349
1.0000003620811946 1.0000005101368434 -0.0000000747682612
0.9999992143298955 0.9999982812165237 -0.0000003663091739
0.9999996032295922 1.0000099025098053 0.0000009308677443
0.9999989697739149 0.9999955670790982 0.0000012630358354
0.9999997148822158 0.9999990103108020 -0.0000015318985457
1.0000012901838877 0.9999960514127778 0.0000001153190972
1.0000006129218024 0.9999986109727926 -0.0000004321839176
1.0000001952702788 0.9999984135749257 -0.0000007328621382
1.0000013809754043 0.9999990985675754 -0.0000007069007590
1.0000007283041277 0.9999991842553737 -0.0000007477638189
1.0000010560093289 1.0000041309887633 0.0000020544926060
0.9999977627647366 0.9999993584618115 0.0000000574630214
0.9999977627641768 1.0000017659674019 0.0000013468291241
1.0000045114236411 0.9999993584627606 -0.0000009720373217
1.0000021421171035 1.0000039047079452 0.0000012930586566
0.9999977627651176 0.9999983289676222 0.0000017446205393
0.9999977627649542 0.9999983289676933 0.0000017446204941
0.9999993539440819 0.9999993584731983 -0.0000033795328244
0.9999977627671552 1.0000041734825500 0.0000026362029105
0.9999977627636653 1.0000017659672260 0.0000013468299199
0.9999977627678942 1.0000041734819531 0.0000026362035837
1.0000045114233569 0.9999993584640715 -0.0000009720368492
0.9999977627617452 0.9999993584627832 0.0000000574637302
0.9999977627644098 0.9999993584615682 0.0000000574637621
1.0000023519372843 1.0000001640655838 0.0000012415410842
1.0000045114243445 0.9999993584626966 -0.0000009720367231
1.0000045114228808 0.9999993584631371 -0.0000009720373413
1.0000010471776717 1.0000041472875076 0.0000020716830618
0.9999968704162229 1.0000014512856736 0.0000061849284837
0.9999976846748320 1.0000041305655678 0.0000025694799624
0.9999977627611697 0.9999993584619732 0.0000000574621492
0.9999977627617097 0.9999993584618027 0.0000000574627461
1.0000011204940000 0.9999993592082675 -0.0000004599992324
0.9999977627609565 0.9999993584631385 0.0000000574632523
1.0000045114231721 0.9999993584628174 -0.0000009720363501
0.9999977627612479 0.9999993584625985 0.0000000574618526
1.0000045114230585 0.9999993584639472 -0.0000009720370926
0.9999977627606581 0.9999993584631740 0.0000000574627887
1.0000045114232077 0.9999993584644978 -0.0000009720368315
1.0000045114254996 1.0000062324920793 -0.0000017676398691
0.9999985618877962 0.9999993592697034 -0.0000016593421106
0.9999977627610560 0.9999993584631101 0.0000000574633358
0.9999977627608571 0.9999993584629822 0.0000000574624654
1.0000045114229910 0.9999993584634072 -0.0000009720373875
0.9999977627616387 0.9999993584620442 0.0000000574617229
0.9999977627605409 0.9999993584630958 0.0000000574627425
0.9999977627616813 0.9999993584617884 0.0000000574628242
0.9999977627610951 0.9999993584623000 0.0000000574630889
0.9999977627679937 1.0000041734820313 0.0000026362034487
0.9999977627611448 0.9999993584627690 0.0000000574631990
0.9999977815460125 0.9999979085129544 -0.0000007103045242
0.9999977627616387 0.9999993584619696 0.0000000574632008
1.0000045114232148 0.9999993584632508 -0.0000009720370340
0.9999977627677912 1.0000041734824932 0.0000026362028963
0.9999977627608144 0.9999993584624564 0.0000000574627425
0.9999977627727833 0.9999972994754638 0.0000034317753132
1.0000045114237406 0.9999993584636629 -0.0000009720365561
1.0000011370679887 0.9999993584589720 -0.0000004572928578
1.0000045114240390 0.9999993584621601 -0.0000009720369185
1.0000026857685120 1.0000009762389177 0.0000032219419578
0.9999977627676526 1.0000041734815552 0.0000026362034842
1.0000011367824408 0.9999993580860508 -0.0000004577866514
0.9999977627608393 0.9999993584615611 0.0000000574622380
0.9999977569009096 0.9999972653923389 0.0000003123710521
0.9999977627620223 0.9999993584617742 0.0000000574631226
1.0000045114233711 0.9999993584629346 -0.0000009720373164
1.0000045114230478 0.9999993584632650 -0.0000009720371761
0.9999977627606084 0.9999993584632522 0.0000000574628633
0.9999985583176225 0.9999993581968440 -0.0000016613523729
1.0000045114235061 0.9999993584626113 -0.0000009720370428
1.0000011370699693 0.9999993584551671 -0.0000004572967036
1.0000035938631084 1.0000062058330799 -0.0000008453770535
0.9999992251042265 1.0000020335231010 -0.0000007826467635
0.9999977627611661 0.9999993584627690 0.0000000574625027
0.9999982539644978 1.0000022954945289 -0.0000013715481619
1.0000045114245790 0.9999993584618795 -0.0000009720371263
1.0000045114240497 0.9999993584617445 -0.0000009720368688
1.0000045114227778 0.9999993584627392 -0.0000009720376255
1.0000041878636741 0.9999986684711160 0.0000002080941740
0.9999985020930021 1.0000013476629201 -0.0000003986873931
1.0000011370887303 1.0000041734780958 0.0000021214568279
1.0000045114232787 0.9999993584629098 -0.0000009720371592
0.9999965844595842 1.0000010343290668 0.0000004049606684
0.9999977627724991 0.9999972994754140 0.0000034317750485
0.9999977627608215 0.9999993584621437 0.0000000574629663
1.0000045114232006 0.9999993584628813 -0.0000009720374976
1.0000011371070241 0.9999993584291007 -0.0000004573192944
0.9999977627614965 0.9999993584618933 0.0000000574629486
0.9999977627607292 0.9999993584619732 0.0000000574627141
0.9999977627608500 0.9999993584620194 0.0000000574629184
0.9999996714331669 1.0000014971284674 -0.0000015060912608
0.9999977627607718 0.9999993584620052 0.0000000574626732
0.9999977627609317 0.9999993584620300 0.0000000574626910
0.9999977627609068 0.9999993584617032 0.0000000574627976
0.9999979287521605 0.9999974996144960 -0.0000015023642468
0.9999977627610986 0.9999993584623089 0.0000000574631084
0.9999985579204509 0.9999993582491894 -0.0000016613776014
0.9999977627604734 0.9999993584635080 0.0000000574634530
0.9999977627610027 0.9999993584618737 0.0000000574624387
0.9999977627609139 0.9999993584618346 0.0000000574626128
0.9999977278155544 0.9999961397129243 0.0000049408298002
0.9999977627611697 0.9999993584617103 0.0000000574627318
0.9999977627598055 0.9999993584628685 0.0000000574624157
1.0000045114229092 0.9999993584635493 -0.0000009720372080
1.0000045114236553 0.9999993584630590 -0.0000009720371494
1.0000011370882009 1.0000041734788667 0.0000021214578635
0.9999970941783949 1.0000066088345960 -0.0000005164659035
0.9999977627611626 0.9999993584619234 0.0000000574621314
1.0000005324902241 1.0000076610059618 0.0000016092608825
0.9999990023027955 1.0000017347474492 -0.0000009762131213
0.9999951406183487 1.0000094064363498 -0.0000007534046938
0.9999993539440251 0.9999993584731841 -0.0000033795326290
0.9999977627607718 0.9999993584624848 0.0000000574626466
0.9999977627605728 0.9999993584624564 0.0000000574633518
0.9999986703320315 1.0000019983678294 -0.0000006404539652
0.9999977627635597 1.0000000474652568 0.0000015457254405
1.0000045114231153 0.9999993584631087 -0.0000009720371921
0.9999977627609423 0.9999993584619234 0.0000000574627780
0.9999961155182432 0.9999977002370510 -0.0000015995512562
0.9999977627611306 0.9999993584620300 0.0000000574628793
0.9999977627609139 0.9999993584621721 0.0000000574625382
1.0000045114232485 0.9999993584628103 -0.0000009720367568
0.9999977627607718 0.9999993584626127 0.0000000574628011
1.0000045114245535 1.0000041734771485 0.0000016067094543
0.9999977627615569 0.9999993584619377 0.0000000574628473
1.0000045114239040 0.9999993584627250 -0.0000009720368208
0.9999977627592228 0.9999993584625807 0.0000000574629770
0.9999977627676953 1.0000041734818537 0.0000026362032675
0.9999977627612976 0.9999993584618204 0.0000000574627283
0.9999978494609532 0.9999994847032648 0.0000015553193419
1.0000045114232787 0.9999993584630377 -0.0000009720374212
0.9999996331087524 0.9999938718105306 -0.0000015035564845
1.0000011372376538 0.9999993584487793 -0.0000004572643339
0.9999910141799505 1.0000041734879859 0.0000036656832728
1.0000045114230300 0.9999993584627606 -0.0000009720373875
0.9999977627608180 0.9999993584621011 0.0000000574623855
0.9999998064564578 0.9999976111977349 0.0000029295775716
0.9999977627611271 0.9999993584617884 0.0000000574629237
1.0000011370213895 0.9999993584403131 -0.0000004573245995
0.9999993539431014 0.9999993584732978 -0.0000033795333822
0.9999977627616751 1.0000005622137036 0.0000007021452993
0.9999977627611697 0.9999993584617760 0.0000000574627940
0.9999977627610738 0.9999993584614616 0.0000000574622700
1.0000046298398158 0.9999969263731578 -0.0000029167416761
0.9999990403856306 1.0000010441281628 0.0000014692417957
0.9999977627619513 0.9999993584615113 0.0000000574625880
0.9999977627610560 0.9999993584620016 0.0000000574627141
1.0000045114230371 0.9999993584632970 -0.0000009720372027
1.0000045114229590 0.9999993584629115 -0.0000009720373768
0.9999982530741511 0.9999975302844116 -0.0000006927596352
0.9999977627608997 0.9999993584617956 0.0000000574625684
0.9999985583511886 0.9999993584644620 -0.0000016610338866
0.9999977627605835 0.9999993584625558 0.0000000574630622
0.9999977627610525 0.9999993584619874 0.0000000574625080
0.9999977627610702 0.9999993584622610 0.0000000574627585
0.9999977627606297 0.9999993584625914 0.0000000574626039
0.9999977627681820 1.0000041734815694 0.0000026362030313
1.0000011370837625 1.0000017659664471 0.0000008320831481
1.0000045114237015 0.9999993584628600 -0.0000009720371761
0.9999977627608286 0.9999993584617032 0.0000000574627834
0.9999977627609103 0.9999993584619163 0.0000000574627318
1.0000045114245038 1.0000041734774185 0.0000016067094863
1.0000056959025274 0.9999969063874052 -0.0000022640982945
1.0000045114228879 0.9999993584630377 -0.0000009720373128
1.0000010813990983 1.0000038051962632 0.0000003239204427
0.9999977627680647 1.0000041734817684 0.0000026362031112
1.0000045237793191 0.9999993693940255 -0.0000009604150734
1.0000011647123359 1.0000072211409841 -0.0000028773167479
1.0000045114238258 0.9999993584627961 -0.0000009720374141
1.0000045114247951 1.0000041734773439 0.0000016067095786
1.0000045114229021 0.9999993584634711 -0.0000009720372027
0.9999985583517570 0.9999993584642914 -0.0000016610342916
0.9999977627609850 0.9999993584622325 0.0000000574628828
1.0000045114245428 1.0000041734773475 0.0000016067093282
0.9999995892444992 0.9999982071346587 0.0000021671872933
0.9999977627611057 0.9999993584617316 0.0000000574628278
0.9999977627609850 0.9999993584620975 0.0000000574629752
1.0000087402953013 0.9999986476220069 -0.0000046826169329
1.0000037392681111 1.0000066777490206 0.0000029847649303
1.0000011370861446 0.9999969509666731 -0.0000017466481212
0.9999984486123762 0.9999973153607365 0.0000017081092934
1.0000045114230620 0.9999993584626256 -0.0000009720374816
0.9999993539430729 0.9999993584729709 -0.0000033795333342
1.0000011370842325 1.0000041734780425 0.0000021214559522
0.9999977627608109 0.9999993584620442 0.0000000574627532
1.0000045114229448 0.9999993584627321 -0.0000009720374372
1.0000011370873187 0.9999972994723205 0.0000029170326821
1.0000045114232397 0.9999993584631087 -0.0000009720368688
0.9999998693988579 1.0000050662082764 0.0000008518224703
0.9999985420724212 0.9999993618729467 -0.0000016605854858
0.9999977627611697 0.9999993584621579 0.0000000574629717
1.0000045114231721 0.9999993584629844 -0.0000009720373111
0.9999977627608286 0.9999993584619377 0.0000000574625613
0.9999976553251969 1.0000016546464994 -0.0000049321178401
1.0000010667332748 1.0000039133987111 0.0000030323082258
0.9999977627608073 0.9999993584624137 0.0000000574626928
0.9999979445945673 1.0000035903094495 0.0000023109423845
0.9999983420180577 0.9999939772387445 -0.0000016816499822
1.0000045114230300 0.9999993584631585 -0.0000009720372169
0.9999977627607860 0.9999993584621437 0.0000000574628597
0.9999993539432079 0.9999993584733546 -0.0000033795332401
1.0000011370833772 0.9999993584621730 -0.0000004572854770
0.9999962479460790 0.9999972790994106 -0.0000018890955705
0.9999977627679688 1.0000041734815694 0.0000026362031663
0.9999993539320268 1.0000041734755996 -0.0000008007989998
1.0000045114229661 0.9999993584629666 -0.0000009720374301
0.9999977627608144 0.9999993584620300 0.0000000574627869
0.9999972430386171 0.9999984015629279 -0.0000006976215576
0.9999989323557170 1.0000062446269058 -0.0000009364454110
0.9999977627727193 0.9999972994748811 0.0000034317751533
0.9999977627608855 0.9999993584618027 0.0000000574628331
0.9999978425189259 1.0000018365255368 0.0000014218483792
0.9999977627606865 0.9999993584623640 0.0000000574629503
0.9999977627605871 0.9999993584616321 0.0000000574621741
0.9999977627607753 0.9999993584620727 0.0000000574627194
1.0000045114230158 0.9999993584631727 -0.0000009720375154
1.0000045114230016 0.9999993584629169 -0.0000009720374301
1.0000037080973843 0.9999960526254766 0.0000011457780255
0.9999977627607576 0.9999993584618666 0.0000000574622167
0.9999971635952981 1.0000038213817664 0.0000008351413652
0.9999977627681322 1.0000041734811431 0.0000026362033688
1.0000045114228169 0.9999993584632402 -0.0000009720370446
0.9999999025526616 0.9999884259977987 0.0000041552888955
0.9999977627608997 0.9999993584619874 0.0000000574627674
0.9999980843484899 1.0000021921482138 0.0000017240715371
1.0000045114248199 1.0000041734773475 0.0000016067094649
0.9999977079758975 1.0000006838310405 0.0000008064085476
0.9999977627609139 0.9999993584618950 0.0000000574627390
1.0000045114229021 0.9999993584627321 -0.0000009720374656
0.9999977627608002 0.9999993584620727 0.0000000574626093
1.0000011371137174 0.9999993584101718 -0.0000004573394339
0.9999995667123130 1.0000022416345720 -0.0000007858823032
0.9999989094037582 0.9999947923680227 -0.0000040457724602
0.9999977627612976 0.9999993584618240 0.0000000574628828
1.0000045114229021 0.9999993584628849 -0.0000009720374923
0.9999981344960086 0.9999986147961970 0.0000020712239140
0.9999979879023091 1.0000002312046323 -0.0000003558237868
1.0000045114249514 1.0000041734771663 0.0000016067093442
0.9999977627637605 0.9999983289677785 0.0000017446206646
0.9999977627608109 0.9999993584618950 0.0000000574627381
0.9999993539432719 0.9999993584729283 -0.0000033795332863
1.0000019710918400 0.9999970215874786 -0.0000065165319351
0.9999977627608144 0.9999993584619608 0.0000000574628615
0.9999977627609565 0.9999993584621935 0.0000000574629663
1.0000050011457222 1.0000021435367945 0.0000007485878537
1.0000045114228879 0.9999993584631904 -0.0000009720373519
0.9999977627676668 1.0000041734816441 0.0000026362033013
0.9999977627678089 1.0000041734817542 0.0000026362031441
0.9999993539324957 1.0000041734745906 -0.0000008007986303
1.0000011370833275 0.9999993584621268 -0.0000004572856475
0.9999979362583238 1.0000006454455366 0.0000008277095510
1.0000045114231864 0.9999993584627179 -0.0000009720374985
0.9999977627608784 0.9999993584618453 0.0000000574628171
1.0000045114278544 0.9999972994690107 0.0000024022872713
0.9999977627607647 0.9999993584622929 0.0000000574629379
0.9999977627607292 0.9999993584617174 0.0000000574625791
0.9999977627680505 1.0000041734816050 0.0000026362034061
0.9999977627607576 0.9999993584622929 0.0000000574629308
1.0000045114230158 0.9999993584639081 -0.0000009720375011
0.9999977627608500 0.9999993584617600 0.0000000574627212
1.0000012968863607 0.9999958529505002 -0.0000052063777818
0.9999978796542491 0.9999993391705692 0.0000001026674156
0.9999977627640092 0.9999983289678211 0.0000017446203919
0.9999985570560280 1.0000072062285119 -0.0000016693708315
0.9999998860967479 1.0000018792634568 0.0000013537409269
0.9999977627609139 0.9999993584620442 0.0000000574626999
0.9999977627606155 0.9999993584621437 0.0000000574629450
0.9999993539359300 1.0000017659698945 -0.0000020901693658
0.9999977627607611 0.9999993584624137 0.0000000574628988
0.9999977627606723 0.9999993584618311 0.0000000574626466
0.9999977627606155 0.9999993584621331 0.0000000574630356
1.0000019258449382 0.9999892295328136 0.0000024491753684
0.9999977627606865 0.9999993584619021 0.0000000574625720
1.0000007022026680 1.0000027565176095 0.0000006103352286
0.9999977627607185 0.9999993584620442 0.0000000574627390
1.0000045114246814 1.0000041734775216 0.0000016067092749
1.0000011298712044 1.0000018616677604 0.0000008791631909
0.9999926053334603 0.9999993584668784 -0.0000023500223016
0.9999982047368464 0.9999958655314380 -0.0000016069002410
1.0000045114231721 0.9999993584627606 -0.0000009720373128
1.0000045114228453 0.9999993584632082 -0.0000009720371352
0.9999977627606013 0.9999993584621046 0.0000000574629610
1.0000045114228240 0.9999993584628103 -0.0000009720373200
1.0000000914200826 0.9999934986541430 0.0000030011571256
0.9999977627610134 0.9999993584617742 0.0000000574626768
1.0000103119241786 0.9999982957088299 -0.0000014398950988
0.9999966676150491 1.0000036931162100 -0.0000056553559660
1.0000011365852368 0.9999993585341652 -0.0000004573091611
0.9999977627608855 0.9999993584617245 0.0000000574628775
0.9999924312857090 1.0000002959562586 -0.0000000690384321
1.0000045114231153 0.9999993584627250 -0.0000009720371494
0.9999977627610489 0.9999993584618169 0.0000000574625720
0.9999977627626847 1.0000017659676594 0.0000013468300620
0.9999976116735455 0.9999967516973473 0.0000006855204653
0.9999977627611377 0.9999993584617884 0.0000000574628047
0.9999978550066034 0.9999994400696294 0.0000001442289743
0.9999977627609480 0.9999959214746369 0.0000004552569303
1.0000045114248519 1.0000041734773191 0.0000016067094117
1.0000011370833701 0.9999993584621553 -0.0000004572854521
0.9999992035174022 1.0000010394135526 -0.0000004596181986
1.0000011370833257 0.9999993584620132 -0.0000004572855889
0.9999977627725506 0.9999972994748811 0.0000034317750716
0.9999977343010874 0.9999994749665623 0.0000001054525468
1.0000045114230300 0.9999993584627357 -0.0000009720372311
0.9999977627606865 0.9999993584621650 0.0000000574629130
0.9999977627605373 0.9999993584619803 0.0000000574625578
0.9999977627608002 0.9999993584619306 0.0000000574626182
1.0000045114230371 0.9999993584626682 -0.0000009720374194
1.0000011370875437 1.0000041734792469 0.0000021214581415
1.0000011370833382 0.9999993584621482 -0.0000004572855694
0.9999977627608428 0.9999993584618666 0.0000000574628100
1.0000011370833275 0.9999993584619492 -0.0000004572855019
1.0000023088743981 0.9999988906817795 -0.0000023100310504
0.9999977627608997 0.9999993584618844 0.0000000574625595
1.0000045114229874 0.9999993584632366 -0.0000009720373200
0.9999977627607576 0.9999993584617956 0.0000000574626857
1.0000045114229874 0.9999993584630235 -0.0000009720374603
1.0000045114228986 0.9999993584629098 -0.0000009720374816
0.9999977627607149 0.9999993584619945 0.0000000574627141
0.9999977627608286 0.9999993584618950 0.0000000574627425
0.9999977626889504 0.9999993584233765 0.0000000574024725
0.9999977627611413 0.9999993584617316 0.0000000574627745
1.0000032001615915 1.0000014796145571 -0.0000015212195819
0.9999977627607860 0.9999993584618666 0.0000000574623482
1.0000045114229874 0.9999993584629489 -0.0000009720374674
0.9999977627606226 0.9999993584618169 0.0000000574627514
1.0000045114227600 0.9999993584630519 -0.0000009720372915
0.9999977627607007 0.9999993584619767 0.0000000574626786
0.9999977627607860 0.9999993584621775 0.0000000574625205
1.0000045114241953 0.9999993584617480 -0.0000009720373555
0.9999977627608855 0.9999993584616179 0.0000000574626537
0.9999993539320836 1.0000041734755640 -0.0000008007989643
1.0000030107362863 1.0000071736286289 -0.0000030810627328
1.0000001073106863 1.0000028960462919 -0.0000006178544581
1.0000000586063607 1.0000015657402737 -0.0000014564757659
0.9999977627725986 0.9999972994750588 0.0000034317751444
0.9999977627608002 0.9999993584621544 0.0000000574626839
0.9999989260471343 1.0000003636071104 -0.0000010967251029
0.9999977627608713 0.9999993584619590 0.0000000574627887
0.9999977627608428 0.9999993584621295 0.0000000574627265
1.0000044618111656 1.0000008303832242 -0.0000000888079058
0.9999977627608215 0.9999993584619874 0.0000000574623109
0.9999998459099715 0.9999981796584472 -0.0000062104302280
1.0000045114245535 1.0000041734772480 0.0000016067092962
0.9999993539462882 1.0000027954810500 -0.0000037773364494
1.0000045114229767 0.9999993584629524 -0.0000009720373963
0.9999977711607043 0.9999993502384205 0.0000000496942700
0.9999977627607576 0.9999993584629253 0.0000000574627105
1.0000045114227565 0.9999993584628956 -0.0000009720372569
1.0000009623734998 0.9999999269495499 0.0000021354880558
0.9999919496081888 1.0000021001135126 0.0000005342739094
0.9999977556232029 1.0000000564660112 0.0000010784968264
1.0000045114278082 0.9999972994684565 0.0000024022874081
1.0000016791869693 1.0000027337060791 0.0000036933004918
0.9999997318107612 1.0000020108206402 -0.0000000418284147
0.9999987601143936 1.0000027625591839 0.0000052937747566
1.0000011370896169 1.0000007364665369 0.0000025192469236
0.9999977627609281 0.9999993584618027 0.0000000574627674
0.9999977627608180 0.9999993584618524 0.0000000574627070
0.9999993539360366 1.0000017659702427 -0.0000020901694635
0.9999977627626438 1.0000017659671958 0.0000013468296517
1.0000035170428372 1.0000067162380752 0.0000034603278223
1.0000045114221292 1.0000017659660079 0.0000003173329412
1.0000045114248199 1.0000041734775038 0.0000016067095289
1.0000045114230727 0.9999993584629204 -0.0000009720373484
0.9999977627608428 0.9999993584617529 0.0000000574627301
1.0000011370673358 1.0000041734819505 0.0000021214566716
0.9999977627609068 0.9999993584618737 0.0000000574627532
1.0000045114229625 0.9999993584628174 -0.0000009720374079
0.9999977627606013 0.9999993584620833 0.0000000574628633
0.9999981458475306 1.0000041766792731 -0.0000013276716625
0.9999933454926674 1.0000003892472524 -0.0000029634764995
0.9999989559238375 1.0000018580188197 0.0000003446823066
1.0000045114229306 0.9999993584629773 -0.0000009720374550
1.0000011370833204 0.9999993584620345 -0.0000004572855401
0.9999977627608357 0.9999993584619945 0.0000000574625933
1.0000045114232361 0.9999993584626469 -0.0000009720371610
1.0000045114279077 0.9999972994689397 0.0000024022872589
0.9999994582972186 0.9999982987954141 -0.0000016588465989
1.0000011370832849 0.9999993584619634 -0.0000004572855125
0.9999993539438972 0.9999993584734328 -0.0000033795331673
0.9999984041450285 1.0000001399815734 -0.0000013211518340
0.9999977627606581 0.9999993584619448 0.0000000574628171
0.9999977906785700 0.9999970882001916 -0.0000046941965844
0.9999977627604876 0.9999993584620549 0.0000000574629308
0.9999977627614397 0.9999993584610708 0.0000000574622345
1.0000045114230371 0.9999993584626256 -0.0000009720374780
0.9999997251939496 0.9999994113723869 0.0000010018636426
1.0000045114229448 0.9999993584628245 -0.0000009720374763
1.0000003645852134 0.9999970410585777 0.0000000308835584
1.0000045114231153 0.9999993584629808 -0.0000009720373164
0.9999994574064677 1.0000037110166324 -0.0000018574447524
1.0000045114227742 0.9999993584630679 -0.0000009720373395
0.9999977627608375 0.9999993584619803 0.0000000574626448
0.9999977627607469 0.9999993584621011 0.0000000574628624
0.9999977627607576 0.9999993584619377 0.0000000574626572
1.0000029179077621 1.0000002751191650 -0.0000012249595158
0.9999977627628979 1.0000017659670875 0.0000013468299714
0.9999977627608855 0.9999993584618311 0.0000000574627478
1.0000011370834003 0.9999993584619847 -0.0000004572854770
0.9999977627617358 0.9999988437145325 0.0000009010418421
0.9999993539430729 0.9999993584730278 -0.0000033795334852
1.0000011370835158 0.9999993584621695 -0.0000004572855276
0.9999977627608428 0.9999993584615753 0.0000000574626715
1.0000045114229732 0.9999993584630963 -0.0000009720374585
1.0000045114232237 0.9999993584629098 -0.0000009720371832
1.0000045114230656 0.9999993584627321 -0.0000009720372063
0.9999880382231560 0.9999999280498458 0.0000006074731066
1.0000011370835149 0.9999993584621268 -0.0000004572857062
0.9999993153499208 1.0000029572408251 -0.0000003257571214
1.0000045114231828 0.9999993584632508 -0.0000009720372773
1.0000045114230371 0.9999993584628885 -0.0000009720375686
0.9999998535783972 0.9999992558373483 0.0000019850980545
1.0000045114230016 0.9999993584630732 -0.0000009720374923
0.9999977627608819 0.9999993584618737 0.0000000574626608
1.0000021877133671 0.9999998351268575 -0.0000018108026708
0.9999977627607860 0.9999993584617671 0.0000000574627354
0.9999977627608571 0.9999993584621011 0.0000000574626857
1.0000011370834199 0.9999993584620274 -0.0000004572856351
1.0000045114228737 0.9999993584628210 -0.0000009720374265
0.9999993539428900 0.9999993584734257 -0.0000033795332810
1.0000015238808135 0.9999997289668929 -0.0000003839268321
1.0000045114230585 0.9999993584628529 -0.0000009720373697
0.9999977627611271 0.9999993584616819 0.0000000574626857
0.9999996253663861 1.0000086315703238 0.0000009610494054
0.9999977627608713 0.9999993584618808 0.0000000574628828
1.0000045114227742 0.9999993584625758 -0.0000009720369292
1.0000006486098174 0.9999978900445491 0.0000020237060672
0.9999977627677237 1.0000041734815694 0.0000026362032888
0.9999977627608713 0.9999993584618311 0.0000000574626324
0.9999977627607860 0.9999993584618453 0.0000000574627603
0.9999993539427745 0.9999993584733404 -0.0000033795335634
0.9999986674831888 1.0000101267421946 -0.0000024796869928
1.0000011370751027 0.9999972994674178 0.0000029170243190
0.9999993539429166 0.9999993584731628 -0.0000033795333982
0.9999959892668617 1.0000004250614072 0.0000017439422429
1.0000011370833470 0.9999993584619563 -0.0000004572856458
0.9999993539429060 0.9999993584733262 -0.0000033795335225
0.9999977627677521 1.0000041734816121 0.0000026362031112
1.0000011367339998 0.9999993582574762 -0.0000004575984605
0.9999977627607718 0.9999993584619803 0.0000000574626874
1.0000011370838426 1.0000027954674557 -0.0000008550841309
0.9999977627609068 0.9999993584618027 0.0000000574627585
1.0000045114231935 0.9999993584627108 -0.0000009720374052
1.0000045114232006 0.9999993584631727 -0.0000009720372560
0.9999977627680221 1.0000041734815552 0.0000026362032391
0.9999977627609210 0.9999993584620442 0.0000000574625205
0.9999987362676251 0.9999984836804680 0.0000012059482566
1.0000006060857691 1.0000037829762896 0.0000001775901085
1.0000045114231011 0.9999993584627606 -0.0000009720375029
1.0000045114231579 0.9999993584626575 -0.0000009720374567
0.9999993539431014 0.9999993584731575 -0.0000033795334071
0.9999977627609334 0.9999993584616037 0.0000000574628526
0.9999976480824267 0.9999997662383838 0.0000002579754224
1.0000045114230585 0.9999993584627535 -0.0000009720375900
1.0000011370877888 1.0000041734792220 0.0000021214579577
0.9999977627607292 0.9999993584620407 0.0000000574628065
0.9999918278537546 0.9999991087367671 0.0000009262639476
1.0000011370834483 0.9999993584621482 -0.0000004572855818
0.9999993539431618 0.9999993584733973 -0.0000033795332499
0.9999993539429699 0.9999993584732054 -0.0000033795334195
1.0000045114230336 0.9999993584627961 -0.0000009720375864
1.0000008920028227 0.9999993399925083 -0.0000003114134725
1.0000045114231153 0.9999993584627677 -0.0000009720373271
0.9999977627679084 1.0000041734820135 0.0000026362035730
1.0000011370834057 0.9999993584619918 -0.0000004572855037
1.0000045114222342 0.9999993584631727 -0.0000009720371849
1.0000006597828528 1.0000019597025940 0.0000001642268119
1.0000045114230869 0.9999993584629169 -0.0000009720374088
0.9999977627607718 0.9999993584618631 0.0000000574627354
1.0000045114221008 1.0000017659655247 0.0000003173328808
0.9999999439236079 1.0000002197213158 -0.0000016867220710
1.0000009451006653 1.0000041734923886 -0.0000042378123173
1.0000045114231153 0.9999993584627179 -0.0000009720373413
1.0000045114219160 1.0000017659658302 0.0000003173330798
0.9999993539431440 0.9999993584733120 -0.0000033795334994
0.9999977627608428 0.9999993584618631 0.0000000574628526
1.0000045114229519 0.9999993584623555 -0.0000009720377925
1.0000011370833346 0.9999993584619563 -0.0000004572856102
0.9999950564772274 1.0000051036348205 0.0000036844814217
1.0000045114230158 0.9999993584628245 -0.0000009720374585
0.9999977627608997 0.9999993584619234 0.0000000574625649
1.0000014267277129 1.0000000799545410 0.0000001794573324
0.9999977627725346 0.9999972994749167 0.0000034317750716
0.9999979962380213 0.9999992551449283 0.0000001135751703
1.0000011370838549 1.0000017659662837 0.0000008320831064
1.0000011370833177 0.9999993584621837 -0.0000004572855267
0.9999977627626279 1.0000017659675688 0.0000013468296357
0.9999977627612979 0.9999959214744877 0.0000004552571239
0.9999986171663839 1.0000002552200340 -0.0000018918655358
1.0000045114230585 0.9999993584627250 -0.0000009720374780
0.9999977627607043 0.9999993584618027 0.0000000574627425
0.9999977627607576 0.9999993584613799 0.0000000574624139
1.0000045114228808 0.9999993584626327 -0.0000009720371352
1.0000011370832369 0.9999993584621411 -0.0000004572854255
0.9999977627608926 0.9999993584617316 0.0000000574626039
0.9999985468127026 1.0000033376639239 -0.0000024749230576
1.0000011370833239 0.9999993584621251 -0.0000004572855276
1.0000006075134442 0.9999984177216136 -0.0000022180351576
0.9999977627611839 0.9999993584618808 0.0000000574623233
1.0000011370832849 0.9999993584621197 -0.0000004572854823
0.9999977627606581 0.9999993584619021 0.0000000574626715
0.9999977627612265 0.9999993584618098 0.0000000574629876
0.9999941964803263 1.0000041734846477 -0.0000032082825744
1.0000011370876467 1.0000041734792291 0.0000021214581051
0.9999994953683893 0.9999991327253814 0.0000000233578544
1.0000011370875144 1.0000041734791367 0.0000021214579666
1.0000024156279610 0.9999989644795285 -0.0000000066582367
0.9999977627606865 0.9999993584619021 0.0000000574626395
0.9999977627726838 0.9999972994749877 0.0000034317751533
0.9999977627606013 0.9999993584618737 0.0000000574626324
0.9999996008682328 1.0000010656416645 -0.0000004058012509
1.0000011370832564 0.9999993584618639 -0.0000004572854806
0.9999975714840319 1.0000050632243753 -0.0000014536326228
0.9999972997814277 0.9999990924848854 -0.0000004675760401
0.9999960403326087 1.0000006062023770 -0.0000007955988238
1.0000045114245961 1.0000041734773475 0.0000016067093388
1.0000045114231295 0.9999993584628245 -0.0000009720372525
0.9999977627607505 0.9999993584613763 0.0000000574625116
1.0000001647382475 1.0000025106875168 -0.0000001914286410
0.9999977627678693 1.0000041734817116 0.0000026362033181
0.9999995692018340 0.9999993297364240 -0.0000032927007264
0.9999977627607505 0.9999993584620265 0.0000000574626732
0.9999985583466979 0.9999993584736990 -0.0000016610246922
1.0000011370833772 0.9999993584621837 -0.0000004572857257
0.9999977091373528 1.0000027510304688 -0.0000013852322558
1.0000045114217881 1.0000017659657485 0.0000003173324012
0.9999993539430729 0.9999993584733049 -0.0000033795335296
1.0000011370877231 1.0000041734791723 0.0000021214580376
1.0000000206569173 0.9999982805364999 0.0000014795521858
0.9999977627607292 0.9999993584619874 0.0000000574628189
0.9999977627608748 0.9999993584616463 0.0000000574627727
0.9999977627677734 1.0000041734816902 0.0000026362033403
0.9999977627609459 0.9999993584617387 0.0000000574627532
0.9999985583514301 0.9999993584646325 -0.0000016610340145
0.9999997722617430 1.0000039790843829 0.0000008520915504
0.9999969745134252 0.9999905330562062 0.0000016003730275
1.0000045114230052 0.9999993584633503 -0.0000009720375260
1.0000045114246245 1.0000041734773368 0.0000016067093335
0.9999977627607078 0.9999993584618524 0.0000000574626661
1.0000008321082572 0.9999976673815153 0.0000002892296938
1.0000045114222500 1.0000017659655496 0.0000003173328275
1.0000011370833763 0.9999993584621411 -0.0000004572854806
0.9999977627611839 0.9999993584612484 0.0000000574629539
0.9999977627606581 0.9999993584618808 0.0000000574628100
1.0000045114230016 0.9999993584629808 -0.0000009720374479
1.0000045275915228 0.9999993537882030 -0.0000009668432986
0.9999977436687552 1.0000006848144052 0.0000015132039753
1.0000011370838531 1.0000017659662481 0.0000008320831206
0.9999977627604343 0.9999993584618524 0.0000000574627594
0.9999977627613233 1.0000005622136006 0.0000007021454400
1.0000045114239147 1.0000027954686188 -0.0000013698373638
1.0000045114231153 0.9999993584628032 -0.0000009720373590
0.9999977627626989 1.0000017659674054 0.0000013468299306
1.0000011370838691 1.0000017659664968 0.0000008320830416
1.0000045114246885 1.0000041734773475 0.0000016067093086
0.9999977627607540 0.9999993584618595 0.0000000574627647
0.9999977627626847 1.0000017659673024 0.0000013468299057
0.9999977627639239 0.9999983289678336 0.0000017446203564
1.0000045114246530 1.0000041734772338 0.0000016067093335
0.9999977627677663 1.0000041734816831 0.0000026362032178
1.0000011370916637 0.9999972994716952 0.0000029170330409
1.0000042468706176 1.0000005220432997 -0.0000004723588467
0.9999941577196065 0.9999985059835088 -0.0000020819254688
1.0000019476011957 1.0000024677904920 0.0000034588955306
0.9999996490258148 0.9999990303029334 -0.0000001370400415
0.9999977627608215 0.9999993584616605 0.0000000574625329
0.9999977627677166 1.0000041734817258 0.0000026362032355
1.0000011370842921 0.9999993584619279 -0.0000004572855498
1.0000045114229732 0.9999993584626824 -0.0000009720374763
0.9999977627607718 0.9999993584618311 0.0000000574626839
0.9999977627606581 0.9999993584620442 0.0000000574628615
0.9999977627604876 0.9999993584618311 0.0000000574624974
0.9999977627609139 0.9999993584614687 0.0000000574628411
1.0000011370876787 1.0000041734791083 0.0000021214580394
1.0000011370832529 0.9999993584620345 -0.0000004572856866
0.9999977627608215 0.9999993584618666 0.0000000574626572
1.0000045114230371 0.9999993584626824 -0.0000009720373644
0.9999977627604876 0.9999993584619075 0.0000000574626075
0.9999977627606794 0.9999993584621153 0.0000000574626253
1.0000045823636372 1.0000017454554020 0.0000003401235472
0.9999959623451172 0.9999983697615384 -0.0000012418388453
1.0000050145702968 0.9999986515819624 0.0000011237454166
1.0000040130565595 1.0000010090231963 0.0000010438662438
0.9999977627607931 0.9999993584618453 0.0000000574629130
1.0000045114229732 0.9999993584628707 -0.0000009720373146
0.9999993539433429 0.9999993584733369 -0.0000033795336575
0.9999977627608571 0.9999993584620727 0.0000000574626395
1.0000045114230460 0.9999993584626398 -0.0000009720374496
1.0000045114221470 1.0000017659655815 0.0000003173328622
0.9999977627638813 0.9999983289676311 0.0000017446207063
0.9999977627608997 0.9999993584618311 0.0000000574627496
0.9999990723942545 1.0000013725384220 0.0000007025223997
0.9999977627609423 0.9999993584619217 0.0000000574623215
1.0000033233118291 0.9999989523328789 0.0000017235718036
0.9999977627607824 0.9999993584618737 0.0000000574627088
1.0000045114230016 0.9999993584627321 -0.0000009720373715
0.9999977627639239 0.9999983289676702 0.0000017446206868
0.9999977604002170 0.9999993575717759 0.0000000559207448
0.9999985583493759 1.0000041734753187 0.0000009177034871
0.9999977627608997 0.9999993584619306 0.0000000574627993
1.0000045114228737 0.9999993584627819 -0.0000009720374052
1.0000013478873100 0.9999993998990874 -0.0000005573512604
1.0000005957255009 0.9999939248805492 -0.0000012328612096
0.9999977627606581 0.9999993584618453 0.0000000574627834
0.9999998477161762 0.9999993584629676 -0.0000010591606241
0.9999977627605586 0.9999993584618275 0.0000000574627176
0.9999977627607860 0.9999993584618027 0.0000000574627159
1.0000045114230034 0.9999993584627535 -0.0000009720373750
0.9999994130660333 0.9999998425362856 0.0000010870768870
0.9999977627608073 0.9999993584617920 0.0000000574627336
0.9999999739626493 0.9999987408572594 -0.0000008031748121
1.0000026058830753 1.0000023819614785 -0.0000044220488334
0.9999977627607149 0.9999993584616961 0.0000000574627532
0.9999977627608002 0.9999993584620460 0.0000000574626306
0.9999977627606990 0.9999993584618595 0.0000000574626537
1.0000045114226037 0.9999993584632260 -0.0000009720371548
1.0000010692662702 0.9999982813783784 -0.0000049949915196
1.0000045114230478 0.9999993584628245 -0.0000009720375669
0.9999977627727407 0.9999972994749344 0.0000034317752066
0.9999966544398710 1.0000011644920284 -0.0000016121725258
0.9999977627607221 0.9999993584618027 0.0000000574627478
1.0000045114222449 0.9999993584627037 -0.0000009720371219
0.9999985582470516 0.9999993584868618 -0.0000016610310497
0.9999982149608702 1.0000016574635744 0.0000015038270885
1.0000029461040814 1.0000001392624578 -0.0000012845573648
1.0000032380449042 0.9999980888829547 0.0000031047984343
0.9999977627677166 1.0000041734816263 0.0000026362033101
0.9999982491456351 1.0000016436754302 0.0000014730472932
0.9999990684468711 0.9999997254269065 0.0000008993168614
0.9999993539429450 0.9999993584732658 -0.0000033795333875
0.9999977627606847 0.9999993584618169 0.0000000574627851
1.0000045114229874 0.9999993584627961 -0.0000009720375296
1.0000045114229874 0.9999993584629187 -0.0000009720374034
0.9999977627604982 0.9999993584617316 0.0000000574630907
1.0000011370832920 0.9999993584621055 -0.0000004572856191
1.0000045114246245 1.0000041734771414 0.0000016067093175
0.9999977627607149 0.9999993584618844 0.0000000574627034
1.0000033031095379 1.0000021181727112 0.0000044546058143
1.0000032151171303 1.0000018329884914 -0.0000014096211422
0.9999977627608606 0.9999993584617103 0.0000000574626324
0.9999977627608926 0.9999993584618879 0.0000000574626137
0.9999977627680718 1.0000041734812710 0.0000026362034256
0.9999977627608713 0.9999993584618453 0.0000000574628313
0.9999974507409654 0.9999911501023812 0.0000005107188125
1.0000001473611972 1.0000012693165026 -0.0000016512084696
0.9999977627608286 0.9999993584617138 0.0000000574626608
0.9999993539321902 1.0000041734754930 -0.0000008007991739
1.0000011370877213 1.0000041734790941 0.0000021214581211
1.0000045114231793 0.9999993584627037 -0.0000009720373839
0.9999977627677379 1.0000041734815410 0.0000026362032391
1.0000031996421292 0.9999941873846772 -0.0000024291737806
0.9999977627609423 0.9999993584616463 0.0000000574625089
0.9999977627607718 0.9999993584618897 0.0000000574627940
0.9999977627626669 1.0000017659673806 0.0000013468296917
1.0000045114221221 1.0000017659657769 0.0000003173328240
0.9999998011854727 1.0000001792382098 0.0000028467912664
0.9999993930350144 1.0000027471353985 0.0000026667998775
1.0000005454487213 1.0000007624344052 -0.0000000504759413
0.9999977627608784 0.9999993584618169 0.0000000574626981
1.0000045114230478 0.9999993584627037 -0.0000009720374159
0.9999977724995254 1.0000008248865015 -0.0000011599437923
1.0000045114280711 0.9999972994687976 0.0000024022875697
0.9999977627610560 0.9999993584620087 0.0000000574625720
0.9999977627608215 0.9999993584617671 0.0000000574626306
0.9999977627606865 0.9999993584619945 0.0000000574627105
0.9999977627607931 0.9999993584619306 0.0000000574625080
1.0000011370833914 0.9999993584620416 -0.0000004572856511
0.9999977627607647 0.9999993584617813 0.0000000574627603
1.0000045114232432 0.9999993584625794 -0.0000009720371867
0.9999977627607114 0.9999993584618950 0.0000000574627851
1.0000045114230194 0.9999993584627321 -0.0000009720374603
1.0000011370875721 1.0000041734792717 0.0000021214580500
0.9999993539428029 0.9999993584733262 -0.0000033795335101
1.0000041699104925 0.9999993013152965 -0.0000008262851176
0.9999993539441636 0.9999993584731486 -0.0000033795334755
0.9999977627608357 0.9999993584617245 0.0000000574628171
1.0000011370835620 0.9999993584619847 -0.0000004572856147
0.9999977627608482 0.9999993584618453 0.0000000574626253
0.9999990158145837 1.0000076180312882 0.0000019526531796
1.0000011370877764 1.0000041734791154 0.0000021214581042
1.0000008079469551 0.9999962069749559 0.0000011269970809
0.9999977627608038 0.9999993584614474 0.0000000574626590
1.0000011370838655 1.0000017659662552 0.0000008320830664
0.9999977627608979 0.9999993584617956 0.0000000574626484
0.9999977627625923 1.0000017659672811 0.0000013468299128
1.0000045114232661 1.0000017659655602 0.0000003173328098
1.0000011370833772 0.9999993584620487 -0.0000004572856653
1.0000045114229448 0.9999993584627890 -0.0000009720374514
1.0000011370833932 0.9999993584620700 -0.0000004572856493
1.0000045114229519 0.9999993584627819 -0.0000009720375917
0.9999977627608038 0.9999993584618453 0.0000000574627265
0.9999993539429290 0.9999993584733973 -0.0000033795336060
0.9999977627608500 0.9999993584618027 0.0000000574628029
0.9999977627607718 0.9999993584619163 0.0000000574626857
0.9999985807835563 0.9999986561157530 -0.0000009343705967
0.9999977627679226 1.0000041734812142 0.0000026362032782
1.0000007429194178 1.0000002821494709 -0.0000018858422800
0.9999965819322548 0.9999986095013131 -0.0000016448059920
1.0000013594915416 0.9999996168397064 0.0000050608075139
0.9999977507582397 0.9999993539108003 0.0000000495952519
1.0000002814213669 0.9999997163088361 -0.0000008607639346
1.0000011370833275 0.9999993584621339 -0.0000004572856280
0.9999985583488222 1.0000017659656559 -0.0000003716683301
0.9999977627608500 0.9999993584617529 0.0000000574626928
0.9999977627609281 0.9999993584617671 0.0000000574625773
1.0000011370833772 0.9999993584620451 -0.0000004572856316
0.9999998665378248 1.0000058984052158 -0.0000005115593904
1.0000008102008713 1.0000036021703966 -0.0000000274497862
0.9999977627608144 0.9999993584618311 0.0000000574626253
0.9999977627677166 1.0000041734815197 0.0000026362032178
1.0000011370833701 0.9999993584620309 -0.0000004572856244
0.9999977729121590 0.9999996444791327 0.0000004512389233
1.0000004913837157 0.9999995382749487 0.0000011309153036
0.9999977627677237 1.0000041734815339 0.0000026362034309
1.0000045114225931 0.9999993584633219 -0.0000009720371334
0.9999977627609707 0.9999993584617298 0.0000000574627176
0.9999977627607647 0.9999993584619519 0.0000000574627354
0.9999977627678338 1.0000041734815126 0.0000026362034185
1.0000045114229732 0.9999993584626398 -0.0000009720374709
1.0000045114230016 0.9999993584627250 -0.0000009720374692
1.0000011370833461 0.9999993584620274 -0.0000004572856733
0.9999977627608215 0.9999993584616605 0.0000000574627088
1.0000072578700778 0.9999996306069198 -0.0000018691541445
0.9999977627605657 0.9999993584618169 0.0000000574626022
0.9999977627677556 1.0000041734820952 0.0000026362032160
1.0000011370838833 1.0000017659662410 0.0000008320831322
1.0000045114229164 0.9999993584627463 -0.0000009720374372
1.0000045114229590 0.9999993584626184 -0.0000009720373981
0.9999977627607789 0.9999993584617884 0.0000000574628065
0.9999989192701063 0.9999979914647656 0.0000029590667409
1.0000011370833524 0.9999993584621268 -0.0000004572856493
0.9999977627683561 1.0000041734815126 0.0000026362031432
0.9999977627607576 0.9999993584619341 0.0000000574626732
0.9999977627626776 1.0000017659672598 0.0000013468298933
0.9999977627607718 0.9999993584618808 0.0000000574626333
1.0000003305046181 1.0000062097514162 -0.0000010925769627
1.0000031235698308 0.9999997448963921 0.0000006239065897
0.9999986430732011 1.0000005036601309 -0.0000008946627344
0.9999994499199240 0.9999993584619056 -0.0000001999109316
0.9999972543585037 1.0000000485171212 0.0000010757583264
0.9999977627606972 0.9999993584620442 0.0000000574623286
0.9999906662421176 0.9999988191874368 0.0000013029833147
1.0000045114229306 0.9999993584628316 -0.0000009720374248
0.9999977627677095 1.0000041734817116 0.0000026362033173
1.0000045114229874 0.9999993584628352 -0.0000009720373803
1.0000002335685862 0.9999994549429183 0.0000014016827565
0.9999977627627735 1.0000017659673095 0.0000013468299004
1.0000045114245251 1.0000041734774043 0.0000016067094578
0.9999977627671481 0.9999945434767774 -0.0000025212530487
0.9999977627607771 0.9999993584618737 0.0000000574627052
0.9999977627607789 0.9999993584618382 0.0000000574626999
1.0000045114224874 0.9999983289651126 0.0000007151264543
1.0000013238733569 1.0000003949198739 -0.0000001478551768
0.9999991394364970 1.0000011499986246 -0.0000045305240495
1.0000045114278509 0.9999972994691102 0.0000024022873672
1.0000016390492150 0.9999997061917627 0.0000008705523229
0.9999971548446600 1.0000002900232072 0.0000029467263544
0.9999977627607576 0.9999993584618488 0.0000000574626626
0.9999993539428456 0.9999993584733262 -0.0000033795335350
0.9999977627619600 1.0000017659673095 0.0000013468297672
0.9999985583513236 0.9999993584646467 -0.0000016610340865
0.9999945091437488 1.0000031484638832 0.0000029490385823
1.0000011370833826 0.9999993584620700 -0.0000004572856564
0.9999977627607434 0.9999993584617884 0.0000000574625755
0.9999977627608677 0.9999993584617316 0.0000000574625631
1.0000011370894382 0.9999993584526766 -0.0000004572955809
1.0000011370830006 0.9999993584621375 -0.0000004572856724
1.0000045114229945 0.9999993584627854 -0.0000009720374656
0.9999985583506112 0.9999993584644762 -0.0000016610337445
1.0000045114277940 0.9999972994688544 0.0000024022874081
0.9999977627607078 0.9999993584620016 0.0000000574628242
1.0000011370832849 0.9999993584620487 -0.0000004572856671
0.9999989073534391 1.0000006793091580 0.0000002563076880
0.9999977627607576 0.9999993584618790 0.0000000574627212
0.9999977627607896 0.9999993584617742 0.0000000574626768
0.9999977627724671 0.9999972994749664 0.0000034317751036
0.9999977627609423 0.9999993584618986 0.0000000574627105
1.0000010143677742 0.9999993404668376 -0.0000004090745274
0.9999974358513509 0.9999996187697400 0.0000006948187957
0.9999977627608002 0.9999993584619483 0.0000000574627301
0.9999977627607718 0.9999993584618382 0.0000000574626679
0.9999977627607860 0.9999993584618666 0.0000000574626075
1.0000011370832282 0.9999959214742434 -0.0000000594898309
0.9999977627607718 0.9999993584618311 0.0000000574627176
1.0000011400189361 0.9999972990870576 0.0000029172296492
1.0000045114229732 0.9999993584628529 -0.0000009720374372
1.0000045114230229 0.9999993584627090 -0.0000009720374479
0.9999977627607949 0.9999993584618027 0.0000000574627656
1.0000045114229235 0.9999993584628671 -0.0000009720373875
1.0000039583731812 0.9999997079813214 0.0000001821074110
0.9999977627607860 0.9999993584618879 0.0000000574627372
0.9999936543487253 0.9999971436809294 0.0000018956096846
0.9999977627606084 0.9999993584620052 0.0000000574628189
0.9999977627625426 1.0000017659673539 0.0000013468298453
1.0000000983208586 0.9999994074126100 -0.0000025724751017
0.9999978217729028 1.0000045632797250 -0.0000006724069474
1.0000045114229572 0.9999993584627961 -0.0000009720374647
1.0000011370833044 0.9999993584619705 -0.0000004572856955
0.9999977627677947 1.0000041734816405 0.0000026362033670
0.9999977627607434 0.9999993584614971 0.0000000574626963
1.0000045114230229 0.9999993584627073 -0.0000009720374354
1.0000045114231295 0.9999993584627606 -0.0000009720375793
0.9999985583512365 0.9999993584644904 -0.0000016610339399
0.9999977627606865 0.9999993584621615 0.0000000574628757
0.9999977627605728 0.9999993584617600 0.0000000574628811
0.9999977627608038 0.9999993584618453 0.0000000574627088
0.9999985583514586 0.9999993584645828 -0.0000016610340287
0.9999974278711250 0.9999989601089129 0.0000008269381302
1.0000003414896466 0.9999993584633952 0.0000012612146139
0.9999977627680221 1.0000041734817329 0.0000026362034487
1.0000029202286391 0.9999993584677649 0.0000024649721758
0.9999977627609210 0.9999993584617742 0.0000000574625791
1.0000003065215965 0.9999992545050351 0.0000015641431416
0.9999977627608002 0.9999993584619092 0.0000000574627425
0.9999988689049057 0.9999985675516732 -0.0000008947098273
0.9999923900228490 1.0000030298742153 0.0000042946610444
0.9999977627607007 0.9999993584622077 0.0000000574628331
0.9999977627607292 0.9999993584618808 0.0000000574626324
1.0000011370833399 0.9999993584619350 -0.0000004572856244
0.9999977627726128 0.9999972994750161 0.0000034317750627
0.9999977627608002 0.9999993584617778 0.0000000574626803
1.0000011370834199 0.9999993584620913 -0.0000004572855907
0.9999977627676953 1.0000041734815801 0.0000026362032746
1.0000011370832635 0.9999993584620416 -0.0000004572854894
1.0000011370876432 1.0000041734790053 0.0000021214581184
1.0000011370833257 0.9999993584620274 -0.0000004572855907
1.0000045114230158 0.9999993584627463 -0.0000009720375509
1.0000011370833222 0.9999993584620700 -0.0000004572856280
1.0000029242185282 0.9999938632630548 0.0000009644280426
1.0000011370833559 0.9999993584620913 -0.0000004572856582
1.0000022555265315 0.9999977244461734 -0.0000070800003148
1.0000015438996477 0.9999985391617239 0.0000005573424935
0.9999998477158920 0.9999993584629676 -0.0000010591605885
1.0000011370833275 0.9999993584618853 -0.0000004572855339
1.0000045114278082 0.9999972994689610 0.0000024022874383
1.0000037667404422 0.9999997405290805 -0.0000014845762220
0.9999977627676668 1.0000041734817116 0.0000026362032622
0.9999975647581020 0.9999989765905563 0.0000007134870156
0.9999977627627131 1.0000017659673734 0.0000013468298826
0.9999986298657760 0.9999964393450350 0.0000043934139569
1.0000045114246068 1.0000041734771912 0.0000016067094028
1.0000011370916442 0.9999972994717627 0.0000029170330347
1.0000007928021761 0.9999996319170350 -0.0000000952610702
1.0000045114229732 0.9999993584626824 -0.0000009720374976
1.0000011370838406 1.0000017659662304 0.0000008320831011
0.9999977627607007 0.9999993584620478 0.0000000574628100
0.9999962320697267 1.0000002583414767 0.0000007875477491
1.0000011372365347 0.9999993572416881 -0.0000004586697746
1.0000011370833701 0.9999993584619847 -0.0000004572856546
0.9999993539430019 0.9999993584732836 -0.0000033795334497
1.0000011370827946 0.9999993584618355 -0.0000004572855720
1.0000011370832689 0.9999993584618568 -0.0000004572855072
0.9999977627608002 0.9999993584618453 0.0000000574626537
0.9999977656597088 0.9999993576237528 0.0000000583940431
0.9999997510688837 1.0000006527439056 -0.0000002031016348
1.0000020062316841 1.0000001739654800 -0.0000006644643878
0.9999977627625994 1.0000017659673521 0.0000013468298915
0.9999990285617301 0.9999982943328964 0.0000020813991324
1.0000045114232006 0.9999993584626256 -0.0000009720373271
0.9999977627625710 1.0000017659674303 0.0000013468299661
0.9999977627671766 0.9999945434767064 -0.0000025212530096
0.9999977627607292 0.9999993584618542 0.0000000574626981
0.9999992906060401 1.0000005397092253 -0.0000003677513013
1.0000011370838497 1.0000027954676476 -0.0000008550840234
1.0000018532367265 1.0000002350597166 0.0000003464868042
1.0000011370833701 0.9999993584620060 -0.0000004572855871
0.9999977627607647 0.9999993584617174 0.0000000574627914
0.9999977627625675 1.0000017659674445 0.0000013468297920
0.9999977627677414 1.0000041734816121 0.0000026362032640
1.0000019326779626 0.9999993584665269 -0.0000021757885467
0.9999977627607860 0.9999993584618204 0.0000000574627345
1.0000006924516769 1.0000018492605249 -0.0000010098062903
1.0000011370838122 1.0000017659662623 0.0000008320831251
0.9999989657295728 0.9999960079006484 0.0000022566611884
1.0000011370830717 0.9999993584620558 -0.0000004572856422
1.0000011370838335 1.0000017659661771 0.0000008320831020
0.9999977627608144 0.9999993584622183 0.0000000574629095
0.9999977627607149 0.9999993584619519 0.0000000574628091
1.0000011370833204 0.9999993584618568 -0.0000004572855481
1.0000011370838762 1.0000017659662623 0.0000008320831393
0.9999977627611981 0.9999993584624848 0.0000000574632434
0.9999999130760725 1.0000021433382322 -0.0000000230987914
0.9999994186873321 0.9999999838335488 0.0000001217712612
0.9999977627625639 1.0000017659673077 0.0000013468298489
0.9999977627609423 0.9999993584619021 0.0000000574627461
0.9999977627608855 0.9999993584614438 0.0000000574626288
1.0000056017869283 1.0000009325921653 0.0000023309175112
0.9999985583513982 0.9999993584646680 -0.0000016610341691
0.9999998724094992 1.0000030818511743 -0.0000025187146398
0.9999977627612701 1.0000005622135411 0.0000007021455435
0.9999977627607896 0.9999993584618666 0.0000000574626324
0.9999977627609423 0.9999993584617600 0.0000000574627638
0.9999977627608713 0.9999993584617813 0.0000000574626572
1.0000019586177677 1.0000021129399708 -0.0000008259012359
1.0000045114230158 0.9999993584627819 -0.0000009720375225
0.9999977627602744 0.9999993584616179 0.0000000574622451
0.9999991880207665 1.0000060100872921 -0.0000048555278807
0.9999997629502509 0.9999977671935318 0.0000005179941398
0.9999977627608002 0.9999993584618453 0.0000000574627167
0.9999993539321760 1.0000041734750880 -0.0000008007992308
0.9999980895392384 0.9999976284245108 -0.0000004481538758
1.0000011370846624 0.9999983289661416 0.0000012298754391
0.9999998477161141 0.9999993584629747 -0.0000010591605708
0.9999986238434826 0.9999956727582378 0.0000029973429012
0.9999977627607505 0.9999993584618737 0.0000000574626963
0.9999977627607523 0.9999993584617884 0.0000000574627461
0.9999977627607185 0.9999993584617813 0.0000000574626839
0.9999977662840855 1.0000022856156765 0.0000004946826535
0.9999977627600612 0.9999993584618666 0.0000000574628216
0.9999993539430125 0.9999993584731202 -0.0000033795333422
0.9999998705364082 0.9999990603341244 0.0000020620737241
1.0000044032447180 1.0000009561888861 -0.0000008364622639
0.9999996529676504 1.0000001008100796 -0.0000005847427233
1.0000045114230727 0.9999993584627535 -0.0000009720374505
1.0000064544094953 1.0000042869074968 0.0000030454622765
1.0000011370833168 0.9999993584620203 -0.0000004572856253
1.0000003376269890 1.0000020206787974 0.0000005953118054
1.0000045114230123 0.9999993584628600 -0.0000009720374683
0.9999977627608571 0.9999993584617778 0.0000000574627638
1.0000023060638892 1.0000037386535090 -0.0000037641245616
0.9999999679311656 1.0000027920004313 0.0000029257063046
1.0000121354077658 0.9999992538885856 0.0000007894881374
0.9999984519961927 1.0000040388374183 0.0000011545740484
0.9999977627677805 1.0000041734815446 0.0000026362032924
0.9999992037327482 0.9999989643143135 0.0000004835823619
0.9999977627626847 1.0000017659673308 0.0000013468299768
0.9999982176468483 0.9999998739177951 -0.0000009847616966
0.9999977627607185 0.9999993584629253 0.0000000574626945
1.0000045114246956 1.0000041734770206 0.0000016067092767
1.0000045114229945 0.9999993584627570 -0.0000009720374674
1.0000045114246103 1.0000041734771556 0.0000016067093548
0.9999999996648230 0.9999998310410099 -0.0000007351360627
1.0000011141950549 1.0000020038645463 -0.0000052463448846
0.9999986071520290 1.0000008282337887 -0.0000017965449786
0.9999977627608180 0.9999993584618169 0.0000000574627834
0.9999977627610276 0.9999993584615895 0.0000000574628811
0.9999977627608286 0.9999993584618062 0.0000000574626945
0.9999977627607434 0.9999993584618702 0.0000000574627638
0.9999967497635529 0.9999979268864799 0.0000014700732488
0.9999976818602050 0.9999990339030931 0.0000006016981871
1.0000012434300789 1.0000043136433632 0.0000018755306561
0.9999993539429308 0.9999993584731983 -0.0000033795334479
0.9999993866882751 1.0000005061847792 0.0000004317452498
0.9999993873031938 0.9999987426243914 0.0000008188894967
1.0000000948272267 0.9999894122280840 0.0000021955315042
1.0000045114229803 0.9999993584626824 -0.0000009720374479
1.0000017082684358 1.0000067052824835 0.0000035350085829
1.0000011370833222 0.9999993584620842 -0.0000004572856360
0.9999977649762051 0.9999993604217519 0.0000000595465694
1.0000011370833488 0.9999993584620949 -0.0000004572856076
0.9999977627608335 1.0000010769622261 -0.0000001414353890
0.9999999091815934 1.0000004738635386 -0.0000014519490545
0.9999978242047911 1.0000007671303870 0.0000019975167687
1.0000011370833204 0.9999993584620274 -0.0000004572856440
1.0000012892821415 0.9999998505913740 -0.0000008429973168
1.0000001972302772 1.0000003646707181 -0.0000046138269285
1.0000045114229803 0.9999993584627463 -0.0000009720374372
1.0000011370875508 1.0000041734792113 0.0000021214581362
1.0000011369761206 0.9999993584829031 -0.0000004572847860
1.0000112601534645 0.9999993584658061 -0.0000020015514143
1.0000015516364209 1.0000009124121614 0.0000016052757298
0.9999983820857368 1.0000000114631020 -0.0000013944004586
1.0000011370832920 0.9999993584620274 -0.0000004572856156
0.9999977627608286 0.9999993584618808 0.0000000574627603
0.9999990892671190 1.0000017996861876 -0.0000006002588238
0.9999993539429024 0.9999993584732090 -0.0000033795334444
0.9999977627608855 0.9999993584619981 0.0000000574626270
1.0000045114230940 0.9999993584623271 -0.0000009720372151
0.9999977627608002 0.9999993584615469 0.0000000574627105
0.9999977627625604 1.0000017659672100 0.0000013468297210
1.0000000348462805 0.9999963994074574 0.0000018627116784
0.9999977626182727 0.9999993583965144 0.0000000573558219
0.9999977627607327 0.9999993584618808 0.0000000574626981
1.0000011370846678 0.9999983289660563 0.0000012298754373
1.0000015123254313 1.0000006830719526 0.0000003035925449
0.9999977627676810 1.0000041734815766 0.0000026362033670
0.9999977627638671 0.9999983289675423 0.0000017446206282
0.9999969604162220 1.0000006580722816 0.0000003789489396
0.9999977627607149 0.9999993584618311 0.0000000574627692
1.0000028158305228 1.0000101555408036 -0.0000003133550047
0.9999977627607576 0.9999993584619163 0.0000000574627176
0.9999977627608642 0.9999993584621153 0.0000000574627940
0.9999986159780270 0.9999999973269150 -0.0000008103912939
0.9999977627626137 1.0000017659673699 0.0000013468298968
0.9999977627608784 0.9999993584617956 0.0000000574626253
1.0000107256547950 1.0000030321656794 0.0000042415182627
1.0000011370831037 0.9999993584620842 -0.0000004572854699
0.9999977627626137 1.0000017659674409 0.0000013468299857
0.9999977627607860 0.9999993584618240 0.0000000574627567
1.0000011370833914 0.9999993584620274 -0.0000004572856085
0.9999977627607434 0.9999993584622787 0.0000000574627141
0.9999977627609352 0.9999993584622858 0.0000000574626732
1.0000045114230052 0.9999993584628671 -0.0000009720374416
0.9999977627607149 0.9999993584620265 0.0000000574628065
0.9999977627676455 1.0000041734815126 0.0000026362033137
1.0000009468298128 0.9999936177302241 -0.0000026806242137
0.9999979720667708 0.9999890505480900 -0.0000000684879305
0.9999993539429735 0.9999993584732054 -0.0000033795334533
0.9999997127206013 0.9999987639956840 -0.0000013931438956
0.9999954507751727 1.0000015897057877 -0.0000035213038833
1.0000011370838158 1.0000017659662481 0.0000008320831197
1.0000045114245322 1.0000041734773191 0.0000016067092216
0.9999977627608144 0.9999993584618879 0.0000000574626039
0.9999977627607149 0.9999993584619057 0.0000000574626786
0.9999977627606617 0.9999993584617600 0.0000000574627247
0.9999977895738494 1.0000031015467659 -0.0000008140441166
0.9999994781415860 0.9999995850851371 -0.0000021282881504
1.0000013706771953 0.9999993471309971 0.0000008880218498
0.9999977627608730 0.9999993584617742 0.0000000574627656
0.9999977627677379 1.0000041734814771 0.0000026362032799
0.9999977627722859 0.9999972994750517 0.0000034317751018
1.0000011370846518 0.9999983289660279 0.0000012298754418
1.0000045114221428 1.0000005622130983 -0.0000003273530588
0.9999940481087443 1.0000005557681213 -0.0000038666139206
0.9999977627606794 0.9999993584618062 0.0000000574626208
0.9999977627606546 0.9999993584618382 0.0000000574627914
1.0000017824767851 0.9999995058432615 -0.0000007972711201
0.9999993539389811 1.0000005622205144 -0.0000027348521764
0.9999977627638280 0.9999983289675654 0.0000017446206752
0.9999977627615582 0.9999988437144899 0.0000009010420925
0.9999981605559690 0.9999993584624935 -0.0000008017852804
0.9999981319660703 1.0000007141279741 0.0000035950743930
0.9999985583513271 0.9999993584646325 -0.0000016610340163
1.0000045114229839 0.9999993584628956 -0.0000009720374816
0.9999977627677663 1.0000041734815730 0.0000026362032728
1.0000045114231491 0.9999993584626966 -0.0000009720373573
0.9999977627607718 0.9999993584618311 0.0000000574627212
0.9999977627608500 0.9999993584618453 0.0000000574627390
0.9999977627607860 0.9999993584619163 0.0000000574627443
1.0000045114230158 0.9999993584628813 -0.0000009720375402
1.0000045114230158 0.9999993584627961 -0.0000009720375615
1.0000011370875650 1.0000041734790799 0.0000021214580003
1.0000017607042828 0.9999999265774516 -0.0000007990816775
1.0000045114246316 1.0000041734772622 0.0000016067091274
1.0000011370833453 0.9999993584620984 -0.0000004572856351
0.9999977627608855 0.9999993584617778 0.0000000574626715
0.9999977627626065 1.0000017659673894 0.0000013468299022
0.9999994499199133 0.9999993584619127 -0.0000001999110205
0.9999977627608144 0.9999993584618524 0.0000000574626546
0.9999977627638174 0.9999983289675085 0.0000017446206850
0.9999985583486386 0.9999983289645474 0.0000000261254983
1.0000011370838549 1.0000017659662339 0.0000008320831064
1.0000045114228169 0.9999993584629027 -0.0000009720375686
0.9999977627608571 0.9999993584618559 0.0000000574627318
1.0000011370832920 0.9999993584620132 -0.0000004572856440
1.0000045114277940 0.9999972994689184 0.0000024022872873
0.9999977052976637 1.0000081101596692 0.0000033278392042
0.9999980531215250 1.0000011570371339 -0.0000023146857477
1.0000045114230194 0.9999993584627606 -0.0000009720375518
0.9999977627606643 0.9999993584618311 0.0000000574627407
1.0000002600462850 1.0000014934539794 -0.0000002720745567
1.0000045114228098 0.9999993584628849 -0.0000009720373892
1.0000109660184107 0.9999996682654859 0.0000011921691495
0.9999977627608428 0.9999993584615895 0.0000000574625915
1.0000011370833417 0.9999993584620132 -0.0000004572856475
1.0000045114277087 0.9999972994689965 0.0000024022874063
0.9999977627606865 0.9999993584613763 0.0000000574626324
1.0000045114229732 0.9999993584628245 -0.0000009720374621
0.9999978429394583 1.0000005048111154 0.0000005356016717
0.9999993539321618 1.0000041734753864 -0.0000008007991313
0.9999977627607860 0.9999993584617813 0.0000000574626715
0.9999965290427846 1.0000002925164440 0.0000033982326198
1.0000045114230585 0.9999993584627250 -0.0000009720375420
1.0000011370833559 0.9999993584620274 -0.0000004572856689
0.9999977627608286 0.9999993584617671 0.0000000574626803
0.9999977627608571 0.9999993584617423 0.0000000574627159
0.9999986890840333 0.9999996969228279 -0.0000006385240777
1.0000073809055317 0.9999988661150684 -0.0000006029028048
1.0000011370915163 0.9999972994717841 0.0000029170331146
0.9999977627607434 0.9999993584618737 0.0000000574626555
1.0000045114247951 1.0000041734772196 0.0000016067094472
1.0000007929548138 0.9999994918029113 -0.0000010489482917
0.9999977627607007 0.9999993584618950 0.0000000574627114
1.0000009163005483 0.9999961495913856 -0.0000014720138755
0.9999985583513697 0.9999993584645792 -0.0000016610339950
0.9999977627678089 1.0000041734815979 0.0000026362032711
0.9999977627608748 0.9999993584619021 0.0000000574627692
0.9999977627607718 0.9999993584615611 0.0000000574626395
1.0000045114230158 0.9999993584627570 -0.0000009720374692
1.0000011370833204 0.9999993584620487 -0.0000004572856662
0.9999965421306914 1.0000004388491770 0.0000009404640705
0.9999977627612123 0.9999993584618453 0.0000000574622487
0.9999995768802069 0.9999981075320901 -0.0000001891307182
0.9999977627607434 0.9999993584622006 0.0000000574628722
1.0000045114246388 1.0000041734772267 0.0000016067092767
1.0000011370838335 1.0000017659662339 0.0000008320831233
1.0000045114220297 1.0000017659654998 0.0000003173326961
0.9999977627607789 0.9999993584617636 0.0000000574627318
0.9999977627607576 0.9999993584619732 0.0000000574626715
0.9999977627607753 0.9999993584618027 0.0000000574627105
0.9999995478754214 0.9999996168139551 0.0000020710595320
1.0000045114230158 0.9999993584627535 -0.0000009720374443
0.9999990386494092 0.9999999957912444 0.0000019106722811
0.9999977627612123 0.9999993584619590 0.0000000574631191
0.9999977627615507 0.9999924845048316 0.0000008530484186
1.0000001876272206 0.9999994719361871 -0.0000013421216678
1.0000039074407281 1.0000037662930403 0.0000011066978268
0.9999993539672484 0.9999945435056168 -0.0000059582426844
0.9999993312431728 0.9999977920133766 0.0000014462267744
0.9999996271100532 0.9999948422162135 0.0000007665308136
0.9999977627608855 0.9999993584618559 0.0000000574627478
1.0000045114229590 0.9999993584627677 -0.0000009720374976
1.0000011370833417 0.9999993584620487 -0.0000004572856369
1.0000051357218736 0.9999917289529450 -0.0000033853370161
0.9999977627607700 0.9999993584618169 0.0000000574627105
0.9999977627608500 0.9999993584618595 0.0000000574625578
0.9999985583494558 1.0000041734755034 0.0000009177034862
0.9999993539430090 0.9999993584734115 -0.0000033795333866
1.0000011370833382 0.9999993584620132 -0.0000004572855943
1.0000007210320982 1.0000046081897755 -0.0000001246266290
1.0000027805424765 1.0000006613471830 0.0000008101372737
0.9999993999771686 1.0000018707871201 0.0000002448890228
0.9999993539429592 0.9999993584732552 -0.0000033795334568
0.9999977627677166 1.0000041734815126 0.0000026362032515
0.9999990697916897 0.9999983453760880 0.0000015183447103
0.9999977627607398 0.9999993584618950 0.0000000574627159
1.0000045114221860 1.0000017659656633 0.0000003173329093
1.0000061026053031 1.0000041734778717 -0.0000018303178063
0.9999977627676526 1.0000041734816121 0.0000026362032746
1.0000045114229590 0.9999993584628245 -0.0000009720374017
1.0000045114229945 0.9999993584627250 -0.0000009720373661
0.9999995580762722 0.9999993141487454 -0.0000039059575491
0.9999985583514142 0.9999993584645757 -0.0000016610339976
0.9999977627610631 0.9999993584618595 0.0000000574628011
1.0000045114247595 1.0000041734772338 0.0000016067091665
0.9999977627681162 1.0000041734810436 0.0000026362036405
1.0000045114238720 1.0000027954686792 -0.0000013698373531
0.9999977627607363 0.9999993584616890 0.0000000574626892
0.9999977627608926 0.9999993584617369 0.0000000574627381
0.9999977627665272 0.9999993584546333 0.0000000574554133
0.9999977627698359 1.0000007364695807 0.0000030339909172
1.0000011370916264 0.9999972994717663 0.0000029170330516
1.0000012210156874 0.9999999178154170 -0.0000007033207709
0.9999990966493156 0.9999996070460294 -0.0000000598413279
0.9999977627608215 0.9999993584618382 0.0000000574627061
0.9999977627677095 1.0000041734815126 0.0000026362033315
1.0000011370833417 0.9999993584620629 -0.0000004572856262
1.0000045114230869 0.9999993584626184 -0.0000009720376699
0.9999977627608073 0.9999993584618311 0.0000000574627247
1.0000045114230158 0.9999993584627321 -0.0000009720374159
1.0000070384399289 0.9999997419193378 0.0000012519612932
1.0000045114228879 0.9999993584627606 -0.0000009720377179
0.9999970009504484 0.9999920156717280 -0.0000022038624119
1.0000003281740224 0.9999977002310939 0.0000000197658569
0.9999977627607789 0.9999993584617458 0.0000000574627141
0.9999977627607824 0.9999993584618311 0.0000000574626839
1.0000045114345757 0.9999945434830715 -0.0000035507594261
1.0000045114221612 1.0000017659656171 0.0000003173328799
0.9999977627607611 0.9999993584619092 0.0000000574627496
0.9999977627608002 0.9999993584618311 0.0000000574626999
0.9999977627607007 0.9999993584618453 0.0000000574627638
0.9999993539429308 0.9999993584732694 -0.0000033795335137
0.9999977627608144 0.9999993584618311 0.0000000574627461
0.9999977627607931 0.9999993584618062 0.0000000574627709
0.9999977627608571 0.9999993584618311 0.0000000574626892
1.0000045114229590 0.9999993584627535 -0.0000009720374230
0.9999977627606883 0.9999993584618453 0.0000000574626963
1.0000011370832955 0.9999993584620274 -0.0000004572856671
1.0000001708438488 1.0000001594115711 -0.0000004793669626
1.0000045114221641 1.0000005622131374 -0.0000003273530339
1.0000023118849282 0.9999982247816562 -0.0000002754172509
0.9999977627607434 0.9999993584618417 0.0000000574627692
1.0000045114278366 0.9999972994689645 0.0000024022874490
0.9999977627625639 1.0000017659673752 0.0000013468299075
0.9999977627607576 0.9999993584618027 0.0000000574627105
1.0000011370876574 1.0000041734789022 0.0000021214583041
1.0000038939862468 1.0000010951649017 0.0000009446415433
0.9999983736965771 0.9999966279302848 -0.0000003796283514
0.9999996920551373 0.9999995128575928 -0.0000004898757827
1.0000011405335059 0.9999993518809959 -0.0000004641835246
0.9999977627677166 1.0000041734815979 0.0000026362033084
1.0000011370833595 0.9999993584620132 -0.0000004572856298
1.0000011370833248 0.9999993584619989 -0.0000004572855996
1.0000045114221434 1.0000017659656597 0.0000003173328084
1.0000045114279930 0.9999972994689255 0.0000024022874969
1.0000003080310729 1.0000008874349695 0.0000007281879036
0.9999989174816434 0.9999950442960402 -0.0000033520877688
0.9999977627608571 0.9999993584618915 0.0000000574627425
1.0000029375647086 1.0000013123435949 -0.0000059441101512
0.9999977627607363 0.9999993584617884 0.0000000574626368
0.9999977627627344 1.0000017659671780 0.0000013468297760
0.9999977627677592 1.0000041734815481 0.0000026362032320
0.9999977627607718 0.9999993584618240 0.0000000574627478
1.0000045114224048 0.9999993584629027 -0.0000009720369043
0.9999977627725701 0.9999972994749522 0.0000034317751604
1.0000045114229714 0.9999993584627037 -0.0000009720374123
1.0000011370833417 0.9999993584619634 -0.0000004572856244
0.9999977627607860 0.9999993584618595 0.0000000574627088
0.9999977627626030 1.0000017659673734 0.0000013468298693
0.9999977627608144 0.9999993584617884 0.0000000574626981
0.9999977627608002 0.9999993584618595 0.0000000574627194
0.9999977627608428 0.9999993584618595 0.0000000574627674
1.0000045114246672 1.0000041734772622 0.0000016067093637
0.9999977627606013 0.9999993584618595 0.0000000574627461
1.0000011370833701 0.9999993584620274 -0.0000004572856662
0.9999977627612487 1.0000005622135242 0.0000007021455204
0.9999977627625852 1.0000017659673308 0.0000013468299164
0.9999977627638245 0.9999983289676293 0.0000017446206353
0.9999977627608286 0.9999993584618311 0.0000000574627088
1.0000011370833133 0.9999993584619883 -0.0000004572856507
1.0000007164313149 0.9999999422221919 0.0000010086753212
0.9999977627607789 0.9999993584617884 0.0000000574626430
1.0000009653705231 0.9999987204069103 -0.0000007015458848
0.9999985583514301 0.9999993584645330 -0.0000016610340767
0.9999977627607149 0.9999993584617689 0.0000000574626590
1.0000045114222138 1.0000005622132546 -0.0000003273531227
1.0000045114228666 0.9999993584627392 -0.0000009720376717
0.9999993539428740 0.9999993584731557 -0.0000033795334923
0.9999985583513236 0.9999993584645988 -0.0000016610340074
0.9999977627677521 1.0000041734816405 0.0000026362033599
1.0000045114232006 0.9999993584628885 -0.0000009720374692
1.0000045114230443 0.9999993584630554 -0.0000009720372240
0.9999974167910309 0.9999978121002573 -0.0000022456510424
0.9999977627625852 1.0000017659674747 0.0000013468299395
0.9999977627625852 1.0000017659672775 0.0000013468298471
1.0000045114221285 1.0000005622131374 -0.0000003273530526
1.0000045114230016 0.9999993584628316 -0.0000009720374425
0.9999982961778238 0.9999979730679729 0.0000059902734684
1.0000011370846695 0.9999983289660705 0.0000012298754009
0.9999979351002698 1.0000004078819542 0.0000006999392095
1.0000010328666755 1.0000027076189937 -0.0000058581283605
0.9999977627625781 1.0000017659673841 0.0000013468299093
0.9999993539350854 1.0000000474664739 -0.0000018912705447
0.9999977627607505 0.9999993584618382 0.0000000574626697
0.9999977627676242 1.0000041734817400 0.0000026362034434
1.0000045114229732 0.9999993584627996 -0.0000009720373661
1.0000045114230016 0.9999993584628636 -0.0000009720375154
0.9999977627606510 0.9999993584618240 0.0000000574627993
1.0000011370832849 0.9999993584619385 -0.0000004572854468
0.9999977627608713 0.9999993584617529 0.0000000574628455
0.9999977627677645 1.0000041734813989 0.0000026362032622
0.9999977627607860 0.9999993584618311 0.0000000574626972
0.9999977627607585 0.9999993584618169 0.0000000574627256
1.0000004059713894 1.0000021322404098 0.0000008948971475
1.0000045114229590 0.9999993584626184 -0.0000009720375473
1.0000000910538580 0.9999984196156891 0.0000010363460059
0.9999977627608713 0.9999993584618027 0.0000000574627407
0.9999977627607922 0.9999993584617884 0.0000000574627345
1.0000045114231473 0.9999993584625616 -0.0000009720372769
0.9999977627677521 1.0000041734816512 0.0000026362032817
1.0000045114212623 1.0000017659656739 0.0000003173325407
0.9999977627607576 0.9999993584618844 0.0000000574627567
0.9999977627607860 0.9999993584615575 0.0000000574626093
1.0000011370832707 0.9999993584619954 -0.0000004572856316
0.9999993618910993 0.9999989392339558 -0.0000026103156212
1.0000045114220684 0.9999988437136750 -0.0000001284548364
0.9999994486977205 1.0000002187450392 -0.0000008551108614
0.9999999322831901 1.0000003256664416 0.0000006793486897
0.9999998477173176 1.0000041734769933 0.0000015195800004
0.9999977627614161 0.9999988437144437 0.0000009010420677
1.0000036962335197 0.9999945261169029 -0.0000033979419352
0.9999977627608411 0.9999993584621295 0.0000000574625915
1.0000045114225407 0.9999983289650061 0.0000007151266657
0.9999976805559260 1.0000009965521623 -0.0000001311018595
1.0000045114221576 1.0000017659656153 0.0000003173328506
0.9999994809836150 1.0000004255679205 0.0000059080536621
0.9999977627623614 1.0000017659673237 0.0000013468299093
0.9999977627607931 0.9999993584619163 0.0000000574627887
0.9999977627607931 0.9999993584618879 0.0000000574626839
0.9999992408732248 0.9999994214365067 -0.0000003381871243
0.9999977627725701 0.9999972994750090 0.0000034317752066
1.0000026633428876 0.9999956207905838 0.0000015460760408
0.9999977627607967 0.9999993584618027 0.0000000574626697
1.0000045114246814 1.0000041734772693 0.0000016067093619
1.0000011370832778 0.9999993584618639 -0.0000004572856067
0.9999977627676171 1.0000041734817187 0.0000026362032995
0.9999993539428917 0.9999993584732694 -0.0000033795334266
1.0000003845271024 1.0000014852051702 0.0000003304253764
1.0000011370838513 1.0000017659661558 0.0000008320830913
0.9999977627605231 0.9999993584619199 0.0000000574627993
0.9999977627607949 0.9999993584618027 0.0000000574626981
0.9999993539429113 0.9999993584732125 -0.0000033795334657
0.9999977627607647 0.9999993584618382 0.0000000574627008
0.9999993539425756 0.9999993584732694 -0.0000033795333715
1.0000011370834323 0.9999993584621268 -0.0000004572855943
1.0000045114229625 0.9999993584627535 -0.0000009720373235
1.0000045114246316 1.0000041734771912 0.0000016067093157
0.9999977627638387 0.9999983289676044 0.0000017446206264
0.9999971229393481 0.9999985788424597 0.0000014327250998
0.9999885163440883 1.0000019358113745 0.0000018000297017
0.9999977627677521 1.0000041734816263 0.0000026362032782
0.9999977627605728 0.9999993584615895 0.0000000574626537
0.9999979269783751 1.0000002913068184 0.0000011210621036
1.0000011370873731 1.0000041734791509 0.0000021214582064
1.0000010676938351 1.0000006145337756 0.0000007171282050
1.0000011010346219 0.9999986719027779 -0.0000008365656123
0.9999977627625604 1.0000017659674516 0.0000013468299199
0.9999977627608571 0.9999993584621437 0.0000000574627532
1.0000007667325628 0.9999971291942503 -0.0000016523992889
1.0000011366230983 0.9999993583281184 -0.0000004575408852
0.9999977627606865 0.9999993584618453 0.0000000574627709
1.0000045114229874 0.9999993584627570 -0.0000009720374390
0.9999977627676953 1.0000041734816405 0.0000026362032764
0.9999977627608251 0.9999993584618595 0.0000000574626199
1.0000045114229306 0.9999993584627819 -0.0000009720374798
1.0000011370838460 1.0000017659661842 0.0000008320830638
0.9999977627607398 0.9999993584619306 0.0000000574627478
1.0000011370833488 0.9999993584619492 -0.0000004572856262
0.9999985583494256 1.0000041734755531 0.0000009177034232
0.9999977627638387 0.9999983289676559 0.0000017446207188
0.9999993539428651 0.9999993584732410 -0.0000033795334550
0.9999977627607629 0.9999993584618169 0.0000000574627052
0.9999985583513662 0.9999993584645330 -0.0000016610340252
1.0000045114221072 1.0000005622131223 -0.0000003273530677
0.9999977627676526 1.0000041734816831 0.0000026362032942
1.0000033683283074 0.9999996916061480 -0.0000003336708764
1.0000011370832609 0.9999993584620842 -0.0000004572857079
0.9999977627611981 0.9999993584621437 0.0000000574632967
0.9999977627609139 0.9999993584621011 0.0000000574627390
0.9999976362065375 0.9999988867666209 0.0000003854169672
1.0000045114229998 0.9999993584627250 -0.0000009720374141
1.0000011370833488 0.9999993584620256 -0.0000004572856040
0.9999990053858063 1.0000016593694245 -0.0000018633412010
1.0000011370861297 1.0000041734778293 0.0000021214560357
0.9999977627606155 0.9999993584616108 0.0000000574629539
0.9999977627626705 1.0000017659674036 0.0000013468299395
0.9999977627605018 0.9999993584618222 0.0000000574625613
1.0000045114230016 0.9999993584627535 -0.0000009720374621
0.9999993539429166 0.9999993584731557 -0.0000033795335350
0.9999977627607292 0.9999993584617920 0.0000000574626519
0.9999983478907767 0.9999993995787777 0.0000015096262941
1.0000011370833524 0.9999993584620274 -0.0000004572856000
0.9999998643626964 1.0000001113226404 0.0000014416938236
0.9999993539429024 0.9999993584732765 -0.0000033795334533
1.0000011370877000 1.0000041734791154 0.0000021214580998
0.9999977627607860 0.9999993584618382 0.0000000574626821
0.9999985583513875 0.9999993584645757 -0.0000016610339879
1.0000014125458445 0.9999972819403083 0.0000023240669428
1.0000011370875863 1.0000041734790799 0.0000021214580447
1.0000011370833666 0.9999993584620274 -0.0000004572856102
1.0000045114277087 0.9999972994689716 0.0000024022874454
1.0000045114229448 0.9999993584627321 -0.0000009720374834
0.9999977627607931 0.9999993584618027 0.0000000574627372
0.9999977627608002 0.9999993584619306 0.0000000574627212
1.0000045114229448 0.9999993584627730 -0.0000009720374585
1.0000011370829394 0.9999993584619563 -0.0000004572854486
0.9999977627676668 1.0000041734816263 0.0000026362032888
0.9999977627638031 0.9999983289675689 0.0000017446206206
0.9999977627717633 1.0000014174550502 -0.0000033168636148
1.0000045114223346 1.0000005622130681 -0.0000003273531227
1.0000045114231650 0.9999993584627961 -0.0000009720373981
0.9999977627606892 0.9999993584618453 0.0000000574626945
1.0000011370832902 0.9999993584619989 -0.0000004572856262
0.9999994150799766 0.9999946575199321 -0.0000061034429061
1.0000002061505762 0.9999996732100950 0.0000011397000106
0.9999977627608375 0.9999993584617458 0.0000000574628597
0.9999977627640376 0.9999983289677998 0.0000017446206957
1.0000045114230869 0.9999993584626504 -0.0000009720373732
0.9999977627626208 1.0000017659673432 0.0000013468298924
0.9999977627607718 0.9999993584618027 0.0000000574627176
0.9999996516955243 1.0000011281009105 -0.0000000253835336
1.0000009232995162 1.0000000358042493 -0.0000003180161047
1.0000089209258327 0.9999964294543650 -0.0000014059088438
1.0000011370833080 0.9999993584619847 -0.0000004572856555
0.9999977627677450 1.0000041734815979 0.0000026362032791
0.9999985583514088 0.9999993584646183 -0.0000016610340110
1.0000045114246565 1.0000041734769212 0.0000016067094667
1.0000045114346787 0.9999945434831710 -0.0000035507593816
0.9999982099462610 1.0000005251056665 0.0000020068916988
1.0000011370916939 0.9999972994716384 0.0000029170329734
0.9999977627608286 0.9999993584618879 0.0000000574626501
0.9999977627677219 1.0000041734815979 0.0000026362032720
0.9999985583513520 0.9999993584645899 -0.0000016610340074
1.0000011370833275 0.9999993584619954 -0.0000004572856031
0.9999977627608855 0.9999993584618382 0.0000000574625862
1.0000011370832262 0.9999993584619989 -0.0000004572856262
1.0000045114229732 0.9999993584627748 -0.0000009720373697
1.0000011370832707 0.9999993584619989 -0.0000004572856085
1.0000045114221534 1.0000005622130805 -0.0000003273529979
1.0000039423420850 1.0000002144995743 -0.0000010013073460
0.9999993539321618 1.0000041734754219 -0.0000008007990815
0.9999977627607860 0.9999993584619163 0.0000000574627514
0.9999977627607718 0.9999993584618027 0.0000000574627159
1.0000045114231864 0.9999993584627108 -0.0000009720373359
0.9999977627638742 0.9999983289676293 0.0000017446207117
1.0000011370833382 0.9999993584620203 -0.0000004572856138
0.9999977627608713 0.9999993584617458 0.0000000574626715
1.0000045114230087 0.9999993584627037 -0.0000009720374319
0.9999977627612487 1.0000005622135224 0.0000007021454938
0.9999977627677485 1.0000041734814700 0.0000026362032853
0.9999995933284134 1.0000088309620143 0.0000001499846027
1.0000011370833559 0.9999993584619847 -0.0000004572856653
0.9999983911774302 1.0000003964592579 -0.0000007661018991
0.9999999015106154 1.0000003826915100 -0.0000009712313939
0.9999977627605373 0.9999993584616179 0.0000000574629290
0.9999977627677663 1.0000041734815979 0.0000026362031147
0.9999977627608286 0.9999993584622041 0.0000000574626341
0.9999993539429664 0.9999993584733262 -0.0000033795334639
1.0000045114246245 1.0000041734772196 0.0000016067092980
1.0000003554707899 1.0000017749337664 0.0000025619354306
0.9999993539429877 0.9999993584731770 -0.0000033795333893
0.9999977627607860 0.9999993584618240 0.0000000574627390
0.9999977627607149 0.9999993584618453 0.0000000574626572
1.0000045114229448 0.9999993584627463 -0.0000009720374052
0.9999977627609139 0.9999993584618453 0.0000000574626910
0.9999977627677095 1.0000041734814593 0.0000026362033030
0.9999998477161203 0.9999993584629605 -0.0000010591605885
0.9999999426668147 1.0000007549256438 0.0000000537830432
1.0000072822498984 0.9999984638372189 0.0000015687785367
0.9999993539670992 0.9999945435059934 -0.0000059582430414
0.9999977627677876 1.0000041734815552 0.0000026362032462
0.9999977627608215 0.9999993584618595 0.0000000574627532
0.9999977603042086 0.9999993577500904 0.0000000561074903
0.9999977627607558 0.9999993584618311 0.0000000574626866
1.0000011370833506 0.9999993584620274 -0.0000004572856244
0.9999977627638209 0.9999983289676151 0.0000017446206317
0.9999977627638031 0.9999983289675902 0.0000017446206708
0.9999977627607696 1.0000010769621479 -0.0000001414354232
1.0000045114279645 0.9999972994688473 0.0000024022874472
0.9999994499199524 0.9999993584618523 -0.0000001999110107
1.0000008182676707 0.9999994376120204 -0.0000005178435572
0.9999951904792056 1.0000001702848000 0.0000003244939782
1.0000045114229590 0.9999993584627392 -0.0000009720374336
0.9999977627725737 0.9999972994747532 0.0000034317750521
0.9999977627606581 0.9999993584616890 0.0000000574626430
0.9999977627607860 0.9999993584620727 0.0000000574627780
0.9999977627676384 1.0000041734816121 0.0000026362032213
0.9999977627626740 1.0000017659673379 0.0000013468299306
0.9999993539429308 0.9999993584732125 -0.0000033795334319
0.9999985583512703 0.9999993584646005 -0.0000016610339923
0.9999977627608002 0.9999993584618595 0.0000000574627034
0.9999977627607860 0.9999993584618062 0.0000000574627123
1.0000045114220684 0.9999988437137105 -0.0000001284549359
1.0000011370875863 1.0000041734791332 0.0000021214580545
1.0000011370876378 1.0000041734791225 0.0000021214580856
0.9999977627676810 1.0000041734815694 0.0000026362032498
1.0000045114246814 1.0000041734769212 0.0000016067095769
1.0000042552849546 1.0000000693842039 0.0000002829501342
0.9999977627638529 0.9999983289674907 0.0000017446205855
0.9999993539428846 0.9999993584732552 -0.0000033795334231
1.0000008926519806 0.9999968517405174 0.0000047049464148
0.9999998374175086 0.9999987622237367 0.0000001557562492
0.9999977627609352 0.9999993584618098 0.0000000574625649
1.0000011370838051 1.0000017659663689 0.0000008320831908
0.9999977627629689 1.0000017659673308 0.0000013468299093
1.0000011370858846 1.0000041734781278 0.0000021214565242
0.9999993539428740 0.9999993584732338 -0.0000033795334248
0.9999977627725843 0.9999972994750588 0.0000034317750645
1.0000045114228737 0.9999993584626788 -0.0000009720374923
1.0000045114229732 0.9999993584628032 -0.0000009720374301
0.9999977627607078 0.9999993584618453 0.0000000574628065
1.0000011988950481 0.9999992383598418 -0.0000001101031902
1.0000045114229732 0.9999993584627819 -0.0000009720374479
1.0000045114277087 0.9999972994690249 0.0000024022873140
0.9999994499197916 0.9999993584618985 -0.0000001999110702
0.9999978009493408 0.9999996701802824 0.0000007229010873
1.0000011370846251 0.9999983289660919 0.0000012298753840
1.0000009709326703 0.9999998408912321 -0.0000003983449975
1.0000012139573027 0.9999991135528818 0.0000018840340229
0.9999910141675062 0.9999993584628580 0.0000010869487910
0.9999984572213759 0.9999996433132489 0.0000030458484781
0.9999992914036101 1.0000006015887755 -0.0000001592410260
0.9999985583513662 0.9999993584645757 -0.0000016610339825
1.0000011370837696 1.0000017659662375 0.0000008320830949
0.9999985583513697 0.9999993584645650 -0.0000016610339950
0.9999993539430303 0.9999993584733742 -0.0000033795333449
0.9999977627607451 0.9999993584617884 0.0000000574627212
1.0000045114230016 0.9999993584628121 -0.0000009720374656
0.9999977627612558 1.0000005622135970 0.0000007021455435
0.9999986612320388 1.0000008281714119 -0.0000010001764421
1.0000003213929460 0.9999911586262484 -0.0000005883109550
0.9999998925637809 1.0000011528707256 0.0000002224066687
1.0000000561072515 0.9999997635404775 -0.0000000566870465
1.0000045114233853 0.9999993584634711 -0.0000009720376184
0.9999977627607363 0.9999993584618169 0.0000000574626857
1.0000045114276945 0.9999972994689112 0.0000024022874116
1.0000045114229661 0.9999993584627748 -0.0000009720374265
0.9999977627607327 0.9999993584618737 0.0000000574626448
0.9999977627607753 0.9999993584618098 0.0000000574626981
1.0000011370833275 0.9999993584620345 -0.0000004572856244
1.0000017536550581 0.9999993246563590 -0.0000004959413877
0.9999977627607860 0.9999993584617174 0.0000000574627310
1.0000012672978607 1.0000006442117737 -0.0000011397880254
0.9999977627607576 0.9999993584616215 0.0000000574627496
1.0000000155369571 0.9999985340176436 0.0000015606444083
1.0000011370832174 0.9999993584618853 -0.0000004572856014
0.9999988435437170 0.9999990603571252 -0.0000009083114251
0.9999977627607505 0.9999993584623569 0.0000000574628100
0.9999977627727691 0.9999972994748527 0.0000034317750823
0.9999993539428882 0.9999993584732694 -0.0000033795334248
0.9999977627608002 0.9999993584617742 0.0000000574627034
1.0000045114230443 0.9999993584627286 -0.0000009720374017
1.0000045114221576 1.0000017659656704 0.0000003173328648
1.0000011370837980 1.0000017659662339 0.0000008320831286
1.0000045114228169 0.9999993584626504 -0.0000009720375456
0.9999977627627806 1.0000017659673166 0.0000013468299874
0.9999977627638884 0.9999983289675671 0.0000017446206761
0.9999993539429024 0.9999993584733511 -0.0000033795335350
0.9999977627607434 0.9999993584621011 0.0000000574628384
0.9999977627677024 1.0000041734816263 0.0000026362032950
1.0000011370833417 0.9999993584620238 -0.0000004572856191
1.0000011370832849 0.9999993584620878 -0.0000004572856147
0.9999977627608002 0.9999993584618453 0.0000000574627221
1.0000045114230300 0.9999993584627535 -0.0000009720374443
1.0000045114229945 0.9999993584627641 -0.0000009720374656
0.9999985583513857 0.9999993584646041 -0.0000016610339834
0.9999977627611990 1.0000005622135224 0.0000007021455417
0.9999977627607713 1.0000010769621728 -0.0000001414354236
1.0000011370876183 1.0000041734791438 0.0000021214580536
0.9999977627607860 0.9999993584618169 0.0000000574627194
1.0000011361155619 0.9999993571745527 -0.0000004550281283
1.0000005410593402 1.0000000639939262 0.0000005793215019
1.0000019238865254 1.0000014798247558 -0.0000010564562585
1.0000036444989000 0.9999995907167866 0.0000018457009630
1.0000045114246210 1.0000041734771912 0.0000016067092767
0.9999977627638813 0.9999983289676009 0.0000017446207099
0.9999977627604023 0.9999993584617689 0.0000000574628491
1.0000022407624340 0.9999988266001902 -0.0000008415719933
0.9999977627607292 0.9999993584617458 0.0000000574626555
1.0000004213560938 0.9999994207414903 0.0000001584527644
0.9999990654020842 0.9999997854227430 -0.0000007754392694
1.0000045114230229 0.9999993584623555 -0.0000009720374265
1.0000045114229732 0.9999993584627392 -0.0000009720374230
1.0000045114221292 1.0000017659656597 0.0000003173327991
1.0000011370833417 0.9999993584619492 -0.0000004572856298
1.0000045114229732 0.9999993584627321 -0.0000009720374310
1.0000045114245535 1.0000041734772480 0.0000016067093584
0.9999977627607931 0.9999993584618915 0.0000000574627656
0.9999985583513449 0.9999993584645899 -0.0000016610340074
1.0000045114229164 0.9999993584628316 -0.0000009720375935
0.9999985583486457 0.9999983289645332 0.0000000261255027
0.9999985583513875 0.9999993584645899 -0.0000016610340163
0.9999977627607292 0.9999993584618027 0.0000000574627203
1.0000011370833417 0.9999993584621695 -0.0000004572855943
0.9999993539358198 1.0000017659699443 -0.0000020901693498
0.9999977627607469 0.9999993584620442 0.0000000574627851
0.9999994322620260 1.0000001864887029 -0.0000001150027204
0.9999977627607363 0.9999993584617813 0.0000000574627603
1.0000011370876147 1.0000041734792007 0.0000021214580634
0.9999977627637676 0.9999983289676471 0.0000017446204896
0.9999985583513946 0.9999993584646183 -0.0000016610340252
0.9999977627607789 0.9999993584618169 0.0000000574626999
0.9999977627607718 0.9999993584618169 0.0000000574626679
1.0000011370833541 0.9999993584620274 -0.0000004572856049
0.9999985131349715 1.0000004719452349 0.0000002178028257
1.0000011370833755 0.9999993584619847 -0.0000004572856298
0.9999977627608144 0.9999993584618027 0.0000000574627070
1.0000011370922901 0.9999945434796311 -0.0000030360043679
1.0000011370833986 0.9999993584622050 -0.0000004572857257
1.0000011370833701 0.9999993584620451 -0.0000004572856999
1.0000045114229306 0.9999993584627961 -0.0000009720374230
1.0000045114229732 0.9999993584628138 -0.0000009720374407
0.9999977627608286 0.9999993584617671 0.0000000574626679
0.9999977627607931 0.9999993584614971 0.0000000574626786
1.0000045114246672 1.0000041734772338 0.0000016067093939
1.0000011370846411 0.9999983289660563 0.0000012298754302
0.9999977627608002 0.9999993584616641 0.0000000574626981
0.9999977627677379 1.0000041734816689 0.0000026362032320
0.9999977627607718 0.9999993584618311 0.0000000574626786
1.0000011370876218 1.0000041734791509 0.0000021214580554
1.0000011370833275 0.9999993584620060 -0.0000004572856120
1.0000011370833417 0.9999993584619563 -0.0000004572855978
0.9999985583512756 0.9999993584646041 -0.0000016610340110
1.0000045114229625 0.9999993584627819 -0.0000009720374412
0.9999977627609707 0.9999993584617600 0.0000000574627247
1.0000011370833488 0.9999993584620558 -0.0000004572856156
0.9999985583495287 1.0000041734752689 0.0000009177035156
0.9999977627607149 0.9999993584618027 0.0000000574627425
0.9999977627607576 0.9999993584612200 0.0000000574628224
0.9999978822055594 0.9999949857462341 0.0000034415789278
0.9999992480398175 0.9999981998442541 0.0000011746994466
1.0000045114223708 1.0000017659654252 0.0000003173328009
0.9999977627607931 0.9999993584618240 0.0000000574626626
0.9999977627608286 0.9999993584617884 0.0000000574627354
1.0000009544721669 1.0000013940973218 -0.0000004983192857
0.9999971963459647 0.9999984379691885 -0.0000032286902463
0.9999995261385259 0.9999956071662934 0.0000032704267704
1.0000011370832351 0.9999993584619066 -0.0000004572853802
1.0000011370832174 0.9999993584618995 -0.0000004572853456
0.9999997227958074 1.0000003256719672 0.0000003597235774
0.9999977627657555 1.0000041734807061 0.0000026362015542
1.0000045114227458 0.9999993584626824 -0.0000009720377605
0.9999977627676100 1.0000041734820242 0.0000026362034025
1.0000045114220293 0.9999988437137212 -0.0000001284549119
0.9999977627607256 0.9999993584618453 0.0000000574626910
0.9999977627605480 0.9999993584618027 0.0000000574627318
0.9999977627605373 0.9999993584618098 0.0000000574628526
0.9999977627607576 0.9999993584618453 0.0000000574627043
1.0000045114245286 1.0000041734772196 0.0000016067093868
0.9999977627607576 0.9999993584615184 0.0000000574626377
1.0000001015550355 0.9999974031801010 -0.0000017767751355
1.0000011370934030 0.9999993584543961 -0.0000004572928116
1.0000006591276085 0.9999959976440781 0.0000002044736602
1.0000002845332818 0.9999926212582443 0.0000012263944981
1.0000045114229732 0.9999993584627961 -0.0000009720374336
0.9999985583513697 0.9999993584645543 -0.0000016610340092
0.9999998477161034 0.9999993584631310 -0.0000010591606036
0.9999977627677947 1.0000041734816831 0.0000026362031965
0.9999985583487530 1.0000017659656986 -0.0000003716683861
1.0000045114229874 0.9999993584621815 -0.0000009720375722
1.0000011892701934 0.9999996335478133 0.0000009257578463
0.9999977627625426 1.0000017659673877 0.0000013468298293
1.0000045114229537 0.9999993584624977 -0.0000009720373253
1.0000045114229714 0.9999993584627819 -0.0000009720374141
0.9999993539315974 0.9999972994631131 -0.0000000052147755
1.0000045114229590 0.9999993584626398 -0.0000009720373715
1.0000045114229732 0.9999993584627819 -0.0000009720373768
0.9999977627607007 0.9999993584617884 0.0000000574627088
1.0000011370833168 0.9999993584620629 -0.0000004572856289
1.0000011370833453 0.9999993584619989 -0.0000004572856014
0.9999990521239907 0.9999993584622633 0.0000006593378416
1.0000045114229945 0.9999993584627250 -0.0000009720373875
1.0000045114230087 0.9999993584627037 -0.0000009720373768
1.0000045114221356 1.0000005622131711 -0.0000003273530499
1.0000045114220788 1.0000005622131729 -0.0000003273530619
0.9999991167421907 0.9999992883830839 -0.0000007536319953
0.9999977627625568 1.0000017659673663 0.0000013468298666
0.9999998477161389 0.9999993584631239 -0.0000010591605974
1.0000045114219587 1.0000017659655531 0.0000003173328515
1.0000011370833488 0.9999993584620345 -0.0000004572856449
0.9999951832292288 1.0000054993926910 0.0000008567835802
0.9999985583514639 0.9999993584645757 -0.0000016610339692
1.0000055704351027 1.0000003735855869 0.0000024744729376
1.0000011363998138 0.9999993612600728 -0.0000004561330529
1.0000000907708069 0.9999992680280112 -0.0000022775810697
0.9999977627607753 0.9999993584618453 0.0000000574627247
0.9999977627677308 1.0000041734814131 0.0000026362031734
0.9999993539533100 0.9999969509852479 -0.0000046688913004
0.9999977627612336 0.9999993584616890 0.0000000574628171
1.0000045114229199 0.9999993584628813 -0.0000009720374301
1.0000011370833559 0.9999993584620416 -0.0000004572856316
0.9999977627607718 0.9999993584618098 0.0000000574627461
0.9999977627608393 0.9999993584618311 0.0000000574627025
1.0000045114230087 0.9999993584627463 -0.0000009720374354
1.0000045114230087 0.9999993584627392 -0.0000009720374585
0.9999977627607824 0.9999993584618453 0.0000000574627034
0.9999977627608784 0.9999993584618027 0.0000000574626945
0.9999977627608961 0.9999993584619163 0.0000000574628216
1.0000011380800180 0.9999972983208731 0.0000029159142372
0.9999993539428704 0.9999993584732552 -0.0000033795334994
0.9999977627607576 0.9999993584617884 0.0000000574627105
1.0000050239996006 1.0000003345106117 -0.0000014081797579
1.0000003883037880 1.0000043610626077 0.0000029028904182
1.0000011370833151 0.9999993584619705 -0.0000004572856546
1.0000011370833222 0.9999993584620132 -0.0000004572856218
1.0000011370833239 0.9999993584620203 -0.0000004572856191
1.0000011370833417 0.9999993584620629 -0.0000004572856706
1.0000045114229732 0.9999993584627712 -0.0000009720373821
1.0000045114229164 0.9999993584628032 -0.0000009720374585
1.0000045114230300 0.9999993584628156 -0.0000009720374034
0.9999977627608002 0.9999993584618719 0.0000000574626182
0.9999977627607647 0.9999993584618240 0.0000000574627212
0.9999993539320907 1.0000041734752549 -0.0000008007991029
1.0000011370833204 0.9999993584620487 -0.0000004572856138
0.9999977627608428 0.9999993584618080 0.0000000574626750
1.0000045114223470 1.0000000474631061 0.0000005162301733
1.0000011370833382 0.9999993584622068 -0.0000004572855729
1.0000011370838620 1.0000017659662179 0.0000008320830975
0.9999985583512632 0.9999993584646112 -0.0000016610339559
1.0000003074674082 1.0000069398682323 -0.0000038667774346
1.0000011370833275 0.9999993584620256 -0.0000004572856324
1.0000011370833488 0.9999993584620451 -0.0000004572855703
0.9999996975575105 1.0000004327628784 -0.0000005538999346
0.9999977627608571 0.9999993584617458 0.0000000574626928
0.9999973483075916 0.9999975446751713 0.0000001589184835
1.0000016570823491 1.0000023466500305 -0.0000000463945810
0.9999989531488505 1.0000003698965640 -0.0000008749329938
1.0000014688270242 0.9999996150042314 -0.0000007771684206
1.0000010720340000 0.9999991443491849 -0.0000001113842802
1.0000011370833310 0.9999993584620167 -0.0000004572856786
1.0000002247514590 0.9999992826950990 -0.0000001939421651
1.0000112601534006 0.9999993584656676 -0.0000020015514960
0.9999977627625977 1.0000017659673663 0.0000013468298942
1.0000045114229839 0.9999993584627819 -0.0000009720374452
0.9999985583486297 0.9999983289645759 0.0000000261254814
1.0000011370833062 0.9999993584620771 -0.0000004572856253
0.9999977627607487 0.9999993584618169 0.0000000574627061
0.9999977627638031 0.9999983289675654 0.0000017446206299
0.9999977627625959 1.0000017659673628 0.0000013468298844
0.9999977627608002 0.9999993584618773 0.0000000574627283
0.9999977627607718 0.9999993584618382 0.0000000574627194
1.0000002221284239 0.9999975092109561 0.0000014814028543
1.0000011370833755 0.9999993584621268 -0.0000004572856102
1.0000014866951390 1.0000016852957685 -0.0000006598848810
1.0000001544071750 1.0000001247778623 0.0000007070090521
0.9999998477160519 0.9999993584631097 -0.0000010591605281
0.9999977627676526 1.0000041734815588 0.0000026362031991
1.0000008151904627 0.9999991301537065 -0.0000000340244803
1.0000078433081558 1.0000024800917402 -0.0000008643592143
1.0000013517734208 0.9999986627146775 -0.0000028191333117
1.0000022992275888 0.9999996041048628 0.0000006474745507
0.9999988996307785 0.9999983917442840 0.0000006697450628
0.9999971337216275 0.9999998022505191 -0.0000010219199763
0.9999984283983906 0.9999991301973952 0.0000002524165764
0.9999993539316592 1.0000007364603776 -0.0000004030055841
0.9999977627607292 0.9999993584618417 0.0000000574627034
0.9999977627607718 0.9999993584618275 0.0000000574627159
0.9999985583513662 0.9999993584646076 -0.0000016610340092
0.9999985583487476 1.0000017659657199 -0.0000003716684420
1.0000045114229927 0.9999993584626966 -0.0000009720374390
0.9999977627638102 0.9999983289676400 0.0000017446206708
0.9999977627608428 0.9999993584618275 0.0000000574627141
0.9999977627607718 0.9999993584618275 0.0000000574627070
0.9999977627607434 0.9999993584617742 0.0000000574627176
0.9999994499199257 0.9999993584618558 -0.0000001999110080
1.0000011370833275 0.9999993584620274 -0.0000004572855996
1.0000001002149705 0.9999992599022351 0.0000007486210176
0.9999977627607860 0.9999993584618275 0.0000000574627141
0.9999977627607594 0.9999993584617458 0.0000000574626715
0.9999981022326386 0.9999993404096210 0.0000000352611686
1.0000045114229874 0.9999993584625865 -0.0000009720374319
1.0000011370833488 0.9999993584620380 -0.0000004572856156
1.0000045114230300 0.9999993584630590 -0.0000009720375260
0.9999977627608198 0.9999993584618311 0.0000000574627514
0.9999979740496647 1.0000004766135935 -0.0000005283409163
0.9999977627676917 1.0000041734815197 0.0000026362032995
0.9999977627607434 0.9999993584617884 0.0000000574626963
1.0000011370837678 1.0000017659662268 0.0000008320830709
0.9999977627607434 0.9999993584618382 0.0000000574627034
1.0000011370833577 0.9999993584620132 -0.0000004572856209
1.0000045114214293 1.0000017659656526 0.0000003173328924
0.9999981605559441 0.9999993584624722 -0.0000008017852928
0.9999994499255400 1.0000041734803011 0.0000023788310944
1.0000011370876183 1.0000041734791723 0.0000021214580465
1.0000011370833417 0.9999993584620558 -0.0000004572856262
0.9999977627674039 0.9999945434766353 -0.0000025212528319
0.9999998477172892 1.0000041734770111 0.0000015195799800
0.9999995541537251 0.9999988714712432 0.0000001147332470
1.0000004274267551 0.9999985423710767 0.0000009883997398
0.9999986549547117 0.9999997086303374 0.0000010477317892
0.9999996750012077 1.0000001869977007 0.0000005779202779
0.9999991747462085 1.0000028064847519 0.0000008769485497
0.9999977627625177 1.0000017659674587 0.0000013468297814
1.0000045114225113 0.9999993584625971 -0.0000009720370633
1.0000011370831712 0.9999993584618497 -0.0000004572854326
0.9999977627607718 0.9999993584618133 0.0000000574626395
0.9999977627607860 0.9999993584618062 0.0000000574627105
1.0000045114228169 0.9999993584626291 -0.0000009720374940
0.9999983590277580 1.0000005573554784 -0.0000003309863541
1.0000000024885765 1.0000028339379583 0.0000044898032127
1.0000045114229661 0.9999993584627819 -0.0000009720374741
1.0000045114229306 0.9999993584629062 -0.0000009720373306
0.9999977627626581 1.0000017659673806 0.0000013468298862
1.0000007570560787 1.0000013741392837 -0.0000016465240069
1.0000011370831783 0.9999993584620558 -0.0000004572855694
1.0000011370833453 0.9999993584620345 -0.0000004572856156
0.9999993539429024 0.9999993584731699 -0.0000033795333644
1.0000011370833310 0.9999993584620203 -0.0000004572856156
1.0000011370838087 1.0000017659662233 0.0000008320831162
0.9999959825177943 0.9999998894903953 -0.0000022013886630
0.9999977627631671 1.0000000474652604 0.0000015457256266
0.9999993539314802 0.9999972994631415 -0.0000000052148536
1.0000011370832991 0.9999993584618924 -0.0000004572855569
1.0000006799318126 0.9999945087655459 -0.0000029093748729
1.0000045114230016 0.9999993584625971 -0.0000009720375793
0.9999998967395878 1.0000003921411580 0.0000022461644661
0.9999996798336683 1.0000000745638316 -0.0000000311850644
1.0000009675501882 0.9999991748045984 0.0000004448953038
0.9999985583513467 0.9999993584646041 -0.0000016610339896
1.0000011370833222 0.9999993584620558 -0.0000004572856351
0.9999977627607878 0.9999993584618453 0.0000000574626981
0.9999985583513022 0.9999993584645117 -0.0000016610339186
0.9999977627625426 1.0000017659673521 0.0000013468298809
0.9999977627607149 0.9999993584618098 0.0000000574627176
1.0000045114228453 0.9999993584627037 -0.0000009720374816
1.0000045114227174 0.9999993584625083 -0.0000009720377019
0.9999977627625781 1.0000017659673379 0.0000013468298702
0.9999977627606723 0.9999993584617920 0.0000000574626643
0.9999977627608002 0.9999993584618098 0.0000000574627088
1.0000045114221079 1.0000017659656846 0.0000003173328418
0.9999977627608073 0.9999993584618240 0.0000000574626883
1.0000011370833275 0.9999993584620274 -0.0000004572856227
1.0000011370833488 0.9999993584620132 -0.0000004572856165
0.9999977627677521 1.0000041734816263 0.0000026362032799
1.0000011370833559 0.9999993584619492 -0.0000004572855641
1.0000011370833204 0.9999993584620203 -0.0000004572856600
0.9999977627607860 0.9999993584618382 0.0000000574626928
0.9999977627607576 0.9999993584617920 0.0000000574627016
0.9999977627609707 0.9999993584617600 0.0000000574627745
0.9999994595202745 1.0000016957967921 -0.0000009263199229
0.9999977627626137 1.0000017659673628 0.0000013468298702
0.9999951471316090 1.0000049343806043 -0.0000014060206978
1.0000045114229448 0.9999993584627535 -0.0000009720373271
1.0000045114229696 0.9999993584627677 -0.0000009720374168
0.9999985583513804 0.9999993584646112 -0.0000016610339861
1.0000006942095974 0.9999945275836793 -0.0000029423928200
1.0000011370832422 0.9999993584620167 -0.0000004572856431
0.9999986406181540 1.0000004851958184 0.0000001655704160
1.0000011370831605 0.9999993584620664 -0.0000004572855951
0.9999991174152916 1.0000003039621026 0.0000004013716943
0.9999977627606581 0.9999993584618986 0.0000000574627709
0.9999977627608144 0.9999993584621153 0.0000000574629308
0.9999998993915508 0.9999983075694452 -0.0000009095815569
0.9999977627626563 1.0000017659673734 0.0000013468298951
1.0000045114229057 0.9999993584627819 -0.0000009720372240
0.9999986005478106 1.0000003372589819 0.0000004900400460
1.0000045114229306 0.9999993584625865 -0.0000009720374017
0.9999964633978573 1.0000000547730801 -0.0000001761628273
1.0000012873322079 0.9999975225292956 -0.0000005693365252
0.9999993891467914 1.0000008980802260 0.0000005962807839
1.0000008149082931 0.9999954766299644 0.0000008530190494
0.9999977627608571 0.9999993584616108 0.0000000574626057
0.9999985949539831 0.9999999586045888 0.0000003243528642
0.9999980798228146 1.0000012293146650 0.0000012139070132
0.9999977627607363 0.9999993584619199 0.0000000574627212
1.0000011370833133 0.9999993584619030 -0.0000004572855516
0.9999977627607718 0.9999993584618169 0.0000000574627070
1.0000011370833417 0.9999993584619847 -0.0000004572856120
1.0000011370833595 0.9999993584620274 -0.0000004572856200
0.9999993539428988 0.9999993584731841 -0.0000033795334906
0.9999985583513786 0.9999993584645828 -0.0000016610340145
1.0000011370876254 1.0000041734791509 0.0000021214580447
0.9999977627676739 1.0000041734815979 0.0000026362032799
1.0000011370838122 1.0000017659662144 0.0000008320831028
0.9999993539429450 0.9999993584731663 -0.0000033795334426
0.9999977627676455 1.0000041734814558 0.0000026362032995
0.9999995289924750 1.0000006413411600 -0.0000006530532782
0.9999991764959385 0.9999992884551592 -0.0000000434720676
1.0000002014312539 1.0000007692960580 0.0000010379191216
1.0000011370875685 1.0000041734791509 0.0000021214580980
0.9999977627607434 0.9999993584615753 0.0000000574625471
0.9999995096617442 0.9999993507448222 0.0000004183682982
0.9999990039011657 1.0000003065950080 0.0000008512900233
0.9999977627604663 0.9999993584618453 0.0000000574627363
1.0000045114232006 0.9999993584630377 -0.0000009720369647
1.0000011370876503 1.0000041734791794 0.0000021214580358
0.9999977627607576 0.9999993584617600 0.0000000574626821
1.0000045114229732 0.9999993584627463 -0.0000009720374372
1.0000011370833417 0.9999993584620132 -0.0000004572856085
0.9999977627677379 1.0000041734816014 0.0000026362033208
1.0000011370876183 1.0000041734791580 0.0000021214580678
1.0000011370833843 0.9999993584620629 -0.0000004572856298
0.9999993539430019 0.9999993584733475 -0.0000033795332827
1.0000003414895755 0.9999993584634058 0.0000012612146192
0.9999993539359051 1.0000017659698803 -0.0000020901695159
0.9999977627607860 0.9999993584618027 0.0000000574626679
0.9999977627615866 0.9999988437145041 0.0000009010421298
0.9999977627607594 0.9999993584618204 0.0000000574626905
1.0000045114229732 0.9999993584627286 -0.0000009720374621
0.9999993539430871 0.9999993584732729 -0.0000033795334999
1.0000012369951130 0.9999987934070731 0.0000009266022974
0.9999998290320796 0.9999993034647011 0.0000006565970163
0.9999994499199026 0.9999993584618558 -0.0000001999109991
0.9999994499199311 0.9999993584618629 -0.0000001999110151
0.9999985583513893 0.9999993584645650 -0.0000016610340007
1.0000011370003077 0.9999993584796417 -0.0000004572836349
0.9999985583387754 0.9999993584665794 -0.0000016610347552
1.0000011370833204 0.9999993584619847 -0.0000004572856538
0.9999977627607292 0.9999993584618169 0.0000000574627514
0.9999977627607576 0.9999993584617956 0.0000000574627034
0.9999977627677521 1.0000041734815730 0.0000026362032515
0.9999993539457482 1.0000027954810713 -0.0000037773366359
0.9999977627607007 0.9999993584618382 0.0000000574627247
0.9999977627609640 0.9999959214744664 0.0000004552569729
0.9999977627608002 0.9999993584618382 0.0000000574627088
1.0000019326779714 0.9999993584665802 -0.0000021757885427
0.9999977627607434 0.9999993584618382 0.0000000574627034
1.0000045114229448 0.9999993584627659 -0.0000009720374514
1.0000045114229590 0.9999993584627606 -0.0000009720374443
0.9999977627627273 1.0000017659673415 0.0000013468298844
1.0000045114230869 0.9999993584627819 -0.0000009720374354
1.0000011370833346 0.9999993584620167 -0.0000004572856209
0.9999977627607149 0.9999993584619306 0.0000000574626821
1.0000045114246032 1.0000041734771627 0.0000016067093761
1.0000011370876574 1.0000041734791296 0.0000021214580536
1.0000011370833346 0.9999993584619918 -0.0000004572856014
1.0000011370833346 0.9999993584620345 -0.0000004572856014
0.9999977627607149 0.9999993584619306 0.0000000574626981
0.9999982189409162 0.9999999788183148 -0.0000002611991978
1.0000045114229874 0.9999993584628032 -0.0000009720374621
1.0000045114221576 1.0000017659657148 0.0000003173329306
0.9999977627607611 0.9999993584619021 0.0000000574627283
0.9999977627631582 1.0000000474652586 0.0000015457256137
0.9999977627607078 0.9999993584618169 0.0000000574627176
1.0000011370833275 0.9999993584620238 -0.0000004572856298
0.9999977627671339 0.9999945434769195 -0.0000025212529598
0.9999977627608002 0.9999993584618453 0.0000000574627461
1.0000045114221008 1.0000017659656526 0.0000003173328471
0.9999977627607718 0.9999993584617458 0.0000000574627070
0.9999985583487814 1.0000017659656559 -0.0000003716683301
0.9999977627677521 1.0000041734816760 0.0000026362032036
0.9999977627606936 0.9999993584617174 0.0000000574626608
1.0000011370833133 0.9999993584620309 -0.0000004572856280
0.9999993539429344 0.9999993584731770 -0.0000033795334559
1.0000000124518573 0.9999995626010462 -0.0000001822923444
0.9999999114525906 1.0000006189899224 -0.0000002480154520
0.9999977627606226 0.9999993584619306 0.0000000574626501
1.0000009785628616 0.9999985538735959 -0.0000005866390171
1.0000011368526598 0.9999993541737043 -0.0000004562911778
1.0000001216909964 1.0000000764848884 0.0000001923051125
0.9999985583514301 0.9999993584644442 -0.0000016610339834
0.9999977627608002 0.9999993584617849 0.0000000574627301
1.0000007894929710 0.9999997022699568 -0.0000004354099320
0.9999991879999895 1.0000004128249529 0.0000002425013469
0.9999985160141361 0.9999985975507639 -0.0000007878604487
1.0000011370837341 1.0000017659664862 0.0000008320832059
1.0000001959735778 0.9999992628989272 0.0000007420045351
0.9999977627607292 0.9999993584619092 0.0000000574627425
0.9999977627625621 1.0000017659673592 0.0000013468299031
0.9999977627607860 0.9999993584617742 0.0000000574627283
0.9999985583515472 0.9999972994660297 0.0000017132815582
1.0000045114229874 0.9999993584628085 -0.0000009720374514
1.0000029202287386 0.9999993584676299 0.0000024649723783
0.9999977627606581 0.9999993584617458 0.0000000574626448
0.9999994810894215 1.0000002422519281 -0.0000000512498269
1.0000045114245748 1.0000041734769780 0.0000016067094596
0.9999977627637996 0.9999983289675440 0.0000017446206957
0.9999977627627273 1.0000017659675582 0.0000013468300443
0.9999977627622604 0.9999993584617529 0.0000000574625826
0.9999977627626421 1.0000017659673948 0.0000013468299377
0.9999977627607327 0.9999993584618382 0.0000000574627008
1.0000045114230371 0.9999993584627961 -0.0000009720373697
0.9999977627608286 0.9999993584617600 0.0000000574627176
0.9999977627607931 0.9999993584618169 0.0000000574626999
0.9999977627608713 0.9999993584618879 0.0000000574627390
1.0000011370833328 0.9999993584620842 -0.0000004572856493
0.9999977627607363 0.9999993584618382 0.0000000574627141
1.0000045114221641 1.0000005622130983 -0.0000003273530232
0.9999977627626456 1.0000017659673237 0.0000013468299581
0.9999971736351380 0.9999992468237805 0.0000023478390255
1.0000045114247382 1.0000041734773049 0.0000016067095218
0.9999978331352407 0.9999996531557270 0.0000002481401184
1.0000011370833346 0.9999993584620238 -0.0000004572856200
0.9999996156105962 0.9999994721062260 0.0000002785945122
1.0000011370876574 1.0000041734791509 0.0000021214580412
0.9999977627608144 0.9999993584615753 0.0000000574627834
0.9999977627607718 0.9999993584618169 0.0000000574627336
1.0000045114225584 0.9999983289650842 0.0000007151267474
0.9999977627607434 0.9999993584618240 0.0000000574626750
1.0000011370833417 0.9999993584620700 -0.0000004572856671
1.0000011370876218 1.0000041734791509 0.0000021214580500
0.9999977627607540 0.9999993584617742 0.0000000574626679
0.9999977627625799 1.0000017659673308 0.0000013468299022
0.9999985583513591 0.9999993584645650 -0.0000016610340163
0.9999904634430792 1.0000006354687789 -0.0000047519607531
1.0000001166741017 0.9999998561321405 -0.0000006670783576
1.0000011370832085 0.9999993584618710 -0.0000004572854042
0.9999977627607007 0.9999993584618986 0.0000000574626892
0.9999977627607576 0.9999993584618808 0.0000000574626723
0.9999977627625568 1.0000017659673592 0.0000013468298951
0.9999977627607505 0.9999993584618098 0.0000000574626892
1.0000045114221150 1.0000017659655887 0.0000003173328284
0.9999977627622993 0.9999969509649989 -0.0000012318982479
0.9999977627625479 1.0000017659673592 0.0000013468298507
0.9999977627608144 0.9999993584618169 0.0000000574623819
1.0000011370833382 0.9999993584620203 -0.0000004572856298
1.0000045114221328 1.0000017659657308 0.0000003173327698
1.0000045114221434 1.0000017659657663 0.0000003173327529
0.9999977627608002 0.9999993584622006 0.0000000574627390
0.9999977627625710 1.0000017659673521 0.0000013468298871
1.0000045114230158 0.9999993584630696 -0.0000009720375473
0.9999977627676810 1.0000041734815837 0.0000026362033155
1.0000045114221292 1.0000017659656633 0.0000003173328435
0.9999985583487530 1.0000017659656826 -0.0000003716683825
1.0000045114221292 1.0000017659656739 0.0000003173328400
0.9999977627677272 1.0000041734816121 0.0000026362031965
1.0000045114231864 0.9999993584627606 -0.0000009720373573
0.9999985583513538 0.9999993584645543 -0.0000016610339914
0.9999977627607540 0.9999993584617600 0.0000000574627647
0.9999977627625284 1.0000017659673024 0.0000013468299306
0.9999977627625994 1.0000017659673912 0.0000013468299626
0.9999977627607718 0.9999993584617156 0.0000000574627514
1.0000011370833506 0.9999993584620558 -0.0000004572856475
1.0000011370833417 0.9999993584620167 -0.0000004572856191
0.9999969420119503 1.0000024322851542 0.0000005333757578
0.9999994636741490 0.9999995763318689 -0.0000001151421423
1.0000045114230016 0.9999993584627535 -0.0000009720374354
1.0000045114230052 0.9999993584627677 -0.0000009720374212
0.9999985583513538 0.9999993584645472 -0.0000016610340269
1.0000011370833257 0.9999993584620132 -0.0000004572856209
0.9999991999473266 1.0000007933047315 0.0000006378346443
1.0000045114221499 1.0000005622131232 -0.0000003273530748
0.9999977627625426 1.0000017659673521 0.0000013468298977
0.9999977627607789 0.9999993584618311 0.0000000574627159
0.9999977627609317 0.9999993584617884 0.0000000574627318
0.9999977627608571 0.9999993584618169 0.0000000574627461
0.9999977627677450 1.0000041734815979 0.0000026362033563
1.0000003283044832 0.9999986844431011 0.0000007706897849
1.0000011370833488 0.9999993584620629 -0.0000004572855925
1.0000001428190286 0.9999999833875334 0.0000010531281176
0.9999977627677983 1.0000041734815979 0.0000026362033084
0.9999977627608144 0.9999993584617742 0.0000000574627576
0.9999997307852060 0.9999996778666291 -0.0000000292839291
0.9999998860175069 0.9999989308620619 0.0000016852930722
1.0000003296036750 0.9999994788941825 -0.0000005715567191
0.9999977627607647 0.9999993584617529 0.0000000574627310
0.9999977627607789 0.9999993584617707 0.0000000574627079
0.9999977627620650 0.9999993584618897 0.0000000574625560
0.9999977627627380 1.0000017659675369 0.0000013468300700
1.0000045114231950 1.0000017659655958 0.0000003173329350
0.9999985583513733 0.9999993584645757 -0.0000016610340154
1.0000011370876503 1.0000041734791687 0.0000021214580536
0.9999977627625923 1.0000017659673557 0.0000013468298933
1.0000011370833417 0.9999993584620167 -0.0000004572856404
1.0000011370833275 0.9999993584620309 -0.0000004572856298
1.0000011370833488 0.9999993584619705 -0.0000004572856236
0.9999977627607576 0.9999993584617707 0.0000000574627070
0.9999977627608286 0.9999993584617245 0.0000000574627461
1.0000045114229732 0.9999993584627783 -0.0000009720373875
1.0000011370832493 0.9999993584618142 -0.0000004572855410
1.0000019326778933 0.9999993584666192 -0.0000021757885232
0.9999977627678018 1.0000041734814984 0.0000026362032924
1.0000011370833382 0.9999993584619599 -0.0000004572855605
1.0000045114221356 1.0000005622131090 -0.0000003273530765
0.9999996419246650 0.9999991554514907 0.0000001034972396
0.9999993539429735 0.9999993584732516 -0.0000033795334000
0.9999977627607434 0.9999993584618631 0.0000000574627088
0.9999977627607007 0.9999993584617813 0.0000000574627194
0.9999999775185517 1.0000001510725876 0.0000014095800010
0.9999998125902424 1.0000005131994991 -0.0000003390497279
1.0000011370834216 0.9999993584619776 -0.0000004572855996
1.0000005428812095 1.0000002032793467 -0.0000011773955324
0.9999978862384956 1.0000017524997122 0.0000013982261685
1.0000011370838477 1.0000017659662463 0.0000008320831153
0.9999993539425542 0.9999993584731024 -0.0000033795332348
0.9999977627607647 0.9999993584618186 0.0000000574627265
0.9999985583494434 1.0000041734754892 0.0000009177034658
1.0000011370833239 0.9999993584620203 -0.0000004572856262
1.0000011370833133 0.9999993584620558 -0.0000004572856360
0.9999977627607576 0.9999993584617600 0.0000000574626697
1.0000011370838051 1.0000017659662410 0.0000008320831162
0.9999985583514124 0.9999993584645401 -0.0000016610339808
1.0000011370833062 0.9999993584620309 -0.0000004572856067
0.9999977627607727 0.9999993584618027 0.0000000574627030
0.9999987202885612 0.9999972864023126 0.0000014595588123
1.0000011370838016 1.0000017659662481 0.0000008320830833
1.0000010449046677 1.0000018919557709 0.0000006396707685
0.9999980688872887 0.9999996222212858 0.0000002657285348
0.9999977627625568 1.0000017659674019 0.0000013468298809
1.0000007997394551 1.0000003160426600 -0.0000001121277594
0.9999977627678089 1.0000041734815517 0.0000026362032782
0.9999977627622549 0.9999969509648070 -0.0000012318981653
0.9999977627723925 0.9999972994759470 0.0000034317752741
0.9999977627607789 0.9999993584619483 0.0000000574626555
0.9999985583513733 0.9999993584645757 -0.0000016610339990
0.9999997375291609 0.9999991904178018 0.0000000316089951
1.0000045114230016 0.9999993584627144 -0.0000009720374177
0.9999993539429024 0.9999993584732303 -0.0000033795334515
1.0000000447119135 0.9999992060217219 0.0000003081381403
0.9999993539429166 0.9999993584732481 -0.0000033795334604
0.9999985583513662 0.9999993584645899 -0.0000016610339985
0.9999977423386468 1.0000041520969587 0.0000026743651637
0.9999977627679368 1.0000041734817542 0.0000026362032569
0.9999983571875007 1.0000001219706538 0.0000005287830807
0.9999994585187679 0.9999995779071889 0.0000006664869555
1.0000011370832707 0.9999993584620522 -0.0000004572856218
1.0000011370846393 0.9999983289661096 0.0000012298754160
0.9999977627677663 1.0000041734814025 0.0000026362032817
0.9999977627606155 0.9999993584616037 0.0000000574625471
0.9999977627607434 0.9999993584619448 0.0000000574627159
0.9999993539358980 1.0000017659700953 -0.0000020901692832
0.9999977627608428 0.9999993584617707 0.0000000574626697
0.9999977627608038 0.9999993584618453 0.0000000574627425
1.0000004809618266 1.0000006412456617 0.0000012792342011
0.9999977627607292 0.9999993584617884 0.0000000574626501
0.9999985583512792 0.9999993584646041 -0.0000016610340873
1.0000001177895508 0.9999999380507663 0.0000011312460071
0.9999977627612452 1.0000005622135189 0.0000007021455151
0.9999977627611413 0.9999993584608363 0.0000000574631604
0.9999977627606794 0.9999993584617209 0.0000000574627381
1.0000045114230691 0.9999993584624977 -0.0000009720372702
0.9999977627611057 0.9999993584617103 0.0000000574628757
1.0000001038168644 0.9999965330290199 0.0000033253894059
0.9999993539429024 0.9999993584732534 -0.0000033795334639
0.9999977627604378 0.9999993584618169 0.0000000574625915
0.9999985583513609 0.9999993584646112 -0.0000016610340092
1.0000011370916300 0.9999972994716952 0.0000029170330063
0.9999990342824525 1.0000001506060596 0.0000009148019656
0.9999977627607860 0.9999993584618027 0.0000000574627478
1.0000045114230016 0.9999993584628032 -0.0000009720373910
0.9999977627725559 0.9999972994748456 0.0000034317750858
0.9999991257766677 0.9999971845421376 0.0000021806784240
0.9999977627616008 0.9999988437145183 0.0000009010421258
0.9999977627626492 1.0000017659674481 0.0000013468299093
0.9999977627607576 0.9999993584617174 0.0000000574626430
1.0000007923989103 1.0000042716588406 0.0000020131399935
0.9999993608321167 0.9999995197702128 -0.0000008835761276
1.0000011370800421 0.9999993584578636 -0.0000004572781886
0.9999991169497449 1.0000002237172059 -0.0000005973434907
1.0000011370833630 0.9999993584620309 -0.0000004572856129
0.9999977627608073 0.9999993584617956 0.0000000574627016
1.0000009362913553 1.0000005584265823 0.0000010286377800
1.0000001151161617 0.9999982383433598 -0.0000004553582348
0.9999997318747706 0.9999970885816912 0.0000011800428305
1.0000045114223737 0.9999983289650398 0.0000007151268664
1.0000011370823167 0.9999993584688202 -0.0000004572784018
0.9999985583513946 0.9999993584645792 -0.0000016610339932
1.0000045114345508 0.9999945434829720 -0.0000035507593781
0.9999977627677024 1.0000041734815943 0.0000026362032533
0.9999977627607718 0.9999993584618098 0.0000000574626928
0.9999977627607860 0.9999993584618169 0.0000000574627034
1.0000011370833488 0.9999993584620984 -0.0000004572856262
0.9999996926427333 1.0000014919751354 0.0000020530860282
0.9999977627612843 1.0000005622134549 0.0000007021455453
1.0000045114230087 0.9999993584627712 -0.0000009720374852
1.0000004512056180 0.9999996155798537 0.0000007233968849
1.0000006605029643 0.9999994731799681 0.0000002870926203
0.9999977627607931 0.9999993584616819 0.0000000574627034
1.0000011370833275 0.9999993584620274 -0.0000004572856493
0.9999985583513733 0.9999993584645472 -0.0000016610339950
1.0000011370837980 1.0000017659662286 0.0000008320830931
0.9999977627607789 0.9999993584618115 0.0000000574627016
0.9999977627607611 0.9999993584617174 0.0000000574626715
0.9999977627625710 1.0000017659673592 0.0000013468299057
1.0000045114230229 0.9999993584628245 -0.0000009720374265
0.9999993539429273 0.9999993584732338 -0.0000033795334923
0.9999994499199195 0.9999993584618558 -0.0000001999110196
1.0000045114229874 0.9999993584627108 -0.0000009720374248
0.9999977627676491 1.0000041734817116 0.0000026362033048
0.9999998420047351 0.9999988794184689 0.0000007239903588
0.9999977627612878 1.0000005622134727 0.0000007021455906
0.9999977627607931 0.9999993584617991 0.0000000574627407
0.9999985583513697 0.9999993584645614 -0.0000016610339950
0.9999947490211227 0.9999990059087346 -0.0000013628989346
0.9999996561477756 0.9999987544719598 0.0000005478602138
0.9999977627607007 0.9999993584619163 0.0000000574627247
0.9999967586645470 1.0000094167338398 -0.0000001679504942
1.0000001542633066 1.0000006356262430 0.0000006733769483
0.9999997626817473 1.0000008959306590 0.0000003064784681
0.9999977627608428 0.9999993584617956 0.0000000574626892
0.9999977627677095 1.0000041734815694 0.0000026362032267
0.9999977627607896 0.9999993584619590 0.0000000574625684
1.0000045114229981 0.9999993584632366 -0.0000009720375740
1.0000011370833417 0.9999993584619918 -0.0000004572857115
1.0000011370833470 0.9999993584620060 -0.0000004572856102
0.9999985583513911 0.9999993584645614 -0.0000016610340216
0.9999977627606474 0.9999993584620869 0.0000000574628438
1.0000045114245872 1.0000041734772338 0.0000016067093815
1.0000011370833239 0.9999993584620274 -0.0000004572856342
1.0000045114229235 0.9999993584627641 -0.0000009720374230
0.9999977627677379 1.0000041734815979 0.0000026362033173
1.0000011370833453 0.9999993584620309 -0.0000004572856280
0.9999985583487689 1.0000017659656915 -0.0000003716683976
1.0000045114221150 1.0000017659655887 0.0000003173328027
0.9999977627607967 0.9999993584618027 0.0000000574627265
1.0000045114221292 1.0000017659656526 0.0000003173328506
0.9999977627606581 0.9999993584619874 0.0000000574628136
1.0000045114229661 0.9999993584627961 -0.0000009720374994
0.9999994499199346 0.9999993584618523 -0.0000001999110187
0.9999977627606474 0.9999993584618169 0.0000000574628207
0.9999977627606865 0.9999993584617956 0.0000000574627638
0.9999977627607198 1.0000010769622119 -0.0000001414354512
1.0000045114221214 1.0000005622131125 -0.0000003273530943
0.9999977627607594 0.9999993584617458 0.0000000574626919
0.9999977627607505 0.9999993584618453 0.0000000574626910
0.9999976035320438 1.0000041253238996 -0.0000032863173793
0.9999999885370484 0.9999994326089866 -0.0000009537156234
0.9999993539431014 0.9999993584733049 -0.0000033795334035
0.9999999238993500 0.9999994197772191 -0.0000026306063030
0.9999994499210588 1.0000017659667446 0.0000010894569226
0.9999977627610418 0.9999993584618737 0.0000000574624263
1.0000010437898594 1.0000005407844204 0.0000001221631985
0.9999991541571276 0.9999985458007334 -0.0000008244970008
1.0000011369800712 0.9999993584758545 -0.0000004572925132
0.9999977627608002 0.9999993584617458 0.0000000574626217
1.0000011370833417 0.9999993584620593 -0.0000004572856529
1.0000045114230478 0.9999993584628529 -0.0000009720375251
1.0000045114231011 0.9999993584626398 -0.0000009720374123
0.9999977627610063 0.9999993584621579 0.0000000574630551
0.9999977627625888 1.0000017659674374 0.0000013468298693
0.9999977627607647 0.9999993584618133 0.0000000574627070
0.9999977627606794 0.9999993584618027 0.0000000574627461
0.9999977627608144 0.9999993584618169 0.0000000574626892
1.0000011370833346 0.9999993584620274 -0.0000004572856156
0.9999985583512365 0.9999993584646609 -0.0000016610340643
0.9999977627607292 0.9999993584618595 0.0000000574626679
1.0000025482792425 0.9999998643664416 0.0000004724026735
0.9999977627607753 0.9999993584618133 0.0000000574627128
0.9999985583513520 0.9999993584645401 -0.0000016610339994
0.9999977627612132 1.0000005622134549 0.0000007021454778
0.9999977627608144 0.9999993584618595 0.0000000574627141
0.9999994499211405 1.0000017659667233 0.0000010894569412
0.9999998799643104 1.0000005181032927 -0.0000010082793744
1.0000045114222074 1.0000017659656171 0.0000003173329101
1.0000011370833133 0.9999993584620203 -0.0000004572855836
1.0000024335399269 1.0000106160329194 -0.0000015065188094
1.0000004046166682 0.9999992860133513 0.0000016467274875
1.0000004482428229 0.9999993615257639 -0.0000016158272097
1.0000009223784680 0.9999994562264880 -0.0000002833187745
1.0000045114229448 0.9999993584624977 -0.0000009720373590
0.9999977627607718 0.9999993584617245 0.0000000574626892
1.0000045114229803 0.9999993584627748 -0.0000009720374479
0.9999977627677095 1.0000041734816192 0.0000026362032213
0.9999977627625106 1.0000017659673877 0.0000013468299199
1.0000011370837767 1.0000017659662126 0.0000008320830700
0.9999993539359051 1.0000017659702178 -0.0000020901694164
1.0000045114228773 0.9999993584633503 -0.0000009720374372
1.0000045114229590 0.9999993584628103 -0.0000009720375082
1.0000011370832955 0.9999993584620132 -0.0000004572856600
1.0000045114218166 1.0000017659656384 0.0000003173329306
1.0000045114230016 0.9999993584627606 -0.0000009720374194
0.9999977627607611 0.9999993584618169 0.0000000574627070
1.0000045114221718 1.0000017659655993 0.0000003173329412
0.9999977627636824 0.9999983289676453 0.0000017446206584
0.9999993539358767 1.0000017659699514 -0.0000020901693667
1.0000003802616357 1.0000008687261366 -0.0000011363073675
1.0000011370833630 0.9999993584619492 -0.0000004572855907
0.9999977627626563 1.0000017659672065 0.0000013468299910
0.9999977627612416 1.0000005622135082 0.0000007021455577
1.0000123549976825 0.9999998324966164 0.0000001443411191
1.0000019100559154 0.9999966192558281 -0.0000039611960401
0.9999991326621861 0.9999993605548173 -0.0000008947800859
0.9999977627628268 1.0000017659670679 0.0000013468299270
0.9999985583513520 0.9999993584645543 -0.0000016610339186
1.0000045114229732 0.9999993584627641 -0.0000009720374194
1.0000011370833701 0.9999993584620114 -0.0000004572856138
0.9999985583487316 1.0000017659656719 -0.0000003716683674
1.0000011370838193 1.0000017659662375 0.0000008320831144
0.9999977627607647 0.9999993584618186 0.0000000574627070
1.0000045114221292 1.0000017659656597 0.0000003173328702
1.0000011370833648 0.9999993584620416 -0.0000004572856191
0.9999985583513733 0.9999993584645614 -0.0000016610339976
1.0000011370833275 0.9999993584619528 -0.0000004572856262
0.9999985583514053 0.9999993584645686 -0.0000016610340021
1.0000045114229306 0.9999993584627890 -0.0000009720374123
0.9999977627607984 0.9999993584617813 0.0000000574627283
0.9999977627607878 0.9999993584618169 0.0000000574626999
0.9999977627607647 0.9999993584618009 0.0000000574626857
1.0000001573668262 0.9999994572571750 -0.0000005612715093
0.9999977627608002 0.9999993584617956 0.0000000574626075
1.0000022431287623 0.9999918355680456 -0.0000020786951919
1.0000026169919081 0.9999988246481653 0.0000001917825229
1.0000013248914115 0.9999995446978244 -0.0000010704218316
1.0000011370846287 0.9999983289661842 0.0000012298754915
0.9999997445396189 0.9999995204924476 -0.0000004386266080
1.0000002195766520 0.9999990145177831 -0.0000010697804771
1.0000011370833826 0.9999993584619563 -0.0000004572856618
0.9999977627629334 1.0000017659673237 0.0000013468300079
1.0000045114228133 0.9999993584627250 -0.0000009720376273
1.0000011370833914 0.9999993584620274 -0.0000004572855907
0.9999977627677237 1.0000041734814771 0.0000026362032888
0.9999977627607505 0.9999993584617884 0.0000000574627372
0.9999977627677166 1.0000041734815694 0.0000026362032817
0.9999977627607647 0.9999993584618453 0.0000000574627185
0.9999977627607860 0.9999993584618311 0.0000000574626981
1.0000045114246423 1.0000041734771912 0.0000016067092838
1.0000045114239147 1.0000027954686579 -0.0000013698375166
1.0000045114277940 0.9999972994689112 0.0000024022874010
0.9999977627637996 0.9999983289675440 0.0000017446206433
0.9999977627625426 1.0000017659673806 0.0000013468298844
1.0000045114230443 0.9999993584627819 -0.0000009720374017
0.9999977627607505 0.9999993584618169 0.0000000574626928
0.9999977627607505 0.9999993584618169 0.0000000574627105
1.0000045114225726 0.9999983289650309 0.0000007151267261
1.0000045114221434 1.0000017659656810 0.0000003173328702
0.9999977627611413 0.9999993584619838 0.0000000574629024
1.0000045114230478 0.9999993584628032 -0.0000009720373359
1.0000045114230585 0.9999993584627606 -0.0000009720373803
0.9999977627607363 0.9999993584620229 0.0000000574627230
1.0000011370833648 0.9999993584620132 -0.0000004572856387
0.9999977627608748 0.9999993584618027 0.0000000574627754
1.0000011370833346 0.9999993584619705 -0.0000004572856191
0.9999977627607718 0.9999993584618382 0.0000000574626892
0.9999977627608322 0.9999993584618027 0.0000000574627283
1.0000011370832653 0.9999993584620416 -0.0000004572856120
0.9999977627607434 0.9999993584617582 0.0000000574627247
0.9999977627607114 0.9999993584617458 0.0000000574627851
0.9999977627608428 0.9999993584619057 0.0000000574628455
1.0000007392863675 0.9999993584619854 0.0000004019648113
0.9999982773406082 0.9999996819193043 0.0000009164336941
0.9999977627607611 0.9999993584618311 0.0000000574626839
1.0000011370831001 0.9999993584616010 -0.0000004572849867
1.0000011370875828 1.0000041734791438 0.0000021214580589
1.0000045114220470 0.9999988437137034 -0.0000001284549306
0.9999977627608784 0.9999993584618098 0.0000000574627212
0.9999977627608571 0.9999993584617565 0.0000000574626910
0.9999996395057760 0.9999995549559477 -0.0000013945461723
1.0000011370832280 0.9999993584620345 -0.0000004572856227
1.0000045114220826 0.9999988437137016 -0.0000001284549111
0.9999985583513271 0.9999993584645472 -0.0000016610339719
1.0000009679341195 0.9999983172566608 -0.0000009606110707
0.9999982526198232 1.0000008621779317 0.0000003680810408
0.9999977627608428 0.9999993584615966 0.0000000574628882
0.9999977627512860 0.9999993584579657 0.0000000574558893
0.9999985583532403 0.9999993584645899 -0.0000016610337250
1.0000045114245109 1.0000041734772267 0.0000016067093601
0.9999977627622940 0.9999969509649704 -0.0000012318982408
0.9999977627607860 0.9999993584615930 0.0000000574626270
1.0000011370838016 1.0000017659662126 0.0000008320830593
1.0000011370832866 0.9999993584619705 -0.0000004572855818
0.9999977627637960 0.9999983289675600 0.0000017446206388
0.9999977627606865 0.9999993584618009 0.0000000574627603
0.9999977627607718 0.9999993584618169 0.0000000574627496
1.0000027787837893 0.9999998353319166 -0.0000000215341935
0.9999977627607221 0.9999993584618737 0.0000000574626626
1.0000011370833088 0.9999993584620700 -0.0000004572855747
0.9999977627606963 0.9999993584618453 0.0000000574626626
0.9999998915594582 1.0000027242565470 -0.0000009774671722
1.0000011370832635 0.9999993584620203 -0.0000004572856369
1.0000011370875437 1.0000041734790799 0.0000021214582206
1.0000001674332561 0.9999961989091345 0.0000019103390372
1.0000045114245819 1.0000041734772622 0.0000016067093619
0.9999977627607718 0.9999993584617956 0.0000000574627230
1.0000045114230585 0.9999993584622774 -0.0000009720374105
1.0000045114229732 0.9999993584627215 -0.0000009720374336
0.9999977627609139 0.9999993584614048 0.0000000574623819
1.0000045114229874 0.9999993584628494 -0.0000009720374550
1.0000011370833062 0.9999993584620203 -0.0000004572856227
1.0000045114231721 0.9999993584627321 -0.0000009720372915
1.0000045114229874 0.9999993584627748 -0.0000009720374407
1.0000002680100377 1.0000000135124198 -0.0000005121479587
0.9999977627608122 1.0000010769621284 -0.0000001414354281
0.9999985105650920 1.0000007442334007 0.0000002897709971
0.9999977627677237 1.0000041734814984 0.0000026362032728
0.9999993539428740 0.9999993584732694 -0.0000033795335847
0.9999977627607576 0.9999993584618169 0.0000000574627034
1.0000002000001631 1.0000006435777369 0.0000012325619195
0.9999994499299459 0.9999972994732219 0.0000031744045043
0.9999977627610276 0.9999993584616321 0.0000000574626679
1.0000000941183005 1.0000000858193872 0.0000004903453790
1.0000005937273901 1.0000002972209117 -0.0000017860013743
0.9999977627645448 0.9999993584548820 0.0000000574553671
1.0000011370833488 0.9999993584619776 -0.0000004572856307
0.9999977627606013 0.9999993584619412 0.0000000574627008
0.9999977627607434 0.9999993584618240 0.0000000574627318
1.0000045114229661 0.9999993584627321 -0.0000009720374159
1.0000045114229448 0.9999993584627108 -0.0000009720374159
0.9999977627625852 1.0000017659672953 0.0000013468298595
0.9999977627607576 0.9999993584613479 0.0000000574627496
0.9999977627638245 0.9999983289675263 0.0000017446206211
0.9999977627608855 0.9999993584619306 0.0000000574627461
0.9999977627607718 0.9999993584617742 0.0000000574627212
0.9999985583513875 0.9999993584645899 -0.0000016610340305
0.9999977627607647 0.9999993584618311 0.0000000574627159
0.9999977627607611 0.9999993584617600 0.0000000574626643
0.9999977627625781 1.0000017659673663 0.0000013468298924
0.9999977627619315 1.0000017659674232 0.0000013468297974
1.0000011370837980 1.0000017659662197 0.0000008320831002
0.9999977627607505 0.9999993584617884 0.0000000574626999
0.9999995567545636 0.9999935601783314 0.0000018455999764
1.0000045114220866 1.0000017659656313 0.0000003173329057
0.9999977627607842 0.9999993584618453 0.0000000574627150
0.9999998477159862 0.9999993584629960 -0.0000010591606489
0.9999977627612701 1.0000005622135615 0.0000007021455218
1.0000004294162599 0.9999993617447133 -0.0000009077371691
1.0000045114229057 0.9999993584627250 -0.0000009720374638
0.9999977627607576 0.9999993584618240 0.0000000574627141
1.0000011370845754 0.9999983289660901 0.0000012298754116
1.0000011370833204 0.9999993584620238 -0.0000004572856182
1.0000011370833275 0.9999993584620522 -0.0000004572856173
0.9999977627607860 0.9999993584618169 0.0000000574627567
1.0000011370833417 0.9999993584620132 -0.0000004572855951
0.9999977627608002 0.9999993584619021 0.0000000574627372
0.9999977627607078 0.9999993584618311 0.0000000574626857
1.0000045114278011 0.9999972994689397 0.0000024022874436
0.9999985583514017 0.9999993584645828 -0.0000016610339497
1.0000011370838051 1.0000017659662268 0.0000008320831206
1.0000045114246103 1.0000041734770633 0.0000016067094152
1.0000011370833488 0.9999993584620416 -0.0000004572856049
0.9999993539379334 0.9999988437201408 -0.0000025359525143
1.0000011370833382 0.9999993584620380 -0.0000004572856138
1.0000011370833559 0.9999993584619989 -0.0000004572856475
0.9999977627606830 0.9999993584616748 0.0000000574627105
1.0000044322617210 1.0000003456090369 -0.0000001312949659
1.0000045114229945 0.9999993584626540 -0.0000009720374745
1.0000011370833630 0.9999993584619687 -0.0000004572855871
1.0000025361645917 1.0000077424508642 -0.0000009093201534
1.0000006234349645 1.0000004843162504 0.0000017170163780
0.9999998937721007 0.9999965937675833 -0.0000025183283019
1.0000011370880588 1.0000041734789378 0.0000021214578031
1.0000011370833204 0.9999993584619847 -0.0000004572856529
1.0000011370832795 0.9999993584619847 -0.0000004572856440
0.9999998612636645 1.0000013534041619 0.0000010217916627
0.9999977627607647 0.9999993584617884 0.0000000574627194
0.9999977627607824 0.9999993584617565 0.0000000574627652
0.9999999567048231 0.9999985971978129 0.0000009703565681
0.9999993539319344 1.0000041734755285 -0.0000008007992663
0.9999977627608073 0.9999993584617813 0.0000000574627034
1.0000045114233285 0.9999993584628600 -0.0000009720374283
1.0000045114278509 0.9999972994686910 0.0000024022873495
0.9999977627607576 0.9999993584617387 0.0000000574627523
1.0000045114229448 0.9999993584627677 -0.0000009720374159
0.9999977627606936 0.9999993584618666 0.0000000574627523
0.9999977627607363 0.9999993584618027 0.0000000574627070
0.9999993539429592 0.9999993584731450 -0.0000033795334390
0.9999977627607718 0.9999993584620087 0.0000000574627034
1.0000045114229590 0.9999993584623698 -0.0000009720373413
1.0000045114227529 0.9999993584627535 -0.0000009720374372
0.9999977627607292 0.9999993584617778 0.0000000574626892
1.0000011370846642 0.9999983289660244 0.0000012298754569
0.9999977627608002 0.9999993584618204 0.0000000574627132
1.0000011370833417 0.9999993584620416 -0.0000004572856067
1.0000045114225300 0.9999983289650540 0.0000007151267510
1.0000011370833310 0.9999993584620345 -0.0000004572856236
1.0000045114223151 1.0000000474630564 0.0000005162301231
1.0000011370833630 0.9999993584620842 -0.0000004572856440
0.9999984713592766 0.9999992645179739 0.0000011125156564
0.9999994499198938 0.9999993584618274 -0.0000001999110542
0.9999970618976882 1.0000110128544475 0.0000008395986407
0.9999979785447237 0.9999990408121493 -0.0000000079087491
0.9999977627608357 0.9999993584617884 0.0000000574627954
1.0000011370914736 0.9999972994715958 0.0000029170329947
0.9999977627725133 0.9999972994749629 0.0000034317751373
1.0000045114229306 0.9999993584627108 -0.0000009720375047
1.0000045114230158 0.9999993584627961 -0.0000009720374798
1.0000045114229874 0.9999993584627535 -0.0000009720374621
1.0000011370832564 0.9999993584619989 -0.0000004572856244
0.9999977627607434 0.9999993584617920 0.0000000574627585
1.0000045114230016 0.9999993584627606 -0.0000009720374940
0.9999977627608428 0.9999993584618311 0.0000000574627461
0.9999977875587521 0.9999997189386741 -0.0000000378229961
1.0000003861741393 0.9999996791641057 -0.0000004387410477
1.0000009585100984 0.9999992540447380 -0.0000017310948766
0.9999993539430871 0.9999993584732303 -0.0000033795334906
1.0000045114218592 1.0000017659658675 0.0000003173320886
0.9999977627607540 0.9999993584618098 0.0000000574626830
1.0000011370835122 0.9999993584618071 -0.0000004572858323
1.0000045114231046 0.9999993584625119 -0.0000009720372809
0.9999977627607576 0.9999993584614758 0.0000000574625329
0.9999977627677095 1.0000041734815552 0.0000026362032817
1.0000045114229874 0.9999993584628423 -0.0000009720373781
0.9999977627677130 1.0000041734815979 0.0000026362032657
0.9999977627631582 1.0000000474652782 0.0000015457256137
1.0000045114222145 1.0000017659657450 0.0000003173328711
0.9999977627607469 0.9999993584619306 0.0000000574626235
0.9999977627607860 0.9999993584618453 0.0000000574626963
0.9999994499199275 0.9999993584618416 -0.0000001999110151
1.0000011370837929 1.0000027954675339 -0.0000008550841655
0.9999996778707967 0.9999990336197888 0.0000009133147684
0.9999977627678374 1.0000041734814984 0.0000026362035206
0.9999995669161518 1.0000002130185985 0.0000001684317303
1.0000007789704597 0.9999979262547797 -0.0000001334820067
0.9999977627607540 0.9999993584617884 0.0000000574627247
1.0000011370833417 0.9999993584620558 -0.0000004572856724
0.9999977627607576 0.9999993584618311 0.0000000574626750
1.0000011370829651 0.9999993584619563 -0.0000004572854219
0.9999993539321120 1.0000041734752585 -0.0000008007991402
1.0000045114230016 0.9999993584628387 -0.0000009720374709
0.9999977627607434 0.9999993584617884 0.0000000574626679
0.9999977627607434 0.9999993584617884 0.0000000574627105
1.0000014803858741 0.9999942819499327 -0.0000006112735268
1.0000034551410568 1.0000004186799623 0.0000000690064069
1.0000045114230443 0.9999993584631087 -0.0000009720373253
1.0000045114220826 0.9999988437136137 -0.0000001284548631
0.9999994811275038 1.0000018084644045 -0.0000005508820946
0.9999983918698448 1.0000017396553311 -0.0000006875244351
0.9999977627608144 0.9999993584617032 0.0000000574624512
0.9999977627725737 0.9999972994747248 0.0000034317750023
0.9999994457829192 1.0000001097447411 0.0000004305982292
0.9999998742429175 0.9999996785835688 0.0000003437076003
1.0000045114260883 1.0000007364642431 0.0000020044997445
1.0000045114246388 1.0000041734772338 0.0000016067093886
0.9999977627607434 0.9999993584617458 0.0000000574626466
0.9999977627626279 1.0000017659674374 0.0000013468298595
0.9999977627607860 0.9999993584618027 0.0000000574627674
0.9999978264437248 0.9999991274629860 0.0000004263141189
1.0000045114230158 0.9999993584627623 -0.0000009720374390
0.9999977627607860 0.9999993584618293 0.0000000574627176
0.9999977627625994 1.0000017659673717 0.0000013468298933
1.0000045114229590 0.9999993584627890 -0.0000009720373875
0.9999938528430591 0.9999952738583643 0.0000024759760011
1.0000011370833914 0.9999993584620984 -0.0000004572856689
1.0000000958781892 0.9999991930642668 0.0000001232457884
0.9999977627607434 0.9999993584618169 0.0000000574626999
0.9999977627607824 0.9999993584618027 0.0000000574627230
0.9999977627676953 1.0000041734815694 0.0000026362032702
0.9999977627607505 0.9999993584618027 0.0000000574626830
0.9999977627607718 0.9999993584617884 0.0000000574626590
0.9999977627610489 0.9999993584619306 0.0000000574629734
1.0000045114229910 0.9999993584628458 -0.0000009720374718
0.9999977627607682 0.9999993584619234 0.0000000574626777
0.9999977627611129 0.9999993584623924 0.0000000574632807
0.9999993539429273 0.9999993584733120 -0.0000033795334266
1.0000011370875845 1.0000041734791083 0.0000021214580412
0.9999977627607576 0.9999993584619306 0.0000000574626697
0.9999977627607718 0.9999993584618311 0.0000000574627052
1.0000011370828408 0.9999993584619421 -0.0000004572852372
1.0000045114221292 1.0000017659656562 0.0000003173328755
0.9999977627679653 1.0000041734818181 0.0000026362035198
1.0000018958589256 0.9999993137897193 -0.0000001506284690
1.0000011370832991 0.9999993584620522 -0.0000004572856280
1.0000011370827377 0.9999993584608337 -0.0000004572841003
0.9999982927565515 1.0000011988321063 0.0000012904955694
0.9999977627607949 0.9999993584618027 0.0000000574627603
0.9999977627605728 0.9999993584617991 0.0000000574627372
1.0000011370833097 0.9999993584620416 -0.0000004572856209
1.0000048202110596 1.0000055606118552 0.0000022334247290
0.9999977627605871 0.9999993584618773 0.0000000574626146
0.9999977627608820 1.0000027954669255 -0.0000003403342567
1.0000027819687962 0.9999998626327847 0.0000005166695396
0.9999995918047971 0.9999969378522557 -0.0000018575251171
1.0000012911749001 1.0000011444844550 0.0000005711704861
1.0000011370838549 1.0000017659662339 0.0000008320831046
1.0000011370833346 0.9999993584620238 -0.0000004572856289
1.0000011370833630 0.9999993584620238 -0.0000004572856298
0.9999977627608002 0.9999993584618169 0.0000000574627390
0.9999966079497944 0.9999997428164809 0.0000025073994930
0.9999985583487601 1.0000017659656701 -0.0000003716683541
1.0000045114229661 0.9999993584629382 -0.0000009720373892
1.0000011370832014 0.9999993584619989 -0.0000004572856209
1.0000011153501966 0.9999997791614128 -0.0000004590330892
1.0000011366552752 0.9999993582678040 -0.0000004576033890
0.9999985583513733 0.9999993584645721 -0.0000016610339781
1.0000045114229874 0.9999993584627677 -0.0000009720374265
0.9999977627607718 0.9999993584618133 0.0000000574627336
0.9999977627607576 0.9999993584617778 0.0000000574626732
1.0000045114229732 0.9999993584627819 -0.0000009720374230
0.9999993539427887 0.9999993584731166 -0.0000033795334692
0.9999977627608286 0.9999993584617689 0.0000000574627336
1.0000045114221470 1.0000017659656384 0.0000003173328382
1.0000045114230638 0.9999993584627463 -0.0000009720374168
1.0000011370833417 0.9999993584620203 -0.0000004572856298
0.9999977627608748 0.9999993584618453 0.0000000574627771
0.9999985583513804 0.9999993584646005 -0.0000016610340092
0.9999977627607647 0.9999993584618524 0.0000000574627105
0.9999977627606865 0.9999993584619163 0.0000000574626963
1.0000011370833382 0.9999993584620487 -0.0000004572856280
0.9999977627608002 0.9999993584617156 0.0000000574627301
0.9999977627677166 1.0000041734815552 0.0000026362032959
1.0000011370832920 0.9999993584620416 -0.0000004572856085
0.9999985583494008 1.0000041734755638 0.0000009177034321
1.0000045114229945 0.9999993584627321 -0.0000009720374177
1.0000005058155679 0.9999990867381934 0.0000007687975098
0.9999977627610702 0.9999993584620727 0.0000000574627532
0.9999977627608144 0.9999993584617316 0.0000000574625720
0.9999977627605018 0.9999993584616748 0.0000000574624832
0.9999993539457092 1.0000027954813413 -0.0000037773365880
1.0000045114229732 0.9999993584627463 -0.0000009720374461
1.0000011370833808 0.9999993584619918 -0.0000004572855889
0.9999977627607434 0.9999993584618098 0.0000000574627354
0.9999977627607860 0.9999993584618311 0.0000000574627194
1.0000009311513831 1.0000002267592083 0.0000003413691134
1.0000010526467060 1.0000011612870254 0.0000003379571898
1.0000004486617613 1.0000012944094208 -0.0000018443899956
1.0000011370833559 0.9999993584620043 -0.0000004572856165
0.9999987877963162 0.9999956334944887 -0.0000006395682469
0.9999993063325175 0.9999988455415758 0.0000016638596149
1.0000011351860534 0.9999993576768067 -0.0000004586057367
1.0000011370874460 1.0000041734791367 0.0000021214580785
1.0000045114229839 0.9999993584628245 -0.0000009720374505
0.9999977627607363 0.9999993584618169 0.0000000574627301
1.0000011370833417 0.9999993584619989 -0.0000004572856147
0.9999977627676953 1.0000041734815694 0.0000026362032036
0.9999977627607682 0.9999993584618311 0.0000000574627105
0.9999977627625000 1.0000017659672296 0.0000013468299608
1.0000045114229554 0.9999993584627250 -0.0000009720373892
0.9999977627608428 0.9999993584618524 0.0000000574627834
0.9999977627677130 1.0000041734815837 0.0000026362032551
1.0000002397230956 0.9999992255061210 -0.0000001025035481
1.0000011370833488 0.9999993584619634 -0.0000004572856182
0.9999990053816835 1.0000006756993722 0.0000008602681820
0.9999974505743987 1.0000032957784324 -0.0000028599170548
1.0000019817264572 0.9999992350889237 -0.0000010997041314
0.9999977627625675 1.0000017659673166 0.0000013468299288
0.9999977627625000 1.0000017659674694 0.0000013468299004
0.9999977627608855 0.9999993584616872 0.0000000574627461
0.9999977627675354 1.0000041734817542 0.0000026362033492
0.9999977627609850 0.9999993584618808 0.0000000574627922
0.9999977627611519 0.9999993584626127 0.0000000574630463
0.9999977627608713 0.9999993584618169 0.0000000574625986
1.0000011370846393 0.9999983289660421 0.0000012298754320
1.0000045694494446 1.0000017983233864 0.0000003618997333
1.0000011370846145 0.9999983289660599 0.0000012298753983
0.9999977627625852 1.0000017659673770 0.0000013468298915
1.0000008540086078 0.9999998494928575 0.0000000973304877
1.0000045114230016 0.9999993584627570 -0.0000009720374372
0.9999977010603217 1.0000001159095422 0.0000004343205070
1.0000011370923256 0.9999945434791764 -0.0000030360043875
0.9999947417799476 0.9999997025923844 0.0000013445912107
0.9999998911862938 0.9999999700575554 0.0000013968490254
0.9999977627607434 0.9999993584618204 0.0000000574626910
1.0000045114230158 0.9999993584628654 -0.0000009720374585
0.9999993539428740 0.9999993584727720 -0.0000033795333040
0.9999977627676953 1.0000041734815623 0.0000026362032471
0.9999977627608002 0.9999993584618098 0.0000000574627176
0.9999977627625426 1.0000017659672082 0.0000013468298027
1.0000045114229519 0.9999993584627748 -0.0000009720374141
0.9999977273729866 0.9999988171144375 0.0000001965564546
1.0000000889462031 0.9999982178321555 0.0000015718961995
0.9999998477160723 0.9999993584631381 -0.0000010591606116
0.9999997475403285 0.9999984148070813 0.0000024024637746
1.0000011370846660 0.9999983289660421 0.0000012298754276
0.9999993539382155 0.9999924845107844 -0.0000025839353551
1.0000011370833630 0.9999993584620203 -0.0000004572855925
0.9999998626901364 0.9999977523097439 0.0000018407890808
1.0000002612314316 1.0000010869522129 0.0000000595818002
0.9999989668319268 0.9999979542526569 -0.0000012942774525
1.0000045114229448 0.9999993584627108 -0.0000009720374585
0.9999977627606794 0.9999993584619092 0.0000000574626768
0.9999977627608002 0.9999993584618240 0.0000000574627301
1.0000045114229306 0.9999993584627783 -0.0000009720374372
0.9999977627612701 1.0000005622135153 0.0000007021455329
0.9999977627606652 0.9999993584619163 0.0000000574627390
1.0000011370833701 0.9999993584620025 -0.0000004572855880
1.0000106395405550 0.9999980892146848 -0.0000029710187907
1.0000011370875579 1.0000041734791758 0.0000021214580030
0.9999977627607576 0.9999993584618346 0.0000000574626786
0.9999993539321440 1.0000041734751164 -0.0000008007990753
1.0000011370833382 0.9999993584620060 -0.0000004572856360
0.9999977627608251 0.9999993584618737 0.0000000574626643
1.0000011370838406 1.0000017659662339 0.0000008320831295
0.9999993539429166 0.9999993584731912 -0.0000033795334319
1.0000045114229874 0.9999993584626824 -0.0000009720374070
0.9999977627607860 0.9999993584619021 0.0000000574627230
1.0000045114229732 0.9999993584628103 -0.0000009720374585
0.9999977627626279 1.0000017659672313 0.0000013468297565
0.9999977627625426 1.0000017659672704 0.0000013468298471
1.0000045114227458 0.9999993584627961 -0.0000009720374336
0.9999977627677805 1.0000041734816547 0.0000026362033173
1.0000045114228950 0.9999993584627250 -0.0000009720374265
1.0000045114229306 0.9999993584628494 -0.0000009720374248
0.9999977627625710 1.0000017659673344 0.0000013468298986
1.0000011370833417 0.9999993584620274 -0.0000004572856404
1.0000045114230371 0.9999993584629027 -0.0000009720373235
0.9999977627607505 0.9999993584618275 0.0000000574626963
0.9999977627608002 0.9999993584618737 0.0000000574627461
0.9999985583515472 0.9999972994660865 0.0000017132815156
1.0000045114229803 0.9999993584627712 -0.0000009720374177
1.0000045114229732 0.9999993584627144 -0.0000009720374621
0.9999977627607576 0.9999993584618311 0.0000000574627461
1.0000011370833488 0.9999993584620274 -0.0000004572855374
0.9999991037582553 0.9999929844465210 -0.0000033650707402
0.9999977627723570 0.9999972994748811 0.0000034317752421
0.9999998835581144 1.0000003458290319 0.0000012387937439
1.0000011815184833 1.0000027997823067 0.0000006044722064
0.9999985583493439 1.0000041734753542 0.0000009177034569
1.0000011370833843 0.9999993584620451 -0.0000004572856475
1.0000045114223339 0.9999959214745823 -0.0000005742400697
0.9999977627608002 0.9999993584618204 0.0000000574626874
0.9999993539360330 1.0000017659700935 -0.0000020901692033
0.9999977627725204 0.9999972994749238 0.0000034317750538
0.9999977627607327 0.9999993584619021 0.0000000574627461
0.9999977627607292 0.9999993584617813 0.0000000574627390
1.0000045114229696 0.9999993584627250 -0.0000009720374105
0.9999977627606865 0.9999993584618382 0.0000000574627993
1.0000045114245826 1.0000027954687787 -0.0000013698371879
1.0000045114246814 1.0000041734777667 0.0000016067092855
0.9999977627676473 1.0000041734815979 0.0000026362032231
1.0000011370833168 0.9999993584620274 -0.0000004572855410
0.9999977627626101 1.0000017659672527 0.0000013468299137
0.9999977627606688 0.9999993584618631 0.0000000574627705
0.9999993539428598 0.9999993584731912 -0.0000033795334497
0.9999985583513094 0.9999993584645614 -0.0000016610340021
0.9999985583494398 1.0000041734754466 0.0000009177035919
0.9999977627678089 1.0000041734814415 0.0000026362032462
0.9999994499198884 0.9999993584619695 -0.0000001999110134
0.9999977627607523 0.9999993584617742 0.0000000574626945
0.9999977627604307 0.9999993584617742 0.0000000574628331
0.9999994242995383 0.9999978574302163 0.0000032138219528
0.9999977627607860 0.9999993584617352 0.0000000574626999
1.0000056934048953 0.9999985789746569 0.0000002815071221
1.0000045114229732 0.9999993584626966 -0.0000009720374088
0.9999977627608997 0.9999993584620016 0.0000000574629201
0.9999994499255134 1.0000041734803011 0.0000023788311503
0.9999978642802149 0.9999996888591729 0.0000029359713787
0.9999999919496393 1.0000018091426139 0.0000006715293647
0.9999977627679795 1.0000041734815694 0.0000026362030117
1.0000045114231864 0.9999993584628529 -0.0000009720374514
0.9999977627606794 0.9999993584618311 0.0000000574626039
0.9999977627604876 0.9999993584620727 0.0000000574626519
0.9999977627607221 0.9999993584617849 0.0000000574626635
1.0000011370833524 0.9999993584619670 -0.0000004572856404
0.9999996366193673 0.9999973100120162 -0.0000017613104691
1.0000011370838051 1.0000017659662233 0.0000008320831251
0.9999977627607363 0.9999993584618435 0.0000000574627461
1.0000011370833630 0.9999993584620238 -0.0000004572856156
0.9999993539429024 0.9999993584733298 -0.0000033795334568
1.0000045114220617 1.0000017659657450 0.0000003173328742
0.9999993539320339 1.0000041734753367 -0.0000008007990229
1.0000011370833524 0.9999993584619954 -0.0000004572856049
0.9999977627607434 0.9999993584617867 0.0000000574626803
1.0000011375787856 0.9999993573772561 -0.0000004584374093
1.0000011370832849 0.9999993584619705 -0.0000004572856067
0.9999977627677485 1.0000041734816121 0.0000026362032107
0.9999977627625817 1.0000017659673663 0.0000013468298649
0.9999977627607682 0.9999993584618453 0.0000000574626341
1.0000045114229590 0.9999993584627535 -0.0000009720374470
1.0000045114229625 0.9999993584627108 -0.0000009720374017
0.9999977627677130 1.0000041734815694 0.0000026362032764
1.0000011370876218 1.0000041734791723 0.0000021214580483
0.9999977627626527 1.0000017659674303 0.0000013468299208
0.9999977627676953 1.0000041734816121 0.0000026362032462
0.9999977627609530 0.9999993584619306 0.0000000574628242
1.0000045114245464 1.0000041734772480 0.0000016067093086
1.0000002572407913 0.9999998255662803 0.0000005726877390
1.0000045114229128 0.9999993584627250 -0.0000009720374372
1.0000112601534645 0.9999993584661934 -0.0000020015514392
0.9999998477161460 0.9999993584629676 -0.0000010591605956
0.9999977627609050 0.9999993584618737 0.0000000574628384
0.9999977627607576 0.9999993584618169 0.0000000574627079
1.0000045114229448 0.9999993584627606 -0.0000009720375402
1.0000045114218876 1.0000017659656988 0.0000003173327316
1.0000009593961594 0.9999990779236623 0.0000002281820687
0.9999991613849409 0.9999995929526487 -0.0000029907417600
1.0000045114227458 0.9999993584627677 -0.0000009720374585
0.9999949655342678 1.0000002904111531 0.0000002831783426
0.9999993972888298 1.0000004256690542 0.0000001139443194
0.9999986048333127 1.0000020769191391 0.0000007087793365
1.0000011071114696 0.9999999183429753 0.0000003408773303
0.9999977627607860 0.9999993584618382 0.0000000574627123
0.9999977627607718 0.9999993584617778 0.0000000574627176
0.9999977627607540 0.9999993584617600 0.0000000574626501
0.9999977627607931 0.9999993584618311 0.0000000574627070
1.0000045114230585 0.9999993584637056 -0.0000009720375757
1.0000011370833204 0.9999993584620558 -0.0000004572856769
1.0000045114230087 0.9999993584627961 -0.0000009720374372
0.9999977627607469 0.9999993584618524 0.0000000574626866
0.9999977627608002 0.9999993584618417 0.0000000574627016
1.0000011370833453 0.9999993584620274 -0.0000004572856280
0.9999977627607576 0.9999993584618737 0.0000000574627354
0.9999977627677024 1.0000041734816618 0.0000026362034096
0.9999977627625035 1.0000017659671958 0.0000013468298236
1.0000011370832778 0.9999993584621126 -0.0000004572855339
0.9999977627606439 0.9999993584617565 0.0000000574627638
0.9999977627607718 0.9999993584617565 0.0000000574627247
0.9999985583513804 0.9999993584645188 -0.0000016610340110
1.0000011370833204 0.9999993584619226 -0.0000004572855747
1.0000011904983732 0.9999997806324583 -0.0000009177518042
0.9999977627607647 0.9999993584617600 0.0000000574627958
1.0000045114229874 0.9999993584627339 -0.0000009720374177
0.9999977627607007 0.9999993584617956 0.0000000574627034
0.9999977627676953 1.0000041734816192 0.0000026362032249
1.0000011370832618 0.9999993584620132 -0.0000004572856067
1.0000013387149291 1.0000020317247504 0.0000003657941691
1.0000014223246014 0.9999978079045077 -0.0000008939524558
1.0000011370916229 0.9999972994716100 0.0000029170330498
0.9999985583513173 0.9999993584645757 -0.0000016610340198
1.0000011370833390 0.9999993584620060 -0.0000004572856094
0.9999977627609707 0.9999993584616321 0.0000000574629272
1.0000011370833843 0.9999993584619137 -0.0000004572855925
1.0000045114247773 1.0000041734772480 0.0000016067094632
1.0000045114230212 0.9999993584627392 -0.0000009720373910
0.9999979621365002 0.9999997232708551 -0.0000000385631020
0.9999977627608144 0.9999993584618027 0.0000000574626572
1.0000009950675581 1.0000009937515866 0.0000004630133480
0.9999999364939421 0.9999995055414042 -0.0000005151744701
0.9999977627608002 0.9999993584617494 0.0000000574627176
0.9999977627607434 0.9999993584617458 0.0000000574627176
1.0000045114221108 0.9999924845041837 -0.0000001764453911
0.9999993539379760 0.9999988437200555 -0.0000025359524885
0.9999977627609068 0.9999993584617742 0.0000000574627301
0.9999979862507483 1.0000011143294780 -0.0000027296200930
1.0000011370833612 0.9999993584619918 -0.0000004572855996
1.0000045114220297 1.0000017659657059 0.0000003173329057
0.9999977627606652 0.9999993584617813 0.0000000574628349
0.9999977627608002 0.9999993584617103 0.0000000574627105
0.9999977627606901 0.9999993584617174 0.0000000574627052
0.9999977627608571 0.9999993584617032 0.0000000574626377
1.0000011370876360 1.0000041734791509 0.0000021214580909
0.9999977627606954 0.9999993584618169 0.0000000574627336
1.0000045114229732 0.9999993584627712 -0.0000009720373981
0.9999993539322044 1.0000041734752798 -0.0000008007991100
1.0000011370832849 0.9999993584618355 -0.0000004572855019
0.9999977627604876 0.9999993584622521 0.0000000574628970
0.9999977627607789 0.9999993584617565 0.0000000574626892
0.9999977627608571 0.9999993584617476 0.0000000574627425
0.9999993539359477 1.0000017659698714 -0.0000020901695159
1.0000011370833310 0.9999993584621268 -0.0000004572856777
0.9999997530598301 1.0000041435403255 -0.0000028388605726
0.9999993539429450 0.9999993584732374 -0.0000033795334337
1.0000045114230229 0.9999993584627677 -0.0000009720373812
0.9999977627607611 0.9999993584617032 0.0000000574627674
0.9999977627608002 0.9999993584616748 0.0000000574626945
0.9999980561584785 1.0000009637024618 -0.0000030674303105
0.9999977627611697 0.9999993584617405 0.0000000574629255
0.9999977627609281 0.9999993584617991 0.0000000574628420
0.9999993539321049 1.0000041734751235 -0.0000008007990638
0.9999977627677450 1.0000041734813918 0.0000026362032000
0.9999977627625142 1.0000017659674232 0.0000013468299270
0.9999977627625639 1.0000017659674232 0.0000013468298737
0.9999977627607789 0.9999993584618915 0.0000000574627336
0.9999977627608428 0.9999993584616996 0.0000000574628065
0.9999977627625142 1.0000017659673273 0.0000013468299288
0.9999977627607434 0.9999993584617884 0.0000000574626999
1.0000045114229874 0.9999993584627499 -0.0000009720374052
0.9999977627608002 0.9999993584618311 0.0000000574627034
1.0000045114230371 0.9999993584627250 -0.0000009720374017
0.9999977622849024 0.9999993583299116 0.0000000572065404
1.0000045114230016 0.9999993584627179 -0.0000009720374319
0.9999977627607789 0.9999993584618169 0.0000000574626182
0.9999997692220443 1.0000048638402654 0.0000011987488084
1.0000019326734229 1.0000041734744844 0.0000004029522541
0.9999985583512880 0.9999993584645614 -0.0000016610340252
0.9999988211197250 1.0000047061014330 0.0000016018860366
1.0000045114229608 0.9999993584627108 -0.0000009720374070
1.0000011370838284 1.0000027954675339 -0.0000008550841353
1.0000043852979081 0.9999999918540308 -0.0000006769948696
0.9999923050096563 0.9999977629565437 0.0000034832330240
1.0000072344607129 0.9999988007839741 -0.0000015230738221
0.9999977627607931 0.9999993584617174 0.0000000574627390
0.9999977627607576 0.9999993584617849 0.0000000574627212
0.9999977627607078 0.9999993584617884 0.0000000574626963
1.0000045114230016 0.9999993584626895 -0.0000009720374727
0.9999977627613695 1.0000005622136041 0.0000007021453534
1.0000011370833310 0.9999993584620700 -0.0000004572855960
0.9999994868346187 0.9999996554952015 -0.0000008968629264
0.9999991737807810 1.0000004011083650 -0.0000003069558615
0.9999993539433429 0.9999993584735678 -0.0000033795333183
1.0000011370832316 0.9999993584620700 -0.0000004572856884
0.9999977627607718 0.9999993584618240 0.0000000574627283
0.9999977627607718 0.9999993584618595 0.0000000574627230
1.0000010895438420 1.0000008787260555 0.0000010374592322
0.9999977627677237 1.0000041734815481 0.0000026362032160
1.0000023468727901 0.9999988940162732 0.0000001193069510
0.9999977627614228 0.9999924845047889 0.0000008530484292
0.9999976386151624 0.9999992808614755 0.0000002035742029
0.9999977627608180 0.9999993584618169 0.0000000574627003
0.9999977627607860 0.9999993584618098 0.0000000574627159
0.9999977627607576 0.9999993584618808 0.0000000574626039
0.9999977627677041 1.0000041734816405 0.0000026362031929
0.9999977627608571 0.9999993584618204 0.0000000574627869
0.9999977627608713 0.9999993584616961 0.0000000574626217
1.0000009505703416 0.9999989162127868 -0.0000000901067924
0.9999994007088405 1.0000002228867051 0.0000004101866126
0.9999977627606936 0.9999993584618879 0.0000000574626963
0.9999993539428882 0.9999993584732694 -0.0000033795334906
0.9999977627608073 0.9999993584617742 0.0000000574626892
1.0000011370832564 0.9999993584620416 -0.0000004572855196
1.0000045114229199 0.9999993584629098 -0.0000009720373963
0.9999999609020089 0.9999943471939317 0.0000003342351543
1.0000133157778113 1.0000004874632178 -0.0000015545161364
1.0000056910615431 1.0000021950181861 0.0000016279758404
0.9999985583513946 0.9999993584645614 -0.0000016610339754
0.9999977627607682 0.9999993584617742 0.0000000574627088
0.9999977627607576 0.9999993584618098 0.0000000574626990
1.0000045114229643 0.9999993584627677 -0.0000009720374558
1.0000011370833293 0.9999993584620274 -0.0000004572856324
1.0000045114229448 0.9999993584626611 -0.0000009720374177
1.0000011370833541 0.9999993584619634 -0.0000004572856058
0.9999986802931514 0.9999986729051312 0.0000023571224920
1.0000011370876467 1.0000041734791048 0.0000021214580740
1.0000011370833559 0.9999993584620309 -0.0000004572856777
1.0000045114230336 0.9999993584627108 -0.0000009720373892
0.9999926053281020 1.0000000474636144 -0.0000008617641044
1.0000011370833506 0.9999993584619563 -0.0000004572855356
0.9999974771505622 1.0000016176708701 0.0000038299011735
0.9999977627607505 0.9999993584618595 0.0000000574627052
1.0000045114229306 0.9999993584627961 -0.0000009720374940
1.0000045114229803 0.9999993584627819 -0.0000009720374461
1.0000045114225442 0.9999983289650807 0.0000007151267048
1.0000045114229732 0.9999993584627819 -0.0000009720374407
0.9999977627607789 0.9999993584617387 0.0000000574627780
0.9999985583513804 0.9999993584645614 -0.0000016610340074
1.0000011370832991 0.9999993584620096 -0.0000004572856138
1.0000003225074849 0.9999968408175199 -0.0000003061061605
1.0000045114230016 0.9999993584627392 -0.0000009720374425
0.9999989291545950 0.9999997052532068 0.0000004541584974
0.9999977627607789 0.9999993584617956 0.0000000574627247
0.9999977627607718 0.9999993584618879 0.0000000574626999
0.9999977627607434 0.9999993584618382 0.0000000574627532
0.9999977627607576 0.9999993584618169 0.0000000574626999
0.9999993539404158 0.9999959214831478 -0.0000029817330038
0.9999977627607718 0.9999993584617742 0.0000000574627034
0.9999977627607718 0.9999993584617671 0.0000000574626821
1.0000045114225371 0.9999983289650487 0.0000007151267528
1.0000045114229732 0.9999993584627890 -0.0000009720374088
0.9999995795792642 1.0000008307736934 0.0000009176283315
0.9999977627607718 0.9999993584617920 0.0000000574627674
1.0000011370876503 1.0000041734790515 0.0000021214580891
1.0000045114246103 1.0000041734771343 0.0000016067093086
0.9999977627609210 0.9999993584617813 0.0000000574626786
0.9999977627606510 0.9999993584619341 0.0000000574627292
0.9999975252412988 0.9999982142086975 -0.0000006662289380
0.9999962653601052 0.9999961929644807 -0.0000037340516632
1.0000000875623414 0.9999993991978210 0.0000063229189124
1.0000000746583888 0.9999993334946192 -0.0000002542970943
1.0000045114228879 0.9999993584626184 -0.0000009720374816
0.9999992508351417 1.0000003986091159 0.0000001097308998
0.9999985583494789 1.0000041734754039 0.0000009177034232
1.0000061325595468 0.9999975009911443 0.0000023403531736
1.0000045114228453 0.9999993584628387 -0.0000009720374585
0.9999999998348656 0.9999990783372450 0.0000001752747810
0.9999977627607718 0.9999993584618240 0.0000000574627407
1.0000002643937334 1.0000007376400013 -0.0000007108137373
1.0000045114221712 1.0000005622130894 -0.0000003273530463
0.9999977627676242 1.0000041734820100 0.0000026362033741
1.0000011370833062 0.9999993584620274 -0.0000004572856165
1.0000045114228915 0.9999993584627748 -0.0000009720374230
1.0000011370829864 0.9999993584619847 -0.0000004572854610
0.9999977627606013 0.9999993584617316 0.0000000574629308
1.0000011370832991 0.9999993584619847 -0.0000004572856191
0.9999999124994208 1.0000014268325534 -0.0000011875595338
0.9999977627607398 0.9999993584618027 0.0000000574626857
0.9999977627606013 0.9999993584619163 0.0000000574626199
1.0000022768552836 1.0000011997920875 -0.0000027239330775
1.0000045114211629 1.0000017659660647 0.0000003173335772
1.0000045114246139 1.0000041734771627 0.0000016067094072
0.9999977627608428 0.9999993584617600 0.0000000574627638
1.0000045114229057 0.9999993584628245 -0.0000009720373981
0.9999977627676668 1.0000041734815552 0.0000026362033066
1.0000011370875010 1.0000041734792433 0.0000021214581708
0.9999977627607078 0.9999993584617671 0.0000000574627922
1.0000011370833612 0.9999993584620132 -0.0000004572856511
1.0000011370833275 0.9999993584619918 -0.0000004572856538
0.9999977627607292 0.9999993584617245 0.0000000574628327
0.9999977627607647 0.9999993584617352 0.0000000574627256
0.9999977627608855 0.9999993584617956 0.0000000574627532
0.9999977627620736 1.0000017659674054 0.0000013468299022
0.9999977627607771 0.9999993584617458 0.0000000574627763
0.9999991919291729 0.9999994198564992 -0.0000009807177979
0.9999993539428598 0.9999993584732552 -0.0000033795334835
1.0000045114228027 0.9999993584627748 -0.0000009720374585
1.0000045114246743 1.0000041734771912 0.0000016067093779
0.9999977627626563 1.0000017659672846 0.0000013468299519
1.0000013791536408 1.0000004427470091 -0.0000018534716206
1.0000045114346503 0.9999945434829081 -0.0000035507594900
0.9999977627608428 0.9999993584617956 0.0000000574627816
1.0000045114228027 0.9999993584620500 -0.0000009720371317
0.9999981754766779 1.0000003668792448 0.0000000846046297
0.9999977634422453 0.9999993583800476 0.0000000575158878
0.9999977627676739 1.0000041734816405 0.0000026362032640
0.9999977627607860 0.9999993584618062 0.0000000574627301
0.9999977627607505 0.9999993584618169 0.0000000574627292
0.9999985583512383 0.9999993584645224 -0.0000016610337028
0.9999977627607434 0.9999993584618826 0.0000000574626715
0.9999977627607292 0.9999993584617884 0.0000000574627052
1.0000022646812159 1.0000026194075795 -0.0000002149265683
1.0000045114229590 0.9999993584627677 -0.0000009720374283
0.9999977627607576 0.9999993584619217 0.0000000574626697
1.0000011370833204 0.9999993584620007 -0.0000004572856600
0.9999993539358234 1.0000017659701574 -0.0000020901693702
0.9999977627677379 1.0000041734815197 0.0000026362032551
1.0000045114229448 0.9999993584628245 -0.0000009720374949
0.9999977627672378 1.0000041734814700 0.0000026362034043
0.9999977627727407 0.9999972994756769 0.0000034317754091
0.9999977627679155 1.0000041734812497 0.0000026362033368
0.9999977627607949 0.9999993584617742 0.0000000574627425
1.0000045114245997 1.0000041734772054 0.0000016067093655
1.0000045114230727 0.9999993584626113 -0.0000009720374008
1.0000011370875472 1.0000041734791438 0.0000021214581140
1.0000045114229661 0.9999993584627250 -0.0000009720374443
0.9999977627607824 0.9999993584618737 0.0000000574627070
1.0000045114229981 0.9999993584627392 -0.0000009720374017
0.9999977627726341 0.9999972994748456 0.0000034317751107
0.9999900484588209 1.0000010848760879 -0.0000014630457138
0.9999977627605267 0.9999993584619661 0.0000000574628118
1.0000045114229448 0.9999993584626753 -0.0000009720374905
0.9999977627607434 0.9999993584617884 0.0000000574626972
0.9999977627625817 1.0000017659673734 0.0000013468299110
1.0000009826756764 0.9999968443315651 -0.0000018758364792
1.0000045114220475 1.0000017659656597 0.0000003173328844
1.0000006933146548 0.9999995823689536 -0.0000006092618441
1.0000045114230016 0.9999993584627819 -0.0000009720374479
1.0000045114229554 0.9999993584627535 -0.0000009720374567
1.0000011370833453 0.9999993584620203 -0.0000004572856280
1.0000082245621342 0.9999998311755364 0.0000028260306948
0.9999986572511423 1.0000007280780590 -0.0000027640688783
0.9999977627607878 0.9999993584618240 0.0000000574626848
1.0000011370833133 0.9999993584620416 -0.0000004572856422
1.0000045114229696 0.9999993584626895 -0.0000009720374132
1.0000011370838326 1.0000017659662268 0.0000008320831357
1.0000011370832920 0.9999993584620700 -0.0000004572856191
1.0000011370838335 1.0000017659662410 0.0000008320831393
1.0000011370832920 0.9999993584619847 -0.0000004572855978
1.0000045114229732 0.9999993584624621 -0.0000009720373928
0.9999977627655992 1.0000041734809442 0.0000026362018748
0.9999977627608109 0.9999993584617742 0.0000000574626022
0.9999977627676775 1.0000041734816263 0.0000026362033190
1.0000011370833275 0.9999993584620132 -0.0000004572855969
1.0000014578648007 0.9999991531246569 -0.0000001697087760
0.9999985583514159 0.9999993584646041 -0.0000016610339861
0.9999985583512578 0.9999993584645757 -0.0000016610339843
0.9999977627607789 0.9999993584617494 0.0000000574626719
1.0000011370832440 0.9999993584620274 -0.0000004572857310
1.0000011370876432 1.0000041734788490 0.0000021214581628
1.0000011370833275 0.9999993584620700 -0.0000004572856298
0.9999990828988353 0.9999991252391343 0.0000002382881694
0.9999977627607292 0.9999993584620158 0.0000000574627141
1.0000045114220937 1.0000017659656810 0.0000003173328453
1.0000045114231011 0.9999993584626398 -0.0000009720373573
0.9999977627607292 0.9999993584616890 0.0000000574627674
1.0000045114226392 0.9999993584625261 -0.0000009720370073
0.9999977627607007 0.9999993584616428 0.0000000574625791
0.9999977627607718 0.9999993584618417 0.0000000574627141
1.0000002155829373 1.0000000147404347 0.0000006406777438
0.9999977627674750 1.0000041734815979 0.0000026362032338
0.9999999421634452 1.0000011709123813 -0.0000001975582850
1.0000000178792987 1.0000017947961533 -0.0000009618408339
0.9999977627608713 0.9999993584619625 0.0000000574626786
0.9999993606547448 0.9999976030374412 0.0000007508550481
1.0000045114231118 0.9999993584629098 -0.0000009720376059
0.9999977627607647 0.9999993584617458 0.0000000574627150
0.9999977627607824 0.9999993584618133 0.0000000574626821
0.9999977627607363 0.9999993584619021 0.0000000574625773
0.9999977627607540 0.9999993584618169 0.0000000574628651
0.9999977627626989 1.0000017659673486 0.0000013468298951
0.9999986616899479 1.0000008527658550 0.0000008929044189
1.0000011370833701 0.9999993584619989 -0.0000004572855836
1.0000039058792547 0.9999994339900155 0.0000003272076892
0.9999977627677699 1.0000041734816263 0.0000026362033386
1.0000045114223879 0.9999983289650451 0.0000007151268824
1.0000045114221150 1.0000017659656952 0.0000003173328489
1.0000045114225300 0.9999983289651411 0.0000007151267155
1.0000024077487506 1.0000002895136550 -0.0000026214841686
0.9999993539429237 0.9999993584732836 -0.0000033795334337
0.9999977627607647 0.9999993584617742 0.0000000574626945
0.9999977627626030 1.0000017659673521 0.0000013468299390
1.0000011370833097 0.9999993584620274 -0.0000004572856191
0.9999993539324602 1.0000041734750595 -0.0000008007989270
1.0000006465768692 0.9999967065530770 -0.0000021065160887
1.0000045114229306 0.9999993584627463 -0.0000009720374052
1.0000045114277087 0.9999972994689823 0.0000024022874276
1.0000002164294415 0.9999985082046700 0.0000010765797119
0.9999977627608926 0.9999993584617316 0.0000000574627887
0.9999977627627273 1.0000017659670573 0.0000013468298560
0.9999977627604627 0.9999993584616463 0.0000000574623943
0.9999999834763090 0.9999973188971314 0.0000003453297745
0.9999993539430729 0.9999993584734079 -0.0000033795332401
0.9999977627608002 0.9999993584617956 0.0000000574627247
1.0000011370833559 0.9999993584620203 -0.0000004572855889
0.9999977627605586 0.9999993584615327 0.0000000574626608
1.0000011370832387 0.9999993584618000 -0.0000004572855623
1.0000045114234115 1.0000010769634611 -0.0000011709371075
0.9999991451667740 1.0000018675001539 -0.0000002611964791
1.0000024075866600 0.9999995271053720 -0.0000046165057618
0.9999996532291655 1.0000006917102837 -0.0000012285839498
0.9999977627677663 1.0000041734812994 0.0000026362033741
0.9999977627605018 0.9999993584618204 0.0000000574626608
0.9999977627608286 0.9999993584618311 0.0000000574626643
0.9999977627607576 0.9999993584617956 0.0000000574626679
0.9999977627625284 1.0000017659674303 0.0000013468299590
1.0000045114231437 0.9999993584627961 -0.0000009720377942
1.0000011370919284 0.9999972994715922 0.0000029170330338
0.9999987038437711 0.9999954989008301 0.0000018515898685
1.0000011370833417 0.9999993584619705 -0.0000004572856120
0.9999977627607860 0.9999993584618275 0.0000000574627123
0.9999984484396718 0.9999966846824550 -0.0000048407490962
0.9999977627611306 0.9999993584616321 0.0000000574628988
1.0000112601534219 0.9999993584657244 -0.0000020015515671
1.0000045114220439 1.0000017659656419 0.0000003173329377
0.9999980299390059 0.9999998280315440 0.0000004553805148
0.9999977627607789 0.9999993584617884 0.0000000574626395
1.0000011370831925 0.9999993584623400 -0.0000004572854344
1.0000045114231295 0.9999993584626966 -0.0000009720374052
0.9999996353356415 1.0000005738341133 -0.0000000040595426
1.0000011370832831 0.9999993584619847 -0.0000004572856244
0.9999977627607434 0.9999993584618204 0.0000000574626448
0.9999985583512845 0.9999993584644620 -0.0000016610339932
1.0000109155707690 1.0000006765773284 -0.0000030020430069
0.9999982713782448 0.9999997730220190 0.0000005171840749
0.9999977627607647 0.9999993584618382 0.0000000574627212
0.9999993539430072 0.9999993584733404 -0.0000033795334586
1.0000021091735205 1.0000013318235723 0.0000003506028501
1.0000011370830826 0.9999959214743855 -0.0000000594898380
0.9999977512637609 0.9999993617367438 0.0000000538497139
0.9999977627606013 0.9999993584619874 0.0000000574628171
1.0000011370876289 1.0000041734790657 0.0000021214580349
0.9999977627608073 0.9999993584617884 0.0000000574627247
1.0000045114230194 0.9999993584627392 -0.0000009720374336
0.9999984053529222 0.9999919001764235 0.0000026896447242
0.9999977627677237 1.0000041734816334 0.0000026362031503
0.9999925823248370 1.0000016235810072 0.0000006917556803
0.9999977627609139 0.9999993584618879 0.0000000574627674
0.9999977627610276 0.9999993584622823 0.0000000574623979
1.0000008624624783 1.0000013945791972 0.0000022564845937
1.0000011370834163 0.9999993584619350 -0.0000004572855818
1.0000045114239999 1.0000027954686579 -0.0000013698375237
1.0000045114221292 1.0000017659655958 0.0000003173327885
0.9999985583513165 0.9999993584645828 -0.0000016610340145
0.9999977627607789 0.9999993584618169 0.0000000574627656
0.9999977627725559 0.9999972994749025 0.0000034317751213
0.9999977627607434 0.9999993584617671 0.0000000574626963
0.9999994499197348 0.9999993584618700 -0.0000001999110400
0.9999985583513662 0.9999993584646858 -0.0000016610340092
0.9999977627606723 0.9999993584617742 0.0000000574627079
0.9999977781693977 1.0000010643040051 0.0000013947600593
0.9999977627605160 0.9999993584619732 0.0000000574624991
0.9999977627607576 0.9999993584617174 0.0000000574626679
1.0000001059569341 1.0000016794917639 0.0000006539614702
0.9999993539425613 0.9999993584731415 -0.0000033795332721
1.0000045114245464 1.0000041734772267 0.0000016067093264
0.9999977627606581 0.9999993584619021 0.0000000574626892
1.0000045114223424 1.0000017659654288 0.0000003173328648
0.9999977627607007 0.9999993584618595 0.0000000574627461
0.9999911900111272 0.9999998251879714 0.0000020903435156
0.9999985583513555 0.9999993584645614 -0.0000016610340021
0.9999993539321191 1.0000041734753295 -0.0000008007990123
1.0000007037805134 1.0000041548557632 0.0000022180788999
1.0000002055835588 1.0000000078246281 -0.0000012475498712
1.0000034444979196 1.0000021496676625 -0.0000021265361943
0.9999974192104387 1.0000008934529105 0.0000007191751139
1.0000011370916300 0.9999972994716455 0.0000029170329841
1.0000011370833275 0.9999993584620558 -0.0000004572856493
1.0000045114227885 0.9999993584628956 -0.0000009720374265
0.9999977627677379 1.0000041734815126 0.0000026362033137
0.9999985961720211 0.9999986212349218 -0.0000003184043948
0.9999976465682123 1.0000005837633046 -0.0000022200399897
1.0000002552126885 1.0000005171659188 0.0000002699977750
0.9999977627607576 0.9999993584617636 0.0000000574626643
1.0000015077170470 1.0000007513560127 -0.0000011498186738
1.0000013590605954 0.9999980310057204 -0.0000006890206047
0.9999977627608144 0.9999993584618391 0.0000000574627745
0.9999978690014328 1.0000007609657773 0.0000003602192504
0.9999977627609210 0.9999993584617174 0.0000000574628455
0.9999993539314993 1.0000007364604131 -0.0000004030053869
0.9999977627625710 1.0000017659673521 0.0000013468298133
0.9999977627679830 1.0000041734815837 0.0000026362032799
1.0000045114245819 1.0000041734772196 0.0000016067093548
0.9999977627609423 0.9999993584619945 0.0000000574629095
1.0000011370832795 0.9999993584619989 -0.0000004572855880
0.9999977627626456 1.0000017659672100 0.0000013468299874
1.0000011370838406 1.0000017659662339 0.0000008320830966
0.9999977627608002 0.9999993584617813 0.0000000574627372
0.9999993539316822 1.0000041734757843 -0.0000008007996553
0.9999977627671339 0.9999945434769906 -0.0000025212530291
1.0000045114230585 0.9999993584627748 -0.0000009720374763
0.9999977627625781 1.0000017659674019 0.0000013468298773
1.0000045114228879 0.9999993584626931 -0.0000009720375065
1.0000045114229021 0.9999993584626966 -0.0000009720374674
0.9999952496930309 1.0000023956380404 -0.0000009395784199
0.9999977627608144 0.9999993584617316 0.0000000574627247
0.9999977627626279 1.0000017659672740 0.0000013468298666
1.0000072326336897 0.9999991864303822 0.0000015911634473
0.9999977627606759 0.9999993584617494 0.0000000574626430
0.9999989616926863 0.9999996500263869 -0.0000010890573869
0.9999977627607078 0.9999993584617742 0.0000000574627940
0.9999977627676526 1.0000041734816014 0.0000026362031219
1.0000045114246032 1.0000041734773333 0.0000016067092838
1.0000045114278135 0.9999972994688686 0.0000024022874170
0.9999977627607789 0.9999993584618879 0.0000000574626661
1.0000011370832991 0.9999993584620416 -0.0000004572854646
1.0000011370833630 0.9999993584619918 -0.0000004572856049
0.9999998270428102 0.9999996766585588 -0.0000006268036455
0.9999977627607185 0.9999993584617884 0.0000000574627434
0.9999977627606652 0.9999993584617742 0.0000000574626448
0.9999977627607469 0.9999993584618453 0.0000000574626768
0.9999977627606439 0.9999993584617884 0.0000000574627283
1.0000045114230300 0.9999993584625971 -0.0000009720374603
1.0000045114220724 1.0000017659656100 0.0000003173329945
0.9999995795749778 1.0000001616383698 0.0000001640816865
0.9999993272545934 0.9999999419541317 -0.0000011374387140
0.9999963028933708 0.9999994611195611 0.0000020602251528
1.0000045114229874 0.9999993584627392 -0.0000009720375225
1.0000045114222536 1.0000017659655887 0.0000003173326632
1.0000045114228879 0.9999993584626966 -0.0000009720373217
0.9999996373230660 0.9999989534363171 0.0000002702139705
0.9999977627607576 0.9999993584616179 0.0000000574623215
1.0000045114229874 0.9999993584626895 -0.0000009720374496
0.9999977627609210 0.9999993584617529 0.0000000574626164
0.9999977627608215 0.9999993584617138 0.0000000574626466
0.9999978643908438 1.0000006839000268 0.0000004872195105
1.0000053214672635 1.0000038548477295 -0.0000035066051221
0.9999977627607718 0.9999993584617280 0.0000000574626519
1.0000044860064488 1.0000001319760856 0.0000021293693502
1.0000011370833417 0.9999993584620771 -0.0000004572856040
1.0000045114229874 0.9999993584625154 -0.0000009720374976
1.0000004582974760 0.9999980334490608 -0.0000005556183089
1.0000006224165841 1.0000003457906554 0.0000008115443367
0.9999979887548308 1.0000016021246143 0.0000013674690556
0.9999999043218863 0.9999996716310922 -0.0000007824581503
0.9999996002950768 0.9999955578439901 -0.0000000848436471
1.0000025698149655 1.0000006210347889 0.0000008876986044
0.9999977627676668 1.0000041734816121 0.0000026362032746
0.9999977627607149 0.9999993584610033 0.0000000574623073
1.0000045114227742 0.9999993584627819 -0.0000009720373715
1.0000011370832707 0.9999993584619492 -0.0000004572855800
1.0000035724550396 1.0000042847068993 0.0000015676630688
1.0000058558511058 0.9999972786465322 0.0000050706702673
0.9999978835086322 0.9999994298619918 0.0000001523433144
0.9999993539429450 0.9999993584732978 -0.0000033795335421
0.9999977627626563 1.0000017659669755 0.0000013468305221
1.0000045114229306 0.9999993584627606 -0.0000009720373981
0.9999977627606297 0.9999993584615753 0.0000000574629201
0.9999977627606581 0.9999993584617956 0.0000000574626812
0.9999977627607576 0.9999993584618435 0.0000000574627123
0.9999977627606723 0.9999993584623000 0.0000000574626413
1.0000038080299800 1.0000039045097791 0.0000011335114346
1.0000067610492536 0.9999997939668680 -0.0000020289286555
1.0000045114245393 1.0000041734771059 0.0000016067092198
0.9999977627604307 0.9999993584616392 0.0000000574631910
0.9999978994519659 1.0000022925203931 0.0000025586561634
0.9999986349503915 0.9999990447503839 0.0000014468520221
0.9999976766227232 1.0000054007206962 -0.0000052689845855
0.9999985583513742 0.9999993584645472 -0.0000016610340047
0.9999993539443142 1.0000010769749326 -0.0000035784346756
0.9999977627607629 0.9999993584617529 0.0000000574627301
0.9999985110909136 1.0000009392632840 -0.0000005796949405
0.9999977627677201 1.0000041734814984 0.0000026362031165
0.9999977627607292 0.9999993584614332 0.0000000574627798
0.9999977627607434 0.9999993584618453 0.0000000574626608
0.9999993539357488 1.0000017659699141 -0.0000020901694058
1.0000045114230371 0.9999993584626859 -0.0000009720374479
0.9999977627606581 0.9999993584617707 0.0000000574627301
1.0000001564634666 0.9999943124279775 0.0000003550647100
0.9999977627607789 0.9999993584618808 0.0000000574626999
0.9999977627607149 0.9999993584617032 0.0000000574627354
0.9999977627675602 1.0000041734815694 0.0000026362032338
1.0000028973759121 1.0000043580491831 0.0000015504511387
0.9999977339365494 0.9999993024584061 0.0000020169732228
0.9999977627672973 1.0000041734817258 0.0000026362029691
1.0000011370833275 0.9999993584620274 -0.0000004572856724
1.0000045114245819 1.0000041734772622 0.0000016067093548
0.9999993539428846 0.9999993584731841 -0.0000033795334426
0.9999977627606794 0.9999993584619696 0.0000000574627407
1.0000045114229164 0.9999993584627535 -0.0000009720374194
0.9999945899907886 1.0000012176018347 -0.0000004279036452
0.9999977627607647 0.9999993584617956 0.0000000574627247
0.9999977627605302 0.9999993584617494 0.0000000574628775
1.0000011370876627 1.0000041734791083 0.0000021214580820
0.9999999184198408 1.0000002411189535 0.0000004915019670
0.9999977627676349 1.0000041734815837 0.0000026362033101
0.9999977627612940 0.9999993584616463 0.0000000574629841
0.9999980534193095 0.9999983129406225 -0.0000004493595273
1.0000045114228595 0.9999993584631229 -0.0000009720374123
0.9999977627625710 1.0000017659673042 0.0000013468298311
1.0000011372199649 0.9999993584432406 -0.0000004572755667
0.9999994241834469 1.0000001127720797 0.0000012369942457
0.9999977627678374 1.0000041734815055 0.0000026362030934
1.0000045114230585 0.9999993584626415 -0.0000009720373484
0.9999977627608002 0.9999993584616836 0.0000000574627176
1.0000011370833097 0.9999993584620487 -0.0000004572856555
0.9999977627607647 0.9999993584617991 0.0000000574626910
0.9999999387333184 1.0000031281105022 -0.0000002641880038
1.0000011370833488 0.9999993584619634 -0.0000004572856129
0.9999977627607718 0.9999993584617920 0.0000000574626803
1.0000000281482129 0.9999876859585832 0.0000020570255719
1.0000005128122014 1.0000023933069120 0.0000008531244825
1.0000045114220617 1.0000017659656384 0.0000003173328657
1.0000045114278651 0.9999972994688544 0.0000024022874436
0.9999977627607753 0.9999993584617884 0.0000000574626901
1.0000045114229448 0.9999993584627108 -0.0000009720374372
0.9999995354556427 1.0000050967175849 0.0000015448483358
0.9999977627608606 0.9999993584614048 0.0000000574625098
1.0000045114229981 0.9999993584626824 -0.0000009720374301
1.0000012498360646 1.0000005293077479 -0.0000018674779779
1.0000003370712092 1.0000004437290217 -0.0000004668634637
0.9999981729356587 0.9999993377879345 -0.0000000837066800
1.0000045114230016 0.9999993584625971 -0.0000009720374159
0.9999977627606297 0.9999993584618879 0.0000000574628438
1.0000011370833559 0.9999993584620060 -0.0000004572856280
0.9999977627680079 1.0000041734816725 0.0000026362034523
0.9999977627606723 0.9999993584618737 0.0000000574626910
1.0000045114224980 0.9999983289649563 0.0000007151268664
0.9999977627606723 0.9999993584617920 0.0000000574626643
1.0000011370838477 1.0000017659661842 0.0000008320831020
1.0000045114231153 0.9999993584624977 -0.0000009720374923
0.9999994610352722 0.9999994537614205 -0.0000004858844376
0.9999993539433571 0.9999993584735181 -0.0000033795330980
0.9999977627605906 0.9999993584617458 0.0000000574625578
1.0000010562678783 0.9999945437963191 -0.0000030241936072
1.0000013002425494 1.0000032431945356 -0.0000000689206637
0.9999977627607363 0.9999993584618240 0.0000000574626786
0.9999977627625710 1.0000017659673042 0.0000013468298187
0.9999977627626989 1.0000017659673521 0.0000013468300905
0.9999977627607789 0.9999993584619377 0.0000000574627603
1.0000012266846852 0.9999943346539107 0.0000015336056142
0.9999977627607007 0.9999993584617956 0.0000000574626048
1.0000011370915376 0.9999972994717379 0.0000029170331137
0.9999977627611590 0.9999993584616890 0.0000000574629486
1.0000011370833701 0.9999993584620416 -0.0000004572856049
0.9999977627607434 0.9999993584618453 0.0000000574626821
1.0000045114230300 0.9999993584627002 -0.0000009720375082
1.0000004838799210 0.9999990399041192 0.0000001644194027
0.9999971166473279 1.0000004294917519 0.0000013291242395
1.0000011370833417 0.9999993584618142 -0.0000004572855960
0.9999977627608784 0.9999993584618488 0.0000000574627692
0.9999977627607256 0.9999993584617884 0.0000000574625560
0.9999997673426365 0.9999967565097356 -0.0000020489769115
0.9999993539320872 1.0000041734749601 -0.0000008007989945
0.9999898174122023 1.0000010288109866 0.0000019582283479
0.9999981372824072 1.0000005119907756 -0.0000001010201231
0.9999977627605871 0.9999993584617884 0.0000000574626928
0.9999977627607718 0.9999993584617671 0.0000000574627354
0.9999981032868582 1.0000017468285609 0.0000013262485138
1.0000045114230016 0.9999993584626753 -0.0000009720374088
0.9999977627610276 0.9999993584615824 0.0000000574626945
1.0000011370833373 0.9999993584621268 -0.0000004572855161
0.9999985583512632 0.9999993584645614 -0.0000016610339861
1.0000045114228169 0.9999993584627321 -0.0000009720375438
0.9999977627626563 1.0000017659672740 0.0000013468298222
1.0000045114230727 0.9999993584627392 -0.0000009720374550
1.0000027950647028 1.0000007834051718 -0.0000035090428200
1.0000045114221860 1.0000017659654359 0.0000003173328631
1.0000029294155945 1.0000054466309549 0.0000013552809909
1.0000007784061966 1.0000007419618102 0.0000001278503142
0.9999977627625923 1.0000017659673557 0.0000013468298862
1.0000011370833133 0.9999993584620362 -0.0000004572856404
1.0000010690866306 1.0000004559290250 0.0000003719512949
0.9999977543881656 1.0000041486647600 0.0000026781517381
0.9999989696202831 1.0000007044366026 0.0000023590499998
0.9999993770151402 0.9999984895370527 0.0000004817969755
0.9999977627638680 0.9999983289675582 0.0000017446207090
1.0000045114229803 0.9999993584626327 -0.0000009720373946
1.0000045114231011 0.9999993584627606 -0.0000009720374976
0.9999977627619229 0.9999993584618879 0.0000000574633358
1.0000045114230300 0.9999993584629240 -0.0000009720373448
1.0000011370833506 0.9999993584620345 -0.0000004572856316
0.9999977627607292 0.9999993584617956 0.0000000574626892
1.0000024414216637 0.9999982460805341 -0.0000067138555089
0.9999985583513804 0.9999993584645970 -0.0000016610339861
1.0000011370833204 0.9999993584619776 -0.0000004572855978
1.0000011370833417 0.9999993584619989 -0.0000004572856369
1.0000038310245771 1.0000042599570540 -0.0000000696612801
1.0000000957852104 1.0000014391510610 -0.0000001648230066
0.9999977627612558 1.0000005622134336 0.0000007021455488
0.9999977627676526 1.0000041734816476 0.0000026362032586
0.9999977627608002 0.9999993584618915 0.0000000574626395
0.9999977627608286 0.9999993584614545 0.0000000574627016
1.0000011370832493 0.9999993584620593 -0.0000004572857168
0.9999987280535113 1.0000003913662761 -0.0000013631442577
1.0000045114229590 0.9999993584626682 -0.0000009720374194
0.9999977627611546 1.0000005622134869 0.0000007021455302
0.9999994499197499 0.9999993584619091 -0.0000001999110826
1.0000045114220297 1.0000017659657663 0.0000003173329057
1.0000004931599691 0.9999900865422121 0.0000001476282581
0.9999977627608571 0.9999993584619306 0.0000000574623055
1.0000045114227885 0.9999993584627392 -0.0000009720374443
0.9999991259480244 0.9999994998483867 0.0000007022302798
0.9999985583511601 0.9999993584643554 -0.0000016610343076
0.9999977627607292 0.9999993584617956 0.0000000574626768
1.0000003934862753 0.9999995437800867 -0.0000012025918092
0.9999977627607505 0.9999993584617245 0.0000000574627425
1.0000019374765492 0.9999996606306421 0.0000001109200501
0.9999977627606865 0.9999993584617956 0.0000000574626608
1.0000011370876787 1.0000041734791723 0.0000021214580536
1.0000011370833488 0.9999993584618995 -0.0000004572855392
0.9999977627625426 1.0000017659674001 0.0000013468298951
0.9999993539379085 0.9999988437201017 -0.0000025359524756
0.9999977627608536 1.0000027954668935 -0.0000003403342762
1.0000011370915234 0.9999972994715887 0.0000029170329841
1.0000045114223020 0.9999959214743798 -0.0000005742399481
0.9999993539429166 0.9999993584733760 -0.0000033795334568
0.9999983155567075 1.0000004202948987 0.0000008486804661
1.0000045114220995 0.9999959214746640 -0.0000005742399045
0.9999985583514017 0.9999993584645650 -0.0000016610340438
1.0000009116260014 1.0000012300492513 -0.0000046420455920
1.0000045114230514 0.9999993584626398 -0.0000009720373954
1.0000018699909348 1.0000005108738146 0.0000001597297232
0.9999977627604840 0.9999993584619590 0.0000000574628509
0.9999977627607292 0.9999993584619377 0.0000000574628207
1.0000045114228453 0.9999993584626966 -0.0000009720373288
0.9999977627607860 0.9999993584617423 0.0000000574627016
0.9999977627604876 0.9999993584619412 0.0000000574628367
1.0000008263923839 0.9999973662873177 -0.0000006875318620
1.0000011370833062 0.9999993584619634 -0.0000004572855907
1.0000011370877071 1.0000041734791083 0.0000021214579825
1.0000045114229661 0.9999993584626824 -0.0000009720373768
0.9999977627607114 0.9999993584618027 0.0000000574627674
0.9999996527652270 0.9999993271473335 -0.0000001795358688
1.0000045114228275 0.9999993584623129 -0.0000009720374159
0.9999977627606474 0.9999993584618311 0.0000000574626928
1.0000011370833453 0.9999993584620060 -0.0000004572856005
0.9999977627608428 0.9999993584618098 0.0000000574627287
1.0000011370833577 0.9999993584620913 -0.0000004572856342
1.0000011370914630 0.9999972994715958 0.0000029170329485
1.0000011370832387 0.9999993584619634 -0.0000004572856866
1.0000058498563846 1.0000015470292054 -0.0000004009893765
0.9999977627607789 0.9999993584617884 0.0000000574626821
0.9999977627608428 0.9999993584617991 0.0000000574627265
0.9999993539428917 0.9999993584732125 -0.0000033795334906
0.9999977627607860 0.9999993584617316 0.0000000574627070
1.0000023880234090 0.9999994922729389 0.0000007719286783
0.9999993539428669 0.9999993584732267 -0.0000033795333698
1.0000045114230016 0.9999993584625652 -0.0000009720374869
1.0000058836084440 0.9999987949162846 -0.0000002578097149
0.9999972835056830 1.0000010091784826 -0.0000001020560281
1.0000011508352538 0.9999945398947218 0.0000003410861983
1.0000045114246459 1.0000041734771983 0.0000016067092909
1.0000011370831501 0.9999959214742399 -0.0000000594898353
0.9999977627607363 0.9999993584617600 0.0000000574627425
1.0000005335469524 0.9999990436392279 0.0000009638370394
1.0000045114229448 0.9999993584628885 -0.0000009720374749
0.9999977627607292 0.9999993584617813 0.0000000574628278
0.9999977627605764 0.9999993584618595 0.0000000574626803
1.0000011370832707 0.9999993584619634 -0.0000004572855694
1.0000000027369560 0.9999990642196445 -0.0000009526314190
0.9999977627725062 0.9999972994749380 0.0000034317751107
1.0000045114229306 0.9999993584627179 -0.0000009720374550
0.9999977627606155 0.9999993584616783 0.0000000574625240
1.0000016801063571 1.0000008541158787 -0.0000068054989469
1.0000016343225551 0.9999992186150204 0.0000003469717288
0.9999977627725275 0.9999972994748101 0.0000034317750521
1.0000045114221434 1.0000017659655318 0.0000003173329093
0.9999977627677663 1.0000041734812923 0.0000026362031325
0.9999977627610418 0.9999993584620300 0.0000000574631582
0.9999977627676668 1.0000041734813705 0.0000026362032711
0.9999987684555277 1.0000013761172466 0.0000007876368989
0.9999977627608997 0.9999993584616677 0.0000000574626981
0.9999994523649268 0.9999985606665333 0.0000000187996481
1.0000045114229021 0.9999993584624834 -0.0000009720375118
0.9999982222299714 0.9999982922134965 0.0000023244239792
0.9999977627607753 0.9999993584618595 0.0000000574626768
0.9999993824820275 0.9999993837223090 -0.0000033526889539
1.0000045114228346 0.9999993584626256 -0.0000009720373857
1.0000009184595526 1.0000005362866231 -0.0000035060514348
1.0000045114230443 0.9999993584627037 -0.0000009720373128
0.9999977627607576 0.9999993584615469 0.0000000574626999
0.9999977627624786 1.0000017659674587 0.0000013468299110
1.0000046142299601 1.0000016377411916 0.0000002983916922
1.0000011370833204 0.9999993584619812 -0.0000004572856831
0.9999977627607292 0.9999993584618027 0.0000000574626501
1.0000004581162931 1.0000014159646822 0.0000008347444782
1.0000023263901392 1.0000004300284759 0.0000011996934854
0.9999977627699993 1.0000007364695949 0.0000030339905832
1.0000045114231153 0.9999993584618013 -0.0000009720371974
1.0000011370832778 0.9999993584621197 -0.0000004572855267
1.0000006950011964 1.0000001312225981 0.0000019762011787
0.9999977627607149 0.9999993584617387 0.0000000574625880
0.9999994866212599 0.9999980178586223 0.0000010371932634
0.9999989955200874 0.9999990452941063 0.0000003826334871
1.0000011370833275 0.9999993584619421 -0.0000004572855907
1.0000045114229732 0.9999993584628423 -0.0000009720374088
1.0000029891684545 1.0000002612002250 -0.0000011991495740
0.9999977627626847 1.0000017659672651 0.0000013468298542
0.9999977627607576 0.9999993584618027 0.0000000574626439
0.9999977627610809 0.9999993584620442 0.0000000574623819
1.0000002546330078 0.9999988432533636 -0.0000011451389318
0.9999977627609423 0.9999993584614723 0.0000000574626715
0.9999977627606439 0.9999993584613479 0.0000000574627532
1.0000045114225158 0.9999983289648036 0.0000007151267226
0.9999985583513538 0.9999993584646467 -0.0000016610339896
0.9999961053297136 1.0000021713861573 -0.0000021106886442
1.0000015014676362 1.0000006633931815 0.0000004789364608
1.0000045114228631 0.9999993584627606 -0.0000009720375189
0.9999977627676526 1.0000041734815694 0.0000026362032391
0.9999977627605693 0.9999993584617458 0.0000000574626075
1.0000011370875472 1.0000041734792504 0.0000021214581371
0.9999977627607718 0.9999993584617742 0.0000000574627194
1.0000045114246530 1.0000041734772622 0.0000016067092180
1.0000011370832920 0.9999993584617929 -0.0000004572854131
0.9999985040956232 0.9999990667288700 0.0000011155490784
0.9999985583513946 0.9999993584646183 -0.0000016610340252
1.0000011370833310 0.9999993584620487 -0.0000004572856475
1.0000045114230620 0.9999993584625403 -0.0000009720373173
1.0000047810441393 0.9999970239271568 0.0000030038351205
0.9999977627607434 0.9999993584618737 0.0000000574627194
0.9999979278694373 0.9999994170354545 0.0000001665965599
0.9999977627606723 0.9999993584617778 0.0000000574626377
0.9999977715674284 1.0000017299208053 0.0000013319830470
0.9999977627608997 0.9999993584619554 0.0000000574628757
1.0000045114230229 0.9999993584627535 -0.0000009720375189
1.0000011370861606 0.9999969509666340 -0.0000017466481354
0.9999977627608002 0.9999993584617032 0.0000000574626111
0.9999993539427514 0.9999993584731557 -0.0000033795334044
0.9999967960826467 0.9999963016895022 0.0000016436468816
0.9999978001047051 0.9999993476646906 0.0000000694605291
0.9999977627626101 1.0000017659673166 0.0000013468299901
0.9999985583511886 0.9999993584645188 -0.0000016610340429
1.0000058483271577 1.0000014635912824 0.0000004161954281
0.9999979103756298 0.9999991784810660 -0.0000012672262093
0.9999977627676384 1.0000041734815410 0.0000026362032888
1.0000009219346935 0.9999940775047564 -0.0000047693633101
0.9999985583511868 0.9999993584645614 -0.0000016610340856
0.9999987052430312 0.9999969114130427 0.0000005923876860
0.9999977627682353 1.0000041734811467 0.0000026362031165
0.9999977627607718 0.9999993584619021 0.0000000574627212
0.9999977627611697 0.9999993584619483 0.0000000574628562
0.9999995714303456 1.0000001056174019 -0.0000005488519594
1.0000013942099895 1.0000002808427164 -0.0000012700223121
0.9999977627607718 0.9999993584618346 0.0000000574627336
1.0000005859050609 1.0000012585093194 -0.0000004896509157
0.9999994499253606 1.0000041734802301 0.0000023788310677
1.0000045971460976 1.0000017076794618 0.0000003271988532
0.9999977627607540 0.9999993584618453 0.0000000574627016
0.9999993539429308 0.9999993584730633 -0.0000033795335190
0.9999977627607505 0.9999993584618559 0.0000000574627265
1.0000045114229021 0.9999993584627996 -0.0000009720374852
1.0000048416372156 0.9999974381926718 -0.0000014630550304
0.9999977627607789 0.9999993584617600 0.0000000574626892
1.0000045114247382 1.0000041734771272 0.0000016067093299
1.0000045281494134 0.9999992899890292 -0.0000010002417094
0.9999985583513733 0.9999993584645046 -0.0000016610340607
0.9999977627608198 0.9999993584613763 0.0000000574629628
0.9999998141986115 0.9999993518209694 0.0000013979038440
1.0000011370833204 0.9999993584620132 -0.0000004572857186
0.9999977627606119 0.9999993584617884 0.0000000574626910
0.9999986130029532 1.0000000304018946 0.0000005191265633
0.9999977627609352 0.9999993584618382 0.0000000574627860
1.0000011370826791 0.9999993584616295 -0.0000004572853118
0.9999977627609707 0.9999993584617600 0.0000000574628669
0.9999985583514017 0.9999993584645259 -0.0000016610340039
1.0000055679172890 1.0000014608218262 0.0000010215641372
0.9999977627609103 0.9999993584616037 0.0000000574626768
1.0000002744054650 1.0000010025263455 0.0000000205160359
0.9999977627677379 1.0000041734816654 0.0000026362032959
0.9999985583512401 0.9999993584645757 -0.0000016610340003
1.0000011370833914 0.9999993584619492 -0.0000004572856022
1.0000011370831534 0.9999993584619989 -0.0000004572855569
0.9999993539320730 1.0000041734753153 -0.0000008007991313
0.9999977627612976 0.9999993584619377 0.0000000574629788
1.0000000371874553 0.9999987155083420 0.0000007976123758
0.9999993539428171 0.9999993584733156 -0.0000033795334781
0.9999977634380887 0.9999993583678547 0.0000000575262617
1.0000011370833062 0.9999993584619847 -0.0000004572855641
0.9999979725361821 0.9999992341733341 0.0000000912795733
0.9999979160356529 0.9999991302881527 0.0000000097042558
0.9999988563657903 0.9999991174341301 -0.0000006345042431
1.0000011370832778 0.9999993584617431 -0.0000004572855694
0.9999993539429450 0.9999993584729923 -0.0000033795334462
0.9999977627786044 0.9999904255392971 0.0000042273360424
0.9999977627727833 0.9999972994746289 0.0000034317749544
0.9999977627607540 0.9999993584619163 0.0000000574626537
0.9999985583513271 0.9999993584646751 -0.0000016610340056
0.9999984549344150 1.0000005381446007 -0.0000009633072184
0.9999977627607398 0.9999993584618169 0.0000000574628082
0.9999993539315228 0.9999972994632410 -0.0000000052147755
0.9999977627607718 0.9999993584618595 0.0000000574627247
0.9999999649247181 0.9999995821062296 -0.0000006449876901
0.9999993539429379 0.9999993584731557 -0.0000033795332259
0.9999977627607114 0.9999993584616037 0.0000000574624974
0.9999977627607505 0.9999993584617245 0.0000000574626501
0.9999977627607718 0.9999993584617387 0.0000000574627656
1.0000045114229377 0.9999993584627535 -0.0000009720374088
1.0000045114228737 0.9999993584626682 -0.0000009720376894
0.9999980375595301 0.9999991257596879 0.0000021192662797
1.0000045114230567 0.9999993584627961 -0.0000009720374816
0.9999977627608144 0.9999993584617547 0.0000000574627638
0.9999929839374709 1.0000014204826477 0.0000016446241715
0.9999977627615620 1.0000017659673734 0.0000013468304990
1.0000045114230585 0.9999993584627250 -0.0000009720374727
0.9999977627607767 1.0000010769621266 -0.0000001414354387
1.0000045114247293 1.0000041734771485 0.0000016067093584
0.9999977627638671 0.9999983289674730 0.0000017446206601
1.0000011370833204 0.9999993584619989 -0.0000004572855765
1.0000011370832778 0.9999993584619918 -0.0000004572857390
0.9999977627625284 1.0000017659673042 0.0000013468298347
0.9999977627605835 0.9999993584618773 0.0000000574627629
0.9999991754873715 1.0000015388815504 0.0000004561405230
1.0000045114229874 0.9999993584628387 -0.0000009720373981
0.9999977627606865 0.9999993584617707 0.0000000574627478
0.9999977627606865 0.9999993584618009 0.0000000574627301
0.9999977627625284 1.0000017659676292 0.0000013468299466
0.9999977627608002 0.9999993584614794 0.0000000574628438
1.0000019326779288 0.9999993584664771 -0.0000021757886138
1.0000007465047391 1.0000012677132177 0.0000004780591337
1.0000014336592258 1.0000009280747451 0.0000005217542473
1.0000011370831161 0.9999993584618853 -0.0000004572858838
1.0000011370915447 0.9999972994716242 0.0000029170330231
0.9999977627608073 0.9999993584619306 0.0000000574626537
1.0000000170470174 0.9999968124968612 -0.0000014385767954
0.9999977627607931 0.9999993584617956 0.0000000574628251
0.9999977627608073 0.9999993584620158 0.0000000574626963
0.9999977627607576 0.9999993584617529 0.0000000574627176
1.0000000751563018 0.9999993108968501 0.0000009871323609
0.9999977627624573 1.0000017659672242 0.0000013468298888
0.9999977627607292 0.9999993584617956 0.0000000574626537
0.9999977627678089 1.0000041734813421 0.0000026362031787
0.9999977627624680 1.0000017659673379 0.0000013468300087
0.9999977627604556 0.9999993584619732 0.0000000574625809
0.9999977627607647 0.9999993584618737 0.0000000574626537
0.9999977627607007 0.9999993584617352 0.0000000574626910
0.9999993539357346 1.0000017659698803 -0.0000020901693347
0.9999977627606865 0.9999993584618453 0.0000000574628349
0.9999977627606617 0.9999993584618169 0.0000000574627407
0.9999977627625746 1.0000017659674161 0.0000013468297858
0.9999985583511957 0.9999993584646183 -0.0000016610340847
1.0000008786209496 0.9999979620613672 0.0000002738160944
0.9999993539429592 0.9999993584729887 -0.0000033795334959
0.9999977627603934 0.9999993584614758 0.0000000574630214
0.9999993539343306 0.9999983289671092 -0.0000016923723098
1.0000011370833826 0.9999993584619705 -0.0000004572855880
1.0000011370833506 0.9999993584620558 -0.0000004572856671
0.9999977627676668 1.0000041734815552 0.0000026362032640
0.9999985583513022 0.9999993584645188 -0.0000016610340039
1.0000045114229803 0.9999993584628742 -0.0000009720374780
1.0000011370832778 0.9999993584621197 -0.0000004572855214
1.0000011370831854 0.9999993584620345 -0.0000004572856431
0.9999977627612274 1.0000005622134887 0.0000007021455062
1.0000045114228169 0.9999993584626113 -0.0000009720376557
1.0000018013457699 0.9999992024347735 -0.0000003397485658
0.9999977627608855 0.9999993584618204 0.0000000574625826
1.0000045114228666 0.9999993584628103 -0.0000009720375740
0.9999977627608038 0.9999993584616605 0.0000000574628047
1.0000045114246956 1.0000041734768146 0.0000016067093939
0.9999977627626208 1.0000017659672598 0.0000013468298560
1.0000045114229306 0.9999993584626078 -0.0000009720373661
1.0000001949789554 0.9999986261091618 -0.0000012892796837
1.0000011370832707 0.9999993584620132 -0.0000004572855907
1.0000045114228950 0.9999993584626682 -0.0000009720373022
0.9999977627675674 1.0000041734813456 0.0000026362035144
0.9999977627604947 0.9999993584618382 0.0000000574626981
1.0000011370833559 0.9999993584619634 -0.0000004572856067
1.0000045114227458 0.9999993584628885 -0.0000009720371388
1.0000022942239970 0.9999991959188049 -0.0000020940742079
1.0000045114228169 0.9999993584627783 -0.0000009720375384
1.0000011370833630 0.9999993584619634 -0.0000004572856511
1.0000001805280299 1.0000004982564361 -0.0000004246764566
1.0000011370875508 1.0000041734790870 0.0000021214580429
0.9999977627606865 0.9999993584614474 0.0000000574624583
1.0000011370832067 0.9999993584619634 -0.0000004572856458
0.9999993539428029 0.9999993584733333 -0.0000033795336042
0.9999986599180369 0.9999968119587737 -0.0000015856903216
0.9999977627608002 0.9999993584617671 0.0000000574626892
0.9999977627607434 0.9999993584617103 0.0000000574627247
1.0000066670277765 0.9999982031108315 0.0000011034942543
0.9999977627610631 0.9999993584621437 0.0000000574628473
0.9999977627608855 0.9999993584615824 0.0000000574625826
0.9999977627604840 0.9999993584615540 0.0000000574620506
0.9999992853820683 0.9999991599053312 0.0000009804024092
0.9999977627638635 0.9999983289674303 0.0000017446206344
1.0000045114224945 0.9999983289649208 0.0000007151268469
0.9999977627625142 1.0000017659674232 0.0000013468299865
1.0000011370832280 0.9999993584621446 -0.0000004572855401
1.0000045114246245 1.0000041734772516 0.0000016067091807
1.0000045114246068 1.0000041734768927 0.0000016067094792
1.0000009695549652 0.9999992102344953 -0.0000006148728299
1.0000045114230585 0.9999993584627357 -0.0000009720374656
0.9999977627606155 0.9999993584618453 0.0000000574627887
0.9999977627725133 0.9999972994750872 0.0000034317751960
0.9999977627676482 1.0000041734816405 0.0000026362031947
1.0000015380942855 0.9999990586435775 -0.0000004254227652
0.9999997580488211 0.9999996395027425 0.0000012223091543
0.9999977627608002 0.9999993584617138 0.0000000574626750
0.9999977627609139 0.9999993584617280 0.0000000574627567
0.9999977627605959 0.9999993584617600 0.0000000574627532
1.0000011370875135 1.0000041734791509 0.0000021214581051
1.0000040349547634 1.0000014261676835 0.0000050775970955
1.0000011370832493 0.9999993584621126 -0.0000004572856911
1.0000021188776191 1.0000020913279559 0.0000014646350483
1.0000022972366571 1.0000110370319155 0.0000022495673541
0.9999972950046404 0.9999995243039587 0.0000014686679540
0.9999977627606457 0.9999993584617884 0.0000000574626572
1.0000011370833524 0.9999993584619492 -0.0000004572856209
1.0000011370874051 1.0000041734791509 0.0000021214581495
0.9999993539428740 0.9999993584731628 -0.0000033795336167
0.9999977627607718 0.9999993584617813 0.0000000574626892
0.9999977627608997 0.9999993584615184 0.0000000574626519
0.9999977627607789 0.9999993584618204 0.0000000574627052
1.0000012315238762 0.9999914465623225 0.0000020249055004
1.0000045114229590 0.9999993584626611 -0.0000009720374479
0.9999980289142737 1.0000006760645099 0.0000008980751839
0.9999977627607576 0.9999993584617671 0.0000000574625613
0.9999977627638600 0.9999983289676080 0.0000017446206886
0.9999977627627273 1.0000017659673521 0.0000013468299377
1.0000011370833133 0.9999993584619705 -0.0000004572854557
0.9999977627606297 0.9999993584619021 0.0000000574628029
1.0000045114229270 0.9999993584627819 -0.0000009720373590
0.9999977627674626 1.0000041734815979 0.0000026362032604
0.9999977627606368 0.9999993584611490 0.0000000574629486
0.9999977627610418 0.9999993584618737 0.0000000574628331
0.9999977627674679 1.0000041734816121 0.0000026362032569
0.9999977627606617 0.9999993584617884 0.0000000574627763
0.9999977627608286 0.9999993584617742 0.0000000574627851
0.9999993539430161 0.9999993584732054 -0.0000033795334231
0.9999977627606581 0.9999993584617813 0.0000000574622469
0.9999977627608997 0.9999993584616979 0.0000000574626413
0.9999983963210941 0.9999996712366109 0.0000005435066267
0.9999985583514088 0.9999993584646503 -0.0000016610340678
1.0000011370830504 0.9999993584621197 -0.0000004572855179
1.0000011370833382 0.9999993584619776 -0.0000004572856440
0.9999977627607807 0.9999993584617671 0.0000000574627123
0.9999977627607292 0.9999993584618879 0.0000000574626590
0.9999977627724600 0.9999972994752506 0.0000034317752848
1.0000007707428971 0.9999986635065826 0.0000006299298134
1.0000011370833346 0.9999993584620060 -0.0000004572856049
0.9999977627604592 0.9999993584615611 0.0000000574622274
1.0000045114228879 0.9999993584625509 -0.0000009720374923
0.9999977627610134 0.9999993584616037 0.0000000574625240
0.9999967040978773 0.9999983331943965 0.0000005581041013
0.9999997339879271 1.0000022978094707 0.0000014987335435
0.9999977627608286 0.9999993584618204 0.0000000574626395
1.0000045114229448 0.9999993584626469 -0.0000009720373093
1.0000001889150247 1.0000001823745346 -0.0000005676165062
0.9999977627609565 0.9999993584614545 0.0000000574629663
1.0000007286827759 1.0000021392583620 0.0000019079371413
0.9999990835600758 0.9999989586965646 -0.0000015953259065
0.9999933638718081 0.9999979039400115 0.0000021140857798
1.0000045114248519 1.0000041734769070 0.0000016067090351
1.0000045114245109 1.0000041734768359 0.0000016067095182
0.9999977627607860 0.9999993584618169 0.0000000574627354
0.9999977627607576 0.9999993584618027 0.0000000574627230
0.9999977627625000 1.0000017659671212 0.0000013468298187
0.9999977627607149 0.9999993584616037 0.0000000574623766
0.9999977627607576 0.9999993584617494 0.0000000574627763
1.0000010769713554 1.0000041678971237 0.0000021397763662
0.9999969002359897 0.9999984104953240 0.0000000150736932
0.9999977627608677 0.9999993584617245 0.0000000574629423
1.0000045114229519 0.9999993584626824 -0.0000009720373271
1.0000045114226082 0.9999983289649705 0.0000007151268762
1.0000011370834856 0.9999993584619563 -0.0000004572856795
1.0000011370832902 0.9999993584618995 -0.0000004572855676
0.9999930378021723 1.0000061852208642 0.0000069106539098
0.9999993272630637 0.9999991199209461 0.0000002097263426
1.0000045114228027 0.9999993584627179 -0.0000009720374088
1.0000011370832511 0.9999993584620274 -0.0000004572857115
0.9999977627606723 0.9999993584617920 0.0000000574626341
0.9999993539429699 0.9999993584732267 -0.0000033795334870
0.9999977627608428 0.9999993584617209 0.0000000574627638
0.9999998477171578 1.0000041734768228 0.0000015195798610
0.9999977627608428 0.9999993584618311 0.0000000574627141
1.0000045114239822 0.9999993584618440 -0.0000009720368794
1.0000011370833328 0.9999993584620558 -0.0000004572856342
1.0000045114231473 0.9999993584631798 -0.0000009720380714
1.0000045114221008 1.0000017659654252 0.0000003173329519
0.9999977627607647 0.9999993584616748 0.0000000574627638
1.0000011370833772 0.9999993584620274 -0.0000004572856777
0.9999977627677450 1.0000041734815552 0.0000026362032711
0.9999977627608748 0.9999993584617103 0.0000000574627123
1.0000055471708511 1.0000006601072575 0.0000002085608701
0.9999993539429095 0.9999993584729852 -0.0000033795333822
0.9999993539344656 0.9999983289673436 -0.0000016923723826
0.9999977627625284 1.0000017659674605 0.0000013468299643
1.0000011370832724 0.9999993584619279 -0.0000004572855907
0.9999985583495145 1.0000041734755247 0.0000009177034303
1.0000011370875153 1.0000041734791367 0.0000021214580341
1.0000011370830983 0.9999993584620700 -0.0000004572856209
0.9999977627610134 0.9999993584613159 0.0000000574626324
0.9999977627606865 0.9999993584616641 0.0000000574625968
0.9999977627608659 0.9999993584616392 0.0000000574627452
1.0000052846957501 1.0000009869740094 -0.0000012628050980
0.9999992423267536 1.0000042171109116 0.0000015404237353
0.9999977627607007 0.9999993584617352 0.0000000574626377
1.0000011370834554 0.9999993584619172 -0.0000004572856156
1.0000011372431206 0.9999993584409668 -0.0000004572752257
1.0000045114228453 0.9999993584628245 -0.0000009720375242
0.9999977627607576 0.9999993584619696 0.0000000574627834
1.0000048667789514 1.0000007005719083 0.0000061358198465
0.9999985583511646 0.9999993584646325 -0.0000016610339701
0.9999989408596167 0.9999999081186349 0.0000009017743205
1.0000029202283833 0.9999993584677578 0.0000024649725311
0.9999977627676206 1.0000041734815837 0.0000026362031965
0.9999942305698498 1.0000021673690567 -0.0000056715195000
1.0000045114229732 0.9999993584628813 -0.0000009720373359
0.9999977627610276 0.9999993584618133 0.0000000574623748
0.9999977627602460 0.9999993584623569 0.0000000574631688
0.9999977627626137 1.0000017659672935 0.0000013468298560
0.9999985583487032 1.0000017659656808 -0.0000003716682964
1.0000010433012900 0.9999994005445934 -0.0000004785252336
1.0000011370833275 0.9999993584620700 -0.0000004572856262
1.0000021930944225 0.9999990140819759 -0.0000000540009539
1.0000045114246530 1.0000041734772693 0.0000016067093868
1.0000016013443265 1.0000072388151193 0.0000036430354542
0.9999977627608855 0.9999993584617884 0.0000000574627318
1.0000010946836335 1.0000041912430235 0.0000020988149097
1.0000000533864501 1.0000009652849144 -0.0000008921869527
1.0000045114222145 1.0000017659656917 0.0000003173329803
1.0000045114227671 0.9999993584626966 -0.0000009720373430
1.0000011370831978 0.9999993584619989 -0.0000004572856369
0.9999977627606830 0.9999993584618169 0.0000000574626572
0.9999977627678232 1.0000041734813705 0.0000026362032711
0.9999977627676668 1.0000041734816298 0.0000026362031432
0.9999977627608144 0.9999993584617600 0.0000000574625063
1.0000045114229164 0.9999993584627357 -0.0000009720372631
1.0000045114230443 0.9999993584626753 -0.0000009720376246
1.0000045114226037 0.9999993584627215 -0.0000009720375722
0.9999985583512170 0.9999993584646609 -0.0000016610338404
1.0000045114278651 0.9999972994691528 0.0000024022873903
1.0000011406304448 0.9999993631373392 -0.0000004654885739
1.0000000049299778 1.0000003017420989 -0.0000025100951057
0.9999977627605302 0.9999993584618631 0.0000000574625453
0.9999977627605666 0.9999993584618311 0.0000000574627194
1.0000045114229803 0.9999993584626113 -0.0000009720374194
1.0000011370877142 1.0000041734789520 0.0000021214582152
0.9999993539427390 0.9999993584728075 -0.0000033795333449
1.0000045114246636 1.0000041734772622 0.0000016067093690
0.9999977627608855 0.9999993584617245 0.0000000574625613
0.9999985583488098 1.0000017659656844 -0.0000003716683044
1.0000045114228027 0.9999993584627250 -0.0000009720375402
0.9999977627606723 0.9999993584615327 0.0000000574623233
0.9999977627606581 0.9999993584618702 0.0000000574626572
1.0000045114246388 1.0000041734771770 0.0000016067093406
1.0000014173679401 0.9999996293559327 -0.0000009439895575
0.9999977627608855 0.9999993584617920 0.0000000574626750
0.9999993539428313 0.9999993584730207 -0.0000033795335385
0.9999977627604236 0.9999993584615469 0.0000000574628562
0.9999977627608286 0.9999993584617742 0.0000000574627816
0.9999925436319947 0.9999988601810862 -0.0000016525230245
0.9999944712396094 0.9999985629424744 0.0000018632946840
1.0000011370875188 1.0000041734791900 0.0000021214579532
0.9999985834644087 0.9999938461154834 0.0000020587195668
0.9999977627607576 0.9999993584618027 0.0000000574626928
0.9999977627720017 0.9999972994748847 0.0000034317750876
0.9999980722778690 1.0000015020051711 -0.0000000918909463
0.9999977627676242 1.0000041734816476 0.0000026362033279
1.0000017914292625 0.9999995629377207 0.0000007502910051
0.9999977627607434 0.9999993584617316 0.0000000574627603
1.0000029202284260 0.9999993584676725 0.0000024649726803
1.0000016094324502 0.9999994377104103 -0.0000001943510172
1.0000045114228950 0.9999993584625119 -0.0000009720374763
1.0000045114231011 0.9999993584627250 -0.0000009720373022
1.0000003834044096 1.0000079515934124 0.0000009663131293
1.0000011370833772 0.9999993584618853 -0.0000004572854060
0.9999977627606297 0.9999993584616463 0.0000000574628562
1.0000045114231189 0.9999993584628245 -0.0000009720373253
1.0000003333950782 1.0000007791177976 0.0000009363261275
0.9999987878443628 0.9999990983911299 0.0000002904647120
1.0000020125229732 1.0000003439159448 -0.0000016107464732
0.9999993539428669 0.9999993584732552 -0.0000033795334177
1.0000011370830646 0.9999993584620558 -0.0000004572856511
1.0000045114228453 0.9999993584625865 -0.0000009720374852
1.0000045114246103 1.0000041734766689 0.0000016067095040
0.9999977627608002 0.9999993584616534 0.0000000574627176
0.9999977627606155 0.9999993584612946 0.0000000574629788
0.9999977627676313 1.0000041734813137 0.0000026362034007
0.9999977627625319 1.0000017659672313 0.0000013468299635
0.9999977627606474 0.9999993584618595 0.0000000574626484
0.9999977627607292 0.9999993584618240 0.0000000574625542
0.9999977627608571 0.9999993584614651 0.0000000574624938
0.9999977627725630 0.9999972994745259 0.0000034317751960
0.9999977627606013 0.9999993584616357 0.0000000574623997
1.0000011370915802 0.9999972994714608 0.0000029170330231
0.9999977627607007 0.9999993584616854 0.0000000574626182
0.9999977627609210 0.9999993584616748 0.0000000574627425
1.0000011370833133 0.9999993584620274 -0.0000004572856351
0.9999994740436676 0.9999996730416894 0.0000010354817879
0.9999989500618904 1.0000016914260546 -0.0000003600455287
0.9999977627609281 0.9999993584618808 0.0000000574629095
0.9999977627608002 0.9999993584616321 0.0000000574627567
1.0000011370833772 0.9999993584619563 -0.0000004572856484
0.9999977627610844 0.9999993584617387 0.0000000574628455
1.0000045114229945 0.9999993584626966 -0.0000009720373875
0.9999977627608500 0.9999993584616463 0.0000000574625471
0.9999985583513502 0.9999993584642488 -0.0000016610338333
0.9999977627606474 0.9999993584617884 0.0000000574627834
0.9999977627607576 0.9999993584618808 0.0000000574627070
1.0000045114246316 1.0000041734771770 0.0000016067093157
0.9999977627607824 0.9999993584618453 0.0000000574627079
1.0000007150499020 1.0000011773969022 0.0000000230739897
1.0000003198925056 0.9999994649202176 0.0000013081472745
0.9999977627607149 0.9999993584618169 0.0000000574625951
1.0000045383637890 0.9999992481689511 -0.0000010174646766
1.0000030494675491 0.9999982279906885 -0.0000037825210596
0.9999977627607718 0.9999993584620194 0.0000000574627265
1.0000011370832849 0.9999993584619385 -0.0000004572856218
1.0000011370817217 0.9999993584609544 -0.0000004572845009
0.9999977627610063 0.9999993584615042 0.0000000574627318
1.0000045114229164 0.9999993584626966 -0.0000009720373981
0.9999977627605657 0.9999993584616748 0.0000000574627993
0.9999977627606812 0.9999993584617600 0.0000000574627425
1.0000045114231295 0.9999993584626966 -0.0000009720373448
0.9999977627604627 0.9999993584616748 0.0000000574627070
1.0000011370833062 0.9999993584618142 -0.0000004572855658
0.9999977627605675 0.9999993584616890 0.0000000574628011
0.9999977627607434 0.9999993584617831 0.0000000574626768
0.9999977627607434 0.9999993584615113 0.0000000574625231
0.9999977627611022 0.9999993584624137 0.0000000574632310
1.0000005433937231 0.9999988331513316 -0.0000010157560785
1.0000023043692152 0.9999967851045660 -0.0000027825576642
0.9999977627607292 0.9999993584617352 0.0000000574625400
0.9999977627625852 1.0000017659672313 0.0000013468298276
0.9999977627607718 0.9999993584616250 0.0000000574626501
0.9999977627607363 0.9999993584617742 0.0000000574627825
0.9999993539431227 0.9999993584733404 -0.0000033795339720
0.9999977627677237 1.0000041734813492 0.0000026362033101
1.0000045114230336 0.9999993584626966 -0.0000009720374594
0.9999977627606581 0.9999993584612911 0.0000000574629876
0.9999977627606155 0.9999993584617245 0.0000000574626075
0.9999977627606297 0.9999993584618453 0.0000000574628171
0.9999977627606865 0.9999993584617707 0.0000000574626874
1.0000011370831419 0.9999993584620558 -0.0000004572854717
1.0000005319843719 1.0000055635045393 0.0000001962641865
1.0000045114231366 0.9999993584627535 -0.0000009720373413
0.9999977627607078 0.9999993584616677 0.0000000574629557
1.0000011370876716 1.0000041734788525 0.0000021214580980
0.9999977627637605 0.9999983289674659 0.0000017446205962
0.9999977627607149 0.9999993584617529 0.0000000574626324
1.0000016896966246 1.0000018750215822 -0.0000010788534978
0.9999977627606510 0.9999993584617316 0.0000000574626528
0.9999985137454855 1.0000015367360311 -0.0000026028440496
0.9999977627608357 0.9999993584615469 0.0000000574627247
0.9999977627608144 0.9999993584615184 0.0000000574626288
0.9999977627607292 0.9999993584617956 0.0000000574627896
1.0000045114231437 0.9999993584628032 -0.0000009720373768
0.9999996503184796 0.9999969733702266 -0.0000016208815862
0.9999977627604165 0.9999993584613337 0.0000000574622878
1.0000001958268585 0.9999997244427714 -0.0000011080082234
1.0000019841749284 0.9999938418967668 0.0000047423931490
0.9999977627600612 0.9999993584616925 0.0000000574624441
0.9999977627607363 0.9999993584616890 0.0000000574627816
0.9999977627609175 0.9999993584617884 0.0000000574626146
0.9999978791672810 1.0000017814480517 0.0000014101498134
0.9999977627676011 1.0000041734815126 0.0000026362034292
1.0000011370832920 0.9999993584617431 -0.0000004572855552
0.9999977627605551 0.9999993584614616 0.0000000574629255
1.0000011371869708 0.9999993584920691 -0.0000004572099516
1.0000045114226392 0.9999993584626291 -0.0000009720372542
0.9999977627626776 1.0000017659671603 0.0000013468299164
1.0000045114228737 0.9999993584626113 -0.0000009720374834
0.9999977627679084 1.0000041734814558 0.0000026362031911
1.0000011370832991 0.9999993584619350 -0.0000004572854450
0.9999977627725986 0.9999972994748740 0.0000034317750521
0.9999977627677770 1.0000041734814131 0.0000026362032213
0.9999977162977411 0.9999992852253722 0.0000009503056110
1.0000011370874691 1.0000041734790373 0.0000021214581389
0.9999977627604307 0.9999993584614971 0.0000000574625364
1.0000011370875472 1.0000041734791723 0.0000021214579737
1.0000011372551438 0.9999993583163340 -0.0000004574170119
0.9999977627626989 1.0000017659672313 0.0000013468298373
0.9999977627626918 1.0000017659674303 0.0000013468298720
1.0000000068727994 0.9999995584096110 -0.0000001148020263
0.9999993539360046 1.0000017659699105 -0.0000020901694111
0.9999977627606013 0.9999993584619092 0.0000000574626341
0.9999977627608571 0.9999993584615042 0.0000000574626608
1.0000009917090800 0.9999994713228006 -0.0000001563365481
1.0000045114231579 0.9999993584628387 -0.0000009720374621
0.9999985583495002 1.0000041734754146 0.0000009177034072
1.0000011370831854 0.9999993584620771 -0.0000004572855623
1.0000045114225442 0.9999983289650807 0.0000007151267261
0.9999977627606865 0.9999993584617138 0.0000000574627016
0.9999977627677521 1.0000041734813954 0.0000026362032497
0.9999977627677663 1.0000041734810436 0.0000026362034025
0.9999994499196966 0.9999993584618949 -0.0000001999110134
1.0000045114228595 0.9999993584626398 -0.0000009720373644
0.9999977627607576 0.9999993584615753 0.0000000574627354
0.9999977627605728 0.9999993584616161 0.0000000574624316
0.9999977627606297 0.9999993584618275 0.0000000574628295
1.0000011370875224 1.0000041734791580 0.0000021214580794
1.0000045114229235 0.9999993584626256 -0.0000009720373519
0.9999985583508368 0.9999993584644264 -0.0000016610337463
1.0000045114230123 0.9999993584627392 -0.0000009720375296
0.9999977872067163 0.9999999750816099 -0.0000009567953837
1.0000045114246530 1.0000041734770206 0.0000016067093530
0.9999993539429166 0.9999993584728715 -0.0000033795332010
0.9999977627600186 0.9999993584617725 0.0000000574624832
1.0000019326777121 0.9999993584665127 -0.0000021757886244
0.9999977627606510 0.9999993584616250 0.0000000574628313
0.9999977627605231 0.9999993584618382 0.0000000574628633
1.0000011370830895 0.9999993584619137 -0.0000004572855392
1.0000011370874229 1.0000041734791794 0.0000021214580731
1.0000045114223799 0.9999993584631443 -0.0000009720380216
0.9999977627621589 1.0000017659674090 0.0000013468295291
0.9999993539429664 0.9999993584730029 -0.0000033795335261
0.9999977627607292 0.9999993584616588 0.0000000574625293
0.9999978144465986 0.9999991468490290 -0.0000000296880984
0.9999977627609423 0.9999993584617494 0.0000000574627141
0.9999977627605586 0.9999993584617032 0.0000000574627692
1.0000045114229164 0.9999993584627108 -0.0000009720375331
0.9999977627607718 0.9999993584614758 0.0000000574627123
1.0000011370832422 0.9999993584616721 -0.0000004572855561
1.0000045114227885 0.9999993584627108 -0.0000009720376006
0.9999977627607292 0.9999993584616144 0.0000000574625382
0.9999977627609707 0.9999993584613124 0.0000000574628375
1.0000011370831072 0.9999993584619066 -0.0000004572855871
0.9999977627607576 0.9999993584617884 0.0000000574627443
0.9999977627678942 1.0000041734814984 0.0000026362032124
1.0000067565115018 0.9999988165176495 0.0000022705940409
0.9999977627608500 0.9999993584616890 0.0000000574621670
0.9999978946527074 0.9999992178195014 0.0000000457611450
1.0000045114229128 0.9999993584624266 -0.0000009720375242
0.9999977627606332 0.9999993584615753 0.0000000574626128
0.9999977627607149 0.9999993584617458 0.0000000574624103
1.0000011370832991 0.9999993584616863 -0.0000004572855054
1.0000045114278366 0.9999972994687905 0.0000024022874365
1.0000045114228098 0.9999993584628103 -0.0000009720374550
1.0000045114229448 0.9999993584621033 -0.0000009720372613
0.9999952462557435 1.0000012195863415 -0.0000001204962056
0.9999979131418744 0.9999996690389061 0.0000002939936658
0.9999977627606332 0.9999993584619306 0.0000000574626821
0.9999977627603455 0.9999993584616108 0.0000000574630232
1.0000011370875721 1.0000041734788099 0.0000021214582241
0.9999977627609281 0.9999993584614900 0.0000000574628526
0.9999964864199498 1.0000013003726460 0.0000006999907925
0.9999977627604822 0.9999993584618879 0.0000000574627194
0.9999977627608144 0.9999993584611951 0.0000000574628242
1.0000011370833097 0.9999993584618995 -0.0000004572856440
0.9999977627607718 0.9999993584618169 0.0000000574626333
1.0000045114226499 0.9999993584626398 -0.0000009720375544
1.0000045114228311 0.9999993584625758 -0.0000009720374692
1.0000020830680860 1.0000021972149811 0.0000024545108269
0.9999977627676953 1.0000041734812071 0.0000026362032142
0.9999977627611413 0.9999993584614474 0.0000000574626892
1.0000045114229306 0.9999993584627392 -0.0000009720372738
1.0000045114231118 0.9999993584628245 -0.0000009720374425
0.9999977627604307 0.9999993584617742 0.0000000574627940
1.0000045114230656 0.9999993584622419 -0.0000009720371903
1.0000027096278994 0.9999965141072563 0.0000064423319543
1.0000011370832387 0.9999993584620416 -0.0000004572855232
0.9999977627677343 1.0000041734813563 0.0000026362032675
1.0000011370831818 0.9999993584619705 -0.0000004572853633
1.0000045114229661 0.9999993584625829 -0.0000009720376397
0.9999977627723001 0.9999972994750055 0.0000034317750698
0.9999984630166669 0.9999989825678349 -0.0000011176363631
0.9999985583513733 0.9999993584643909 -0.0000016610340465
0.9999977627604503 0.9999993584617884 0.0000000574627940
0.9999977627606155 0.9999993584617458 0.0000000574625826
0.9999977685560312 1.0000014283971532 -0.0000001946283211
1.0000011370832254 0.9999993584620132 -0.0000004572856671
0.9999977627607860 0.9999993584618240 0.0000000574627318
1.0000011370832138 0.9999993584619421 -0.0000004572853136
0.9999977627608713 0.9999993584614616 0.0000000574626288
0.9999978847271465 1.0000004992390574 0.0000013651059831
1.0000005919096615 0.9999987480773586 0.0000037193215466
1.0000019326777156 0.9999993584664274 -0.0000021757882585
0.9999977627607434 0.9999993584615753 0.0000000574626537
1.0000011370830681 0.9999993584620558 -0.0000004572856316
1.0000045114213476 1.0000017659660718 0.0000003173329803
1.0000045114228879 0.9999993584624692 -0.0000009720375757
0.9999977627607576 0.9999993584618879 0.0000000574626395
0.9999977627604147 0.9999993584618595 0.0000000574628740
0.9999977627606084 0.9999993584615078 0.0000000574628322
1.0000011370825921 0.9999993584618710 -0.0000004572851377
0.9999977627606084 0.9999993584616037 0.0000000574628455
1.0000005966905261 1.0000005010969668 -0.0000016710851377
1.0000045114246956 1.0000041734770349 0.0000016067093068
0.9999977627615290 1.0000062324892101 -0.0000007381337369
1.0000045114226606 0.9999993584627748 -0.0000009720375971
0.9999977627672547 0.9999945434766353 -0.0000025212531375
1.0000045114226295 0.9999983289648284 0.0000007151266479
1.0000045114225575 0.9999993584627250 -0.0000009720378848
1.0000045114221916 0.9999993584628956 -0.0000009720374718
0.9999985583867753 1.0000041734048042 0.0000009176301076
0.9999985583512880 0.9999993584646183 -0.0000016610338049
1.0000018527770849 0.9999983723276927 -0.0000027412262196
0.9999977627607149 0.9999993584613053 0.0000000574628242
1.0000045114231721 0.9999993584624444 -0.0000009720373146
1.0000045114228275 0.9999993584628245 -0.0000009720374194
1.0000021809989339 1.0000006724867905 -0.0000021075218628
0.9999977627726412 0.9999972994744655 0.0000034317751942
0.9999993539429024 0.9999993584732694 -0.0000033795334373
1.0000045114232219 0.9999993584622134 -0.0000009720371032
0.9999987457590848 1.0000010129404506 0.0000037075768829
1.0000045114221647 1.0000017659653258 0.0000003173329030
1.0000045114229590 0.9999993584626398 -0.0000009720374692
0.9999977627677237 1.0000041734815766 0.0000026362033457
0.9999976748555375 0.9999962267097759 -0.0000004431217491
0.9999980547527931 0.9999929307384599 0.0000000772048898
0.9999977627619564 1.0000017659675724 0.0000013468301269
1.0000011370832707 0.9999993584620487 -0.0000004572856262
1.0000045114230585 0.9999993584625829 -0.0000009720376166
0.9999977627606723 0.9999993584613266 0.0000000574628136
1.0000045114231295 0.9999993584627961 -0.0000009720380074
0.9999985583513360 0.9999993584644620 -0.0000016610339204
0.9999977627629292 0.9999983289675938 0.0000017446209381
1.0000045114224509 0.9999993584622774 -0.0000009720382685
0.9999977627608713 0.9999993584611063 0.0000000574627247
0.9999921399935647 0.9999986397382725 0.0000024976046786
0.9999985583514832 0.9999972994659799 0.0000017132815644
0.9999977627679510 1.0000041734815623 0.0000026362033492
0.9999977627625710 1.0000017659668725 0.0000013468299288
0.9999977627606546 0.9999993584618737 0.0000000574625507
0.9999949915254318 0.9999996672405567 -0.0000000258240541
0.9999993539428598 0.9999993584732196 -0.0000033795334586
1.0000045114229590 0.9999993584621424 -0.0000009720373200
1.0000045114413616 1.0000014174628791 -0.0000043463756091
1.0000045114350482 0.9999945434832704 -0.0000035507587795
1.0000011370877178 1.0000041734787957 0.0000021214582170
0.9999977627607149 0.9999993584611490 0.0000000574629024
0.9999993539325668 1.0000041734746332 -0.0000008007987121
0.9999977627608997 0.9999993584622077 0.0000000574629894
1.0000011370831356 0.9999993584620238 -0.0000004572854628
0.9999977627675887 1.0000041734813137 0.0000026362033261
0.9999993539427781 0.9999993584730420 -0.0000033795335687
0.9999985832716375 0.9999979511213056 -0.0000015519778486
0.9999977627604592 0.9999993584619057 0.0000000574625436
0.9999977627605444 0.9999993584618027 0.0000000574629024
1.0000009828384608 0.9999990739042152 0.0000018895042184
0.9999979179281410 1.0000000174722730 -0.0000036979460833
0.9999977627608855 0.9999993584616605 0.0000000574629415
0.9999977627608002 0.9999993584619590 0.0000000574627390
1.0000045114229448 0.9999993584623413 -0.0000009720373359
1.0000016115628365 0.9999994279380291 -0.0000006435247775
0.9999977627601465 0.9999993584616925 0.0000000574621670
1.0000045114222911 0.9999993584627321 -0.0000009720376859
1.0000045114228311 0.9999993584626113 -0.0000009720376379
0.9999977627608144 0.9999993584615184 0.0000000574626999
0.9999993539318213 0.9999972994626939 -0.0000000052147044
0.9999977627602176 0.9999993584617032 0.0000000574624423
0.9999977627604023 0.9999993584615327 0.0000000574622487
1.0000045114221292 1.0000017659650877 0.0000003173330105
0.9999977627606652 0.9999993584611490 0.0000000574628793
0.9999993539428598 0.9999993584727045 -0.0000033795333254
1.0000005778909997 1.0000014578534073 0.0000026592114187
1.0000045114230229 0.9999993584622845 -0.0000009720374319
0.9999977627606581 0.9999993584621970 0.0000000574619609
0.9999977627677272 1.0000041734811147 0.0000026362035571
0.9999977627606581 0.9999993584614190 0.0000000574627105
1.0000045114230229 0.9999993584622419 -0.0000009720379506
0.9999977627607860 0.9999993584613763 0.0000000574628384
1.0000045114227529 0.9999993584624834 -0.0000009720371032
0.9999977627604449 0.9999993584616073 0.0000000574624387
0.9999977635138608 0.9999993584050587 0.0000000575815597
0.9999977627603455 0.9999993584619021 0.0000000574631013
0.9999977627606013 0.9999993584617032 0.0000000574624334
1.0000067112190678 1.0000016032027672 0.0000006157702896
0.9999977627607007 0.9999993584615184 0.0000000574626857
1.0000045114231011 0.9999993584621459 -0.0000009720372631
1.0000045114229732 0.9999993584623911 -0.0000009720373803
1.0000012415601194 0.9999989370626570 0.0000002173753965
0.9999977627607149 0.9999993584613124 0.0000000574623997
0.9999992044128559 1.0000009285248395 -0.0000032382617821
0.9999977627608038 0.9999993584610068 0.0000000574628864
1.0000006617535946 1.0000038442200740 0.0000027335652231
0.9999977627610134 0.9999993584610495 0.0000000574624370
1.0000045114229448 0.9999993584621566 -0.0000009720374479
0.9999985583509949 0.9999993584643909 -0.0000016610334461
0.9999977627606474 0.9999993584610921 0.0000000574629095
0.9999987622285110 1.0000006029378574 -0.0000015543754431
1.0000045114229590 0.9999993584622987 -0.0000009720372418
0.9999977627607007 0.9999993584610068 0.0000000574628953
1.0000011370832280 0.9999993584620060 -0.0000004572854131
0.9999977627608286 0.9999993584618631 0.0000000574626786
0.9999977627609530 0.9999993584622148 0.0000000574626750
0.9999977627606439 0.9999993584615042 0.0000000574626857
1.0000026777818085 0.9999997829515286 0.0000038818954409
0.9999977627604876 0.9999993584611667 0.0000000574620995
0.9999977627606830 0.9999993584617884 0.0000000574627514
0.9999977627604449 0.9999993584614758 0.0000000574624903
1.0000045114231011 0.9999993584615882 -0.0000009720371281
0.9999930997694825 1.0000004559327083 -0.0000015314595803
1.0000011370827040 0.9999993584619421 -0.0000004572853829
1.0000045114229235 0.9999993584629950 -0.0000009720379665
0.9999977627606581 0.9999993584612413 0.0000000574630001
0.9999993539424050 0.9999993584731841 -0.0000033795339577
0.9999977627606457 0.9999993584616463 0.0000000574627283
0.9999977627608713 0.9999993584616321 0.0000000574621421
1.0000011370828976 0.9999993584618142 -0.0000004572853562
1.0000045114226268 0.9999993584627535 -0.0000009720372400
0.9999977627606723 0.9999993584615327 0.0000000574626413
1.0000045114225753 0.9999993584624977 -0.0000009720379221
0.9999951032572278 0.9999969411460600 -0.0000024786139372
0.9999977627603135 0.9999993584617032 0.0000000574630933
0.9999977627607576 0.9999993584611632 0.0000000574629450
1.0000011371269850 0.9999993580405618 -0.0000004577646441
0.9999929960371556 1.0000032962131968 0.0000001547156915
0.9999977627680221 1.0000041734821166 0.0000026362033776
0.9999993539427461 0.9999993584727844 -0.0000033795334462
0.9999977627675745 1.0000041734812852 0.0000026362033652
1.0000011328923388 0.9999993609835726 -0.0000004552375123
0.9999977627615940 1.0000017659676932 0.0000013468301988
0.9999977627609068 0.9999993584609784 0.0000000574628029
1.0000045114246672 1.0000041734768217 0.0000016067092838
1.0000011370816293 0.9999993584624111 -0.0000004572844449
0.9999977627609032 0.9999993584618169 0.0000000574630321
1.0000045114230229 0.9999993584623982 -0.0000009720374461
1.0000045114221889 0.9999983289650327 0.0000007151262714
0.9999977627602975 0.9999993584617884 0.0000000574628100
0.9999977627605142 0.9999993584615753 0.0000000574631901
1.0000033056890805 0.9999919538082050 -0.0000019556701544
0.9999977627608713 0.9999993584614474 0.0000000574630090
0.9999977627600612 0.9999993584616677 0.0000000574624361
0.9999949268848455 1.0000023544657057 -0.0000027094222028
0.9999977627609139 0.9999993584613479 0.0000000574628704
0.9999977627603934 0.9999993584616321 0.0000000574630551
0.9999985583509328 0.9999993584642772 -0.0000016610335384
0.9999977627610134 0.9999993584615327 0.0000000574623410
0.9999977627607149 0.9999993584614687 0.0000000574624796
1.0000045114247524 1.0000041734768217 0.0000016067094507
1.0000029032247986 1.0000062687551405 0.0000030493882691
1.0000011370832600 0.9999993584618000 -0.0000004572854681
0.9999977627592459 0.9999993584614190 0.0000000574622433
0.9999963306128030 0.9999980272339365 -0.0000024666506763
0.9999977627606297 0.9999993584611774 0.0000000574624121
0.9999982323370040 1.0000021317977785 0.0000019866239501
0.9999977627602602 0.9999993584614900 0.0000000574624032
0.9999993539433110 0.9999993584733120 -0.0000033795338707
0.9999977627602176 0.9999993584615859 0.0000000574623570
0.9999977627602211 0.9999993584614332 0.0000000574620373
1.0000045114226463 0.9999993584623591 -0.0000009720376788
1.0000011369579485 0.9999993583555737 -0.0000004574359807
0.9999977627596065 0.9999993584628045 0.0000000574623002
0.9999985586290411 1.0000041733729153 0.0000009176454500
0.9999977627617701 0.9999993584615611 0.0000000574630019
0.9999930146334182 1.0000001676648285 0.0000016225927363
1.0000045114229164 0.9999993584622205 -0.0000009720371885
0.9999985583493127 0.9999993584643270 -0.0000016610333395
0.9999977627617468 1.0000017659677838 0.0000013468298702
1.0000006156626720 1.0000083575246617 0.0000022318808548
0.9999985471682211 0.9999993614222722 -0.0000016600396398
1.0000011370296638 0.9999993583849334 -0.0000004573867578
1.0000012437352461 0.9999993535849623 -0.0000004399744880
1.0000045114225753 0.9999993584623982 -0.0000009720375047
0.9999977627681322 1.0000041734815837 0.0000026362031378
0.9999977627594075 0.9999993584621153 0.0000000574628242
0.9999977627620914 1.0000017659673806 0.0000013468296304
1.0000045114229270 0.9999993584618440 -0.0000009720372009
1.0000045114212055 1.0000017659662281 0.0000003173325931
0.9999977627607437 0.9999959214746191 0.0000004552572411
1.0000011370047628 0.9999993584306888 -0.0000004573382570
1.0000045114228915 0.9999993584620998 -0.0000009720381033
0.9999977627602318 0.9999993584616215 0.0000000574625258
1.0000004103386226 0.9999987894215017 0.0000043144137272
0.9999993539424050 0.9999993584731059 -0.0000033795338334
1.0000021120190785 1.0000003692266974 -0.0000001195807269
0.9999977627613189 0.9999993584612484 0.0000000574626395
0.9999977627608713 0.9999993584610779 0.0000000574625009
1.0000045114224048 0.9999993584627392 -0.0000009720382259
1.0000011375869315 1.0000041732413034 0.0000021212900758
0.9999977627622300 1.0000017659674161 0.0000013468303125
1.0000003686159207 1.0000019608217297 -0.0000008772330679
0.9999993539429308 0.9999993584724025 -0.0000033795331477
0.9999977627605799 0.9999993584616215 0.0000000574630276
1.0000045114229874 0.9999993584621566 -0.0000009720377179
0.9999977627621340 1.0000017659677927 0.0000013468305008
0.9999980316856405 1.0000034316420410 0.0000023695635024
1.0000045114222769 0.9999993584626398 -0.0000009720377445
1.0000011354498035 0.9999993571905965 -0.0000004591191787
1.0000045114230585 0.9999993584624692 -0.0000009720378493
1.0000045114230087 0.9999993584621282 -0.0000009720370180
0.9999977627609281 0.9999993584609003 0.0000000574628882
1.0000045114231011 0.9999993584629844 -0.0000009720381797
0.9999993858951693 1.0000029319652182 -0.0000039557591131
0.9999977627611413 0.9999993584614545 0.0000000574623553
0.9999977627604449 0.9999993584615824 0.0000000574621794
1.0000013903018254 0.9999921258611898 -0.0000019457430019
1.0000045114230158 0.9999993584617516 -0.0000009720372880
0.9999977627607967 0.9999993584611205 0.0000000574629308
0.9999968920084712 1.0000088264592815 0.0000022781166925
1.0000045114225646 0.9999993584624266 -0.0000009720375171
1.0000011370828799 0.9999993584618568 -0.0000004572853331
1.0000011370825388 0.9999993584619137 -0.0000004572851537
0.9999993539423233 0.9999993584734115 -0.0000033795335643
0.9999993539429166 0.9999993584723599 -0.0000033795330447
1.0000011371841766 0.9999993584486692 -0.0000004572790448
0.9999977631090115 1.0000041732645939 0.0000026360252227
0.9999986495752300 1.0000005343210434 -0.0000013483920299
0.9999997015491878 1.0000010097059024 -0.0000037181480539
0.9999993539419325 0.9999993584739302 -0.0000033795336797
1.0000011371066120 0.9999993584173910 -0.0000004573319909
0.9999977627605590 0.9999959214744877 0.0000004552574827
1.0000045114228879 0.9999993584626611 -0.0000009720381389
0.9999977627601465 0.9999993584615966 0.0000000574622558
1.0000045114229306 0.9999993584620820 -0.0000009720377658
0.9999980325646552 1.0000001562869132 0.0000007868623071
0.9999930856036130 0.9999968134766988 0.0000015130150811
0.9999977627591304 0.9999993584621437 0.0000000574632434
0.9999963688176388 0.9999976446056469 -0.0000042063307632
1.0000011327220877 0.9999993590331472 -0.0000004575576447
1.0000011340389439 0.9999993588563785 -0.0000004574680045
1.0000011337789403 0.9999993574087864 -0.0000004592218501
0.9999977627592797 0.9999993584619021 0.0000000574631919
0.9999977627592690 0.9999993584620585 0.0000000574632186
1.0000011339211057 0.9999993571462019 -0.0000004594985445
1.0000011237878836 0.9999993530825092 -0.0000004664051010
1.0000011337257846 0.9999993571714866 -0.0000004595101805
1.0000011300119753 0.9999993579562986 -0.0000004593994393
0.9999977512619604 0.9999993619263416 0.0000000590802442
0.9999981186277754 1.0000044948441740 0.0000020587110397
1.0000011363697632 1.0000041747969832 0.0000021228562775
1.0000011291752062 0.9999993594946873 -0.0000004577700593
0.9999985789296532 0.9999993534241628 -0.0000016613547854
1.0000011552340538 1.0000041331039360 0.0000020784434399
1.0000011444504755 1.0000041648216802 0.0000021130311620
1.0000011400855542 0.9999993544229626 -0.0000004571928602
0.9999977776680675 0.9999993663200289 0.0000000678985186
1.0000011376767266 1.0000041657193781 0.0000021125933336
0.9999985594861975 0.9999993552456069 -0.0000016613737208
1.0000009710590023 0.9999967408912350 0.0000025779146720
1.0000008668591369 1.0000033715286702 0.0000020355753462
0.9999986348060169 0.9999995766808507 0.0000005806717176
1.0000008705440544 0.9999996688066830 0.0000000886362520
0.9999991097807971 1.0000003611628305 0.0000003604108732
0.9999990164716583 1.0000018474140435 0.0000003899323796
0.9999991626690126 1.0000021623312803 -0.0000044592236434
1.0000014383583129 1.0000027774430320 -0.0000015037395706
0.9999992798874890 1.0000090781173525 -0.0000007457970481
0.9999984068787411 1.0000088297098602 -0.0000002021393577
0.9999997092415475 1.0000047687208375 0.0000029573671021
0.9999979370661011 1.0000004075772957 -0.0000020048340442
1.0000026297247380 0.9999977172643969 0.0000017530493763
1.0000029242567623 0.9999990869501797 0.0000009583133169
0.9999996997980346 0.9999976175829346 -0.0000037478393124
0.9999992440073001 0.9999999118451930 0.0000001678216910
1.0000002166277204 1.0000019357952712 -0.0000009693289759
1.0000004552405697 0.9999976614882575 0.0000007081283088
0.9999994202013472 1.0000087018336903 0.0000031295832032
1.0000001859101117 0.9999977591380107 -0.0000012880759275
1.0000002073101724 0.9999978979556440 0.0000017616682029
1.0000009118029856 0.9999981665658867 -0.0000015714155499
0.9999986799262364 0.9999980770027805 -0.0000011164209880
0.9999988901284028 0.9999999034585938 -0.0000000018602083
1.0000001527714131 0.9999991885871319 -0.0000026862427681
0.9999991572727365 0.9999984661335001 -0.0000004125504259
1.0000012273459438 1.0000113664569132 -0.0000015214886176
1.0000001723042944 0.9999973136668963 -0.0000005559522627
1.0000007238231843 0.9999930813710960 -0.0000005768168863
0.9999998895941494 0.9999976724724152 -0.0000006379961043
0.9999990788363134 0.9999972014315254 -0.0000003010186828
1.0000001959495630 0.9999950811780192 0.0000045184264155
1.0000004612667104 1.0000114956762067 -0.0000018109207375
0.9999987800202045 0.9999998924451561 0.0000000329856971
0.9999997430702490 1.0000051351627810 -0.0000000937794410
0.9999995005255551 1.0000020199411195 -0.0000018741841786
0.9999996149679856 0.9999997883917159 -0.0000001556709146
1.0000003009663894 1.0000005526402409 0.0000006912271184
1.0000005848748574 0.9999995754470870 0.0000006281709564
1.0000001131564888 0.9999993882989076 0.0000026281536935
1.0000001452462572 0.9999962561003988 0.0000004104307664
1.0000004684826276 0.9999964822392481 0.0000012375924476
1.0000008326189800 1.0000033311477692 0.0000026984794283
1.0000009432548616 1.0000022870714951 -0.0000019974773521
0.9999992408343185 0.9999979598870571 -0.0000005550516211
0.9999986079845508 0.9999954022844821 -0.0000007213787924
1.0000009394508012 0.9999995018274498 0.0000029104782686
0.9999996463230051 0.9999984036613092 -0.0000017732206693
1.0000004288640332 1.0000003792335330 -0.0000006653466133
1.0000003362743441 1.0000024420598692 0.0000003963487546
1.0000002210143637 1.0000033947830598 -0.0000011475979901
0.9999989590578470 0.9999961596863707 -0.0000020163184465
1.0000001614892184 0.9999995112287784 0.0000016080424383
1.0000012866718559 1.0000005728464914 0.0000001129622041
1.0000006773368086 0.9999958313918110 -0.0000017732402818
1.0000016403944667 0.9999946447391771 0.0000000327723440
1.0000001509436451 1.0000038420925148 0.0000024154655732
0.9999998655927855 1.0000001402554854 -0.0000000282334559
1.0000127999830288 0.9999992545842343 0.0000047400066914
0.9999941275186127 0.9999996814950395 0.0000018810020194
1.0000008933625610 0.9999989801025752 0.0000085817569301
1.0000004079104736 0.9999983313516234 0.0000014126502716
1.0000012271892176 1.0000009249172701 0.0000010188782510
1.0000000122193253 1.0000001275886379 0.0000005278150990
0.9999978947331327 1.0000005607308913 -0.0000004198062012
1.0000014263084245 0.9999993920756567 0.0000006241630991
0.9999974369660606 0.9999996462455847 -0.0000001009037433
1.0000001846215707 1.0000000003845602 0.0000006839793692
1.0000000143524042 0.9999999292515321 -0.0000001502886126
0.9999998251665894 0.9999988119891438 -0.0000026021985679
0.9999970115893543 0.9999954105619134 -0.0000070525274591
1.0000067771129653 1.0000015401830633 -0.0000002297909049
0.9999992579000548 1.0000043072118161 0.0000000901978404
0.9999998864933347 0.9999997406860200 0.0000010982657862
1.0000002266724246 1.0000035346544081 0.0000012084285046
1.0000004583018838 0.9999987966491941 0.0000010537716456
1.0000079121956915 1.0000007266207822 0.0000009095191144
1.0000016074706921 0.9999989081895714 0.0000004585966858
0.9999978621243010 1.0000002854270680 -0.0000003191192504
1.0000001018795113 0.9999989093259806 -0.0000018177444981
1.0000001962543659 0.9999950081606204 -0.0000002363926069
0.9999990036326537 1.0000029422340961 -0.0000008397686928
1.0000068243558773 0.9999988831550247 -0.0000005089443963
0.9999746092653813 0.9999937984635342 0.0000126579873080
0.9885473630343302 1.0009157791407672 0.0305409820170653
0.9999915812969388 1.0000006982368468 0.0000010256234996
0.9999997118459013 0.9999940800060297 -0.0000052919482403
1.0000017573595743 0.9999987257919524 -0.0000018049898053
0.9999996374403243 0.9999999721694389 -0.0000001138011875
1.0000010214088364 1.0000005023529501 0.0000020289105216
0.9999966362194119 1.0000001309300997 -0.0000038216977149
0.9999995269599620 1.0000028290184573 -0.0000000018006471
0.9999993432662090 0.9999970044267861 0.0000007897398895
1.0000010304372831 1.0000003834839710 0.0000006629555356
0.9999991268846550 0.9999995074462584 0.0000026514997289
1.0000010249818463 0.9999868774741278 -0.0000043828218928
0.9999985176936670 0.9999999740840426 0.0000005209834460
1.0000068476613289 1.0000020421437406 0.0000032011062531
1.0000002979826095 1.0000031559168558 -0.0000013888783830
0.9999948561556476 0.9999993535984442 -0.0000043810171982
1.0000007224441814 1.0000001694722134 -0.0000000795582344
1.0000001316669855 1.0000010293773960 0.0000008228486769
0.9999962956057059 0.9999959238194480 0.0000003594946911
0.9999985909920941 1.0000047597323831 0.0000018541704144
0.9999984451422222 0.9999997551701645 0.0000004769666223
0.9999999398842498 0.9999989697793089 0.0000018549941877
0.9999933533459648 0.9999969756013044 0.0000022867928683
1.0000077884599026 1.0000036192446964 -0.0000026074632415
0.9999997922204822 1.0000005227862512 -0.0000012486325616
1.0000043514896162 0.9999995191174215 0.0000017986997017
1.0000003746430814 1.0000000315621993 -0.0000026715346542
1.0000036747932830 0.9999900158057847 0.0000033346858505
1.0000005108784189 1.0000007920301355 -0.0000014812020141
1.0000009964828354 1.0000007140988989 0.0000002185171148
1.0000010550280209 0.9999978936388388 -0.0000008823792535
1.0000005908909859 1.0000008444960735 -0.0000013413613387
1.0000001143054649 0.9999971148767686 0.0000046651622298
0.9999907786071017 1.0000001426730092 -0.0000000652559950
1.0000003560432831 1.0000042168450922 0.0000029680134588
1.0000010550660205 0.9999988598084516 -0.0000062840810441
0.9999975892956966 1.0000005908909375 0.0000016935649018
0.9999980648027794 0.9999998684354493 0.0000005309626590
1.0000001426727776 1.0000017242498775 0.0000000829115255
0.9999975631383832 1.0000000141298155 0.0000006244280171
1.0000017242499344 1.0000001426727101 -0.0000000829115609
1.0000026261741115 0.9999895147174307 0.0000050453343306
1.0000009417560409 1.0000014112930278 -0.0000016758240032
0.9999988598078547 1.0000010550646847 0.0000062840826570
1.0000057152306949 1.0000014112908100 -0.0000005930271650
1.0000028030678147 1.0000001550454340 -0.0000021164988347
0.9999967998018265 0.9999865028469568 -0.0000011808961896
1.0000007021160704 0.9999969873207247 0.0000024048047817
1.0000000905470663 1.0000001258808719 -0.0000005174534727
1.0000004673055090 1.0000003307536847 0.0000024452218555
0.9999970995580819 0.9999931191262824 0.0000003308674347
0.9999982028251134 1.0000011892665621 -0.0000001504724585
0.9999936965052016 1.0000002527008798 0.0000008512016615
1.0000015280757628 0.9999991269823982 -0.0000014648016668
0.9999963934787961 1.0000000654736740 0.0000016488434262
1.0000039234362770 0.9999993769099865 -0.0000007737569702
1.0000015814333887 0.9999983612560268 0.0000018468534413
1.0097528169738774 1.0008706179198446 0.0297136415320939
0.9894910850921677 1.0007386688336957 0.0270323916493281
1.0000144801330297 0.9999958441462036 -0.0000067609992838
0.9999701769006352 0.9999921825364090 0.0000073267506439
0.9999916656014859 1.0000005140977719 0.0000022958059078
0.9440713984312925 1.0000215630028348 0.0046212912276586
0.9585677988168990 1.0002892636489431 0.0163525864313958
0.9999999526747615 1.0000040125588090 0.0000042373640546
1.0000001399160228 1.0000040237840073 -0.0000038936524810
1.0000035404890233 1.0000009428438206 -0.0000036318820152
1.0000006362197658 1.0000000356290708 0.0000003979696611
1.0000003855290738 1.0000044296991475 -0.0000092077739581
1.0000000136584630 0.9999974232917546 -0.0000015372830922
1.0000002666301582 1.0000001472257314 0.0000005664793251
0.9999991728116168 1.0000026953829835 0.0000003009021428
1.0000000884134410 1.0000023931636604 -0.0000008118125033
0.9999968608146301 0.9999939008582979 -0.0000027039917667
1.0000010197920606 0.9999971260749736 -0.0000025128821056
1.0000000615700346 0.9999993692750232 -0.0000023235755711
1.0000002587365753 1.0000004502521629 0.0000008078440348
1.0000009674962369 1.0000043499609848 0.0000006583172476
1.0000012484396221 0.9999994749435094 -0.0000004369606157
1.0000005321030794 1.0000024287878735 -0.0000006184979112
1.0000002749823103 0.9999946192998613 0.0000013168914742
1.0000008893349537 1.0000021781402617 0.0000004867609991
1.0000001648179011 1.0000024793118434 0.0000013044808375
0.9999983430129115 1.0000003716600079 0.0000010411938535
1.0000001931513265 0.9999998035351436 -0.0000001400945463
0.9999984354769418 1.0000002531555723 -0.0000005539567069
0.9999947323123596 0.9999895139592074 0.0000016294963370
1.0000184154183271 1.0000025415279348 -0.0000028502470547
1.0000030078778406 1.0000093624237913 0.0000026144764588
1.0000000328898855 0.9999991682753635 -0.0000003069724747
1.0000029638104657 0.9999956432558372 -0.0000073454861301
0.9999996866593065 0.9999956432254626 -0.0000048931993659
0.9999956432255195 0.9999996866593136 0.0000048931993837
0.9999970696109541 1.0000020350116410 0.0000013010121585
0.9999970696114451 1.0000008842483965 -0.0000015916470191
1.0000029638117092 0.9999956432532794 -0.0000073454862189
0.9999991183188301 1.0000006691236245 -0.0000001999173166
0.9999956432526825 1.0000029638117589 0.0000073454860626
1.0000003967196445 0.9999960522729040 -0.0000017877528062
1.0000062208253739 1.0000049350316558 -0.0000095008944970
1.0000078995057582 0.9999983964878231 -0.0000022690241190
0.9999919167914278 0.9999970468752192 -0.0000046356965935
1.0000014542219178 0.9999995336936179 -0.0000009784347608
0.9999992091399192 1.0000007367619308 0.0000011363543829
1.0000049195987102 1.0000006603729223 -0.0000003611425618
1.0000014642438626 0.9999999127480212 -0.0000007601336213
1.0000009817374733 1.0000000969886367 0.0000008203217177
1.0000001921781803 1.0000008052401124 -0.0000006720135623
1.0000010773267209 1.0000005487810657 0.0000001638099966
1.0000005693107419 0.9999957273814912 -0.0000037133408972
1.0000000283124904 0.9999996638877078 -0.0000021694306509
0.9999999095536224 0.9999983967098577 0.0000013191895217
1.0000042046094393 0.9999981661050530 0.0000031813860798
0.9999993451278151 1.0000015324490437 0.0000005737882386
0.9999988852448858 0.9999951524826873 0.0000001861284650
1.0000015253634245 1.0000010163708917 0.0000005748363726
1.0000051236538416 0.9999998966671784 -0.0000003802095389
0.9999986255960616 1.0000009430328980 -0.0000029241164822
1.0000014140073434 1.0000003166669131 0.0000008807296013
0.9999993572065271 1.0000013551910074 0.0000013772088051
0.9999989090279269 1.0000002995913460 0.0000009547810161
0.9999965185428223 1.0000004862579053 0.0000009937467741
1.0000020051228498 0.9999958700765961 -0.0000020652056443
1.0000016908467528 0.9999986001266773 0.0000021456395113
0.9999970614031420 0.9999992195794399 0.0000004485268001
1.0000004786895718 0.9999993663036675 0.0000005749571904
0.9999979431920433 0.9999995005105506 -0.0000014450525097
0.9999995306791089 1.0000003536418101 -0.0000008366841322
1.0000044788025573 0.9999979119031503 0.0000009360145931
1.0000063785302031 0.9999995826897742 0.0000027392045363
0.9999988298106719 1.0000064844199670 0.0000030565351661
0.9999994650092886 1.0000095480612901 0.0000051129561142
1.0000000387533012 1.0000024734805584 0.0000013601156467
1.0000031795625177 0.9999996738207413 -0.0000012187886463
0.9999996223000459 0.9999979459530727 0.0000012952964312
1.0000013444119904 1.0000075526730343 -0.0000015026619507
0.9999990041226849 1.0000000111505911 0.0000006831385687
0.9999936596641406 0.9999983793187720 0.0000040527434463
0.9999988734975512 1.0000007839111800 -0.0000024480374059
1.0000005581368272 1.0000036375377608 0.0000005997728629
0.9999991521779187 1.0000012764263142 -0.0000015211896296
0.9999998554421472 0.9999970480815065 -0.0000054341405572
1.0000009351320023 1.0000002269923749 -0.0000022463021071
1.0000015568076865 1.0000001769379934 -0.0000034744409809
0.9999962475328990 1.0000060253358307 0.0000018547368307
1.0000000158869315 0.9999999660494364 0.0000002807346305
0.9999989562356110 0.9999942498628589 0.0000024306763137
0.9999988678066054 1.0000001049058500 0.0000000906136851
0.9999992372101358 0.9999980812522137 0.0000008051221457
1.0000023388100319 1.0000029525614862 0.0000072465047266
0.9999958983647029 1.0000008761176360 -0.0000016949521178
1.0000023867885288 1.0000104110002843 0.0000013462409036
0.9999900806955673 1.0000032485227457 0.0000003146085898
1.0000000432374738 1.0000005238048979 -0.0000000771866682
1.0000005644147680 1.0000010992736081 0.0000001801616479
0.9999995984990702 0.9999997272730085 -0.0000001921772016
0.9999997209082174 1.0000015410807759 -0.0000005255960729
1.0000004727805680 0.9999998207378471 -0.0000013028429646
1.0000011080097326 1.0000008541172904 0.0000012394534221
1.0000006465786697 0.9999982288938658 0.0000006910515829
1.0000012667112748 1.0000027738670156 -0.0000040665735067
1.0000000731086915 1.0000020662628617 -0.0000015967295967
0.9999979930064591 1.0000010841098421 -0.0000030560014765
0.9999997720577914 1.0000017536805590 0.0000000533022993
1.0000007985224324 1.0000009435314721 -0.0000008844920967
1.0000006801421684 1.0000028368401424 0.0000000613638611
1.0000005955943645 1.0000017900891924 0.0000019627803375
1.0000007407515557 1.0000003297209761 0.0000003981308927
0.9999996665512260 1.0000004535293487 -0.0000000720508169
0.9999961445391810 0.9999981812952843 0.0000041144183688
1.0000008362443347 1.0000020021673146 0.0000022902614066
1.0000007353550380 1.0000029590613848 -0.0000013801803026
0.9999998218054105 0.9999998482301491 -0.0000009906068513
0.9999890810717791 1.0000023296553466 0.0000060645483235
1.0000004683203936 0.9999997907852893 0.0000006420484054
0.9999998613358989 0.9999958848804257 -0.0000038914115010
0.9999993947402634 1.0000058046263476 0.0000039006609784
1.0000001417109723 0.9999988940520627 -0.0000005936701844
0.9999989611330427 0.9999990856990564 -0.0000023398775851
1.0000003384703109 1.0000010244964266 -0.0000027839223404
1.0000006180462262 1.0000012583356073 0.0000006460621111
1.0000008391909956 0.9999985567461012 -0.0000000005453661
1.0000002974238105 0.9999994371286576 -0.0000002940557928
1.0000001478068146 0.9999990835635219 -0.0000000668794642
0.9999956698462084 0.9999958218454466 0.0000016332937100
1.0000007007831193 0.9999985550267605 0.0000011135535279
0.9999963488231017 1.0000031021252009 0.0000002068214138
1.0000009048803300 1.0000006657443712 -0.0000013556368400
1.0000028792146869 1.0000023763919090 -0.0000014902757750
0.9999973643218246 1.0000003948260434 0.0000042909692882
1.0000006642082353 0.9999983104195097 -0.0000004638018607
1.0000075045468424 1.0000007177784369 -0.0000037071142717
0.9999999542212273 0.9999991498486833 0.0000002143957788
1.0000002335275313 0.9999992402879360 0.0000004341837474
0.9999994177149710 1.0000001840222148 0.0000010207819077
1.0000014419567251 1.0000032271035721 0.0000021308676931
0.9999999801379390 0.9999994860646917 -0.0000002497437002
0.9999993354893120 0.9999987166535177 -0.0000005763732500
1.0000172679617034 0.9999980968407023 -0.0000057683064225
1.0000008288515809 0.9999998611993389 -0.0000014532585963
1.0000011153064343 1.0000017523917515 0.0000013082655437
0.9999998271095999 1.0000006886224830 -0.0000000918638260
0.9999992387894586 1.0000003700857463 0.0000003697521310
0.9999972065003643 0.9999952957840142 -0.0000041014702642
1.0000004614465166 0.9999999700888784 -0.0000000288943807
0.9999999489101228 1.0000004879215392 0.0000000416301273
1.0000010570727231 1.0000027249222565 -0.0000014351969252
0.9999996523764073 0.9999957713555827 0.0000000149061300
0.9999990183144559 0.9999985427444704 0.0000006304189883
1.0000008645305059 0.9999970322768140 0.0000010071946517
1.0000003029522158 0.9999995823524930 -0.0000000199238840
1.0000002746739467 1.0000015344669935 0.0000004164399986
0.9999967353480097 0.9999977708864736 -0.0000017431063171
1.0000000130630682 0.9999996001471840 0.0000000147171769
1.0000017578540192 0.9999997970646650 0.0000011547643393
0.9999998912981545 0.9999999856406800 -0.0000000150918326
0.9999997008860125 1.0000006853253043 0.0000020370502332
1.0000005124539872 0.9999999453313594 -0.0000001609779755
1.0000013204179559 1.0000063920263464 0.0000023578523093
0.9999996075349538 0.9999986505347503 0.0000010260829768
1.0000020353038797 1.0000005013810485 -0.0000002894308563
1.0000054368578009 1.0000000644976410 -0.0000010989313959
1.0000012399087057 0.9999994701881535 -0.0000074829927376
0.9999973542782730 1.0000031569787704 0.0000042957015952
1.0000005131176557 1.0000010875159238 0.0000010938244030
0.9999901554575968 0.9999991876774101 -0.0000025525544799
0.9999999196401129 0.9999992308463088 -0.0000016178345427
1.0000075543229001 0.9999988802399906 0.0000016931845724
1.0000023249671715 1.0000001652117130 0.0000002806929170
1.0000011236989443 0.9999972868624094 -0.0000018262416220
0.9999973234556466 1.0000004828178561 -0.0000002310992386
1.0000000448172282 1.0000043451717857 -0.0000004213595007
0.9999985998021205 1.0000025204305902 -0.0000020451437344
0.9999908393401152 0.9999969500262177 0.0000008306372882
0.9999999137284969 1.0000001889912606 -0.0000006531266273
0.9999999690595359 1.0000011563987716 -0.0000004150934751
1.0000017293081374 1.0000000127177544 0.0000019331557001
0.9999959975139288 0.9999980955230411 -0.0000003122088391
1.0000001177631288 1.0000004478916142 -0.0000009661532251
1.0000000421285586 0.9999979885244841 -0.0000003323988754
1.0000025749016712 0.9999992598117138 -0.0000019040482203
1.0000024346840337 1.0000003067358649 0.0000000190763487
1.0000010452453543 0.9999991397825765 -0.0000024438197217
1.0000003543010927 1.0000002709735150 0.0000004008397342
1.0000014523482406 0.9999994823192119 -0.0000005262723787
1.0000024311272804 0.9999997193346448 -0.0000012043696224
1.0000036776458958 0.9999985637732071 -0.0000038553262865
1.0000037497948233 1.0000045467848246 0.0000052146247331
0.9999993494912186 1.0000008876798432 -0.0000005704302775
0.9999979876599079 1.0000009099918614 0.0000018682251819
1.0000006922901901 0.9999985576915018 -0.0000003146956670
0.9999998813754247 0.9999984365077996 0.0000015160114686
0.9999999474915021 0.9999989348237567 -0.0000004002470352
0.9999997696181215 1.0000018864387656 0.0000000663247981
1.0000009579905653 0.9999983735516077 0.0000001312694065
0.9999991276903177 0.9999917543488160 -0.0000039304675729
0.9999998386504653 0.9999951906675845 -0.0000009863700076
1.0000007343407624 1.0000001910031080 -0.0000020644138543
1.0000015662793489 0.9999999957791442 0.0000001744240681
1.0000020973050985 0.9999994322624162 0.0000012278990090
0.9999977329238812 0.9999963187172580 -0.0000028492942969
0.9999948947545372 1.0000035347307092 -0.0000000480955643
0.9999984517852027 1.0000007704153306 -0.0000007603470182
0.9999975080988103 0.9999996669586394 -0.0000008475361502
1.0000001260983091 0.9999987592437064 0.0000003868640496
0.9999998946730253 1.0000002440133453 -0.0000001407240730
0.9999966094187860 1.0000000726564733 -0.0000006890938068
0.9999997371460929 0.9999986287111287 0.0000013679217977
0.9999960718211450 1.0000005993489782 0.0000011353546558
0.9999961683925218 0.9999983882362951 0.0000034116963566
0.9999994677608708 1.0000001943584746 0.0000009528020700
0.9999992254869807 1.0000019576236268 0.0000012553662507
1.0000002356163398 0.9999984441066426 0.0000005237519829
0.9999958959905056 0.9999944268267373 0.0000007312675366
1.0000048917106144 1.0000033154332657 0.0000001040128440
0.9999983864391185 1.0000003343535484 -0.0000002777703548
1.0000022941823010 1.0000013642967438 0.0000025110333944
1.0000006740906888 0.9999955491912261 -0.0000041078839502
1.0000039683834550 1.0000012333464241 -0.0000008421560168
0.9999976896131565 1.0000036502003522 -0.0000035099030787
0.9999970679556309 1.0000016034695580 -0.0000019794109004
0.9999951302414061 0.9999993341016117 0.0000006029559657
0.9999991954424708 0.9999988569790843 0.0000017416675363
1.0000045802275701 1.0000009288276202 -0.0000059209080746
1.0000063470681000 0.9999976321858123 -0.0000015716741136
0.9999989626297661 0.9999983782611703 0.0000021165774816
0.9999995569153982 1.0000014706364619 -0.0000002903124688
1.0000025005208446 0.9999973857608030 -0.0000010567458558
1.0000002486725788 1.0000005388003246 -0.0000004207609756
0.9999970459160603 1.0000008257192925 -0.0000027004145705
0.9999999971654152 0.9999969968017867 -0.0000024787214308
1.0000010164570303 0.9999989626302812 -0.0000004865010192
1.0000155905365884 1.0000020797986742 0.0000083673383055
0.9999705866039195 0.9999978637885515 0.0000089626803060
1.0000001294950425 1.0000008255104307 0.0000003610010124
1.0000096186531062 0.9999990826203998 -0.0000028700527001
0.9999986115061815 1.0000044635088625 0.0000005770290029
0.9999993808236414 1.0000019877124433 -0.0000009664735150
1.0000000562658906 1.0000004255401058 0.0000006361459177
1.0000006517765021 1.0000003357183904 0.0000003622120337
1.0000005533833025 0.9999999617377652 0.0000005832050288
1.0000006507160155 1.0000000452146436 -0.0000000657246760
1.0000027390765251 0.9999939976350735 -0.0000008559239598
0.9999996044271194 1.0000009638928549 -0.0000062013324459
0.9999971320598176 0.9999910402304838 -0.0000009318364825
0.9999999469041128 0.9999999447206749 -0.0000014107905145
1.0000005092386264 0.9999976410904892 -0.0000022719084691
0.9999993814468747 1.0000005797699718 0.0000009260569433
1.0000006796758576 0.9999972105388967 -0.0000001236161936
0.9999910144086596 0.9999976114904441 0.0000039498899056
0.9999991491495160 1.0000005833980303 0.0000040460942169
1.0000000821410560 1.0000009376764356 0.0000003909932153
1.0000002382254851 1.0000030937405047 -0.0000009068825898
1.0000005078026357 0.9999940652307875 -0.0000007156574734
1.0000023053231237 1.0000034911582856 0.0000012026929003
1.0000018566848943 0.9999978751127278 -0.0000071219631374
1.0000037082830795 0.9999984632214922 -0.0000072031881385
0.9999991828928826 1.0000088372989233 0.0000015752736840
1.0000005477023417 1.0000061375087919 -0.0000015793423936
1.0000001591131553 0.9999971491109331 -0.0000015991129878
1.0000000415621457 1.0000034697239113 0.0000000441174438
1.0000001098228140 1.0000001477925691 -0.0000000434816978
1.0000001804042786 1.0000013026884158 -0.0000009625534405
1.0000011986225710 1.0000008835166074 0.0000003171047519
0.9999999959257488 0.9999991604571723 -0.0000010146236157
1.0000039474127913 0.9999982729582968 0.0000124577472935
0.9999991771123427 1.0000002026419861 -0.0000016869980600
0.9999916093450697 1.0000000780974261 0.0000004912320303
0.9999962333772242 0.9999995793610563 0.0000008007152643
1.0000097030309361 1.0000008102280613 -0.0000033208696914
0.9999982412794858 0.9999998171935841 -0.0000002929499074
1.0000006725575183 1.0000000002455709 -0.0000006673260706
1.0003677262097534 0.9571719819356458 -0.0186454839010055
0.9728181962620208 1.0007900068725464 -0.0282743579612502
0.9372898766528832 1.0000036775771666 0.0023196449364970
0.9372898772662712 1.0000036670313159 0.0023196444347310
0.9437854746386376 1.0002021096698761 0.0139998432365813
0.9999979683703329 1.0000020491313200 -0.0000095752157072
1.0000020491106252 1.0000074654819229 0.0000084212547692
0.9999979233081451 0.9999967505449888 -0.0000050021571112
0.9999965297997589 0.9999968152348869 0.0000025033786497
1.0000026138170741 0.9999974706169935 0.0000020347833719
1.0000038519791452 1.0000044415321394 0.0000004282057585
1.0000067836691038 0.9374213549988349 0.0017037200837468
1.0000354826560272 0.9374224825191845 -0.0060385025454806
0.9999986971314441 1.0000045386530236 0.0000005168790328
0.9999925505228163 1.0000015662351331 0.0000101050262011
1.0010811207089787 0.9937992648378291 0.0326932056628869
1.0000013612496286 0.9999981787240401 0.0000056309910594
1.0104572468480091 1.0011235794878741 0.0336392271938062
1.0000051467103226 0.9999926851632374 -0.0000088088452061
1.0000022468414531 1.0000068073954229 0.0000004478385245
0.9999991020594460 0.9999960420142602 0.0000012666325966
1.0000069936326594 1.0000010910568262 0.0000015240388340
0.9999961244687139 1.0000002901400324 -0.0000031095532638
1.0000037511916318 0.9999988923752613 0.0000025582072053
0.9999978049194099 0.9999986210231525 0.0000048179951483
0.9999995825504984 0.9999994188223413 0.0000034677668794
0.9999957311594810 0.9999988075182940 0.0000011248670550
0.9999997357730153 1.0000006058665629 -0.0000000586819248
1.0000002602077749 1.0000001179711129 -0.0000003870249358
1.0000009439040520 1.0000002751258690 -0.0000009098131648
0.9999987196033731 0.9999995093231798 -0.0000006512898188
1.0000002476115348 1.0000001622828787 0.0000000669090104
1.0000007153944950 1.0000001108744623 -0.0000002108815826
0.9999990191719241 0.9999928941325856 -0.0000032216490945
0.9999990932077479 1.0000005949544337 0.0000004099894449
1.0000007346728672 0.9999990239112410 -0.0000005052129822
1.0000010681036369 0.9999940995876482 0.0000048241843783
0.9999986499881628 0.9999985527159980 -0.0000010215282261
0.9999980822306996 0.9999984531072366 -0.0000025639780330
1.0000059929331460 1.0000036566746564 -0.0000049404605922
0.9999993723247331 0.9999990637499987 0.0000018364394200
0.9999999369500263 1.0000015258916195 -0.0000000145128812
1.0000052085717741 0.9999999968749177 -0.0000021090844778
0.9999989986749998 1.0000088941753087 -0.0000020405280324
1.0000051350054648 1.0000008502776505 0.0000018455879462
1.0000000230873078 1.0000020775240999 -0.0000003390130808
1.0000012056139571 1.0000062063148301 -0.0000010805428681
1.0000080428618532 0.9999997583823167 -0.0000012908201903
0.9999997857185753 1.0000080171191090 0.0000012721285890
1.0000025639686414 1.0000004615807356 -0.0000029756952599
1.0000053897161065 0.9999966088963045 -0.0000001487947452
0.9999993314347557 0.9999995715457898 -0.0000001000831219
0.9999957124391938 1.0000014014456124 -0.0000019868371418
0.9999996112406133 1.0000003957603365 0.0000015804601034
1.0000016677653631 0.9999906101280538 0.0000017349991754
1.0000024396578233 1.0000001973141210 -0.0000000557058488
0.9999992263235444 1.0000022471802932 0.0000017860578205
0.9999989641759687 0.9999930996292913 -0.0000039432607733
1.0000014813534359 1.0000011785722542 0.0000032499615679
1.0000004452019335 1.0000089277002397 -0.0000016515109299
0.9999996689255048 0.9999988130910283 0.0000011173517575
0.9999999611499583 0.9999983628683558 -0.0000003539974541
0.9999988935172910 0.9999988865435251 -0.0000014052374194
1.0000015246140481 0.9999974610650673 0.0000003432068562
1.0000007277194163 0.9999996914085760 0.0000001668078445
1.0000001249006354 1.0000003810210465 0.0000002363523578
0.9999995946480529 1.0000016872937501 0.0000010963815218
0.9999993177976559 0.9999973585409804 0.0000030910336858
0.9999987987823554 0.9999984329792672 0.0000020742743809
0.9999969644735491 0.9999928214883448 0.0000011969155374
0.9999999264664203 1.0000003354878522 -0.0000001587344332
1.0000021752531081 1.0000046372413547 -0.0000114649301753
0.9999980423963658 1.0000004590866789 -0.0000010762048892
0.9999997985570037 1.0000063890933641 0.0000014362709936
1.0000021654211984 1.0000002841382551 0.0000050635594338
1.0000023937413494 0.9999995660632960 0.0000002907206368
0.9999992383313611 0.9999998962499186 -0.0000009110351093
0.9999991717760713 0.9999998945118207 -0.0000011213647986
1.0000003092039305 0.9999995660631343 -0.0000000685163204
1.0000038073582120 1.0000018017392442 -0.0000026852736608
1.0000001549055424 1.0000005158258105 -0.0000006533403062
1.0000023937444540 0.9999986772483930 -0.0000017938125103
1.0000023937414559 0.9999995660632214 0.0000002907206472
0.9999992637480877 0.9999961343819154 -0.0000010663606521
0.9999997505872379 1.0000038296238691 -0.0000002538466902
0.9999995660655135 0.9999857176231181 0.0000014868880120
1.0000038073581445 1.0000018017390808 -0.0000026852735507
0.9999995660638564 0.9999940556296918 -0.0000005980911718
0.9999857176229475 0.9999995660653785 -0.0000014868878708
0.9999986772579504 0.9999857176334593 0.0000035714028982
0.9999982769358066 0.9999860403010393 0.0000067188846508
1.0000004079749545 1.0000086979351781 0.0000063385762469
1.0000017177888383 1.0000010086699982 -0.0000008566858910
0.9999856069257848 0.9999974598575909 -0.0000001261604966
0.9999990791517477 0.9999934386634775 -0.0000074997562433
0.9999990408078504 0.9999981681509847 0.0000045586406536
1.0000045478346968 1.0000041793050203 0.0000040336934504
0.9999974226918293 1.0000000236874820 -0.0000021621483535
1.0000017208626670 0.9999993897697919 0.0000014535422776
1.0000007426147535 0.9999991411937296 -0.0000017191821884
0.9999998230486192 0.9999999384169325 0.0000004388691828
1.0000023837575687 1.0000037839776426 0.0000077833809965
1.0000000948149688 0.9999999251845355 -0.0000001864169123
1.0000013749862271 1.0000012591335643 -0.0000016161259619
0.9999966000363237 1.0000000949300727 0.0000105022991587
1.0000014129335850 0.9999991583117577 -0.0000000549649841
0.9999992755401028 0.9999943990390611 -0.0000020862021227
1.0000003526609542 0.9999970691090577 0.0000004864345645
1.0000013082055563 1.0000014994200246 0.0000000646917677
1.0000000172564405 1.0000002392226071 0.0000038034813375
1.0000007964513895 0.9999925981327488 0.0000001304518166
1.0000005129116654 0.9999840622262790 0.0000038187272471
0.9999980654405948 1.0000050702089587 0.0000005194632911
1.0000027034113124 1.0000026372154203 -0.0000011598155546
0.9999997433763623 0.9999997282173170 0.0000004987323341
1.0000015813380043 0.9999998324641642 0.0000035504576619
1.0000014025430866 1.0000033553657985 0.0000003363365848
0.9999925828726816 0.9999989921691014 0.0000006448146492
0.9999998119848549 0.9999995829101171 0.0000014805919290
1.0000014697681590 0.9999984555190806 -0.0000031793294030
1.0000241433825494 0.9999955981632643 -0.0000042423363621
0.9999952525964589 0.9999984325061182 -0.0000066056529621
0.9999874789129012 0.9999918315835358 0.0000031975659374
1.0000020329478045 0.9999982371812586 -0.0000001406582608
0.9999970959899643 0.9999937061423502 0.0000178922480150
1.0000011610577855 0.9999995097885191 0.0000028730719627
1.0000010381910738 0.9999981879907323 -0.0000005826843780
0.9999997932170172 1.0000041640675834 0.0000004126035614
0.9999972118984716 1.0000000241685525 -0.0000001325197960
0.9999980372292884 1.0000018798451495 0.0000003262883659
0.9999992693417202 0.9999987605876048 -0.0000009189844633
1.0000000677906478 1.0000108103360463 -0.0000017703119959
1.0000041591696056 0.9999989972379455 0.0000010014157213
1.0000011690793551 0.9999986775147729 0.0000017251484222
0.9999990843558226 0.9999992889932342 0.0000004517101792
1.0000073875396285 0.9999988491880965 0.0000018600910903
0.9999994609738947 1.0000023931311166 -0.0000012934676048
0.9999993832088412 0.9999987460293956 -0.0000022797304423
1.0000119891798853 0.9999993800355721 -0.0000008584553215
1.0000052593152282 0.9999997976201306 -0.0000005343849876
1.0000005697537706 0.9999971988131212 0.0000057158808815
1.0000045470554297 1.0000016087507424 0.0000020264032436
1.0000024350344585 1.0000043686015299 -0.0000065160939538
0.9999971988241895 0.9999992941134492 -0.0000066177069296
0.9999997976410312 0.9999993403407272 -0.0000047744565594
0.9999934214330470 1.0000059789598679 0.0000107871313312
1.0000003765253538 0.9999961257729646 -0.0000008231230267
0.9999936164514589 1.0000015959544009 0.0000001291200990
1.0000059788424913 1.0000015959557302 -0.0000012786128753
1.0000018453931439 0.9999971988036370 0.0000048140519368
0.9999990596496859 0.9999981717502061 -0.0000006836478795
1.0000016329357753 0.9999993831958183 -0.0000009552253818
0.9999996803880585 1.0000000487937779 -0.0000006425997392
1.0000045470510952 1.0000006321204031 -0.0000001281433120
0.9999998956342010 0.9999995409873623 0.0000000985473381
0.9999997976175423 1.0000015959541233 -0.0000005747427375
0.9999999993385386 1.0000002141962900 -0.0000008850507606
1.0000002952762954 1.0000043685665148 -0.0000029067536091
0.9999993614423001 1.0000008920921248 0.0000020623584162
0.9999993831969283 0.9999994486298863 0.0000007388991567
0.9999961257726804 1.0000003765251961 0.0000008231227318
0.9999971988024646 1.0000018453958439 -0.0000048140514732
1.0000016203776527 0.9999921307616697 0.0000029295122768
0.9999930926249954 1.0000002513619966 -0.0000001345743051
0.9999997642826872 1.0000059788419919 0.0000018331759858
1.0000059788401323 1.0000015959541066 -0.0000012786153728
1.0000012379604208 0.9999971853313739 0.0000044250043660
0.9999987607727648 0.9999971853519888 0.0000062754640907
0.9999996567600664 1.0000110321951308 -0.0000023109412179
1.0000018453947639 0.9999971988024930 0.0000048140512653
1.0000037856185859 0.9999977330644306 0.0000025579524657
0.9999872461116273 0.9999985153606801 -0.0000092561937696
0.9999999861402096 1.0000010561680048 -0.0000005484995656
1.0000101087062023 0.9999954712287473 0.0000041929644773
0.9999997558267414 1.0000122032969190 0.0000005911998577
0.9999996297620543 0.9999973800369407 -0.0000028499469642
1.0000002793856311 0.9999990868307711 0.0000010926112492
1.0000002710829945 1.0000021782265338 -0.0000005807824791
0.9999999753973621 0.9999982272744388 -0.0000004379033481
0.9999956922518198 0.9999988121484806 -0.0000041105712269
1.0000001447816060 1.0000017472202127 0.0000007421085693
1.0000069299969556 1.0000021030374295 -0.0000004668642271
0.9999953596812677 0.9999790488656702 0.0000068142432081
1.0000064139817633 0.9999992756149813 0.0000008350542101
0.9999866561362958 0.9999991910540630 0.0000006532704972
0.9999997004509884 0.9999963474172763 0.0000005879022442
0.9999990519846327 1.0000137225366124 -0.0000072189196155
0.9999988711683994 0.9999994671958911 -0.0000017360013424
1.0000019458860783 0.9999995539635027 -0.0000006164216977
0.9999971298526773 1.0000022877556112 -0.0000000909904607
0.9999995378989607 0.9999927387394811 -0.0000035103981750
1.0000024586674572 1.0000035569756365 0.0000056627251307
1.0000001479913900 0.9999999952197316 0.0000006555544803
1.0000010702020630 1.0000004518243566 -0.0000002798586981
0.9999850084926398 1.0000007436147460 0.0000011799334286
1.0000015441596353 1.0000024779344523 0.0000022350319717
1.0000016625511896 0.9999979560211657 -0.0000006248102809
0.9999953672359896 0.9999994661323585 -0.0000029442447736
1.0000002296349444 1.0000028708612942 -0.0000023296685465
1.0000008523062176 1.0000002274322302 0.0000021034933069
1.0000064539260110 1.0000006302647726 0.0000003147527034
1.0000016199505386 1.0000080139840954 0.0000024614925231
0.9999992712271800 1.0000002003228530 -0.0000013408802862
1.0000008659291248 1.0000005652837054 -0.0000004831925181
1.0000002586065091 0.9999968701216770 0.0000041292441534
0.9999906202892104 1.0000008601142019 0.0000004697773196
0.9999933886317252 1.0000018981404801 -0.0000020885108902
1.0000010784888906 0.9999998716968703 -0.0000003211382235
0.9999984881318293 1.0000011906806281 -0.0000021515754400
0.9999933886311994 1.0000018981406329 -0.0000020885109079
1.0000020616725107 0.9999951848012378 -0.0000001232935952
0.9999845129387377 1.0000209040697787 -0.0000013748256715
0.9999998779554564 0.9999912381118686 0.0000019055313727
1.0000004163900988 0.9999984439438390 0.0000011284764911
0.9999994764068290 1.0000018467109351 -0.0000015500659388
1.0000009690518641 1.0000001153160927 0.0000001525534862
1.0000004259404414 0.9999955360545522 -0.0000007668201561
1.0000033362452379 1.0000014085505518 -0.0000005435087063
0.9999995116820409 1.0000037177377863 -0.0000002102214600
1.0000029022289150 0.9999957767172599 0.0000000049316293
0.9999960611976013 0.9999983245292163 0.0000067631604173
1.0000084597594663 1.0000020877310263 0.0000062622283999
0.9999995748613835 0.9999997070690775 -0.0000007055451971
1.0000024989726528 1.0000019574691699 -0.0000015339333338
1.0000041155648309 0.9999968745964204 -0.0000109699002575
1.0000030860434095 1.0000049684299948 -0.0000039831796655
1.0000019574692551 1.0000024989733562 0.0000015339336322
0.9999985957109423 1.0000138278585011 -0.0000100311599973
0.9999955271615750 1.0000026837000084 0.0000070970945324
0.9999949813363941 0.9999986528225305 0.0000049712877188
1.0000000809468017 0.9999863841533687 -0.0000046736235540
0.9999981800840438 1.0000000072646775 -0.0000012909885687
0.9999975002400833 1.0000061293225473 0.0000029857238684
1.0000017935753831 1.0000009140855641 -0.0000020682662058
0.9999949066881419 1.0000048887801662 0.0000029437820636
1.0000005751990555 1.0000007915144911 0.0000000708672982
0.9999975748965214 0.9999990670609411 0.0000006365027352
1.0000000330037631 1.0000017399987553 0.0000011427216027
1.0000010148717864 0.9999999911662589 0.0000011493747996
0.9999997091567756 1.0000011442071990 0.0000008818692422
0.9999994463359220 1.0000009277452424 0.0000002564651943
0.9999999472430131 1.0000003822858832 0.0000004972867464
1.0000033058016562 0.9999973092623281 0.0000045192156735
1.0000005544951225 1.0000011862612073 0.0000010716532592
0.9999944602103322 0.9999998477639639 0.0000006161140220
0.9999999242639880 0.9999986065902301 -0.0000012207947404
1.0000005531408878 1.0000002106192303 0.0000004233216546
0.9999964680157111 1.0000003508753030 -0.0000016831631628
1.0000009054206056 0.9999898445982505 -0.0000022569938412
0.9999921849775628 0.9999996303009761 -0.0000032718908713
0.9999999948364313 1.0000122685963329 0.0000084131811203
0.9999996447758023 1.0000143786201448 0.0000037721970477
0.9999989961662917 1.0000030264974606 -0.0000039849040458
0.9999898907711281 1.0000008751444143 0.0000023285065894
1.0000003265927089 0.9999983357074318 -0.0000009833850681
1.0000093938542638 1.0000000420249402 0.0000024830200319
0.9999898445996147 1.0000009054204706 0.0000022569940651
1.0000053442280066 0.9999990822007799 -0.0000029267506172
1.0000009179058928 1.0000049251774392 0.0000046975857613
0.9884322480633142 1.0010061724672439 0.0315401912955986
0.9414646687034774 1.0001466003059523 0.0117458879727210
1.0000022203576768 0.9999889700930858 -0.0000009613726444
0.9999957779777499 0.9999864239337936 -0.0000084606961339
0.9999922217116877 0.9999910042792984 -0.0000069085584448
1.0000005604123874 1.0000011103598390 -0.0000004462385561
1.0000000204837300 0.9999963571274075 -0.0000020193023452
1.0000003293177770 0.9999991876682461 0.0000009649643049
1.0000007021141160 1.0000014088077123 -0.0000018738284735
1.0000082113777911 0.9999963864663926 0.0000032147283540
1.0000024043943083 0.9999991531344624 -0.0000005925537929
0.9999981938986612 1.0000011970146954 -0.0000013240220218
0.9999995166628773 1.0000007974824638 0.0000000088262718
1.0000000424902442 0.9999997389703874 -0.0000011876776184
0.9999979964746160 1.0000000786607264 -0.0000003012987902
1.0000045934033766 0.9999947534149133 -0.0000061394516851
1.0000000191484837 1.0000011190810896 0.0000012342378601
1.0000009688043550 1.0000003672676347 0.0000008691874341
0.9999989725890563 0.9999940249325194 -0.0000006461028195
1.0000008956649715 0.9999999392180176 -0.0000012775512009
1.0000004810074041 0.9999889567275664 0.0000013376506478
0.9999996520446668 1.0000082567933855 0.0000020684849019
0.9999937173512345 1.0000024271027583 0.0000025108497873
1.0000002779143680 0.9999998147090523 -0.0000011311956376
1.0000031383970425 1.0000001513059147 -0.0000017790841370
1.0000003112118170 1.0000024245575532 -0.0000011553017210
1.0000004588170368 0.9999992115665886 0.0000007469346268
1.0000014303959694 0.9999988779754067 -0.0000001043354631
0.9999995147076833 0.9999856962785171 0.0000035909384972
0.9999856962673868 0.9999980803525305 -0.0000012918677448
1.0000003897887579 1.0000015578442460 0.0000026105087447
0.9999999799263696 1.0000005641370773 -0.0000000994425168
1.0000002725275954 1.0000015000602807 -0.0000032573306339
1.0000141465718499 0.9999957047911842 -0.0000121223673034
0.9580334393924552 1.0002921455987506 -0.0168257101443313
0.9953978077533713 1.0007531790114843 -0.0273311907323400
1.0000000354919600 0.9999918965944129 0.0000039538190427
1.0000003663079176 1.0000092414189450 0.0000033306523520
1.0000119761360002 1.0000032426914336 -0.0000036216282591
1.0004447293991516 0.9648206895005096 -0.0206360193272372
0.9999889784367866 0.9999980453076897 -0.0000001164285941
0.9999990483213329 0.9999972997255928 -0.0000048597539634
1.0007431225312273 1.0056732369758064 -0.0272285422239932
1.0000007852361459 0.9999999930107832 0.0000001804671653
0.9843854220422952 1.0006817392599228 0.0259019709851941
1.0000035581996789 0.9456524922000068 -0.0016264504084381
1.0005216047841750 0.9554331738463868 0.0223725323634647
0.9579888991245263 1.0002006266215822 0.0135981431016533
0.9999994817554996 0.9999975014954576 -0.0000011532095905
1.0000003982991899 0.9999962216761844 0.0000003820147100
0.9999956980585869 1.0000000859834202 -0.0000001316783128
1.0000007732739811 0.9999966120195843 0.0000036625396913
0.9999998616425034 0.9999966109201045 0.0000005039802310
1.0000005217182077 0.9999921966022758 -0.0000043665782279
1.0000009278674871 0.9999987052431222 -0.0000005039647178
1.0000000933963618 1.0000000408530230 0.0000001843014727
1.0000000209238356 0.9999965490537081 0.0000007720813040
0.9999987385449303 1.0000005375618428 -0.0000002708780832
1.0000038223965189 0.9999997391824661 -0.0000022963990934
1.0000005259359392 1.0000007817552263 0.0000011576176092
1.0000000330388070 1.0000013190173762 0.0000006916480844
0.9999998616510490 0.9999994810372995 0.0000009254467268
0.9999974909993511 0.9999995714891140 0.0000003904598157
1.0000001796290261 1.0000116871077662 0.0000039003948231
1.0000031639947193 1.0000013815235942 0.0000005074319042
1.0000001796290190 1.0000116871083915 0.0000039003947982
0.9999948452828081 1.0000004671414000 -0.0000046416957185
1.0000070757738335 0.9999937082967827 -0.0000060680344083
0.9999982108557109 1.0000051144713651 0.0000026216083609
1.0000025226194798 0.9999900457994847 0.0000041531839447
1.0000032483012544 0.9999990079939608 0.0000001957560460
1.0000001260361342 0.9999999644712431 0.0000001935668714
1.0000018271893820 0.9999977402401593 0.0000027367134484
1.0000031529008537 0.9999999190565122 -0.0000013908716241
0.9999972798596150 0.9999991771039354 0.0000009205524395
0.9999975312537542 0.9999999047168845 -0.0000119851613824
0.9999984315756746 0.9999979785973888 0.0000004697635681
0.9999978575467091 0.9999995012565899 -0.0000016097592803
0.9999898388129795 0.9999990361896877 0.0000037668105632
0.9999999046551892 1.0000073595802126 0.0000090820405509
0.9999992168466134 0.9999934086458744 0.0000024725405929
0.9999898297375186 0.9999964452664599 -0.0000046587173050
0.9999917439888566 0.9999984402520030 0.0000118325158077
1.0000002909175461 1.0000000323625515 -0.0000003938134815
0.9999998397103133 1.0000007454598714 -0.0000011342512223
1.0000023551671440 0.9999976820328059 -0.0000035713461773
1.0000047315052418 0.9999993849014644 -0.0000076877228596
1.0000002693887373 1.0000090855488748 -0.0000101576901947
0.9999975549469191 0.9999998069454440 0.0000008387053193
0.9999895259468878 1.0000017469993110 -0.0000012280150262
0.9999963253874263 1.0000007151841128 -0.0000034938076306
0.9999976820972455 1.0000062550333406 -0.0000087271447127
0.9999954848848515 0.9999928433552294 0.0000020976602992
0.9999994112597544 0.9999994389424475 -0.0000006525212685
0.9999953074847403 0.9999966913732425 -0.0000073244757937
0.9999986039465202 0.9999895259470724 0.0000014151678646
0.9999994389427885 0.9999994112594898 0.0000006525213875
1.0000023928325235 0.9999999078305019 0.0000009244807362
0.9999998675180369 0.9999999021962450 0.0000031162370979
1.0000000700344009 1.0000006933551595 0.0000030723358940
1.0000001311900522 0.9999994982181863 0.0000000263221068
1.0000015016985799 1.0000022127716441 -0.0000002545054586
0.9999999933092923 0.9999996779811653 -0.0000001457644217
1.0000011800554962 1.0000061408509231 0.0000005674455426
0.9999963253886869 0.9999944288334180 -0.0000038679906223
0.9999994389428312 0.9999994112599925 0.0000006525210713
1.0000008978410648 0.9999966913205142 -0.0000001804212026
1.0000002215111383 0.9999930637994930 -0.0000018006763952
1.0000011215141884 1.0000008407997425 -0.0000070714576465
0.9999874591862058 0.9999939828622900 -0.0000010207374590
0.9999959341953248 1.0000008407786862 -0.0000054858471625
1.0000051921603825 0.9999956282152599 -0.0000024779384156
0.9999944288316559 0.9999963253884595 0.0000038679907733
1.0000070357415949 0.9999890979426116 -0.0000016930912277
0.9999995840924594 0.9999988726153809 -0.0000009584589076
0.9999995723406010 0.9999989039761266 0.0000000539309637
1.0000003674548306 0.9999984977012846 -0.0000011836518211
1.0000005450422680 0.9999999754372463 0.0000006020148148
0.9999973669766180 0.9999953058090598 -0.0000002377668467
1.0000000052308873 0.9999996290691204 -0.0000005660255936
1.0000007135653000 0.9999995423647895 -0.0000008697827233
1.0000049267311197 0.9999988697105341 0.0000013790809571
1.0000056201046139 0.9999995900904556 0.0000123964176561
0.9999967622159367 1.0000006618228676 0.0000092290522829
0.9999901095216767 0.9999894137396101 -0.0000003434695267
1.0000014535640440 0.9999922511509880 -0.0000036990494048
0.9999992504432781 1.0000003755648812 0.0000012255034076
0.9999987530349844 1.0000038234879765 -0.0000056560226696
0.9999991477396043 0.9999814007556396 -0.0000018515442971
0.9999996152951480 0.9999981751696806 -0.0000003687589763
0.9999814007561512 0.9999991477403788 0.0000018515439916
1.0000014235032688 0.9999814007527569 -0.0000003279521974
1.0000005087815558 1.0000121213515130 0.0000005433152541
0.9999728451844851 1.0000032647499342 0.0000005448013478
0.9999814007558669 0.9999991477396256 0.0000018515443042
0.9999728452091587 1.0000018367875967 0.0000050374696754
0.9999991477406133 0.9999814007561512 -0.0000018515440910
1.0000066400115573 0.9999944573816604 -0.0000056931387627
1.0000033427875712 0.9999957902836193 0.0000017152966691
0.9999987727614021 0.9999927173746591 0.0000041425797898
1.0000004580777879 1.0000000041200225 0.0000011103743362
1.0000006798955798 0.9999965854238149 -0.0000009116771633
1.0000139868509232 0.9999989116864971 -0.0000000082024884
1.0000030476684416 0.9999957606667700 -0.0000030198519563
1.0000002270641437 1.0000134946389256 -0.0000030242786705
0.9999938198471024 0.9999900684825085 0.0000018534980180
0.9999926704719541 0.9999938121621267 -0.0000088850439186
1.0000009805261227 1.0000012737158248 -0.0000008466436018
1.0000000819070118 1.0000001348378480 0.0000003940612763
0.9999994318201896 0.9999988061603986 -0.0000001823912724
1.0000003490463438 0.9999983484520184 -0.0000003228778713
1.0000010900386473 1.0000019151268711 0.0000011127000370
0.9999902476675009 0.9999977246606226 0.0000053133576055
1.0000031915375032 0.9999997052649948 0.0000008312462089
0.9999985632590465 1.0000047134990078 -0.0000007187316891
0.9999998902680093 0.9999999796182497 -0.0000011863930775
0.9999987873362559 0.9999884024913090 0.0000001229432052
1.0000003137242692 1.0000020815894493 0.0000002107175781
1.0000028618049959 0.9999988439628146 -0.0000020462286302
1.0000006901653653 1.0000005046442411 -0.0000008204954557
0.9999903076516777 0.9999954274987420 0.0000047547508618
0.9999914966456651 1.0000020816851551 0.0000098289526049
0.9999990085219947 0.9999999110736618 0.0000014271980085
0.9999884024918206 0.9999987873375207 -0.0000001229435161
0.9999979159485712 0.9999912020105021 -0.0000041063700865
1.0000006901653582 1.0000005046442730 -0.0000008204952905
1.0000005046443938 1.0000006901653866 0.0000008204952745
0.9999979165452421 1.0000052200240845 0.0000074507849887
0.9999990086508446 1.0000022211953188 0.0000114403345659
1.0000002390255345 1.0000060163315287 0.0000012251492517
0.9999884024919414 0.9999987873375917 -0.0000001229428464
0.9999990035067001 0.9999900275170130 -0.0000042736387678
0.9999900274993491 0.9999980274395652 0.0000006561877502
0.9999972597134853 1.0000140002521511 0.0000140347517336
1.0000003473369048 1.0000013623102659 0.0000005143174830
1.0000033227316867 1.0000012320046214 -0.0000017401513414
0.9999996744991482 1.0000034150076349 -0.0000047705554737
0.9999927696471156 1.0000101788106164 0.0000025275205340
1.0000043747724023 0.9999988251036563 -0.0000031803559083
1.0000000679920960 0.9999993029286932 -0.0000055624043653
1.0000014672009010 1.0000051776419030 -0.0000018874715275
0.9999899220751924 0.9999996113056754 -0.0000015848498180
1.0000002137716926 1.0000012149138438 0.0000011147302501
1.0000014595304545 0.9999988250933780 -0.0000006752931634
0.9999982915438294 1.0000043487883614 0.0000011088265463
0.9999999646433564 1.0000001373864154 -0.0000029300495942
1.0000011742932942 1.0000028967825270 0.0000019650646216
1.0000022427468638 0.9999988251021293 0.0000030756763111
0.9999992382435094 1.0000046410289443 -0.0000011075337352
1.0000013746521068 0.9999988639246722 -0.0000013951295833
1.0000003745463513 1.0000001923531201 -0.0000007342241337
0.9999969002278823 1.0000055018206075 -0.0000011088436559
1.0000020870276909 0.9999996983793852 0.0000007949533353
1.0000001151729567 0.9999986448541432 -0.0000006260001183
0.9999993838215521 1.0000007200482783 -0.0000006527983070
0.9999993700975457 0.9999980539265841 -0.0000016169608650
1.0000012341640390 1.0000000831809521 -0.0000009115588742
1.0000000730800875 1.0000007956923662 0.0000010381911890
1.0000041226477061 1.0000013759403357 0.0000040110552300
0.9999997534096859 0.9999955833638248 -0.0000012703444540
1.0000018192902840 0.9999920122478066 0.0000035043732079
1.0000008079697398 1.0000014388298395 0.0000002415946406
1.0000001896828210 0.9999992779380190 -0.0000003863425529
1.0000001837016137 1.0000054683651629 -0.0000005597088522
0.9999997363289200 1.0000023738142854 0.0000002613966750
0.9999970620132669 0.9999907063396795 -0.0000022809139536
0.9999992227124487 1.0000100455983600 -0.0000005518147724
1.0000005057888455 1.0000009437043345 0.0000000657580116
0.9999997815916869 1.0000010774708994 0.0000003822233553
1.0000006155883745 1.0000021935001282 0.0000007328561638
1.0000006984705418 1.0000007022140720 -0.0000016883144415
1.0000001348279828 1.0000000990483995 0.0000002986017009
1.0000008020080104 0.9999992755992344 0.0000009997322760
0.9999990879643558 1.0000008048766980 -0.0000015695136895
0.9999996947900065 1.0000006253025804 -0.0000001171301713
0.9999993709588726 0.9999988918020790 -0.0000000624669792
1.0000043613125928 1.0000153530494091 -0.0000083237963319
1.0000211005011654 1.0000018306326892 -0.0000059617135913
1.0000051297110730 1.0000001423618152 0.0000013645283953
1.0000093630060514 1.0000029870529681 0.0000003553390096
0.9999944944708808 0.9999940242014054 0.0000016502017761
1.0000067832709350 0.9999861328576715 0.0000076370136794
0.9999953623058083 0.9999856367880955 -0.0000084187383433
0.9628635589569118 1.0005331035313259 -0.0223974620954461
0.9629974538052891 1.0005176906942124 -0.0223141240629189
1.0000057901594088 1.0000066068240758 -0.0000011474278198
0.9999911126388975 0.9999689258527933 -0.0000014396942096
1.0000057901582251 0.9999932125352274 -0.0000000184462842
0.9630148985503735 1.0005054254517745 -0.0223004441202182
0.9999856368191944 1.0000079245602687 0.0000101512287638
1.0000068728905445 0.9999856367398412 -0.0000048128594130
0.9628634148898820 1.0005217646976625 -0.0223941171326425
1.0000047958942024 1.0000108696578922 0.0000120705389712
1.0000013376668395 1.0000001109573933 0.0000005675851953
1.0008043518583591 0.9829291189886238 0.0280157236045134
0.9829292934947005 1.0007838027440505 -0.0280185527226893
1.0000019251851875 0.9999961387942532 0.0000039975937120
0.9999891507859907 1.0000011091555256 -0.0000054745843344
1.0000800868841346 0.9442822225602938 -0.0083295440238112
0.9999953623053252 0.9999856367850828 -0.0000084187357996
1.0000066068229285 1.0000006569177999 0.0000003688474980
0.9442822225601004 1.0000800868842488 0.0083295440234897
1.0000057901575583 0.9999798185158761 0.0000011105046541
1.0000066068228717 1.0000006569163788 0.0000003688472067
0.9999978541346041 1.0000040371471210 0.0000008220757992
0.9999856367856512 0.9999953623051830 0.0000084187348191
1.0000800868843642 0.9442822225593962 -0.0083295440236576
0.9422861899718897 1.0000034097287083 -0.0028013406008898
0.9999954124467685 1.0000009460492989 0.0000008966475589
1.0000009460522958 0.9999986288211188 0.0000019365594906
1.0000013376682320 0.9999975822974396 -0.0000017978118319
0.9999932125357427 1.0000006569171704 -0.0000007601262766
1.0000036917104540 0.9420744645566300 0.0028014397964185
1.0000152501542223 0.9420871905905702 0.0028130899418664
1.0000162540698483 0.9420744548558860 0.0027997249387246
0.9420871605842881 1.0000163017418913 -0.0028077529738038
1.0000014906878221 0.9999953536098954 -0.0000000098618162
0.9999999096460425 1.0000057901548569 0.0000005829326749
0.9999891507836886 1.0000011091554759 -0.0000054745847287
1.0000013703296908 1.0000055293629302 0.0000033421219970
1.0000013376641750 1.0000001109563132 0.0000005675834332
1.0000122794255197 1.0000046885001881 0.0000206326149894
0.9485647444321043 1.0001939190781441 -0.0135581235453968
0.9999798185177984 1.0000006569181006 -0.0000018890696104
0.9442822601773163 1.0000532966109035 0.0083316905341464
1.0004085125869697 1.0643724446983898 -0.0204934974462586
0.9999982814539767 1.0000071753963400 -0.0000073115873194
0.9999996279411775 1.0000000711806689 0.0000000451901553
1.0000041768753862 1.0000064886860422 -0.0000044449890243
1.0000012619388767 1.0000005875529494 -0.0000024264621789
0.9999988527471679 0.9999958400956346 -0.0000003721614229
1.0000028284220404 1.0000204093450904 0.0000080773093107
1.0000050314254456 1.0000027390239150 0.0000049713468107
1.0000050642897749 0.9999962703393405 0.0000069571106345
1.0000001021843878 1.0000004582393827 -0.0000005299382854
1.0000023686463975 1.0000009906824883 -0.0000003136795412
0.9999997590303655 1.0000005579605706 0.0000005867997331
1.0000003313279757 0.9999925337130203 -0.0000057158536844
0.9999991796419485 1.0000001995739387 0.0000003386912838
1.0000005308808191 1.0000064507504052 -0.0000015682131149
1.0000024841281376 1.0000015852296888 -0.0000007675647052
0.9999919795110582 0.9999994204749219 -0.0000009974916960
0.9999860134737977 0.9999942369300590 0.0000033083352803
1.0000001006844117 1.0000024021405551 0.0000010025003896
0.9999996361990156 0.9999999918589944 -0.0000021923957804
0.9999934916946105 0.9999954478947609 -0.0000071567231310
1.0000038810254912 0.9999979318810960 -0.0000039305480084
1.0000129920794254 0.9999890051664406 -0.0000013191418464
0.9999989942810495 1.0000032010222901 -0.0000003873194443
0.9999971554314057 0.9999924104750111 0.0000076158318112
0.9999919313974910 1.0000019612451605 0.0000017430025611
1.0000008038016925 0.9999906068999285 -0.0000024320535331
1.0000037766509546 0.9999909384366170 -0.0000079633280528
0.9999983865189693 1.0000282840698262 -0.0000138998559463
0.9999960811918277 1.0000010059224220 -0.0000009664466030
0.9999903531454175 1.0000198899829948 0.0000002005486153
0.9999913028770319 1.0000132997537425 0.0000049952796848
0.9999988878450672 1.0000027049356308 -0.0000035730327596
1.0000010230368035 1.0000036716189764 0.0000009355938801
1.0000009513331034 1.0000003145421683 -0.0000002125241016
1.0000005745822227 0.9999997444089320 0.0000004031725330
1.0000008977696186 0.9999951227337365 0.0000023060377001
1.0000033952502576 0.9999998596690052 -0.0000000843634582
0.9999949056729138 1.0000226438056286 0.0000079234216581
1.0003641056789894 1.0645407032558112 0.0197112909537403
1.0000157261722833 0.9423870267007106 -0.0027870102571402
0.9551669420088823 1.0003496388539250 -0.0182082982331937
0.9551267362899288 1.0003400509988734 -0.0182209048045543
0.9551269457039393 1.0003463563283441 -0.0182267097563968
0.9725069196597672 1.0006724373109266 -0.0255454052855326
0.9999949056731412 1.0000226438022748 0.0000079234220987
0.9999985844216653 0.9999954735797718 -0.0000004560549190
0.9999801110933898 1.0000006377290203 -0.0000022825299983
1.0000256792791700 0.9999953984112941 -0.0000105741163388
1.0001922705038502 0.9488747669570355 -0.0134835260261511
1.0000031437638663 0.9423870369319658 -0.0027888269704009
0.9551543856185417 1.0003458266655676 -0.0182157731146059
1.0006695839455293 0.9725062542005434 0.0255323317564632
0.9999953984113368 1.0000256792799658 0.0000105741165626
0.9999954423909676 0.9999939558511803 0.0000019534499386
1.0000043054692302 1.0000025753789643 0.0000018463894065
0.9999894360952402 0.9999837045411323 -0.0000028400023019
0.9999996731197190 1.0000010394328520 0.0000000783118452
1.0000033948492311 0.9999992875492870 -0.0000008057603828
0.9424364809865032 1.0000152858621931 0.0027957075254908
1.0000087389934993 1.0000001612661784 -0.0000094878921208
1.0001922705038553 0.9488747669563712 -0.0134835260262695
0.9999976481564419 1.0000015734871728 -0.0000016731811825
0.9999991008295067 1.0000200477864969 -0.0000014122799740
1.0000001075302922 0.9999960483306838 0.0000005684739109
1.0000042348837528 0.9424068356149836 -0.0027912103530477
1.0000026623141691 1.0000015734945504 0.0000030172403422
0.9488747669570633 1.0001922705041342 0.0134835260258069
0.9999982902170189 1.0000059463495043 -0.0000010787602674
0.9429747482319027 1.0000037049036903 0.0027659336095904
1.0003363571876889 1.0647062795767512 0.0187874927076007
1.0003182342690617 1.0647503204221946 0.0185648016331438
1.0000013967825572 1.0000075112087636 0.0000003361445050
1.0000026623138281 1.0000015734932572 0.0000030172396494
0.9999982902211674 0.9999793115563699 -0.0000030836529896
1.0000079694431159 1.0000011969882663 0.0000163242769663
1.0647492652563728 1.0003280873382265 -0.0185696732188547
1.0000226438035253 0.9999949056733117 -0.0000079234230224
1.0000022114142451 1.0000010394373784 0.0000024527230960
0.9488747669551322 1.0001922705034101 0.0134835260269269
0.9999985938763396 0.9999989587276354 -0.0000050933603719
0.9445810400534947 1.0000786290356698 -0.0082866241646935
1.0000086069317107 1.0000037959875918 -0.0000128525998541
1.0000002763485882 0.9999998563653189 0.0000000269594922
0.9999979776347839 1.0000001410006074 0.0000000815370231
1.0009694974241903 0.9901186336629835 -0.0309918947002302
0.9999768328293678 0.9999981776404192 0.0000013359616496
0.9999949712252607 1.0000054343225477 0.0000077971311230
0.9999965234015613 1.0000004761420962 -0.0000007162630346
1.0000038564269391 0.9999985234300032 -0.0000006836362266
0.9999966943517218 0.9999999934459298 0.0000018120855852
1.0000054506127904 0.9999866976728294 0.0000007813479476
0.9999749974368407 1.0000050100664355 0.0000029566177901
1.0000011970929052 0.9999944325485607 0.0000026858180569
1.0000031463139150 1.0000083720324913 0.0000068687160625
0.9999999348775911 1.0000002249494504 -0.0000001560969758
0.9999968185302518 1.0000011217870448 -0.0000028174587461
1.0000022037799630 0.9999965541886103 -0.0000052483125508
0.9999999437058505 0.9999991886693973 -0.0000000612774629
0.9999941918750628 0.9999834929229259 0.0000012233104516
0.9999929568572078 1.0000075374089878 0.0000078864384518
1.0000009752347807 1.0000047723419256 0.0000083839313943
0.9999954398231621 0.9999947927956261 -0.0000037521465543
1.0000133590003060 0.9999999641864245 -0.0000146561508195
0.9999993019278781 0.9999990175816797 0.0000000260314609
1.0000000502372546 0.9999988028281179 -0.0000008204236655
0.9999986607884078 0.9999998411188653 -0.0000013157934930
1.0000229986120064 0.9411967411861488 0.0031219338150372
0.9999989043327615 0.9999996018014902 0.0000003738453465
0.9999982883181535 1.0000008550818760 -0.0000002979007544
1.0000002332376368 0.9999963627937655 -0.0000018063453326
1.0000003800237984 1.0000027580636419 -0.0000004400849302
0.9999992363740354 1.0000003425732369 -0.0000007644973945
1.0000008663364610 0.9999992134754254 0.0000012279866587
1.0000057567227452 0.9999977936292869 0.0000014938469533
0.9999966466064969 1.0000016459559125 0.0000045925768655
0.9999995135595670 0.9999954595101921 0.0000009636003295
1.0000020728031307 1.0000009820157723 0.0000003086753556
0.9999812603825647 0.9999889954955268 0.0000155785691985
1.0000005119356430 0.9999991620090261 0.0000007346194855
0.9999792123919113 0.9999990110183471 0.0000032425586347
0.9999999635218652 1.0000001629197546 0.0000011064534783
0.9999918923083393 0.9999957332295192 -0.0000009474843528
1.0000047198340989 1.0000000892971967 0.0000011718095995
0.9999991935263407 1.0000005468066226 0.0000008713677112
0.9999994033017799 0.9999951863727212 0.0000032868367844
0.9999886222449496 0.9999978684082346 -0.0000095122373085
0.9999999967770619 0.9999998005512823 -0.0000008725094847
1.0000019627574384 0.9999997507987181 -0.0000012327951626
1.0000026187495883 0.9999985105403230 0.0000016634117962
1.0000065808087000 0.9999997219337707 -0.0000031507539999
0.9999998089929604 1.0000048216415929 -0.0000027242890985
0.9999987293998228 0.9999987273723834 -0.0000036855452869
0.9999951159857732 0.9999982258091258 -0.0000074074283303
1.0000066386662476 0.9999928471630078 -0.0000019641885741
1.0000022189122870 1.0000014993216604 0.0000015239242110
1.0000052618047885 0.9999999043365621 0.0000024467172009
0.9716853071851541 1.0007199502982478 0.0262887093962191
0.9999934074269327 0.9999967808867212 0.0000008300354135
1.0000005281987605 1.0000014504636729 0.0000034138014615
1.0000001741443487 1.0000043281204587 -0.0000000992000111
0.9999978301584628 0.9999962215260988 0.0000006999297340
0.9999930932766754 0.9999998027458975 -0.0000028591416883
0.9999962215262267 0.9999978301581217 -0.0000006999298086
0.9999973523948381 1.0000134266507534 0.0000053113202125
1.0000018710178904 0.9999937789758886 0.0000069455247621
0.9999948890235917 1.0000059627479261 -0.0000029583768304
1.0000000606627912 1.0000006527680405 -0.0000002569916944
0.9999998296832827 0.9999991990157020 -0.0000004578129885
0.9999993334809382 0.9999981525936523 0.0000007384455048
1.0000009484166819 0.9999990743777383 -0.0000006047643563
1.0000010135076247 1.0000009497649252 0.0000002101127244
1.0000031653737440 0.9999958503376366 -0.0000046359132962
0.9999965298687318 0.9999979898247945 0.0000036670105907
1.0000018004262559 0.9999999018015451 0.0000004105294203
1.0000018004258295 0.9999999018021455 0.0000004105287879
1.0000012728066832 1.0000008389784565 0.0000005940231334
0.9999999819413423 1.0000024289202862 -0.0000016620358331
0.9999996121136784 0.9999999986571133 -0.0000023704888787
0.9999976543665768 1.0000026088166871 -0.0000040194917103
0.9999998148651841 1.0000005278646211 0.0000009763691839
1.0000015639524387 1.0000001346361138 0.0000001424790113
0.9999991380849969 0.9999997253147253 -0.0000004914024627
0.9999999720822557 0.9999994312752736 -0.0000001464847773
1.0000009757898534 0.9999923331798625 0.0000018390398770
1.0000100828404992 0.9999958408807749 -0.0000157651352770
0.9999982720984064 0.9999871249534743 0.0000043180287761
1.0000010444615683 1.0000046752799232 -0.0000132228254469
1.0000001997150023 1.0000160968572227 -0.0000120713099509
1.0000009813645574 0.9999944201881895 -0.0000139793294682
0.9999945475445520 0.9999911611495829 -0.0000078843920916
1.0000058722156537 1.0000003957291121 0.0000033240143376
0.9999946717746795 1.0000059593788897 -0.0000061696260493
0.9999914887388963 1.0000051501887903 -0.0000057753384145
0.9999995647406669 0.9999994523698602 -0.0000000579089381
0.9999997051155953 0.9999977240310342 0.0000034220415538
0.9999979434644926 1.0000034340830914 -0.0000017548005062
1.0000065147059969 1.0000009612891227 -0.0000018798076064
1.0000012336445769 1.0000100599050281 -0.0000022205024014
0.9999800380371543 1.0000010977433229 -0.0000110704587222
1.0000001548232467 1.0000057056602525 -0.0000050321537813
1.0000043054198797 1.0000056674445785 0.0000103628596877
0.9999993801745304 1.0000000888542326 0.0000014134700702
1.0000003297881133 1.0000016350893972 -0.0000000273199790
0.9814787631654406 1.0009516351255683 -0.0303943526510935
0.9999690834482267 1.0000139210347641 0.0000117380300715
0.9999690834619966 1.0000023323415292 0.0000123086287131
1.0006117198996263 0.9597285537602904 0.0242671561373752
1.0006117199001521 0.9597285537598449 0.0242671561374988
0.9999987341546748 0.9999905876922236 -0.0000036604135149
1.0004186288455408 0.9512760134433441 -0.0197573729134118
0.9700095867661428 1.0008021499269444 0.0278396026071620
1.0000039785961237 0.9999718889883076 0.0000020155586457
0.9999941665121806 0.9999991458852899 0.0000005831155812
0.9999969836118601 1.0000031196657759 0.0000018815951360
1.0006166010545940 0.9597464075388069 0.0242730568819709
1.0000001772584799 0.9999970829924874 -0.0000005591678632
1.0000002347010695 1.0000001705502179 0.0000002218295665
1.0000001364980966 0.9999989432673153 -0.0000010166278849
1.0000038215810367 0.9999987511095234 0.0000056652210190
1.0000017687301788 1.0000000647615934 -0.0000076450434467
1.0000038732099199 1.0000017886210539 0.0000042483839050
1.0000016895134303 1.0000008990437410 0.0000018417578821
0.9999996401132566 1.0000010046769552 0.0000002889186944
1.0000005685880560 1.0000054159114629 -0.0000012794051219
0.9999916077190925 0.9999929046472598 0.0000028437930313
0.9999997985176287 0.9999944262142164 -0.0000017866623691
1.0000103869839225 0.9999951559161300 -0.0000002596465001
0.9999980923982063 0.9999829048340343 -0.0000017133987093
0.9999731229267115 0.9999923599217437 0.0000062089675696
0.9999975303237418 0.9999998303163933 0.0000006693838612
0.9999998169003979 0.9999986417136675 0.0000001201621701
1.0000031503077096 0.9999951039709253 -0.0000098126856877
1.0000389641663929 0.9999886298370131 -0.0000027290926466
1.0000103304098300 1.0000036931890059 -0.0000035225740217
0.9999903142756905 1.0000007077411652 0.0000009447382879
0.9999942023296541 0.9999991509123101 0.0000086833162732
1.0000142187488434 1.0000019083997922 0.0000015448192961
1.0000099718969664 0.9999852750926627 0.0000073152005970
1.0000019632390995 1.0000183259143827 0.0000040320019439
1.0000024533357332 1.0000044738514300 -0.0000030427499065
1.0000047652868416 0.9999916987100690 -0.0000043951698139
0.9635499345757618 1.0005634902977543 -0.0234204218573253
1.0000015030911806 1.0000030054023752 0.0000029626106774
1.0008947030392155 0.9923124414377521 -0.0297503965727718
0.9999960498035003 0.9999707209235108 -0.0000118833915802
1.0000161210389831 0.9999973408901262 0.0000116047909399
1.0000018129044339 0.9999713351551474 -0.0000007347889967
1.0000192283231266 0.9999969246970251 -0.0000008382721527
1.0000047065012381 1.0000047517905197 -0.0000074491396392
0.9999891466632566 0.9999967505832567 -0.0000150369188052
0.9999987563718142 0.9999942160558977 -0.0000069975682192
0.9999967505059462 1.0000002967741537 -0.0000121848523813
0.9999862586675344 1.0000003770462398 0.0000084809782857
0.9999967505055056 1.0000002967731305 -0.0000121848531558
0.9999986774807865 0.9999968535430592 -0.0000204730488879
1.0000003996045999 0.9999980512650737 -0.0000040661147005
0.9999956854469442 0.9999999389366037 -0.0000000485486523
1.0000003380113260 1.0000059432540451 0.0000023542170380
0.9999967503610380 1.0000000147102945 0.0000019237096447
1.0000003995892828 0.9999984627603562 -0.0000011664289749
1.0000038255196959 0.9999943549680651 -0.0000022136462781
0.9999980770273126 1.0000012139840759 0.0000009603106424
0.9999984539840387 0.9999941462534799 -0.0000045825338021
0.9999968535432866 0.9999986774808931 0.0000204730487955
1.0000192283231550 0.9999969246934297 -0.0000008382738896
1.0000032841445581 0.9999982349041983 0.0000059328062601
1.0000203976302970 1.0000192285089136 0.0000136740274027
0.9999942027516763 0.9999969247364219 0.0000066886629274
0.9999999389363692 0.9999956854471893 0.0000000485483923
1.0000179254879011 0.9999987597415921 -0.0000123680854658
0.9999994337577414 1.0000003769823393 0.0000027663557255
0.9999949459164184 1.0000051347001198 -0.0000044760269759
0.9999889295301057 1.0000021003553756 0.0000132311029459
0.9999900956516267 0.9999949459612109 -0.0000080653437989
0.9999968535429455 0.9999986774804739 0.0000204730474455
1.0000037109317943 0.9999968535047979 -0.0000195186423386
0.9999889294308225 1.0000035003650920 0.0000087244971931
0.9999986774843960 0.9999968535421497 -0.0000204730474313
1.0000179253772636 0.9999950812898522 -0.0000068526429408
0.9999959674223643 1.0000025859436306 0.0000025783452838
1.0000116148025442 1.0000151725364739 -0.0000055676399580
0.9999998694666761 1.0000000442894503 -0.0000002125274080
1.0000004198977288 0.9999918480614404 0.0000030981632875
1.0000007466340799 1.0000006663549326 0.0000034022003900
1.0000000663587199 1.0000015223183618 -0.0000010226129793
1.0000002715775174 1.0000003257067078 -0.0000006040786352
0.9999949890315888 1.0000011371196333 -0.0000025006948031
1.0000006915688140 1.0000009980002198 0.0000000851972178
0.9999959200099345 0.9999974062817869 0.0000037239766864
1.0000018086609928 0.9999994011061371 0.0000006242506206
0.9999987999788990 1.0000010613486545 0.0000005831669673
1.0000017146279170 1.0000001938363015 0.0000002749685712
1.0000015829818536 0.9999999379900699 0.0000006134274456
0.9999991323026295 0.9999958858574621 0.0000015510369312
1.0000027574188808 1.0000029891264439 -0.0000013374402566
1.0000007900915993 1.0000006953349687 0.0000024119396058
0.9999993952298774 1.0000087061259040 0.0000014053056084
0.9999970553299506 0.9999997850929196 -0.0000010182055334
0.9999968248236500 1.0000000876244286 0.0000045692482526
1.0000014159279660 1.0000099757747027 -0.0000006220486932
0.9999987120835778 1.0000034003663587 -0.0000007230834727
1.0000038100095394 1.0000027580726465 0.0000030067581849
0.9999997107748795 0.9999987396410985 -0.0000003734460079
0.9999974216531984 0.9999997192736938 -0.0000016355106897
0.9999998597506897 1.0000010271167623 0.0000001930344180
1.0000067553514520 1.0000089807577226 -0.0000001205023486
0.9637440339141198 1.0007680813758910 -0.0272571733517745
1.0007695763004267 0.9637442619412548 0.0272577803384701
1.0000000277957017 1.0000000045740258 0.0000007433993250
0.9999998723243917 0.9999933999958946 0.0000010893370846
1.0000033411141573 0.9999985132393419 0.0000006299150657
0.9999963717842510 1.0000015826410082 -0.0000021762912296
0.9999956183468622 1.0000035990620340 -0.0000027564335351
1.0000014691156514 0.9999987421030925 -0.0000072623154532
1.0000003068730285 0.9999892041705428 -0.0000018920555154
1.0000005044211591 1.0000003555885468 0.0000004812461213
0.9999996630288449 1.0000001303409913 -0.0000009530843312
1.0000018419490575 0.9999999252726838 -0.0000004684510474
1.0000070843109858 0.9999998525944639 0.0000026011163899
0.9999975579693272 1.0000000773086875 -0.0000020651244640
1.0000009652284394 1.0000002152951648 0.0000007542489502
0.9999995700346765 0.9999999614500039 -0.0000001028013271
0.9999996704840773 1.0000010782949971 -0.0000013620590296
1.0000006098737291 0.9999982338544269 0.0000018835878055
0.9999970794071507 1.0000196270342361 -0.0000020347361290
0.9999955098287635 1.0000015573349177 0.0000035859787169
0.9999955098283372 1.0000015573347472 0.0000035859790367
0.9999998676648991 1.0000035660784317 0.0000000324534571
0.9999993805372818 1.0000002951357141 0.0000000779267107
1.0000013375832779 0.9999999405668056 -0.0000003248638198
0.9999937307738844 1.0000006490812203 -0.0000000193112073
0.9999952603341415 0.9999998533190979 -0.0000062080268675
1.0000016262656339 0.9999987174898743 0.0000023957990175
1.0000071329287237 1.0000230677658015 -0.0000015920204979
1.0000010666646906 1.0000001620830203 0.0000010052359393
1.0000018111766285 0.9999994932726248 0.0000012056154108
1.0000010618008814 0.9999982459408091 -0.0000003047987183
0.9999987820635891 1.0000011000972355 -0.0000003545855640
1.0000002407686930 1.0000002497987459 -0.0000009364272828
0.9999961127099545 1.0000070847575657 0.0000008802777278
0.9999995880905980 1.0000017374530950 0.0000013958209758
0.9999998929915273 0.9999943251847768 0.0000010357870239
1.0000008862261220 0.9999952178903346 -0.0000011821573105
0.9999885496465336 0.9999945737861748 0.0000012042289732
1.0000013396280301 0.9999999730944324 0.0000000629001272
1.0000004316555506 1.0000010194975495 -0.0000006402476579
0.9999952394289262 0.9999992407615457 0.0000057387899331
0.9999997956277077 0.9999981200288064 0.0000003378757431
0.9999976633932210 1.0000001150521525 -0.0000016065617010
0.9999981096582341 1.0000004849996453 0.0000018017181933
0.9999987119123197 0.9999993765843816 0.0000010617707106
0.9999997612623941 0.9999991955045857 0.0000000906590379
0.9999871532522747 1.0000000319384819 0.0000019312810942
1.0000008465322232 1.0000054153293256 -0.0000008564262717
0.9999994969958680 1.0000008856072975 0.0000016188350381
0.9999973519157012 0.9999980161311790 -0.0000054010277789
1.0000088770380773 1.0000006004856297 -0.0000029855840331
0.9999992586269646 0.9999891569660356 0.0000009026051879
1.0000005892589032 0.9999974020213288 0.0000004480112015
0.9999994780912769 0.9999997243267204 0.0000016512616003
1.0000009398866709 1.0000042176883392 0.0000027455811411
1.0000005480684826 1.0000018356278151 0.0000019244826042
1.0000013135232870 0.9999917929145139 -0.0000030980283755
1.0000010547129556 1.0000017449735663 0.0000001168321722
0.9999987086837712 0.9999954243741767 -0.0000017721529689
0.9999973812942332 1.0000209604760264 0.0000071161067353
1.0000209604787333 1.0000013390276725 -0.0000073719288420
1.0000069079751912 0.9999891403197633 0.0000022627958747
1.0000140787234237 0.9999996823533068 -0.0000059937493305
1.0000018360049632 1.0000077384047561 -0.0000014504545266
0.9999939539504134 0.9999809409461062 -0.0000072468221169
1.0000141283553259 0.9999989575166216 0.0000000540150834
0.9999998514415561 1.0000161075363694 0.0000082634492315
0.9999996977923719 1.0000014785012352 0.0000002901682036
1.0000074524444684 0.9999893313467502 -0.0000009176425908
1.0000004257496000 0.9999989575210607 0.0000017140748674
0.9999987688594286 0.9999993684090066 0.0000079391430471
0.9999957684854535 0.9999982851008605 0.0000017852426365
1.0000004309131016 1.0000040420370060 0.0000007409439369
0.9999987687942219 0.9999997279720461 0.0000011561263320
1.0000135559203442 1.0000005034126189 -0.0000000778582363
1.0000135559212822 1.0000005034126473 -0.0000000778588260
1.0000004293586184 1.0000012906521325 -0.0000010764233301
1.0000005034127717 1.0000135559213958 0.0000000778588189
0.9999981632305003 1.0000038551126587 -0.0000004167906025
0.9999996072386903 0.9999883797269890 -0.0000038886203703
1.0000296448577055 0.9999939539081255 -0.0000028635906501
1.0000178836865410 1.0000003171449436 -0.0000023615381939
0.9999984375303007 1.0000060244383349 -0.0000037026819738
1.0000037514786728 0.9999993683942044 0.0000069801139371
0.9999792305501127 1.0000058725397323 -0.0000002108046657
1.0000138243428749 1.0000014029405966 0.0000050620794302
0.9999949373359361 0.9999816010312791 0.0000090701034688
1.0000296449280768 0.9999990091644377 -0.0000089516232266
1.0000383670012867 1.0000024944840817 -0.0000137326179156
0.9999983202063403 0.9999966992884400 0.0000033848893707
1.0000370843500426 0.9999947277496478 -0.0000051383740066
1.0000006983533860 1.0000009128971665 -0.0000027229095141
1.0000071929324110 1.0000152812516476 0.0000017513400403
0.9999982405569664 1.0000008551305526 0.0000011341310229
0.9999980257572721 1.0000000063545071 0.0000009833684600
1.0000004379149197 0.9999996120794646 -0.0000005676338317
1.0000025493642939 1.0000019745037376 0.0000017470455538
1.0000012026490297 1.0000027543635104 -0.0000000315197880
1.0000008012080197 1.0000001676545220 -0.0000008355805606
1.0000025031276332 0.9999975886833340 0.0000007358513610
1.0000008720737794 1.0000000433013261 0.0000017215782455
1.0000021510151582 1.0000072115928760 -0.0000004960686982
1.0000006555297827 0.9999997462578661 0.0000011313229176
0.9999955911955708 0.9999997834392367 -0.0000036948713697
0.9999938756216401 0.9999965560605327 -0.0000024023266080
1.0000056743692283 0.9999975449589015 0.0000026602207596
1.0000340250573796 0.9447204499015895 0.0062916543558802
0.9555516439218988 1.0002857874710636 -0.0164899441356689
0.9447204515291217 1.0000340135202923 -0.0062916529411672
1.0002857820828535 0.9555516388433272 0.0164899378369780
1.0000004853501070 1.0000004444564634 0.0000003914664690
0.9999818035357095 0.9999921641777676 0.0000128559131897
0.9999970422755804 0.9999979883799607 0.0000036510627471
0.9999962830957835 1.0000002372220265 0.0000002418620262
1.0000029691046217 0.9999974221942083 -0.0000005948475424
1.0000031621836389 1.0000032772595331 0.0000078667564434
1.0000003487898241 1.0000053331842271 0.0000017922070377
1.0000002838006481 1.0000001124256950 -0.0000005526416183
0.9999985706207947 0.9999998402101387 0.0000027332458358
1.0000029460454831 0.9999994128388653 0.0000023243990888
1.0000000699415139 1.0000000019935018 -0.0000001173131250
1.0000002112641730 1.0000042728298528 -0.0000001706599199
1.0000013967653383 1.0000054263671019 -0.0000067578855094
1.0000008028018139 1.0000003031599880 -0.0000011421945886
1.0000012047975650 1.0000004505906828 0.0000012633455493
0.9999896714099643 1.0000040085263402 -0.0000023896211082
1.0000188256531346 0.9999849841860260 -0.0000001803149156
1.0000014197550917 1.0000010741073524 -0.0000006763034944
0.9999955875015656 0.9999973558593520 0.0000001312789613
1.0000009578923361 0.9999995770340010 0.0000002773518801
1.0000024912914069 1.0000007514592413 0.0000028426492893
1.0000010372513122 0.9999999307467343 -0.0000006350562192
0.9999952231910084 1.0000005013492173 0.0000011349527103
1.0000030739332673 0.9999999795431668 0.0000031294076192
1.0000000057332237 1.0000042004747280 0.0000009719412828
1.0000015658285453 1.0000020521757198 -0.0000006171758018
1.0000024241825016 1.0000006845314309 -0.0000009428810172
1.0000036085598705 0.9999985263079409 0.0000013219122226
1.0000036970541328 1.0000003200494192 0.0000022139787086
1.0000010392507666 1.0000000713847694 0.0000013176686637
1.0000008147237640 0.9999922663486657 0.0000012588355387
0.9999998862143225 1.0000000781449871 0.0000001733593868
1.0000065228848696 0.9999974654638485 0.0000037573828296
1.0000018671796687 1.0000006704845810 0.0000007442303273
1.0000001415333761 1.0000012363993911 -0.0000000808515764
1.0000026857612294 1.0000012730554724 0.0000009657019840
1.0000189206169716 1.0000045028971609 0.0000151527562595
1.0000015340405075 0.9999990238528988 0.0000008430249516
1.0000003629965282 0.9999920119860141 -0.0000041861285927
1.0000116216821422 0.9999999498435330 -0.0000002087851897
1.0000078571284070 1.0000079847179151 -0.0000064214485788
1.0000000128322808 0.9999991447926945 -0.0000012852354223
0.9999995232352078 0.9999956868023526 -0.0000093881785849
0.9999914012421648 0.9999992207582810 -0.0000022737607309
0.9999991451053583 0.9999999121458627 0.0000025373901369
1.0000121420927666 1.0000023040188786 -0.0000051287814586
1.0000001710535009 0.9999999092759324 -0.0000019024274180
1.0000016992334915 1.0000003840043996 0.0000000893200727
1.0000002387386289 1.0000000583794257 -0.0000034697225969
0.9999981863660812 0.9999963503663541 -0.0000008162159801
1.0000007817474308 0.9999988308402367 -0.0000013518230619
1.0000011980473775 0.9999964051804848 0.0000030554884805
1.0000014589169384 0.9999988118024630 -0.0000045940539728
0.9999978811946008 1.0000035191117498 -0.0000006685940000
0.9999982869564416 1.0000015961365534 -0.0000041472683378
0.9999999284049045 1.0000008222028660 0.0000014368182475
0.9999971862528116 0.9999985001509030 -0.0000015011910858
1.0000044829921191 0.9999991628769292 -0.0000006087134600
1.0000002918814170 1.0000002663404184 -0.0000004512408951
1.0000000199270462 1.0000002390073479 0.0000006958756132
0.9999994035496881 0.9999997310580899 0.0000013690057176
0.9999994035490628 0.9999997310580331 0.0000013690055577
0.9999942469241604 1.0000066165028942 0.0000190854237249
1.0000034095912120 1.0000049344608082 0.0000055352191058
1.0000040575578986 1.0000022989380224 0.0000034667015139
0.9999996128463512 0.9999992765508520 -0.0000044428856004
1.0000028249372854 0.9999999363257837 0.0000009652079122
1.0000110687822148 1.0000090050533523 0.0000133754273871
0.9999959458081900 1.0000002351135604 0.0000000420513402
0.9999926991175881 1.0000205846283927 0.0000055654114176
0.9999980462136379 0.9999963854557667 -0.0000014674396913
1.0000018235029766 0.9999955346107806 -0.0000066794346487
0.9999958456948078 0.9999871861853075 0.0000085357371131
0.9999933352732128 1.0000060218309115 0.0000036664221372
0.9999999060849314 0.9999999324088505 0.0000016709984429
0.9999996320467376 0.9999997751998456 -0.0000070975949359
0.9999992063314924 1.0000104741315610 -0.0000032081236692
1.0000037612437360 1.0000004945610401 -0.0000003553297573
0.9999987805947623 0.9999997751918840 0.0000064652802735
0.9999998805312398 1.0000000804237346 0.0000004110220548
0.9999993128072652 1.0000001728263814 0.0000007608532018
1.0000011300908564 0.9999992721708456 -0.0000008456513685
1.0000003371560351 1.0000019431181697 0.0000000395366308
0.9999987699474522 1.0000024999361159 -0.0000048086705291
1.0000003169223060 1.0000011311896708 -0.0000004368183421
0.9999996375072161 0.9999960848016914 0.0000007571663203
1.0000003607552692 1.0000044313267131 0.0000018636143336
0.9999975001505670 1.0000013564344945 -0.0000004269265961
0.9999995012887327 1.0000026997681921 0.0000013928806906
1.0000028103940144 1.0000004381506011 0.0000012587317148
0.9999999463462561 0.9999975961639177 0.0000000226258312
0.9999975484282382 1.0000049515746958 0.0000013625998445
0.9999945726994770 1.0000069310153705 -0.0000056489129362
1.0000146009490969 0.9999849515867020 0.0000055355765856
0.9999980911681303 1.0000077015724798 -0.0000027539310135
1.0000298003685899 1.0000005651302963 0.0000017661016548
1.0000312766184922 0.9999975913496200 -0.0000046612860712
0.9999925669985266 1.0000077015675195 -0.0000016906393832
1.0000212370775108 1.0000003062912479 0.0000002266717668
0.9999997277124544 0.9999911839957286 0.0000034883721868
1.0000212371010282 1.0000023418772066 0.0000047402287545
1.0000199550857749 0.9999984296001562 -0.0000016107896764
0.9999977525773819 1.0000008344543987 -0.0000016581558171
1.0000033991184167 0.9999947956735716 -0.0000035532520064
0.9999965638718539 1.0000006752220700 0.0000079095578024
1.0000004893545300 1.0000028866131783 0.0000014364057626
1.0000006562485524 0.9999987350024256 -0.0000089917413856
1.0000005651323280 0.9999936920182646 0.0000023050548609
0.9999965638718823 1.0000006752206170 0.0000079095584188
0.9999913193706119 0.9999998202947593 -0.0000015601679592
0.9999957805221183 1.0000001408397661 0.0000015233198219
1.0000004307569983 0.9999987723773049 -0.0000018707127529
1.0000006752204251 0.9999965638720244 -0.0000079095585610
1.0000036153665410 0.9999995371736577 0.0000004710874741
1.0000003399399415 0.9999934364527659 0.0000034842134521
1.0000000999461502 0.9999958497140733 -0.0000134197486863
0.9999996631133035 1.0000036183350576 0.0000003221387985
1.0000146545054669 0.9999985751118931 -0.0000058857891662
1.0000023418570578 0.9999851289130331 -0.0000006690368562
0.9999990749194880 0.9999987582416074 -0.0000026605976445
1.0000146155648464 0.9999934365327573 -0.0000095312865429
1.0000033724659798 0.9999999906835699 0.0000024110662344
1.0000013344872589 1.0000059316895387 -0.0000004214950202
1.0000003120688714 0.9999905145924159 -0.0000041774969779
0.9999986240344750 1.0000044380258533 0.0000005301042319
1.0000024300643624 1.0000009369408760 -0.0000007472469389
1.0000000775537234 0.9999783034007645 -0.0000024784867418
0.9837920835433096 1.0007195736632641 -0.0266061757775458
1.0003319187380373 0.9560983192859304 -0.0178119252654396
0.9999987185959697 0.9999992800703844 -0.0000009096162412
1.0004785515864523 0.9647512988739757 0.0212885382605559
0.9577583507481999 1.0003078813836623 0.0171704137462541
0.9577583502954831 1.0003078826402105 0.0171704131665087
1.0006276153459870 0.9733184187027921 -0.0247838307815218
0.9741068469140232 1.0006065889555373 0.0240663558280802
0.9999963623623499 0.9999982120782417 -0.0000019404485720
1.0000100678647159 1.0000080178061479 0.0000108546438098
1.0000072453427589 1.0000230488547799 -0.0000213078683462
0.9999981250914499 1.0000000017015007 -0.0000006389270783
0.9999987673271321 1.0000025579213585 -0.0000055796420056
1.0000032184392347 0.9999999385130949 -0.0000013998037874
0.9999955233783691 1.0000003095648251 0.0000012324110291
0.9999979828565454 1.0000023057906950 -0.0000008607518426
1.0000007180306645 0.9999894534204667 -0.0000069994353240
0.9999973115010361 0.9999998007920919 -0.0000016832081996
0.9999994253035716 0.9999997161527355 0.0000001838917347
0.9999995339302266 0.9999981216190943 0.0000058831842280
1.0000045854424460 0.9999994783441627 -0.0000008423158225
0.9999972817133865 0.9999983246774837 -0.0000012104434529
0.9999960318636532 1.0000052125766234 -0.0000054836147994
0.9999908065358365 0.9999881026825130 -0.0000049418511664
0.9999979937128886 0.9999954045882166 0.0000032692962456
0.9999999306126897 0.9999991881182377 -0.0000001514196901
1.0000001296733587 1.0000004208858249 0.0000005280786990
0.9999997694198249 0.9999975430398234 0.0000003339865780
1.0000001180523275 1.0000001283521109 -0.0000009687696115
0.9999996513538000 1.0000088143004129 -0.0000006067813885
0.9999976466873788 0.9999995262296418 -0.0000020823657558
1.0000004877611854 1.0000019775937112 -0.0000006307400886
1.0000022698105202 0.9999999500735446 0.0000005672565938
0.9999957762413754 1.0000064846868728 -0.0000046605152536
0.9999944532356642 1.0000028026112047 0.0000087241158492
1.0000000979115833 1.0000018021128891 -0.0000006323613053
0.9999953040458154 0.9999975860381545 0.0000032079970923
0.9999989772858208 0.9999995822448229 -0.0000017979795969
1.0000004253002903 0.9999960172761736 -0.0000007347207518
1.0000008410489647 0.9999994726976114 -0.0000003854331778
1.0000023997067187 1.0000008778189926 -0.0000020872810376
1.0000043204328093 1.0000012680113255 0.0000075001552759
1.0000057123826369 1.0000063639527317 0.0000100872595403
0.9999998509923146 1.0000039668821110 -0.0000043630432504
1.0000052174613254 0.9999984984179912 0.0000088192621947
0.9999955953076239 0.9999837794491963 0.0000051464447655
1.0000043292558556 1.0000003563362205 0.0000011104023613
1.0000033270421462 0.9999962582953595 0.0000029442679229
1.0000017005662809 1.0000021736975329 -0.0000019144790353
1.0000000308034065 0.9999998316082158 0.0000005332369149
0.9999993733242657 1.0000000268918132 -0.0000003772082159
0.9999974449554140 0.9999999294543175 -0.0000017056007900
1.0000038957021917 1.0000019406227647 -0.0000011558806690
0.9999997442082027 0.9999982296495156 -0.0000001449277507
0.9999954872876664 0.9999994623730344 -0.0000024675660810
1.0000033003531204 0.9999989444214857 0.0000007997927724
0.9999995605530956 0.9999992649596117 -0.0000000482675443
1.0000006793780085 1.0000015072947293 -0.0000016652752017
0.9999998405310135 0.9999975450132754 0.0000011860518456
1.0000018959890460 1.0000002825856709 -0.0000001201152307
1.0000004342942321 0.9999992351351682 0.0000001500130047
0.9815278288909508 1.0009411291916808 -0.0303150723745470
0.9999999620888560 1.0000000433299356 -0.0000000347761974
0.9999974488471793 1.0000001807110963 0.0000005124505772
1.0000000512183456 1.0000026512874507 0.0000010032722593
1.0000018100930483 1.0000004762539254 0.0000006732114498
1.0000025839268514 1.0000047850906910 -0.0000008984572947
0.9999999141313894 0.9999982710238180 -0.0000025340181628
0.9999973861320491 1.0000033548605824 -0.0000012208524153
0.9999991254878955 1.0000005681057862 -0.0000020901695685
0.9999972092124919 0.9999992602115437 -0.0000012980799125
0.9999953279809520 1.0000000334124541 -0.0000019730015748
0.9999962410094506 1.0000010287872971 0.0000010626725581
0.9999997278596673 1.0000000406190999 -0.0000001154525203
0.9999960015158166 0.9999967242761473 -0.0000056142092460
0.9999993929676018 1.0000009399108571 0.0000010401568949
0.9999991374218139 1.0000000603110888 -0.0000002124488845
1.0000011560394515 1.0000025201371727 0.0000049089020586
0.9999968918011375 0.9999999330909586 0.0000012106172190
1.0000207604265801 0.9999960609151675 -0.0000043878176086
1.0000011599912462 1.0000000527191648 0.0000017898956678
0.9999956917334492 0.9999991492211735 0.0000012660713037
0.9999999525823310 1.0000012056374594 -0.0000004970481053
0.9999993003293143 0.9999975457486151 -0.0000009676891329
0.9999982602576688 0.9999827946155128 0.0000064790644139
0.9999986882524202 0.9999995857127424 -0.0000002818983198
1.0000000818234887 0.9999955743243398 -0.0000003023969880
0.9999990819595619 1.0000020519916775 0.0000011696777155
0.9999989693823955 1.0000019048297313 -0.0000013445807575
1.0000025343417935 1.0000003958544206 0.0000000735219031
0.9999948387940690 0.9999932130289466 0.0000074754062602
1.0000000898563168 1.0000135742601732 -0.0000117670835932
1.0000002193257620 1.0000012011295640 0.0000022089767334
1.0000019094195898 1.0000000726821356 -0.0000003178061095
1.0000006074781103 1.0000000326172498 0.0000004198636451
0.9999966184563900 1.0000007094295131 0.0000020759569120
0.9999990663595371 1.0000062490095565 0.0000030651025928
0.9999984334842109 1.0000000641772786 0.0000003243498490
1.0000003970921201 1.0000055334258309 0.0000018134099639
0.9999993849277108 1.0000070577436622 0.0000036075190343
0.9999982444196107 1.0000247974697094 0.0000162863658636
0.9999838142737970 1.0000005003800574 -0.0000092904740452
0.9999881330352527 1.0000012736944512 0.0000000415437324
0.9999881330552923 0.9999997928246842 -0.0000045085881475
1.0000247974714431 0.9999982444227939 -0.0000162863684713
0.9999982444233340 1.0000247974731200 0.0000162863690753
0.9999982444227655 1.0000247974714715 0.0000162863684606
0.9999959889058465 0.9999986331332903 0.0000052656573107
0.9999838142745928 1.0000005003839441 -0.0000092904710468
1.0000113440293625 0.9999984274010576 0.0000043059492480
0.9999894462082769 1.0000042273235232 -0.0000040333920115
1.0000091065528971 0.9999965375158582 0.0000046721865768
1.0000042273113834 1.0000060572523120 0.0000020849064097
1.0000247974731484 0.9999982444232487 -0.0000162863688266
1.0000215041376439 0.9999892746833325 0.0000074362448017
0.9999998371804776 1.0000071468206870 -0.0000006126935576
0.9999989415265358 1.0000090802033961 -0.0000028514552387
1.0000071468211418 0.9999998371806836 0.0000006126935185
1.0000007979428225 0.9999999324266824 0.0000018192576955
0.9999975603816486 1.0000056550522911 -0.0000040387808498
0.9999892746487540 0.9999965375156259 -0.0000045400581267
0.9999978654415453 0.9999987305632018 0.0000006307909985
0.9999989415194562 0.9999983484358292 0.0000008046141488
0.9999959888818241 0.9999991360867987 -0.0000015702684858
0.9999994340689757 0.9999959650508171 0.0000053722136968
0.9999958503270923 1.0000177640639560 -0.0000143597975654
0.9999978654413890 0.9999987305637738 0.0000006307911078
0.9999989415264932 1.0000090802039929 -0.0000028514549723
0.9999950634890328 0.9999933682833984 -0.0000046370322434
0.9999892746479012 0.9999965375190374 -0.0000045400576240
1.0000019044585482 1.0000042273127117 -0.0000025720349382
0.9999870615601709 0.9999986331894046 0.0000091378373531
0.9999804625431155 0.9999989415653229 -0.0000068978871327
1.0000004270401488 1.0000010295702062 -0.0000004569550652
1.0000008184263995 0.9999993086100465 -0.0000018151118936
0.9999977962595447 0.9999981287015173 -0.0000016184970150
1.0000005400665650 1.0000003439205669 0.0000004283949190
1.0000000664824522 0.9999970001017300 0.0000009766758656
0.9999987003231288 1.0000001904803359 -0.0000016774525726
1.0000003754332953 1.0000003033259302 0.0000000767327907
0.9999946427866678 0.9999991384616441 -0.0000030433090532
0.9999995742817052 1.0000000631821375 0.0000007182065556
1.0000010688396521 0.9999824298153003 -0.0000041942396293
0.9999935686814436 1.0000021888845214 0.0000125315761237
0.9999926156276925 0.9999976973891571 0.0000124605147510
0.9999994964120090 1.0000004062748453 0.0000016235951838
0.9999918487775278 0.9999828090255793 -0.0000091908770515
0.9999918445960383 1.0000064213191753 0.0000116948738102
0.9999992308176950 1.0000029806130604 0.0000089006932920
0.9999930009158657 1.0000031781921948 0.0000152199741250
1.0000006831585726 0.9999939429994354 0.0000018018492387
1.0000035281840070 0.9999994969755907 -0.0000012984786323
1.0000020133494338 0.9999993586886681 -0.0000017069701099
0.9999980563700462 1.0000067328981785 -0.0000099040650026
1.0000050251010719 1.0000005833267114 -0.0000029165174700
1.0000030990160729 0.9999879297358265 0.0000022585389112
0.9999992625246282 0.9999990705564888 0.0000022640002629
1.0000009596937607 0.9999918882556202 -0.0000023441625563
1.0000058399478911 0.9999987900263017 0.0000080482992333
1.0000039971427646 0.9999873585840687 0.0000031305342852
0.9999940198286732 0.9999955298672207 0.0000099264382929
1.0000002657460469 0.9999999995634411 -0.0000012754887501
0.9999999039382956 0.9999902673586626 0.0000034076832569
0.9999995925533780 1.0000003891802887 0.0000001565235966
0.9999863007119304 0.9999918136366369 -0.0000135094188815
1.0000037071800720 0.9999980449569693 -0.0000022961423130
1.0000037071783952 0.9999980449568272 -0.0000022961414835
1.0000007724931101 1.0000005396926472 -0.0000013147942494
1.0000011298556100 1.0000071568679474 0.0000000289657452
0.9999994227833425 1.0000005694991210 0.0000013796236657
1.0000006630228615 1.0000013367238849 0.0000016864251453
0.9999984102013775 0.9999992719745382 0.0000006488766074
1.0000005242963033 0.9999993551613542 -0.0000064103318858
0.9999964532997201 0.9999979675244011 0.0000000853480508
1.0000825011776802 0.9372015279143069 -0.0093575009050370
0.9999886188241808 0.9999916107064174 -0.0000092475431754
0.9999993110112316 1.0000017591323627 -0.0000171854257980
1.0000059569409672 0.9999986875066190 0.0000091623502640
0.9999992501893945 1.0000114983334398 0.0000094560926465
0.9999986874533922 1.0000004989696423 -0.0000055082910404
1.0000054171145452 0.9999960529364958 0.0000078171421509
1.0000004535939595 0.9999997816012007 0.0000020833019160
1.0000139980778437 1.0000043603502917 -0.0000138107336724
0.9999987786786724 0.9999988025845679 0.0000074773404329
1.0000021166113662 1.0000005175935645 0.0000005492245372
0.9999829833976785 0.9999898184749060 -0.0000101051351024
1.0000090719411503 0.9999979197704127 -0.0000008229868264
1.0000041037525025 0.9999987508301438 -0.0000015799950813
1.0000014075972725 1.0000010857353954 0.0000005765463152
0.9999927969812066 1.0000118500032944 0.0000013178230391
0.9999927667790783 1.0000036165322652 -0.0000014647087399
0.9999992832635625 0.9999999743400345 0.0000003254000873
1.0000033747799677 0.9999874003694825 0.0000018046023216
1.0000019093044021 0.9999977519554177 -0.0000051494389263
1.0000024507765202 1.0000015655011409 -0.0000022257011164
0.9999956592723773 0.9999977519942723 0.0000080192660956
0.9999960601787328 0.9999954048809178 0.0000029306227536
0.9999889269169434 1.0000007582130153 0.0000107292688045
1.0000014718858135 1.0000060946999882 -0.0000042866990263
1.0000002048497001 0.9999998682337140 -0.0000001512196730
0.9999980380472713 1.0000015981705332 0.0000032138877683
0.9999997771326803 0.9999997048341835 -0.0000003307581122
0.9999895766684166 0.9999986290809821 0.0000023673404069
1.0000053862233764 0.9999979846020989 0.0000002229652433
1.0000142928242186 0.9999942197871803 -0.0000038585674968
1.0000020496952815 1.0000004535032512 0.0000032319953561
0.9999968637804427 1.0000032529514418 -0.0000081758946333
0.9999991882525593 0.9999979177413613 0.0000012030998699
1.0000001891077506 0.9999987783136445 -0.0000031690735392
1.0000012782267216 0.9999974065938142 -0.0000004483220013
1.0000000356942749 1.0000013423574292 -0.0000013315166549
1.0000082857017476 1.0000001928720947 0.0000013413349974
0.9999988616628868 0.9999997966837089 0.0000012261612527
1.0000010925718077 1.0000003352914910 -0.0000007681834131
1.0000017210482262 1.0000037553156502 -0.0000060879297098
0.9999994039410574 1.0000004960031805 -0.0000008590726569
0.9999991874172957 1.0000006965116255 -0.0000010048653433
1.0000002336929841 0.9999997553266095 0.0000001401420889
1.0000002622997448 0.9999954522070028 -0.0000005694738371
1.0000038100046140 0.9999998247371088 0.0000020267591872
1.0000002798133316 0.9999996839734903 -0.0000004340832163
1.0000005758467865 0.9999987947595239 -0.0000003133774925
0.9999994703989250 0.9999999273455864 0.0000007498481851
1.0000005890763402 0.9999998024306126 -0.0000017182631663
1.0000017662475014 0.9999993449280805 -0.0000004788192569
0.9999998436962940 0.9999992707812424 -0.0000000034966208
0.9999962964853144 1.0000001589960426 -0.0000022411141013
0.9999983334985810 1.0000007252321081 0.0000018507753188
1.0000054468834085 1.0000007598554492 0.0000013003423453
0.9999988713408410 1.0000017989010763 -0.0000016964331071
1.0000001864620796 0.9999994865864207 -0.0000019673905117
0.9999997146712081 0.9999992778228792 -0.0000004193786559
1.0000008733057302 0.9999967883349439 0.0000011852115137
0.9999993555378200 1.0000006761626672 -0.0000010387027323
0.9999991832439076 0.9999999522165594 0.0000007479503121
0.9999995564887592 0.9999979821609306 -0.0000039130218723
0.9999976488213941 0.9999988929266054 -0.0000027346343464
0.9999992536504192 1.0000024440814079 -0.0000011356319551
0.9999980570574619 0.9999987689943743 -0.0000004892106150
0.9999996696358532 1.0000010773764749 -0.0000007099484103
1.0000005975844140 1.0000023562716700 0.0000014445448240
1.0000004254864865 0.9999991784843038 -0.0000013954531689
1.0000000949692476 1.0000005754455923 0.0000001658022902
1.0000058559110447 0.9999982145289626 0.0000001454054556
1.0000016565043848 0.9999834980857109 -0.0000001973005067
1.0000004252754282 0.9999975667305158 0.0000008512223704
1.0000023149910149 0.9999959251180772 -0.0000048997172571
1.0000010494086990 0.9999988383878526 0.0000047808981535
0.9999965299259065 1.0000009757275095 0.0000065258994993
1.0000009516419910 0.9999991991993674 -0.0000002209356186
0.9933676199895569 1.0011317679190079 0.0336256471986016
0.9999973772859740 1.0000000107089493 0.0000004092783551
1.0000011037760814 1.0000007163799005 -0.0000006389894381
1.0000001713460136 0.9999967858774750 -0.0000005960551189
1.0000022122686130 1.0000022419775474 -0.0000000358857017
1.0000007495614645 1.0000027752394116 -0.0000017523438688
0.9999983284303513 0.9999997644635967 0.0000005794166666
1.0000005838245158 0.9999999393212246 0.0000003951299943
0.9810491354257137 1.0009850250503556 -0.0310974324374971
1.0000050035592825 1.0000024495925754 0.0000058241348520
0.9999989594018687 1.0000002506389836 0.0000000626444511
0.9999958481017381 1.0000081297419363 -0.0000002936278403
0.9429804705646549 1.0002393498003579 -0.0150147682792823
0.9999993784882637 1.0000176798774474 0.0000026453817302
1.0000044606079130 1.0000049834266771 0.0000157942641858
0.9999973897376715 1.0000021514346091 -0.0000013632621012
0.9999990513496503 0.9999998203185999 0.0000024150173297
1.0000011299950022 0.9999978931843145 0.0000005969169934
1.0000049776936666 1.0000002506380490 -0.0000040741970048
0.9999991646107941 0.9999994031959910 -0.0000024647852787
1.0000017565582382 1.0000003232146806 -0.0000034471439256
1.0000008646978600 1.0000127394348810 -0.0000045758893955
0.9999949060124550 1.0000008392501076 -0.0000055093800737
1.0000000204785691 1.0000022752985629 -0.0000004547794872
1.0000008171989860 1.0000259954491897 0.0000037086897024
0.9999984144176634 1.0000047635429850 0.0000005220153932
0.9999993328024963 0.9999988366484355 0.0000015042370231
0.9999987034465089 1.0000030154637942 0.0000013773339953
1.0000108678666586 0.9999996164026621 -0.0000026426523137
1.0000089666638547 0.9999995626121975 -0.0000008571471318
0.9999998093476302 0.9999955948122762 0.0000102986129898
1.0000088314615780 1.0000080947623231 0.0000007821885439
0.9999977392942059 0.9999945323010624 -0.0000096669574314
1.0000003512593252 1.0000017114751512 -0.0000010704678344
1.0000027272637724 1.0000015393995858 -0.0000007430593064
1.0000001222878072 0.9999976780084472 0.0000016262031812
1.0000030387147907 1.0000002356974016 0.0000008572681330
0.9999992064764671 0.9999978597586796 0.0000020188059288
1.0000060750583835 1.0000009893297701 0.0000009020152582
0.9999985840308333 1.0000026127613182 -0.0000000970805883
1.0000025056762050 0.9999978943883999 -0.0000017189742569
0.9999927038809560 1.0000001249858879 0.0000004950698474
0.9999913083244507 1.0000019531036615 -0.0000016374557226
0.9999999747540088 1.0000064328965055 0.0000001001941149
1.0000037498890009 1.0000042422668536 -0.0000007770921889
1.0000010128536683 0.9999998008205933 -0.0000022807722397
1.0000133154272213 1.0000033798120647 -0.0000005047337666
0.9999994823365057 1.0000012360531301 -0.0000017833907551
0.9999952061502555 1.0000002823254339 -0.0000001749223269
1.0000001881566236 0.9999967037654321 0.0000032767740228
0.9999942786335351 1.0000011182080244 -0.0000007015720067
0.9999940421064325 0.9999995353452678 0.0000015343044100
1.0000009322798500 0.9999998584082497 0.0000001154030858
1.0000003177088703 1.0000004412811470 -0.0000006849031885
1.0000020039484279 1.0000000805910410 -0.0000010087669334
0.9999972524818597 0.9999999038110833 0.0000021443940490
1.0000001727936796 1.0000000494310317 -0.0000018239227368
1.0000022171073069 0.9999985422227294 0.0000017736578038
1.0000024014721101 0.9999956729276257 -0.0000017572527866
1.0000019906139508 1.0000058749854372 0.0000008461622163
1.0000010908378785 0.9999995794548128 -0.0000007159854921
1.0000005052635370 1.0000000206649218 -0.0000003072283021
1.0000015895888568 1.0000004251707719 0.0000000834939256
1.0000003890539753 1.0000011584411901 0.0000020204365949
1.0000004932792714 0.9999968366074936 0.0000012301177614
1.0000015966661102 0.9999998134497701 -0.0000015845903309
0.9999975564211045 0.9999994875383136 -0.0000013415707526
0.9999988736008915 0.9999984255442089 -0.0000010377984971
0.9999975719971581 1.0000008428428155 0.0000000882146386
0.9999976447028190 0.9999956805981514 0.0000022357675810
1.0000016785402590 0.9999883475175368 -0.0000039462714307
1.0000087468078795 1.0000084193828160 0.0000024915947113
1.0000086637089778 0.9999949659509195 0.0000004249171903
1.0000004575498413 0.9999992725017978 -0.0000021566325946
0.9999984132364629 1.0000093878364573 0.0000011832656633
0.9999988096567409 1.0000044735998568 0.0000008060915636
1.0000006528260856 0.9999995464631044 -0.0000003694805535
0.9999997427073032 1.0000035669706140 0.0000000580537743
0.9999999857492117 0.9999995737619286 0.0000003003462025
0.9999994013616891 1.0000006570307300 -0.0000001637190646
1.0000009879297571 0.9999998055543696 -0.0000004407231659
1.0000056038380154 0.9999974273499277 -0.0000008269759452
1.0000012534450222 1.0000012852587354 0.0000006147987711
1.0000028584714391 0.9999992305884460 -0.0000014321870295
0.9999959998667860 1.0000021055521455 -0.0000036627606933
1.0000032436004413 0.9999988322926181 0.0000007664732412
0.9999992280313963 0.9999957796918527 -0.0000011471140101
0.9999947819213059 1.0000012094369135 0.0000015452776901
0.9999991382608597 0.9999992812458678 -0.0000029245655688
1.0000002106605763 1.0000099488219816 -0.0000015263806683
0.9999939808501405 1.0000012105186085 0.0000016015525423
0.9999995767738190 0.9999981409281155 0.0000016243514259
1.0000221172960482 1.0000035148548867 0.0000027823347885
0.9999963597990690 0.9999909839102439 -0.0000226907636841
1.0007420820490620 0.9691755644103409 0.0269825954535973
1.0000008438404919 0.9999946384063596 -0.0000051589359228
0.9999991550253332 1.0000005974442279 -0.0000017118778343
0.9999987579912958 1.0000002157840953 -0.0000008831860708
1.0000000794761961 1.0000009372547873 0.0000001901252031
0.9999963880403430 0.9999997842650510 0.0000017432571879
0.9999962538842517 1.0000022186020592 0.0000015653090386
1.0000010073652490 0.9999995726806694 -0.0000029393114540
1.0000024393419831 1.0000000051761786 0.0000010613703033
0.9999995188522899 1.0000023240997749 0.0000006898961144
0.9999993846884403 0.9999982058892589 -0.0000017521114591
0.9999896250615404 1.0000027487681253 0.0000050888946123
0.9999996237000917 1.0000001049982585 0.0000004865452921
0.9999912015518855 0.9999940430327426 0.0000056222428345
0.9999917947352094 0.9999988606136473 -0.0000022932597195
1.0004457321657216 1.0641762891739028 0.0215868630643738
1.0009022514441632 0.9512353284546197 -0.0293143830235665
0.9999997606102966 1.0000027690217090 -0.0000003767901929
1.0000126883547598 0.9999987890251907 0.0000041815922531
1.0000027480918721 0.9999997223363187 0.0000012351630307
1.0000019365918296 1.0000002226628868 -0.0000003167204059
1.0000006598797371 1.0000000493543988 0.0000001169958665
0.9999943199974680 1.0000048171321030 -0.0000000082800987
1.0000001271641479 1.0000033420514285 -0.0000000795957254
1.0000017471597882 1.0000000287781927 0.0000001604852884
0.9999986065269374 0.9999965209631487 0.0000001808195604
1.0000024237891716 1.0000003075504127 -0.0000004026502884
0.9999989126468897 0.9999994523599660 -0.0000014491257122
1.0000077593792689 1.0000071423010393 -0.0000035850113708
1.0000009095139681 1.0000009733770401 -0.0000008216207467
1.0000016331754644 0.9999745229319957 -0.0000079138620727
0.9999995747347489 0.9999999602032134 -0.0000000451160330
1.0000000669382754 1.0000004208787718 0.0000016619769855
1.0000008404613459 1.0000015502115507 0.0000020149446373
1.0000041458545874 1.0000079729248297 -0.0000080860830703
0.9999949792874654 0.9999967988157392 0.0000014966542019
0.9999999306528612 0.9999976206816968 -0.0000021100335042
1.0000001566573526 0.9999996552986780 -0.0000002685267408
1.0000001632734528 1.0000008908095310 -0.0000001765556415
1.0000003875833356 1.0000008569211769 0.0000062234166952
1.0000003450966088 1.0000005885083210 -0.0000007400407633
0.9999993557780725 1.0000030032268630 0.0000014168748700
1.0000016478542539 1.0000000613224371 0.0000001699542249
0.9999981772209571 1.0000001799030760 -0.0000008556260194
0.9999995974697830 1.0000135688021055 0.0000022229430279
1.0000005906143528 0.9999992628800618 0.0000002023405895
1.0000014104183987 1.0000030765712598 -0.0000009386722793
1.0000135160478776 1.0000013928349631 0.0000054997205141
0.9999912445288810 1.0000004781705116 0.0000062481810196
1.0000010570099085 1.0000015056444980 0.0000034851654131
0.9999997981270792 1.0000001239544072 0.0000007404150995
1.0000012686187623 1.0000001648514878 0.0000004724363555
1.0000003022997659 1.0000005240192333 0.0000000117972445
0.9999964431804962 1.0000003528424088 -0.0000016899883459
0.9999958378772028 1.0000005448690301 0.0000016874856857
1.0000034512947837 0.9999956122818918 -0.0000014343419981
0.9999981585453409 0.9999957984410280 -0.0000016428757906
0.9999991754458741 1.0000007572265428 -0.0000001373885680
0.9999981585424794 0.9999985289566889 -0.0000004574452036
1.0000029423147836 1.0000027939174632 -0.0000007404903228
0.9999948996265333 0.9999956122790082 -0.0000005586417183
0.9999918223690633 1.0000118736352133 -0.0000070400350865
0.9999992087257038 0.9999985532450112 0.0000035252631919
0.9999866253584241 1.0000044213364794 0.0000094750006315
0.9999866254244705 1.0000076521874330 0.0000127103490809
1.0000002100012253 1.0000016708311419 -0.0000012559349036
0.9999996064591683 0.9999989146994824 0.0000000866001843
1.0000011620604470 0.9999986262688946 0.0000001205745408
1.0000017766370133 0.9999956616830641 0.0000035373575080
1.0000035881492397 0.9999924316421940 0.0000045322861173
0.9999985030980103 1.0000151179117580 0.0000211756709865
1.0000006678838966 0.9999926769988371 -0.0000008116678115
1.0000017274647461 0.9999994552693187 0.0000076241751439
1.0000090127607455 1.0000020381650314 -0.0000020160194506
1.0000024746923770 1.0000002037649867 0.0000014751857539
0.9999991845988848 1.0000041265391444 0.0000024188121698
1.0000024746915102 1.0000002037640701 0.0000014751851233
1.0000094333878176 0.9999885190050529 -0.0000046759485275
0.9999998628707419 0.9999947715165924 0.0000026920084710
1.0000024327510968 0.9999996611986243 0.0000036364020555
0.9999994706693780 1.0000003248309390 -0.0000024298674650
0.9999995778435314 1.0000000038038990 -0.0000001831678680
0.9999997077637837 0.9999975102250799 0.0000016350656438
1.0000033771251862 1.0000007735003107 0.0000069976493732
0.9999994770180363 0.9999999875449820 -0.0000001681409745
1.0000083631380661 0.9263722502212687 -0.0035510650268367
1.0000000842801218 1.0000012793983577 0.0000014053560161
1.0001328712901176 0.9279273593705741 0.0107231455467047
1.0000005351753152 0.9999996053875443 -0.0000012340257554
0.9999991650436049 1.0000082420638368 0.0000144881352609
0.9999983643630564 0.9999951454524477 0.0000048719538952
1.0000087986426980 1.0000038649056486 0.0000093697696805
0.9693212209495463 1.0008397997456420 -0.0284734620979434
1.0000012088019772 1.0000052407971756 -0.0000053317780073
1.0008790581875109 0.9515597631736313 0.0291262363398984
0.9999991236956310 0.9999964858171740 0.0000038767268007
1.0000034442364236 0.9441439791703945 0.0027007718962587
0.9499559249291444 1.0004396802467506 -0.0202916619077226
0.9999964858180551 0.9999991236925047 -0.0000038767260191
1.0000104512878389 1.0000047740559668 -0.0000051538004024
0.9434752304414076 1.0002363767332723 -0.0148786247505477
1.0000069620470231 1.0000067720978922 0.0000015975887658
0.9999964858170604 0.9999991236954605 -0.0000038767266302
1.0000003467959930 1.0000054597109700 0.0000015689444691
0.9434752304417389 1.0002363767342928 -0.0148786247494870
0.9999852772828015 1.0000021105047485 0.0000016217657391
1.0653817656955165 1.0002265578930716 -0.0154629279833952
0.9398478337887074 1.0000921501827267 0.0089822411165375
1.0001997220531182 0.9469764988740700 0.0139771678091605
1.0000016748802385 1.0000047741259344 -0.0000098441161685
1.0000413585467256 1.0697029919082310 -0.0067307605043179
1.0000277590913151 0.9999898407112802 -0.0000000507850910
1.0000206194052614 0.9999725827384377 -0.0000114823455779
0.9999906447875995 0.9999707600232355 -0.0000113207367882
0.9467929739739326 1.0004827483628749 0.0215632672965544
1.0006122036981859 0.9740355888569997 -0.0241315134312460
0.9748113672724289 1.0005688520300984 0.0234173994582184
1.0006226966600424 1.0633711973656017 0.0256504412135008
1.0679301577786346 1.0000050927438850 -0.0022713647959365
0.9479045230868050 1.0004843037986462 0.0211257338388270
1.0716749842095110 1.0002672697591142 0.0167533125213076
1.0005099751358211 1.0638510879253655 0.0232197392123572
0.9434753078954459 1.0002335937837858 -0.0148812072855702
1.0003247103230763 0.9568924728451681 -0.0175154538251558
0.9999975244733331 0.9999983255797910 -0.0000090168909310
1.0000102631461285 1.0000099856279940 -0.0000054803391228
1.0633554815043580 1.0006193521379934 -0.0257303903818312
1.0000075095284784 0.9999980755698317 -0.0000014652303698
1.0000005123436473 1.0000067575876086 0.0000005954207995
1.0000161374861360 1.0000064772637105 0.0000025032953497
1.0002154871112894 0.9464763951812563 -0.0140960778901019
0.9434753700321474 1.0002451553074827 -0.0148833814014404
0.9293298409954286 1.0000963619519512 -0.0105285679635944
0.9999937574561150 0.9999976803053412 0.0000063531526972
0.9999683359751190 0.9999989571895452 0.0000072511290937
1.0000202050071090 1.0673330531516587 0.0053020064824921
1.0005605081659952 0.9748293840652743 -0.0233955746741187
1.0005755887679348 0.9747664385206404 -0.0234576275300566
0.9747664385205702 1.0005755887679668 0.0234576275301010
0.9999868354997138 0.9999980756553578 -0.0000092854798675
0.9435465592101797 1.0000817368221260 -0.0084384053493096
1.0633554815041821 1.0006193521369928 -0.0257303903827945
1.0000011172477834 1.0000007102081914 -0.0000072684614258
1.0710254626060109 1.0001669121798076 0.0134614269317249
1.0009286257941381 0.9677065198701815 -0.0299601710674646
1.0000017838926150 1.0000209486381697 0.0000058572224128
1.0000017838587552 0.9999952379395013 -0.0000005826358139
0.9472409860968952 1.0000019266297024 -0.0025648674562796
1.0000292514826183 0.9410068324925887 0.0028572742606431
0.9999940881377480 1.0000100947798574 -0.0000169365090148
1.0010070561250846 0.9810534141032579 -0.0310766638868321
0.9588617630574591 1.0006448424207472 0.0247816671899790
1.0000148928715913 1.0000061756488472 0.0000090532500126
1.0000201882273281 1.0000094905149908 -0.0000115417289649
0.9363574057432130 1.0000053288340172 -0.0030746961275572
0.9999941284840946 1.0000224308037344 -0.0000040521247174
1.0002574211214057 0.9412953541989851 0.0154415303131479
1.0000025317574179 0.9999985926562092 -0.0000020820460910
0.9999978114816912 0.9999986803740875 -0.0000026534025845
0.9999986619229028 0.9999893875058781 0.0000039615078613
1.0004331304040355 0.9500009613582868 0.0202522530452053
1.0000031690069791 0.9448988501575744 0.0026649914102169
1.0000000205740032 0.9999958534088356 -0.0000024550152073
1.0004277507546560 0.9503961150780631 -0.0200933831449330
0.9503961150778623 1.0004277507546311 0.0200933831450140
0.9592002622036913 1.0006125807710893 -0.0245993393555329
1.0000060257668979 1.0000024579550248 0.0000031904377523
0.9732605247970944 1.0006203295303755 0.0248399332771202
1.0000004555958515 0.9999985024982254 0.0000025455500005
1.0000044875556522 1.0000049900494863 -0.0000033922495389
1.0004277507549382 0.9503961150781878 -0.0200933831446869
1.0000060257665568 1.0000024579550604 0.0000031904375817
1.0002881989140018 0.9587902467919287 -0.0167339555336534
1.0000010544037965 1.0000061072879110 0.0000026641725236
1.0000020581437372 1.0000041603240799 0.0000014717040504
0.9591769980073048 1.0002908795058008 0.0165736228121050
1.0002949484479842 0.9588121903705076 -0.0167458741049552
0.9999985926561239 1.0000025317579011 0.0000020820461691
1.0000010544021765 1.0000061072893036 0.0000026641727084
0.9503961150785827 1.0004277507540216 0.0200933831450861
1.0006667566897034 0.9844601573287779 0.0255234072489838
1.0009594055840392 0.9812322683342445 0.0307994650577266
1.0000016568898609 0.9999918988257819 0.0000057451382872
0.9999988924911812 0.9999943634079481 -0.0000044590498476
0.9999978711269644 0.9999980427676971 0.0000090698947016
0.9999898407301646 0.9999961844317182 -0.0000046766413057
1.0000028183912439 0.9999822250895628 -0.0000024055045711
0.9999959371004526 1.0000031852641706 0.0000030357306985
1.0000043140773867 1.0000145521465975 -0.0000100247219114
1.0000817368219246 0.9435465592110529 0.0084384053495092
0.9999898407295251 0.9999961844315051 -0.0000046766409256
1.0000928630850991 0.9387818523560116 -0.0091427475408462
1.0000845151555073 0.9342233913304738 0.0098058809059761
0.9588619501541251 1.0006356376892378 0.0247853302020367
0.9530546858628355 1.0001539124208370 -0.0124023020929521
1.0000062664410774 0.9357986345395767 -0.0031063222254596
1.0000085320993262 1.0000154948503071 -0.0000057927561388
1.0000028539853201 1.0000022130601109 -0.0000055808305155
1.0008218163572220 0.9695071369829339 0.0282970898892514
0.9999983726624235 1.0000073304248911 -0.0000012150798424
0.9999952422508618 0.9999985521902487 -0.0000043756029401
1.0006607133600003 0.9845942163261989 -0.0253033579256969
1.0000033732214328 0.9999975069968666 0.0000013242382803
0.9999988594270155 0.9999871704078264 -0.0000039722406737
0.9810395447754069 1.0009933801031095 0.0311015986977301
1.0000089471371647 0.9999999927097302 -0.0000044263529031
0.9999971793824199 0.9999990233715454 0.0000021839196720
1.0000055825673906 1.0000089527440568 0.0000000611464927
0.9693580599825117 1.0008371072196776 -0.0284397211622635
0.9460966664865833 1.0000498142132319 0.0080622361024675
0.9843470604320314 1.0006795757414892 0.0257078775906382
0.9999967517084219 1.0000087987612780 -0.0000143638980456
0.9999893874900289 1.0000067575892246 -0.0000010919256000
1.0000028533059471 0.9437243920383239 0.0027333401138705
1.0003049094191325 0.9578075060481457 0.0171270326779276
0.9578075060482013 1.0003049094191883 -0.0171270326778594
0.9357986345392124 1.0000062664409071 0.0031063222259770
0.9357986680595352 1.0000296469276240 0.0031117494268583
1.0000175359394414 1.0000007703841525 0.0000013818041607
1.0000076271197873 1.0000031852551252 0.0000003403598114
1.0004339245082017 0.9499103782147591 0.0202889391415940
0.9999975070025903 0.9999981199821796 -0.0000027281889444
1.0000057470854351 0.9999989262488262 -0.0000006378076310
0.9618758245405744 1.0005449525647165 -0.0230051054261913
0.9999943166708090 1.0000027554844022 -0.0000013780979345
1.0000040747386434 0.9999990423598601 0.0000002994784043
0.9999959805047417 1.0000012988653526 0.0000034052786159
1.0008313230187267 0.9695073835605086 0.0283015844920106
1.0008256552897621 0.9695155781114196 0.0282954337513022
0.9653128228794712 1.0010711373649885 0.0321612324806038
1.0000049826785451 0.9999952167334779 0.0000103840105671
0.9999962412535724 0.9999801340015469 -0.0000040645635005
0.9701870683641710 1.0007864154524464 -0.0276850429343436
1.0000056589302779 0.9999962895064715 0.0000033648723415
0.9590835389895157 1.0006358076644544 0.0246690296690934
1.0006848957330048 0.9841742373854832 0.0259919303935674
1.0000075244911013 1.0000075622365381 0.0000029287719416
1.0000007703843230 1.0000175359397416 -0.0000013818038765
0.9404664714845610 1.0006179449509400 0.0240520391172014
1.0003422341873089 0.9320135295757589 0.0178494995833893
1.0005741350990307 0.9609985568408974 -0.0235169107631975
1.0000020581446893 1.0000041603248047 0.0000014717049350
1.0006398849439688 0.9592004854131515 0.0246042143039895
0.9999951158415684 0.9999994897366030 -0.0000013154521575
0.9999957098856376 0.9999722380532222 0.0000033805136490
0.9999699015586468 0.9999857208035272 0.0000089733194123
0.9999702326924711 0.9999941601709303 0.0000046026288840
1.0002363793055089 0.9449182534942252 -0.0144996642484889
0.9999949288707326 1.0000030306283423 -0.0000014574079008
0.9999991391002956 0.9999820283933019 0.0000013930932830
0.9562118655431476 1.0006973182438419 -0.0263852372075873
1.0006453950661593 0.9588743905911814 -0.0247925196694641
0.9387817530131337 1.0000834499925373 0.0091372695331097
1.0000010872832650 1.0000033061534956 0.0000171109007593
1.0000009428559500 0.9999999225463568 -0.0000001310100158
1.0002366126576614 0.9445069816834691 0.0146223644247206
1.0718935974716985 1.0002872453876903 0.0176981682658453
1.0012038677632396 0.9791260681711331 0.0342236167807334
1.0653906339936161 1.0002211552210571 -0.0153047589816000
1.0000026564318365 1.0000012428338794 -0.0000006390516080
0.9999985176496554 0.9999980941465494 0.0000051054868893
1.0000013475076244 1.0000051226271840 0.0000034780129206
1.0000010579956213 0.9999984498915585 0.0000052763816148
1.0000033365729619 0.9999956304531192 0.0000036317200809
1.0000847360092771 0.9382259630457175 0.0092194480671927
1.0000050273148491 1.0000016016538147 0.0000020913226959
0.9999817369321291 1.0000028881312304 -0.0000006427730408
0.9433835611116651 1.0005575001975817 -0.0228918659894160
0.9999962352703859 1.0000024579492275 0.0000020183458652
0.9343230037367476 1.0001100051412775 0.0097907833689917
1.0000044378728421 1.0000010870140812 -0.0000048341887965
1.0004348412351911 0.9662028206748445 0.0204140572240897
1.0005770311168083 1.0635153449929837 0.0248178684662397
1.0712062067954178 1.0001877553178049 0.0142061865672868
0.9382259105020575 1.0000864652577590 -0.0092166057435275
1.0004281709194975 0.9661111332383034 0.0204457456091162
1.0004307087787683 0.9499373039601021 0.0203047686440570
1.0000168956420019 1.0676446779732003 -0.0038730636854444
0.9396951168255092 1.0000930412289994 -0.0090039355943939
1.0000802134302398 1.0665545055840226 -0.0094171600878270
0.9999913169777361 0.9999926249926050 0.0000158455644157
0.9848851520839766 1.0006231114145117 0.0248295193579111
1.0000085320823482 1.0000041661098888 -0.0000040744547396
0.9999978114797869 0.9999986803746914 -0.0000026534018811
0.9800572390952891 1.0010937732606409 -0.0327054856311552
1.0000014267625292 1.0000086886029624 0.0000039169561898
0.9999997229644025 1.0000015374138387 0.0000027798127426
0.9999946412180722 1.0000011620278983 0.0000049357931415
1.0006704181343107 0.9843378008657698 -0.0257141369167079
1.0006647232788546 0.9844233927360366 0.0255739213855631
0.9999703801093819 0.9999969947532423 0.0000029333217070
1.0720355565078008 1.0003165602147883 0.0184202996906886
1.0000834734773645 0.9387737995216586 -0.0091384371522903
0.9999998732941610 0.9999947975226490 -0.0000017335285209
1.0009156255023366 0.9940831411328520 -0.0300965710635402
1.0001006275821680 0.9329356936496395 -0.0099956445392883
0.9424603015289997 1.0000726147782593 0.0085971930637753
1.0008568266310585 0.9821833542819061 0.0292369929423409
0.9821833542818849 1.0008568266309190 -0.0292369929424148
1.0000075095281658 0.9999980755698317 -0.0000014652299719
0.9471159812133403 1.0000021759825652 -0.0025608378647283
1.0000075622296136 0.9999938036360276 -0.0000012615236182
0.9937457727253043 1.0009989737226135 0.0317124068439127
1.0010921565407698 0.9935090292006626 -0.0329983806607985
1.0006266905397672 0.9587996998596491 -0.0248375905924295
1.0001276021839549 0.9301570742857681 0.0103936410838497
0.9844233927363821 1.0006647232770700 -0.0255739213852559
1.0002319391867263 1.0653909919558939 0.0153165341473278
1.0000834734772261 0.9387737995203368 -0.0091384371527260
1.0711742392535015 1.0001860172375372 0.0140411952028298
1.0000073304232187 0.9999927245742434 0.0000003584099125
1.0000077534015281 0.9999696835959307 -0.0000212176365688
0.9999949970200850 0.9999808173314851 -0.0000002505373043
1.0009835432471050 0.9810790477709032 -0.0310483534522140
0.9999927245771699 0.9999991975762044 0.0000025724570188
1.0005018848479801 0.9760365141768095 -0.0222748640158697
1.0015172485720594 0.9923697557123424 -0.0387652614175885
0.9810790477704527 1.0009835432454959 0.0310483534531104
0.9343230299899631 1.0000964810584230 0.0097920579153804
0.9929577148541378 1.0012801792622052 0.0357920527998698
1.0000224307909180 1.0000052624525044 0.0000014554834131
0.9471159748439706 1.0000146420796476 -0.0025596099144334
1.0000957524238245 0.9393024301017172 -0.0090590271008738
1.0000073304236734 0.9999927245747550 0.0000003584108424
0.9999938523526026 0.9999989056434793 0.0000000288531459
0.9491134391625400 1.0000665954597361 0.0076190124779204
1.0000736127378440 0.9469113008574150 -0.0079414528247649
0.9492516478216508 1.0000669906563715 0.0075973984495554
0.9999816790031275 0.9999976291428024 0.0000025850164172
1.0004580903259530 0.9478824055544519 -0.0211215105712045
1.0000865290142169 0.9382045189384306 0.0092197451743666
1.0000161374853402 1.0000064772640516 0.0000025032958151
0.9999927245734476 1.0000073304232755 -0.0000003584098610
1.0000010270102369 1.0000076272077778 -0.0000093998175803
1.0000224308352168 0.9999958575956029 0.0000069021969115
1.0000052624538971 1.0000224307894401 -0.0000014554854310
0.9999952559723256 1.0000094904615109 -0.0000090537763624
0.9999703829221898 0.9999950750951088 -0.0000087763296553
0.9999959371006232 1.0000031852641706 0.0000030357311533
1.0000193173441314 1.0000031852606031 -0.0000023550737496
1.0000062664408500 0.9357986345397279 -0.0031063222259787
0.9716881143007150 1.0007128716023832 0.0262860697269480
1.0005755887680832 0.9747664385205072 -0.0234576275301421
1.0000267817559987 0.9452001425106606 -0.0026543961020847
1.0004188774060332 0.9508146518796702 -0.0199519772377801
0.9512769037168957 1.0004102842595839 0.0197675381800208
0.9654737292228500 1.0010654519592410 0.0320049190037273
1.0000010270679474 0.9999959372373558 -0.0000120951328854
1.0000026802212199 0.9999991237364524 -0.0000076506606200
0.9999991237364524 1.0000026802213691 0.0000076506606555
1.0000959347995939 0.9382046194013138 0.0092252356450579
1.0000109715674443 0.9999868355403957 0.0000112414945723
0.9471159812137828 1.0000021759826221 -0.0025608378645726
1.0000052624525613 1.0000224307917707 -0.0000014554836120
0.9471159684791892 1.0000271084098724 -0.0025583819328124
0.9933951835533799 1.0011613374839825 0.0335934175114429
1.0000010269662891 1.0000193173832086 -0.0000067044395658
1.0010228496358105 0.9477257041536078 0.0314031560520927
1.0000033148381515 1.0000130324235963 -0.0000002051746592
1.0000044256997405 0.9999975070300867 -0.0000058522929162
0.9693040596189414 1.0008193767311511 -0.0284877051612934
0.9693208123198767 1.0008408531049588 -0.0284662945491030
0.9700638031522633 1.0007973305588236 -0.0277901746935126
1.0004382748898031 0.9499371168610166 0.0203002356149056
0.9999826495886572 1.0000038728662961 0.0000008211908353
1.0000004817697821 1.0000016924948487 0.0000045826181836
1.0000033261375041 0.9999986527923649 -0.0000025168627322
1.0000102184733468 1.0000038728935836 -0.0000052868503412
0.9999994493355752 1.0000004213291043 -0.0000000271705534
1.0000009943002459 0.9999994188567459 0.0000008684137475
1.0000044996058535 0.9999942651636288 -0.0000000680585795
1.0000014966318176 1.0000010253656644 -0.0000029913235090
0.9916744582545766 1.0018135396287382 0.0422804764350166
1.0005956291399676 1.0634284352672314 -0.0252619968438768
0.9999865220818509 0.9999936225817652 0.0000031135326211
1.0000124960344787 1.0000109961432782 0.0000019856099678
1.0004293237804180 0.9236184676679360 -0.0200050309470589
0.9999993642893830 1.0000054622231407 -0.0000051586427697
1.0000019107914941 1.0000032239133061 -0.0000057542579729
0.9999972138832344 1.0000002379622821 -0.0000016049363200
1.0000001796324818 1.0000000641030151 -0.0000001712137709
0.9999991940672697 0.9999998355211549 0.0000009114244842
0.9999972262039968 0.9999917355548102 -0.0000048421320589
0.9999996943181361 0.9999817994664059 -0.0000029601682908
1.0004680809243318 0.9649001058424583 0.0214352756404715
1.0002863814348324 0.9510800887279153 -0.0165017715656243
0.9999986898142270 0.9999967359656020 -0.0000006143386752
0.9840489445260725 1.0007279143857490 -0.0267226832108189
0.9610131047559808 1.0003371138929731 0.0180076697059465
0.9610131079173360 1.0003371171834625 0.0180076755380726
1.0006219144384814 0.9697377713384319 -0.0246117924728693
0.9778117819254827 1.0006129663567516 0.0242394083352337
1.0000000455217715 0.9999996452164593 -0.0000000713556646
0.9999957956924268 0.9999976679893555 0.0000031884973008
1.0724201403853610 1.0003688834846791 0.0203753051999580
0.9999994875627342 0.9999980235102316 0.0000003391289625
1.0000006988362597 0.9999997227085892 0.0000011358164406
1.0000018143945797 1.0000002833231707 0.0000000544493809
0.9999980398783440 0.9999999103261723 0.0000030969845084
1.0000323907898316 1.0000100442752839 -0.0000082979129291
0.9999956476959239 1.0000013004418200 -0.0000068195551084
1.0000004110875247 0.9999999972803941 0.0000001711095788
0.9999758910387098 0.9999892712475863 -0.0000074862802096
0.9999960381616967 0.9999750779877429 0.0000102965034272
0.9999939416427189 0.9999976964778976 -0.0000032294027001
1.0000251407198768 1.0000196769676593 -0.0000010635495706
0.9999939416422500 0.9999976964776347 -0.0000032294028813
1.0000001747464085 0.9999998754548448 0.0000001083315912
1.0000001952795186 1.0000042432423319 0.0000015624312425
1.0000022739558432 0.9999998121323480 0.0000008550565772
0.9999998120699909 1.0000022738708758 -0.0000008549012028
0.9999985803269377 0.9999997814579410 0.0000019893409564
0.9999989818633755 1.0000007497693131 -0.0000004139151952
0.9999997791880723 1.0000020266690925 -0.0000012760035157
0.9999929182723601 0.9999929103379074 0.0000031161350033
1.0000009387475080 0.9999992072593533 -0.0000007058775358
1.0000022738645520 0.9999998120696640 0.0000008548999718
0.9999998964985216 0.9999923188058266 0.0000033229173708
0.9999999498500306 0.9999966429327382 0.0000009954927967
1.0000009780903931 1.0000002529986842 -0.0000025327890490
0.9999998724088736 0.9999988794972822 0.0000001023726237
0.9999960936787989 0.9999685695962555 0.0000050526454377
0.9999994566303751 0.9999936826116169 0.0000005730452162
1.0003670434056560 0.9293433584727777 0.0185332623676937
0.9999960936795947 0.9999685695955735 0.0000050526449119
0.9999685695955166 0.9999960936795663 -0.0000050526449119
1.0003740286758798 0.9293431164051044 0.0185267928791606
0.9764782713497087 1.0015402133765279 -0.0385472605800842
0.9999994037031575 0.9999685695732298 0.0000019563783625
0.9999685695708559 1.0000027137423166 0.0000011399081559
0.9999979631795125 1.0000022543482647 -0.0000048791653854
1.0000121589169699 0.9202907842800880 0.0038401029400492
0.9202907842795904 1.0000121589169702 -0.0038401029397736
1.0000157446687383 0.9141211322674204 0.0041257281660667
1.0000009138353285 0.9999954565308864 0.0000096494340806
0.9764784371075675 1.0015260165464239 -0.0385491406530691
0.9999954403887564 1.0000001470653328 0.0000110698128848
0.9999936826806699 1.0000045951954086 0.0000083395988345
0.9179790096455432 1.0000129588490394 -0.0039498868920992
1.0000144835704579 1.0000016301760739 -0.0000015820082658
0.9999978130863288 1.0000137063264043 -0.0000002714790426
1.0000003031911147 1.0000035127637146 0.0000047846605282
1.0000016302695194 0.9999974283042310 -0.0000097990449876
0.9237006891631179 1.0004313752529068 -0.0199877644581181
0.9999966699151795 1.0000045951720073 -0.0000068253615154
0.9999983648111488 0.9999955349524952 -0.0000035188271708
1.0003704131330622 0.9293787475300814 0.0185272994421801
0.9920248166162247 1.0016441612787887 0.0404174662434741
0.9999956776228336 1.0000058289288420 0.0000078546010624
0.9999949946367006 1.0000008952923332 0.0000018615419941
1.0000009138354422 0.9999954565309148 0.0000096494339172
0.9999936826804994 1.0000045951975118 0.0000083396000353
0.9489205660672327 1.0009951617159227 -0.0307028781722178
1.0013091826720288 0.9619295754545520 -0.0352550632051790
0.9999994394772198 1.0000016358792185 -0.0000005163180860
0.9999904097249678 1.0000034774152593 -0.0000010401277084
1.0000138607123719 0.9999989706834577 0.0000040475405161
0.9999944420229541 0.9999965730472336 0.0000114800831708
1.0000020211337064 0.9999747530548387 0.0000021446161545
0.9999960936795947 0.9999685695955308 -0.0000050526449066
1.0003315079360389 0.9329513688658921 -0.0176022307693908
0.9999946236519180 1.0000223183480950 -0.0000048512455969
1.0011548005719759 0.9638851322509888 0.0334817201459450
0.9273579672502897 1.0001185980353926 -0.0108120138521277
1.0003422375881903 0.9329514697896383 -0.0176051926908666
0.9411314320322588 1.0005971293530118 -0.0237918609908507
1.0000003481480984 0.9999980498328905 0.0000212489062559
1.0008802985339902 0.9515564611654596 -0.0291464399009679
1.0006863177791172 0.9377177941358928 0.0251382757336263
0.9999799602041802 0.9999967524308054 0.0000013921941426
1.0003281234161887 0.9329828254643501 -0.0176036498425853
0.9291587150873032 1.0003709949357857 0.0185855600374483
1.0008802985329872 0.9515564611664438 -0.0291464399007990
0.9999994236448235 1.0000088791642605 -0.0000002503874536
0.9515564611664438 1.0008802985329304 0.0291464399008132
1.0000023457790832 1.0000013709611770 -0.0000020156604513
1.0005101770251343 1.0638306752102116 0.0232241408909039
0.9999926359376411 1.0000015575431278 -0.0000064903194442
0.9479090964849149 1.0010347005062572 0.0313215751704286
0.9273578601457378 1.0001343150024964 -0.0108071440398529
1.0638313015080645 1.0004845966801195 -0.0232373305383686
0.9999809471850212 1.0000223183349668 -0.0000032567349854
0.9273578946122516 1.0001206365567010 -0.0108086648066670
0.9245427976277114 1.0000097437065514 0.0036341580929664
1.0000031438070729 0.9999938447542882 0.0000075882926905
0.9999992079831842 0.9999954564380584 -0.0000003997418513
0.9273579290823726 1.0001069583925635 -0.0108101855293928
1.0000122613772882 1.0000058355692834 -0.0000131356036173
1.0013644981759360 0.9776841460842645 0.0365863001981055
1.0000082482517849 0.9999992079939595 -0.0000032977083029
1.0015011706991981 0.9767007682996743 0.0381864464303594
1.0000005627409687 0.9999978130917299 -0.0000022019653027
0.9999732564090595 0.9999994391459134 -0.0000087341533373
1.0017854765731924 0.9744906455111149 0.0417758724090587
0.9999924707783006 0.9999950934896281 0.0000003995541227
1.0000003432743201 1.0000008606568358 0.0000033373113766
0.9999925537429740 1.0000018235842771 -0.0000043363023150
0.9999993118093190 0.9999930558638777 0.0000040082611288
1.0000204309911496 0.9999994865747801 -0.0000115214274031
0.9999991328999002 0.9999996135814453 0.0000037909051941
1.0000031531214486 1.0000000891744123 0.0000003544258078
0.9999997132986025 1.0000019996692084 0.0000010675427958
0.9999983682909794 1.0000053048681847 0.0000002144422148
1.0000067340473611 0.9999898712484386 -0.0000075687876190
1.0010455255308142 0.9657152757461788 -0.0317916088074355
0.9999992079857761 1.0000011640568083 -0.0000016452740353
0.9515566053553896 1.0008934536107696 -0.0291491070648874
1.0003281234146826 0.9329828254657470 0.0176036498436393
0.9638844407544368 1.0011676602300308 0.0334715951298843
0.9657297513984444 1.0010424796322086 0.0317715694974138
1.0010229588609716 0.9936904121348832 -0.0320850466581158
0.9924567968939357 1.0014803094751359 0.0383082064863307
1.0000010372439969 0.9999988149012762 -0.0000020509731648
1.0000001074922815 0.9999993684358588 -0.0000008962888927
1.0000303708738765 0.9999983779419289 0.0000035638430677
1.0000146538405779 1.0000116677364517 -0.0000058309893092
1.0000022503799071 1.0000026394159869 0.0000017463232562
0.9999961296033788 1.0000303708654221 -0.0000000557328764
0.9999989749006688 0.9999984995089151 -0.0000019109784121
1.0000028791305460 0.9999889328184945 -0.0000050649499034
1.0000038182920552 1.0000263287960807 -0.0000031104475431
0.9999998625112796 1.0000031672803038 0.0000030397753120
1.0000272633886014 0.9999995141543260 -0.0000024992555940
1.0000015287991963 1.0000000956374853 -0.0000014212739381
1.0000011823238333 1.0000009903248246 -0.0000003703379036
1.0000035215324723 1.0000005499033828 -0.0000012852835937
0.9999997319379071 0.9999996393727859 -0.0000000333087561
1.0000030729643210 0.9999990228036069 -0.0000048614760792
0.9999943554428170 0.9999997440612570 -0.0000008444655502
1.0000008005255085 0.9999992354712777 0.0000006125380424
0.9999997728486424 1.0000015851309998 0.0000004507648597
1.0000000330700429 0.9999974762940873 -0.0000021838626845
0.9999987109647220 1.0000014356888898 -0.0000004553583032
1.0000003704894098 1.0000005643733374 -0.0000006186872537
1.0000144020408304 1.0000055119400735 0.0000106072146886
0.9999959895885171 1.0000019580191919 -0.0000028669369784
0.9999997106491986 1.0000002316372480 -0.0000001995270295
0.9999792633520987 1.0000220326134450 0.0000043800133550
0.9999940909835986 1.0000012359933330 -0.0000018411648657
1.0000016442636397 0.9999899216856454 0.0000037287987461
0.9999973978735379 1.0000189997094742 -0.0000046346627624
0.9999963010282072 0.9999996540259625 -0.0000003409618833
0.9999999330608764 1.0000024364717666 -0.0000012971382468
1.0000006899394178 1.0000060665021542 0.0000017773089465
0.9999952876314413 1.0000087703039997 -0.0000069008311131
1.0000044652345541 0.9999858668166954 0.0000038786866353
1.0000004639412321 1.0000077319756566 -0.0000051083650939
1.0000306216540202 1.0000020715419109 0.0000032638410143
1.0000206221896331 1.0000009903689520 -0.0000005970998131
0.9999899135538650 0.9999976059551487 0.0000033657743664
1.0000206221984334 0.9999959954088851 0.0000027619184940
0.9999997338095525 0.9999999563832264 0.0000031167888764
0.9999984113179859 1.0000064046886779 -0.0000081237052542
1.0000008548218842 0.9999994762885409 -0.0000013649601862
1.0000011623035370 1.0000037353449176 0.0000025955968399
0.9999988078493189 0.9999951740357669 0.0000003372586154
1.0000000987759561 0.9999781202597008 -0.0000031058943305
1.0000252489029995 1.0000076359937025 -0.0000121891113520
1.0000005393511036 1.0000026477260917 0.0000017334670635
0.9999977042781525 0.9999997764816405 0.0000003926580343
0.9999977042782608 0.9999997764810898 0.0000003926583854
0.9999947728628663 1.0000077319674010 -0.0000038799993414
0.9999997764816867 0.9999977042783568 -0.0000003926586654
0.9999993704500997 0.9999997163433511 0.0000000903174883
1.0000108286299154 0.9999984112980498 -0.0000069129440912
0.9999933883582278 1.0000020756155565 0.0000009633688121
1.0000030551458186 0.9999991434723919 0.0000011246815874
1.0000000146397932 0.9999948900267325 0.0000039197222351
1.0000009141136055 0.9999937066312832 -0.0000040721633260
1.0000108286255558 0.9999908930854886 -0.0000063599371819
1.0000195265266913 0.9999948900471208 -0.0000060500094990
0.9999999712621157 0.9999988779476807 0.0000001419139903
0.9999959953995030 0.9999851745789408 0.0000003036147943
0.9999994358755577 1.0000022837627676 -0.0000005957321805
0.9999996846889596 1.0000001239852518 0.0000001222810533
1.0000008155929649 0.9999956595983254 0.0000035306648840
0.9999995206056997 0.9999969312442926 -0.0000005219586425
0.9999991036887053 1.0000028934658285 0.0000007844237185
1.0000014706515052 1.0000007269877278 -0.0000022246261490
1.0000032980836604 0.9999698735862148 -0.0000082497628994
1.0000077104920986 0.9999986695995171 -0.0000002740041120
0.9999930036778821 1.0000033605209184 0.0000047477130466
1.0000001741267235 0.9999999584833031 -0.0000001069327822
1.0000000925823462 0.9999925468509878 0.0000041562295325
1.0000045072990049 1.0000012912198972 0.0000069242826893
0.9999940223875986 0.9999982542084902 -0.0000032910177213
0.9999969970929414 1.0000152808768272 -0.0000025307660938
0.9999969970928135 1.0000152808772536 -0.0000025307656959
1.0000032613501213 0.9999998909883767 0.0000003788259241
1.0000001783925763 0.9999995076135314 0.0000008066951381
1.0000026342695694 1.0000001839089219 -0.0000018276772585
0.9999973328686552 1.0000064684339007 0.0000035224214374
0.9999954669937341 1.0000017548299327 0.0000036650527286
0.9999954669937909 1.0000017548300109 0.0000036650527357
0.9999820020412442 1.0000056980321745 0.0000075214269956
1.0000001746583898 1.0000010860595112 -0.0000001146118137
1.0000082111983226 1.0000039651514678 0.0000140310771407
0.9784758571579038 1.0012710213269722 0.0352851605835845
1.0006167041451732 0.9404260116515316 0.0241137541340642
1.0710619196140676 1.0001761950254511 0.0136364161073714
1.0006098011877111 1.0734949501088227 -0.0260097983943929
0.9999994626276895 0.9999908778246503 0.0000087338369667
0.9999965161058946 0.9999985628138479 -0.0000095354702402
0.9999917166850791 0.9999985790393274 -0.0000061114152342
0.9999994626293024 0.9999908778256735 0.0000087338378797
0.9999908778252756 0.9999994626291390 -0.0000087338375706
0.9999910044775169 0.9999995090747074 -0.0000026803547880
0.9999995090819340 0.9999988225366178 -0.0000040004614970
0.9999965160489827 1.0000009297486543 -0.0000063520167572
0.9999917166512113 1.0000005479240059 -0.0000017678557954
1.0000019466358334 0.9999992606146856 -0.0000033723876663
0.9999994828581246 0.9999983830908719 0.0000031736046459
0.9999945326029062 0.9999972251475553 -0.0000017275727138
1.0000066406449732 1.0000044856297545 0.0000083697269771
1.0000044855656067 0.9999972251530234 0.0000028957444274
0.9999943905300072 0.9999996488484115 -0.0000021473881769
1.0000005225876507 1.0000001408464365 0.0000020696833570
0.9999966621576419 0.9999998971974269 -0.0000017604415931
0.9999983830907866 0.9999994828579968 -0.0000031736052223
1.0000019466251193 0.9999988860396367 0.0000017186805824
0.9999983684211635 1.0000198399796980 -0.0000010133037295
0.9999908778248209 0.9999994626290821 -0.0000087338369525
0.9999995090647531 0.9999972251454571 0.0000005840739000
0.9999983684215774 0.9999997299770162 0.0000004952931170
0.9999998522626766 1.0000012379642214 0.0000001465542925
0.9999994626288405 0.9999908778237977 0.0000087338365546
0.9999995090672178 0.9999995368019208 0.0000018281949046
1.0000135629668485 0.9999992606036323 0.0000001220201357
0.9999983684221156 1.0000198399823697 -0.0000010133022444
1.0000023784643617 0.9999919688182031 0.0000034796691055
0.9999909171095076 0.9999983684941666 -0.0000086662942142
0.9999903074218995 1.0000121624742278 -0.0000048051528585
1.0000003355050993 1.0000044855576815 -0.0000018475948477
1.0000044855625798 0.9999972251550200 0.0000028957432088
0.9904611793579767 1.0023586327552012 0.0483158870143744
0.9999975793667557 0.9999900218061678 -0.0000024886475758
1.0000025043159200 1.0000004671874694 0.0000004647106622
1.0000009420921794 1.0000007845012109 0.0000002370178578
0.9999984526064277 0.9999924556872138 0.0000128680239771
1.0000020639259597 1.0000216538906539 -0.0000020485646351
1.0000008776438123 0.9999999404573676 -0.0000002984288403
1.0000253533007493 0.9999984200803528 -0.0000019254868527
0.9999998753640148 0.9999990593385778 0.0000040953656062
1.0000032102539747 1.0000012907402616 0.0000015535715491
1.0000007571356868 1.0000100381766543 0.0000053402773672
0.9999993536737509 0.9999992149392043 -0.0000004054419536
0.9999993633985722 0.9999992786122064 -0.0000013028551651
0.9999984802087458 0.9999974866090445 -0.0000003851238973
0.9999967498211280 0.9999997461138350 -0.0000022999856742
0.9999871855678757 0.9999954725493153 0.0000072976414648
0.9999773408447661 0.9999995265145744 -0.0000039745122836
0.9999891142479617 0.9999942216870314 -0.0000075886240917
1.0000016822295823 1.0000048316064616 -0.0000079988607217
1.0000128184538215 0.9999837559837352 -0.0000146507903676
0.9323140083429351 1.0007931835664596 0.0272807503697297
0.9999983567995702 1.0000002227442994 0.0000012880238638
1.0000001456505188 0.9999986872019301 0.0000021056480742
1.0000020293639071 0.9999997258851172 -0.0000010742299266
0.9999972440373280 0.9999923773709174 0.0000009987102471
0.9999979150628625 0.9999993327963310 -0.0000067029669518
0.9999991259874070 0.9999973915904040 -0.0000015997706191
0.9999988352875053 1.0000000231902393 0.0000001663520992
0.9999991228598880 0.9999998405844901 0.0000001734638691
1.0000002353940227 0.9999995326166089 -0.0000005258322488
1.0000084929149766 1.0000012531728988 -0.0000083857818598
0.9999955825571452 1.0000118538510598 -0.0000095775377934
0.9999991439210262 1.0000002659199503 -0.0000001112065328
1.0000007179853538 1.0000069430908187 0.0000003638745354
0.9999981858184839 0.9999874182081766 0.0000050952979792
0.9999993330760918 1.0000006167172995 0.0000025973203556
1.0000056192643159 0.9999972570351282 0.0000025716105616
1.0000004904216482 1.0000017533880474 -0.0000001870449047
1.0000011469448167 1.0000038760931023 0.0000010457193367
1.0000003710718273 0.9999992635513256 -0.0000017174565326
1.0000054332746284 0.9999867651110852 -0.0000037804209870
1.0000072350115752 0.9999954784334154 0.0000061918165698
0.9999907412318234 1.0000162015161704 0.0000145253485309
1.0000061567402796 0.9999657329766986 -0.0000124514853035
0.9568112657455593 1.0004844248632918 -0.0215308336731513
1.0000030372774333 1.0000023974680505 0.0000073724773571
0.9568079171534222 1.0005010143303636 -0.0216323850340280
0.9567890111092471 1.0004741673857922 -0.0215168347658158
1.0000180434174144 1.0000044983726972 -0.0000146373003250
1.0000050793769488 0.9999892227054422 0.0000101992635902
0.9999950448862537 1.0000180435046389 0.0000173435268436
0.9568076333670554 1.0004881395816554 -0.0216256823801104
1.0008353516890558 0.9767198707555733 0.0284471425374938
1.0000085015803570 1.0000014523096881 -0.0000087550966289
1.0000004239030460 1.0000025296143875 0.0000031952862686
0.9767201128116033 1.0008144172992262 -0.0284511027147365
0.9999937560891589 0.9999997022844280 -0.0000087117922244
1.0000067162968500 1.0000007344776485 0.0000006081194950
0.9432544117145469 1.0001395232032748 0.0113730506352973
1.0000162015137546 0.9999907412283560 -0.0000145253512309
1.0001395232029071 0.9432544117147126 -0.0113730506357153
0.9999986431355864 1.0000025171043079 -0.0000001647886623
1.0000000036998098 0.9388050933820488 0.0001855451944343
0.9999999316986949 0.9388050955052670 0.0001911904081728
0.9999907412287539 1.0000162015127882 0.0000145253499732
1.0001395232026538 0.9432544117138223 -0.0113730506355791
1.0000004143839893 0.9999927304076334 0.0000001016220119
0.9999960458111508 0.9999970100932447 -0.0000029493229568
1.0000003830848758 1.0000006338699503 -0.0000002240952215
1.0000046782609013 1.0000001872787361 0.0000014852533631
0.9389339422772728 0.9999933457296989 -0.0001216059157744
1.0000067162961395 1.0000007344761990 0.0000006081190829
1.0000084756429986 1.0000093485656576 -0.0000093437314487
0.9999999330180539 0.9388117830155349 0.0001944048028167
1.0000030433272491 0.9999971928563240 -0.0000021309027067
0.9391380816444519 1.0000061940389380 -0.0004510998910340
0.9999960540784857 1.0000050618962344 -0.0000019020759914
1.0000017155487073 0.9999999833999333 -0.0000016388443985
0.9999996833688921 1.0000017328869175 -0.0000002173632755
0.9999881235092526 0.9999969311256083 -0.0000033462601210
0.9999986431315203 1.0000025171026594 -0.0000001647894794
1.0000120748272927 1.0000110388768726 0.0000209162019164
0.9999932639042795 0.9999999294208646 0.0000037351832193
1.0000058767032785 1.0000006338679388 0.0000002389498597
0.9432544117117521 1.0001395232013468 0.0113730506351912
0.9435400456676567 1.0001485331488988 -0.0117387004495686
0.9999990426876669 1.0000202613206888 -0.0000021194493314
1.0000044907483849 1.0000047355007318 -0.0000019449493008
1.0008700263927977 0.9731441041087517 -0.0289763444790026
0.9999990243653519 1.0000017726366166 -0.0000009205722924
1.0000069870512187 0.9999738397004668 0.0000116795785968
1.0000048348978543 0.9999930262105611 0.0000008682887159
1.0000117249895488 1.0000007446707315 -0.0000034280505187
1.0000073649936887 1.0000036433774599 -0.0000065173266104
0.9999931201669705 1.0000060935090560 -0.0000071515208312
1.0000006283471892 0.9999973576385374 -0.0000056929512991
0.9999975685526034 1.0000018698721667 -0.0000005894472866
0.9999989630075268 1.0000005262321678 0.0000007000108449
1.0000066081351937 1.0000004509450893 0.0000017321775659
1.0000011359897019 0.9999999845711379 0.0000005384953991
0.9999936974532765 0.9999994553364304 0.0000009677734252
1.0000018206896475 1.0000030325973808 0.0000021118485578
1.0010402566462475 0.9805591248339994 -0.0318863549130801
0.9999997705945293 1.0000000119257644 -0.0000002308735871
1.0000051206271781 1.0000004575471342 0.0000018635229791
1.0000012307129571 1.0000019368336415 -0.0000027149882720
1.0000000028530405 0.9999998562936756 0.0000000072088624
0.9999991661460244 0.9999994207107075 0.0000004514197294
1.0000001116922348 0.9999999626839797 -0.0000002279865448
0.9431902965020020 1.0002463557964270 0.0149651439173755
0.9999969316416877 1.0000000414198600 -0.0000006830925551
1.0000024559328791 1.0000002049249284 -0.0000015998306416
0.9999993087450382 1.0000040564030415 0.0000034790518316
0.9999985457385463 1.0000021749892529 0.0000069011882151
1.0000032492140309 1.0000125951697691 -0.0000053276533003
0.9999998473053947 1.0000082016987650 -0.0000028897641268
1.0000017287329970 0.9999998725388993 0.0000049155788028
1.0000031949359904 0.9999995754954885 0.0000023919809882
1.0000011723926348 0.9999847999939229 0.0000039692419690
0.9999915686853887 0.9999989828637650 -0.0000040007343968
0.9999916410734401 0.9999943147645676 -0.0000070436779528
0.9999996918272613 1.0000006272807023 -0.0000022356031063
0.9999998582147361 1.0000009616964800 0.0000000375268834
0.9999999731557737 0.9999988209461954 0.0000005256884678
1.0000014354130897 1.0000008351902177 0.0000012807610308
0.9881489410759675 1.0011496536464690 -0.0335873301818321
1.0000160573747363 1.0000168511783372 -0.0000009050262709
1.0000160573742249 1.0000046854539340 0.0000004464970256
1.0003310692155594 0.9445066764486414 -0.0180914329995038
1.0008424112170586 0.9634994233023095 0.0284153162890665
0.9999979621217225 0.9999945188710713 -0.0000054418801353
1.0008326267476317 0.9634992954047666 0.0284129249251283
0.9999975457644994 0.9999991998588170 -0.0000010094471003
0.9610104831895956 1.0007922156972129 0.0275369964821575
0.9999954065935576 1.0000031996273153 0.0000028812457223
1.0008374503943538 0.9635034787364967 0.0284039687262090
1.0000068042338399 0.9999927154759888 0.0000096868436427
1.0000006688471996 0.9999995371752528 -0.0000007344560951
1.0000103287887994 1.0000112374897634 -0.0000093887052337
1.0000881052624697 0.9386954682797430 -0.0091071949861748
1.0000103287865114 1.0000112374870918 -0.0000093887041678
1.0000136289315802 0.9999966678002606 0.0000172719532909
1.0009612784228943 0.9812836958394366 0.0308299691668881
0.9434687154208286 1.0002310333559734 -0.0149241684604129
0.9434724145031189 1.0002391506985335 -0.0149011496612696
0.9999983846796194 1.0000064550669774 -0.0000017152922023
0.9434688591839215 1.0002363176357598 -0.0149290246951867
1.0000164578171240 0.9999944240225260 0.0000038015167540
1.0004272518121027 0.9503155216251802 -0.0200792343992772
0.9592270227188479 1.0006339962441859 -0.0246431412648551
1.0000072569822167 1.0000164578061510 -0.0000017206922959
0.9999804163688216 1.0000029555853553 -0.0000007608804450
1.0000001284693683 1.0000018486130624 -0.0000005791097787
0.9999975401282415 0.9999932041385070 0.0000036594855152
1.0000881052611104 0.9386954682823314 -0.0091071949876326
1.0000040510039976 1.0000039668511407 0.0000005477587657
1.0004272518116175 0.9503155216244599 -0.0200792343991358
1.0000001284967635 0.9999823726385791 -0.0000054572793383
1.0000060059615896 1.0000012629034343 -0.0000032249987294
0.9387385948330438 1.0000916304732310 0.0091233059694195
0.9999955975490510 1.0000029531686776 0.0000080556621982
1.0000042051051339 0.9999989511269270 0.0000040176291815
1.0000024991699974 1.0000007541787312 0.0000017655036573
1.0000112374878307 1.0000103287853603 0.0000093887042531
1.0000061560413662 1.0000014973580300 0.0000031848379730
0.9999988261632082 1.0000014973485627 -0.0000013814126260
1.0006339962454580 0.9592270227182528 0.0246431412648015
1.0009158601391486 0.9843183231961385 0.0301461586034980
0.9503155216252495 1.0004272518113719 0.0200792343990774
1.0000810649823073 0.9387168801501929 -0.0091078034548461
1.0000061560411673 1.0000014973566018 0.0000031848378948
0.9402189940727428 1.0000545560868803 0.0075342393562783
1.0000009590771488 1.0000008296283178 0.0000020627874462
0.9843249855520068 1.0009228106689871 -0.0301531322170730
0.9999948986768136 1.0000043962752780 -0.0000069705427303
0.9434711486462884 1.0002303382448234 -0.0149072554603937
1.0010718152536937 0.9749609599513207 0.0322125202167044
1.0000090415712934 0.9999963924050935 -0.0000099550509684
1.0000001557994516 1.0000007541928702 0.0000043333981819
0.9363175462331851 1.0000122024360116 -0.0031127593679989
0.9503155216230260 1.0004272518108841 0.0200792343989072
1.0000006755271531 1.0000208400520809 -0.0000002867347486
1.0000112375145322 0.9999997825697761 0.0000109261008048
0.9999991982933684 1.0000002168667006 0.0000002974396396
0.9999998883592160 1.0000052517136395 -0.0000004210888310
0.9999992336906239 0.9999975452626247 -0.0000027642274424
0.9999990618035354 0.9999999150579035 0.0000013060414796
0.9999999980800282 1.0000007590958007 -0.0000004423081719
1.0000018458902993 0.9999996375811795 -0.0000025415657566
0.9999997135296834 1.0000010670267672 0.0000004951492204
0.9999991513474035 0.9999994985883530 -0.0000009025890043
0.9999992503561170 1.0000092925347179 0.0000052262465009
1.0000018540159177 0.9999849070241414 -0.0000004960917767
0.9999997264066181 1.0000017083148038 0.0000073132502070
0.9999997182163100 0.9999984411444085 0.0000054704633742
1.0000006060549511 1.0000230501699034 -0.0000074793146549
0.9748811774690244 1.0007626052145893 -0.0271828751012245
1.0000053663226405 0.9999795741580990 -0.0000042249523325
1.0000031562184817 1.0000042896316339 0.0000050095140457
0.9999995554234360 1.0000002427600629 -0.0000037990038210
1.0000012813079169 0.9999977796736892 0.0000009426341143
0.9999999106641128 0.9999988882007573 -0.0000034189201778
0.9999915260456774 0.9999983055312185 -0.0000019570353963
1.0000015856358579 1.0000007115400631 -0.0000048577749911
1.0000012968891301 1.0000095860774469 -0.0000047463161818
0.9999999871597904 0.9999991102425223 0.0000016559531666
1.0000002705681275 0.9999981291102992 0.0000037560194149
0.9999996680978971 1.0000014279710838 -0.0000007761525898
1.0000013956022280 1.0000004866564103 -0.0000025023508518
1.0000021450548358 0.9999992757535932 -0.0000011631628534
1.0000002427609112 0.9999995554223844 0.0000037990044658
1.0000062884974168 1.0000162853009442 -0.0000064200528923
1.0000005379515997 1.0000039885589542 -0.0000010746672949
0.9999994959603156 1.0000012706925721 0.0000057170149533
1.0000011513092235 1.0000033102985681 -0.0000032296247231
0.9999996558498635 1.0000023665018563 -0.0000127303892287
1.0000046122292696 0.9999982862336086 -0.0000058086653335
1.0000017415326561 1.0000118821723463 0.0000013362373022
1.0000009345909697 1.0000002112833482 -0.0000006247495980
0.9999963834823528 1.0000108008356037 0.0000068783571304
0.9359511364763790 1.0000057246498584 0.0029661466506423
0.9999963779420235 1.0000020607734130 -0.0000092403451988
1.0000031466289134 0.9999878667042044 0.0000032227532656
1.0010002782964904 0.9808269597534672 -0.0309425892215090
0.9502470020427117 1.0004436728764514 -0.0203458479303299
0.9999903892122604 1.0000009220885291 0.0000178006890674
0.9999968760624177 1.0000028572187070 0.0000088463865227
0.9999921875451883 0.9999987579054456 -0.0000002223527570
1.0000014358248606 1.0000080400829370 -0.0000003199908894
1.0000938015896461 0.9384631554853418 0.0093356070748165
1.0000079462967031 0.9359510664549477 -0.0029543226555953
0.9384824942556684 1.0000937193578237 -0.0093315691374992
1.0000938015880896 0.9384631554831804 0.0093356070732497
1.0000955909979770 0.9384825863875068 0.0093365135909493
1.0000009220872217 0.9999903892120188 -0.0000178006904351
1.0000019675675473 1.0000003604255820 0.0000015473406680
1.0000024396128939 1.0000045500774957 0.0000003933666123
0.9999974887415846 1.0000020607000806 -0.0000033267619477
0.9999989199036892 0.9999983009727559 -0.0000014422640529
1.0000031466265953 0.9999989199096257 0.0000028175164903
0.9390472733643764 1.0000883931998557 -0.0087173457619639
0.9999965966687177 1.0000041475165777 0.0000011752854853
1.0000007490441332 0.9999987218581513 0.0000005009396175
1.0000015741054502 1.0000001444126860 0.0000039022778459
0.9359510664550749 1.0000079462974392 0.0029543226553912
0.9999985995423878 1.0000020606954885 0.0000025868338905
0.9999985995431836 1.0000020606961848 0.0000025868343666
0.9999977015916289 0.9999963778656230 0.0000023694402487
1.0000079462968430 0.9359510664554702 -0.0029543226556336
0.9696561365620943 1.0008388519563807 -0.0284676454688105
1.0010711788458533 0.9938925262724877 0.0324574306713874
1.0000014358280580 1.0000080400841875 -0.0000003199913690
0.9690888919358418 1.0007894789241643 -0.0276967225747256
0.9938925983775232 1.0010474993856335 -0.0324581587374778
1.0000027933873403 0.9999903890619914 -0.0000128654631983
0.9999977015997817 0.9999974887451201 -0.0000035441336373
0.9999903892130277 1.0000009220889268 0.0000178006890460
0.9999921875465099 0.9999987579069803 -0.0000002223540360
1.0000014955544871 0.9999901556478613 -0.0000070151000278
0.9999977016764828 0.9999985996273089 -0.0000094577203879
0.9999861516489553 1.0000147881738994 -0.0000042543784892
0.9696561365652008 1.0008388519572204 -0.0284676454684248
0.9691771260073511 1.0007989250084703 -0.0278072204159057
1.0000009220881310 0.9999903892138092 -0.0000178006907869
0.9999999785302711 0.9999972624852425 -0.0000004149218519
0.9999988964226774 1.0000014375785637 0.0000004723919524
1.0000000979816617 1.0000004526071944 0.0000007069366766
0.9999962304740112 0.9999998769631354 0.0000013345254449
0.9999999300864081 1.0000028320254015 -0.0000014552260222
0.9999999786521141 0.9999986236908671 -0.0000018334028737
1.0000078236206835 0.9999962722068718 0.0000033736754147
1.0000024251472452 0.9999976553587564 0.0000005934117628
1.0000018248686602 0.9999983437797759 -0.0000010632273776
1.0000019716378008 1.0000062145423585 0.0000027304961919
0.9999994029277242 1.0000018248681559 -0.0000005893731225
0.9999874975425569 1.0000160334420714 -0.0000061417614093
1.0000053874883013 1.0000011338593922 -0.0000011258257644
1.0000007936439375 1.0000062145367046 -0.0000013522805587
0.9999992506118781 0.9999980489948690 -0.0000015442197081
1.0000002867145310 1.0000041235828336 0.0000006177178482
0.9999991429573589 0.9999986493135788 -0.0000015861365921
0.9999928984803236 1.0000011338596153 0.0000016411722400
1.0000005435702508 1.0000019716456161 -0.0000039790265098
1.0000036236916521 1.0000108996078698 -0.0000049245345809
0.9999992678747849 1.0000001698879486 -0.0000036617406431
1.0000000321287901 0.9999986158868428 0.0000005337316233
1.0000094309760972 0.9999873233104356 0.0000022423190765
1.0000002335284597 1.0000013060412734 0.0000002896074640
0.9999939939794122 0.9999994398543712 0.0000010231747077
0.9999994439015920 0.9999939860912401 -0.0000010248520948
1.0000031581184992 0.9999981377160900 -0.0000033371753795
0.9999812938095279 0.9999911557541180 -0.0000017347800290
0.9999992171093512 1.0000072699416289 0.0000028858734002
1.0000009629718654 1.0000009007151531 -0.0000065367283307
1.0000005265367995 1.0000033774044299 -0.0000018772866774
1.0000075238210342 1.0000221344160165 0.0000165329428893
0.9999962786884448 1.0000212672125375 0.0000067427308627
0.9999993572447299 1.0000001543480732 -0.0000035656837240
0.9999994169409331 1.0000077651792185 0.0000092907631738
1.0000031488356320 0.9999861508118960 -0.0000072114954842
1.0002120456030137 0.9454940431229265 -0.0137567046850471
0.9999997831513552 1.0000003987203170 0.0000009846778940
1.0000068281988175 1.0000009273574471 -0.0000013052501220
0.9999999716675581 1.0000000494720220 0.0000000482952905
1.0000270246072667 0.9999948307589508 -0.0000173683590110
1.0000074797975884 0.9999970615587284 0.0000034453156319
1.0000084369073123 0.9999948234154064 -0.0000169911410437
1.0000073187019407 1.0000025756182294 0.0000002077614532
1.0000027516857626 1.0000002183138448 -0.0000002300889851
0.9999980549057498 0.9999980910132991 0.0000000078331200
0.9999963437044215 1.0000014871611960 -0.0000007473684812
1.0000047191637467 0.9999990061278703 0.0000002836323275
1.0000043635952673 0.9999890593022460 -0.0000005289408307
0.9999958858729049 0.9999950626688863 -0.0000083950027824
1.0000003782173139 0.9999986876564363 -0.0000016696113835
1.0000017997441304 1.0000008455465224 -0.0000016305865906
1.0006145336633199 0.9536495545211009 -0.0244967148465824
1.0005551062852081 0.9505345427339892 0.0229985533994735
1.0000010822830721 0.9999907945351537 -0.0000027849523950
1.0000003329546676 1.0000049195937277 -0.0000047993862754
1.0005595009243753 0.9505110348493667 0.0229982606119788
0.9999984357590084 1.0000019600094465 0.0000024278148561
1.0000030151523749 0.9999991342938617 0.0000011958494065
0.9757421086231175 1.0010416447646560 0.0317857490219423
1.0005525032536751 0.9505343048357655 0.0229933479979486
0.9999766697935557 0.9999960053424354 0.0000092883724781
0.9999766697300824 1.0000030267128497 0.0000048997869702
0.9719665148635817 1.0009935712178946 -0.0309529848097828
1.0000013428982653 0.9999985453730961 0.0000040121515227
0.9999994465130343 1.0000168827267579 0.0000015848504608
0.9999932782127682 1.0000047545395050 0.0000030061342831
1.0000055131345675 1.0000013428944392 -0.0000035260853195
0.9999936174874514 0.9999978289343082 0.0000019242623343
1.0000051330999951 1.0000052261078234 -0.0000026093169062
1.0000098717589243 1.0000057233933448 0.0000006805936617
1.0000002925898435 0.9999955324598563 -0.0000002469972855
1.0000064120777452 0.9999977912272279 -0.0000091031805903
1.0000029256526641 1.0000000386544916 0.0000010135624218
0.9999996503618047 0.9999964315815144 -0.0000003438516524
1.0000068035113951 1.0000065631637090 0.0000237676483063
1.0000192114141122 1.0000187996145471 -0.0000151999185054
0.9999998171838277 0.9999993516388550 0.0000013281585313
1.0000065827238855 0.9999790192607690 0.0000072834898319
1.0000003951398397 1.0000023348607205 0.0000015104464188
1.0000002694966033 0.9999997820267728 -0.0000001802074809
1.0000021956453256 0.9999914803522191 -0.0000036972387003
0.9999914803369929 1.0000003168918485 0.0000011676270959
0.9999914803363108 1.0000003168917455 0.0000011676274583
1.0000008518323125 0.9999999209062200 -0.0000001679957177
0.9999966977366916 0.9999978614533122 -0.0000024843180193
1.0000001564721854 0.9999985983557004 0.0000001462550759
0.9999980681539953 0.9999986267736194 0.0000007034157967
0.9999999151317870 0.9999972246002744 0.0000009105978423
1.0000021823877943 1.0000001285430740 0.0000008680094913
1.0000078007515958 0.9999874346676899 -0.0000041005615279
0.9999989161115931 0.9999972897694001 -0.0000016614517821
1.0000143892290072 0.9999975763019595 -0.0000089041158205
1.0000005637833538 1.0000034205599784 0.0000017655593282
0.9999997360199806 1.0000007755310880 0.0000000421883458
1.0000069037577788 0.9999999661596533 0.0000015154199969
0.9999991676131825 0.9999987734111696 0.0000015443459010
1.0000266500582260 0.9999952465397599 0.0000044497954704
0.9999741343917976 0.9999985515640645 0.0000050037670116
0.9999999726383999 0.9999992497488425 0.0000012520129995
1.0000005065816093 1.0000002265251657 0.0000006694541420
1.0000004794165500 1.0000001215347794 -0.0000007481799955
0.9999987908528398 0.9999994591427048 -0.0000012030826654
0.9999998243545644 0.9999985581956811 0.0000010908519748
1.0000018446216496 1.0000031945143180 0.0000003569702828
1.0000028677121153 1.0000012011100092 -0.0000025961856864
1.0052881214006522 1.0009856385854463 0.0314473156531787
0.9999997065391951 1.0000010910818997 0.0000007480695286
0.9999997889135996 0.9999967940114705 -0.0000014214452657
0.9999997308989986 1.0000006099793475 -0.0000025290091984
0.9999981389196260 1.0000033803720347 0.0000041273994793
1.0000032133191732 1.0000023174063839 0.0000011828627912
0.9999975038603274 1.0000033804343889 -0.0000089128102418
1.0000044460123183 1.0000039424063656 0.0000015604063919
0.9999707970607941 1.0000064155325212 0.0000050720890862
1.0000003869976253 1.0000018305685814 0.0000006990998179
0.9999998485956030 1.0000005854047633 -0.0000005089063892
1.0000005247975581 0.9999996076895277 -0.0000002993666018
1.0000016856080345 0.9999988785340621 0.0000048613985284
0.9999997357251348 0.9999942249181699 0.0000023071960561
0.9999972504235703 0.9999961322241839 0.0000002840966074
0.9999938860972317 0.9999988786048200 -0.0000097875177465
0.9722482484937351 1.0007404682619672 -0.0268660417784607
0.9999955442523187 0.9999911255548848 0.0000105675654432
0.9999988110446310 1.0000032610508232 0.0000021092259086
0.9425644354945345 1.0000798777727988 -0.0091236569406066
1.0000069967118714 0.9999753525176301 -0.0000057303360867
0.9999975359300961 1.0000177719152163 0.0000058839029874
0.9999997627842385 0.9999848909099054 -0.0000085330863144
0.9999971464700996 1.0000036740261518 -0.0000003099140266
1.0000032729019890 0.9999993836386499 0.0000054887967316
1.0009686016010662 0.9830719205219467 -0.0308164860011140
0.9852606601449049 1.0009496187479132 0.0305667510955508
0.9631375387438144 1.0006500681889048 0.0251324344348818
0.9631376300247071 1.0006608188677755 0.0251343976093627
1.0003717564133146 0.9495575919311381 0.0186404367780038
1.0000001560646778 0.9999995520119451 -0.0000016844865102
1.0006513538525277 0.9603660398993246 -0.0249169741205962
0.9677022203242588 1.0007536517207858 -0.0270013921701000
1.0000049787391769 0.9999830324486589 -0.0000102610526848
0.9999994760048900 1.0000066234902343 0.0000115123229130
0.9999937880999465 1.0000074729940234 -0.0000148124362784
1.0000007699862932 1.0000046024593616 0.0000011296832047
1.0000056132850847 1.0000001380048331 0.0000008875556849
1.0000056132855821 1.0000001380044565 0.0000008875570065
1.0000268434977952 0.9999914384520615 0.0000075148200202
0.9999973632325180 1.0000018279689760 0.0000031691005430
1.0000003119437781 0.9999921611034407 0.0000004672962481
1.0000005676665331 1.0000043126440734 0.0000001062141245
1.0000134808806405 0.9999988085342721 -0.0000024216885092
1.0000016470889883 0.9999939714403716 -0.0000045167706911
0.9999992939178932 1.0000002848191900 -0.0000064209209852
1.0000001523324824 0.9999943913117068 -0.0000018418681498
0.9999996214826480 1.0000019563952851 0.0000035987289579
1.0000004961797537 0.9999992102194472 0.0000089162087396
0.9999974578987034 1.0000016247163090 -0.0000055135948204
0.9999994471921865 1.0000003770899979 0.0000006430290169
0.9999997437662972 1.0000043847151312 0.0000014001368289
0.9999957251182769 1.0000009340848350 0.0000019729514996
1.0000124093290992 0.9999956025932691 -0.0000010370019883
0.9999991761562614 0.9999980231914004 -0.0000011907452292
0.9999987505612336 0.9999953476307668 -0.0000030032386604
0.9999993978087718 1.0000009129448870 -0.0000003208290799
0.9999999238967048 1.0000015761232719 0.0000011960098170
0.9999974721675389 0.9999851019895024 0.0000004999125357
0.9999900772860940 1.0000004553742696 -0.0000090119100973
1.0000018488451370 0.9999938515923424 0.0000071286620980
1.0000034526457908 0.9999999502779257 0.0000019677229716
1.0000079292690645 1.0000105903163150 0.0000021305100507
0.9999784355072130 1.0000050456422254 0.0000004242391455
0.9999996067367015 1.0000002085280939 -0.0000005045812131
0.9999974402026391 0.9999996296073431 0.0000010770268856
1.0000010163908621 1.0000002551302589 0.0000011250838204
0.9757123370742050 1.0009653318143859 -0.0306777265720130
1.0000005130809073 0.9999998281639643 -0.0000004809432049
0.9999812815656354 1.0000066178412534 0.0000154237296177
0.9999958174486430 1.0000017812322983 0.0000039633072022
0.9999958174478614 1.0000017812322273 0.0000039633072430
1.0000054940753100 0.9999994607055293 0.0000012687720886
1.0000054940731073 0.9999994607054937 0.0000012687718683
1.0000046410269718 0.9999863511579440 -0.0000056101626923
1.0000013266685537 0.9999992406831375 0.0000010300155791
1.0000024322274341 0.9999983709172107 -0.0000028284390145
0.9999870512502694 1.0000071302204443 -0.0000022014334725
1.0000186285011989 1.0000013124048459 0.0000055353503471
0.9999921602328650 1.0000094494715743 -0.0000056148334485
0.9999990043950366 1.0000021975256730 0.0000088809162518
0.9999692390496278 1.0000011393772503 -0.0000006994488000
0.9999950446019956 1.0000130518835804 0.0000174879374559
0.9999955147618620 0.9999970743331027 -0.0000077669863655
1.0000018806894133 0.9999955147750373 0.0000086147071628
0.9999944619458262 0.9999996943687024 -0.0000068476090278
0.9999999802211241 1.0000068663975779 0.0000052739513097
1.0000094495937382 1.0000303525365817 0.0000124316045572
1.0000130519569284 1.0000044887005697 -0.0000194686194634
1.0000034496006489 1.0000013123752087 -0.0000012976186003
1.0000021205571079 0.9999907508774187 -0.0000138114027779
1.0000043347526062 0.9999986604105618 -0.0000027621655255
1.0000011734795722 1.0000029586325616 -0.0000003782996448
0.9999969098988005 0.9999990464160416 -0.0000044178519003
1.0000094680769747 0.9999657891412568 -0.0000053941639080
0.9999974200519000 0.9999999721851522 -0.0000025550519845
0.9999999119812468 1.0000197080548303 -0.0000024520158081
1.0000029586326185 1.0000011734796725 0.0000003782996643
1.0000007563362365 1.0000024980279112 -0.0000007646769917
0.9999996803102675 0.9999877834365881 -0.0000000057345308
1.0000007417685102 0.9999933380341780 -0.0000008884042778
0.9999999676708685 1.0000011183192310 -0.0000033159374541
1.0000014330586269 1.0000010302602085 0.0000011288549077
1.0000029586321637 1.0000011734797960 0.0000003782997931
0.9999997452688784 1.0000058962683689 -0.0000007238151890
1.0000012279810797 0.9999982996221155 -0.0000031203652471
1.0000010178646472 0.9999985206408146 -0.0000011802971806
1.0000043347520662 0.9999986604108576 -0.0000027621653354
0.9999997127501932 0.9999983719132041 -0.0000014351744691
0.9999907508808009 1.0000021205556868 0.0000138114030124
0.9999974484191523 1.0000024419866058 -0.0000007021563872
1.0000013123750666 1.0000034496008869 0.0000012976185854
1.0000018922031710 0.9999969689770855 -0.0000021594515068
1.0000011734801872 1.0000029586307426 -0.0000003783006218
1.0000081396582214 0.9999987375838324 0.0000025868583138
0.9999921602012247 0.9999964147594103 0.0000008633550903
0.9999907508777314 1.0000021205569942 0.0000138114026145
0.9999991778251914 1.0000068663739987 -0.0000023745868524
0.9999999802213231 1.0000068663967536 0.0000052739524253
0.9999847551030470 0.9999999119789086 0.0000023405236321
0.9999999119812895 1.0000197080551145 -0.0000024520161634
1.0000004713939632 0.9999970953321179 0.0000010272171912
1.0000020326383376 1.0000003955525523 0.0000008484235211
1.0000000544329231 1.0000029985634766 -0.0000004302101915
1.0000012895104682 0.9999909371130565 -0.0000006506932919
1.0000023094272283 1.0000026046170336 -0.0000031627819903
1.0000005717764875 0.9999992564621194 -0.0000001211627930
0.9999813299125258 0.9999950259717303 -0.0000308268779005
1.0009261741049138 0.9548230723189266 -0.0297196794096374
1.0006204189773471 0.9475952497190107 -0.0239543146424911
1.0012864578778338 1.0043002004163732 0.0357510413673799
0.9999971951403798 1.0000001422087288 -0.0000012434535361
1.0000001854514411 1.0000000199284655 0.0000001995267456
1.0000023527742148 1.0000016254966209 -0.0000013399756292
0.9999993778980736 0.9999706678097596 -0.0000050368320884
1.0000194430666225 1.0000017467259705 0.0000007526493424
1.0000030291417432 1.0000146866108639 -0.0000041826195739
1.0000037523864935 1.0000031200950699 0.0000052008594102
0.9999964489408895 0.9999998479843673 0.0000035384597866
0.9999975306988733 0.9999824462995105 0.0000014948618606
1.0000074173000664 1.0000012501496467 0.0000004554017959
0.9999995684206214 0.9999995262071303 -0.0000000522737800
0.9999958864438858 1.0000009152974543 0.0000071652864381
1.0000033738917753 1.0000030272105103 -0.0000000477253387
0.9999999972545792 1.0000016211778751 -0.0000030735650253
0.9999958864420881 1.0000009152968148 0.0000071652878432
1.0000009516942110 0.9999961300767022 0.0000015326197882
1.0000011648128349 0.9999992243435197 0.0000063195105518
0.9999999510890251 1.0000005541708317 0.0000001086824460
0.9999986094371229 1.0000004396784434 -0.0000007431227791
1.0000003206345343 0.9999991617672381 -0.0000032042614743
0.9999978891972414 1.0000002141242506 -0.0000000065028897
1.0000006924067260 1.0000046373544946 0.0000005940513978
0.9999985000241850 0.9999962610470728 0.0000048131173793
1.0000615558507635 0.9316034016008123 -0.0080508835622879
1.0000128412790088 0.9323586370681608 0.0020572011819456
1.0002609389517076 0.9387821061156828 0.0153311410935170
1.0001934907577061 0.9271076477957085 0.0132392466500279
0.9745152256126665 1.0012767821245898 0.0352085566643227
1.0013529727763337 1.0139614004742139 -0.0370572959234073
1.0139935486338729 1.0013665812547401 0.0370624093877707
0.9999916337712135 0.9999968925887543 0.0000003619486310
1.0000002420740168 0.9999997096314671 -0.0000036993125683
1.0007065413544551 0.9410188793211415 -0.0259221792278515
1.0001954063982657 0.9258646560356493 -0.0133741952484941
0.9999969096797539 0.9999697863853237 -0.0000135472752169
1.0010378564996258 0.9570573960497643 -0.0311586157071054
0.9999969096769686 0.9999697863848406 -0.0000135472781984
0.9999697863847926 0.9999969096771676 0.0000135472784294
0.9999697865879149 0.9999998933140176 0.0000196803338017
1.0000039434046470 0.9999697864795141 -0.0000167045573738
0.9999846079428407 1.0000041162994173 0.0000046384213434
0.9249553198349652 1.0000855230128243 -0.0086324371104052
1.0000034224178302 1.0000015729119660 0.0000138033630865
1.0004693665757514 0.9372742611395437 0.0210242263061469
1.0004772566667970 0.9372740178263597 0.0210185191832371
1.0000034224182566 1.0000015729110139 0.0000138033630901
0.9458751611401920 1.0007054879213029 -0.0261235392389197
0.9999987711617091 1.0000120505644006 0.0000046638807226
0.9999957579485774 1.0000015248238809 -0.0000036308258908
1.0000096078001730 0.9285383869881898 -0.0036985525033273
0.9285383869874606 1.0000096078002849 0.0036985525033846
1.0000002429790318 1.0000109855947144 -0.0000004927973976
0.9856831277271639 1.0014384260978377 -0.0376022374096293
0.9999986864902950 0.9999984932954007 0.0000072785490608
1.0000113000677167 0.9999950843857593 -0.0000063464439346
1.0000025242502930 1.0000063094160581 0.0000057671838289
0.9843338263820058 1.0014200757970360 0.0374453647393172
1.0000110559391819 0.9999846079366296 -0.0000038334416501
1.0001310639451608 0.9233604571704597 0.0103511914917922
1.0000128298914177 0.9158621794198635 0.0026118365924059
1.0000049700860241 1.0000102523782499 0.0000000097720856
1.0000183208464493 1.0000015248350027 0.0000049039856115
0.9999846079435086 1.0000041162984794 0.0000046384210947
0.9999994413550697 1.0000183208702043 0.0000069518885097
0.9241521849104076 1.0003631490403797 -0.0182506422249485
1.0000004279420660 1.0000012102010991 0.0000001947387503
1.0004729801001684 0.9372958369018967 0.0210142242215426
0.9701237518382884 1.0012498509897718 -0.0347755455992961
0.9999991810374548 0.9999959622502761 -0.0000026368090271
1.0000010770764576 1.0000031523260515 0.0000033174661985
1.0000000222169618 0.9999923469761438 -0.0000019748524555
1.0002034691654087 0.9300270160038816 0.0138069600885363
0.9999951425351101 0.9999978659469383 -0.0000029020459164
0.9370512565260676 1.0006146741689546 -0.0241103864923313
0.9999964778084982 1.0000025874357892 0.0000035592634261
0.9999950843685613 0.9999939771545335 -0.0000047769265188
0.9856830296622725 1.0014522071514989 -0.0376011902573503
1.0000022030568532 0.9999988968815633 -0.0000006886719542
1.0000102523777952 1.0000049700861662 -0.0000000097719293
1.0008086005533201 1.0014778874519894 0.0384023891239667
0.9999991642858491 0.9999892311854547 0.0000069862848133
1.0000116022956096 1.0000041162793032 -0.0000015856776444
0.9256720115533584 1.0000738628797161 -0.0078580413883377
1.0000738628801413 0.9256720115537960 0.0078580413887294
1.0000007409681362 1.0000008424435931 -0.0000017402575793
0.9701242364102673 1.0012467233621516 -0.0347824663719490
0.9581819380512869 1.0010379481712273 -0.0315548059491212
1.0000001523063049 0.9999842597051238 -0.0000051120012078
1.0000114944285721 1.0000007607977570 0.0000003663913233
0.9184532202831732 0.9999841652721735 -0.0035008999876106
1.0000183208466198 1.0000015248369143 0.0000049039868976
1.0000114944287426 1.0000007607980306 0.0000003663910248
0.9999984302876609 1.0000207340580347 0.0000173929832996
1.0000207339662288 1.0000020013899675 -0.0000145066370615
1.0002058870420325 0.9299926629140249 0.0137973053394139
1.0002006842479090 0.9299928415119720 0.0138037414534902
0.9999948592038949 1.0000207341690608 0.0000202793101920
1.0000207341682081 0.9999948592040654 -0.0000202793100357
1.0012823434037066 0.9715688602520259 -0.0351201736648651
0.9999948591997169 1.0000207341668439 0.0000202793070798
1.0000012893664081 0.9999853833950202 -0.0000031280442980
1.0186142867084849 1.0014514051730574 0.0387064629231933
0.9999868898441018 1.0000020949542896 0.0000020338244391
0.9999942129448065 0.9999968758542914 0.0000116046007009
1.0000136144412612 0.9999991484789487 0.0000054410904864
0.9999991646996543 1.0000001939856895 0.0000002148137727
0.9999978642373286 1.0000015117293208 0.0000020003808464
1.0000330896873153 1.0000022576612100 -0.0000081870868639
1.0000008471763560 0.9999760646477354 -0.0000129621324210
0.9999922354790828 0.9999959874080985 -0.0000003291448900
0.9999817692443868 0.9999747853836796 -0.0000035275364599
0.9999926250156901 0.9999955737580631 0.0000041287717318
1.0009806003330806 0.9606465261977376 0.0308235446937316
0.9999964674948901 0.9999688688353595 -0.0000004756110343
1.0000025939690338 1.0000000344154778 0.0000097093028304
1.0003999139626663 0.9381002957553687 -0.0192524754171055
1.0003928954652732 0.9381003002515848 -0.0192525246636202
0.9589745660259189 1.0007807381079801 -0.0273935997095024
0.9999982041041853 1.0000093556393674 -0.0000090101632193
0.9280405006807099 1.0000343413820592 0.0060834688149257
0.9999841649190320 1.0000093556177156 -0.0000076092299426
0.9411844916843719 1.0003335412654888 -0.0173887040281408
1.0000023381301670 1.0000055697616836 -0.0000033584913142
0.9595439963937206 1.0010905730665245 0.0323905635268519
1.0004316771615693 0.9367326374560347 0.0201059257940832
0.9287229140113146 1.0000683768290028 -0.0078876165582540
0.9448469591447826 1.0004401985664317 0.0201502702374399
1.0004401985664568 0.9448469591447273 -0.0201502702373138
0.9287229660060978 1.0000668905704557 -0.0078909062121868
1.0000009817233879 1.0000008470046220 -0.0000009712840966
0.9999996307975564 0.9999980341305084 -0.0000014502963437
1.0000009817227813 0.9999944546985077 0.0000004789627677
1.0009101934308293 0.9575727422404241 -0.0297336200091625
0.9379895111677037 1.0004693864525149 0.0210341252060377
0.9999885273087256 0.9999979332445840 0.0000063319883030
1.0003923179562468 0.9381089902129109 -0.0192490853812454
0.9411845891309925 1.0003054537372797 -0.0173912625505655
0.9291210552398069 1.0004318115341770 0.0199274573686495
0.9411845647672997 1.0003124755080470 -0.0173906229339764
0.9999994934717622 1.0000079672060580 -0.0000006401784334
0.9999998630099035 1.0000076726609903 0.0000022855956025
0.9411845404059120 1.0003194973521603 -0.0173899833081677
1.0000678191024854 0.9336010345868175 -0.0081648663870967
0.9287229140110955 1.0000683768296548 -0.0078876165575680
0.9323163063187557 1.0000242785275097 -0.0049473919287689
1.0006640008806111 0.9350089055865831 0.0245728513695858
1.0011891611659089 1.0102633911191894 0.0346104509131425
1.0009101934296749 0.9575727422397080 -0.0297336200084988
0.9575727422394229 1.0009101934297020 0.0297336200084425
0.9470592614674889 1.0009588203037918 0.0299746688404299
0.9401455575787929 1.0004428217532935 -0.0207935106508244
0.9287229140107257 1.0000683768265288 -0.0078876165574944
1.0004401985663429 0.9448469591432906 -0.0201502702366698
0.9999984752309465 1.0000018373437722 -0.0000026647536134
1.0000013492015116 1.0000208543277802 -0.0000024959903178
0.9999959937535915 0.9999973131091656 0.0000172808581597
1.0000031014023831 1.0000015029740930 0.0000060665640336
1.0000013492049222 1.0000208543274391 -0.0000024959910816
1.0000748180224754 0.9335699049617958 -0.0081591139325438
1.0003071974251290 0.9329810800462278 -0.0171534667541615
0.9999907087830826 0.9999921823706942 -0.0000080646933125
1.0000031365279161 0.9999924551107614 -0.0000037600310889
0.9999786435081754 0.9999977118319184 0.0000101008237065
0.9999930901984574 1.0000022517703064 -0.0000057673724612
1.0011340476019854 0.9831951681229123 0.0334826780443458
1.0102629793395819 1.0011811906111183 -0.0346043568784207
1.0000222593465524 1.0000042527610127 -0.0000053749535761
1.0014194486906860 0.9855280287231105 0.0373038916486358
1.0013185095954102 0.9832805003018348 0.0360325089874927
0.9999974126548233 1.0000007122360717 0.0000010566458482
1.0016176636417826 0.9904669501998052 0.0400787301301096
1.0000017461273250 0.9999991368867484 0.0000014912013298
0.9999960126299207 1.0000008174625665 -0.0000023018395155
1.0016574012713428 0.9721217307530889 0.0401815799565621
1.0000060217050919 0.9999995146752658 -0.0000038814730826
0.9999725646472084 1.0000049863088702 -0.0000154051842421
1.0016339989486429 0.9839806412335610 0.0400738788273527
1.0000080279944998 0.9999978443456702 0.0000036057623068
1.0012371189088394 0.9705461756206661 0.0345618855903312
0.9999886407711507 1.0000059342983476 -0.0000128639123407
1.0000068804815820 0.9999899270157716 0.0000002881955313
0.9999914056783971 0.9999983818079899 -0.0000063840360169
0.9999993082350488 0.9999997621110035 0.0000004313658655
1.0000000598439529 0.9999993641597372 -0.0000002393744353
0.9999988828626049 0.9999999939577245 0.0000048328646067
1.0000023928424031 0.9999983174849527 -0.0000030753172273
0.9999990697655493 0.9999906155283874 -0.0000007212311304
0.9999996304876628 0.9999999939822470 -0.0000070762544996
1.0000007292215021 1.0000130267105110 0.0000132692305687
1.0000049727292228 1.0000098990323354 0.0000053159043647
0.9999987087590551 1.0000052365945375 0.0000015660603756
0.9999961980438580 1.0000000585405813 -0.0000007132039293
0.9999910184479245 0.9999987113000803 0.0000051275871130
0.9999946692735018 0.9999959348025511 -0.0000046075338427
1.0001312071622541 0.9367921838936318 -0.0106121466187219
0.9999989440526136 1.0000038750176556 -0.0000102435543733
1.0000017341627925 1.0000003340925414 -0.0000007848404817
0.9596338843468399 1.0007699924277429 0.0270343204304021
0.9526372789190651 1.0006148831182404 0.0242561997303822
1.0002499889906440 0.9331455546297424 0.0151192671392693
1.0000014290143600 0.9999747558799862 0.0000066736012268
0.9749246847994794 1.0010408935330544 0.0317200081913744
1.0010450951767889 0.9670155934148913 -0.0318021302008064
0.9497867206917281 1.0007576848688060 -0.0267723246953807
0.9999998728447171 1.0000028668384584 -0.0000005258247015
0.9999986910338897 1.0000013614407972 -0.0000013552936260
0.9448305189483356 1.0008592902933622 -0.0284904029261457
1.0011498678645980 0.9880039265467798 -0.0337616056243009
1.0007606216048184 0.9596118680427125 -0.0270421541814209
1.0000067605975378 1.0000123187346805 -0.0000088566641950
0.9971122356554731 1.0013948770315768 0.0373478082796511
1.0012021336888650 1.0118114838692167 -0.0350929051724189
1.0002545105182385 0.9272487335442072 0.0157616255802556
0.9689531103230221 1.0011618922978975 0.0334767412630975
0.9669998693073740 1.0010417864969321 0.0317939912104643
1.0000004857680720 1.0000105098571817 0.0000035552763472
0.9999880913651727 1.0000023669216183 -0.0000014168881819
1.0000019534204319 0.9999728387674686 -0.0000006792963213
0.9999880917683942 0.9999971214383407 0.0000014020606337
0.9999954469695501 0.9999999239953171 -0.0000009444522818
1.0000002836008151 0.9999978919885116 0.0000008844140172
1.0000020027543304 0.9999968578037338 -0.0000015433412656
1.0000028685348570 1.0000008200407366 0.0000013920309978
1.0000023790186536 1.0000106236830797 0.0000119294229658
1.0000151398582904 1.0000034556255313 -0.0000039815721396
0.9999970458210892 0.9999919993769910 -0.0000178360797655
0.9999954261164034 0.9999923450515296 0.0000170161811780
1.0000074190531696 0.9999995847575623 0.0000049989259510
1.0000029249039430 1.0000044125571224 -0.0000093918261332
1.0000000668709230 1.0000067552211260 0.0000001233885646
0.9999949774614005 1.0000041780008280 0.0000134729530041
1.0000004705654915 1.0000072806570910 0.0000004512792409
0.9999991056867270 1.0000007734285539 0.0000016121464638
0.9999991056843786 0.9999935288345648 0.0000001647095777
1.0000041779333499 1.0000011676200473 -0.0000106566120777
1.0000073181554148 0.9999915893845925 -0.0000000529092059
1.0000077638766618 1.0000014515093152 0.0000008978729383
0.9999891431888703 1.0000186365965738 -0.0000053571503211
1.0000042616472313 1.0000245467108912 0.0000063131457489
0.9766735993789296 1.0010079698023968 -0.0313821776652528
0.9394354022666324 1.0002008181385107 -0.0137108925210556
1.0000053263779205 0.9999919056184825 0.0000162271902207
1.0000004410299632 1.0000006972061863 -0.0000007810179847
1.0000025261149028 0.9999898762322400 -0.0000049529736413
0.9948178420325893 1.0011600771670039 0.0341027396716281
0.9999993901266443 0.9999998038832202 -0.0000000652517982
0.9999926947073774 1.0000000152964008 0.0000014906537945
1.0000000184432798 0.9999926825745036 -0.0000014903544906
1.0000003527093968 0.9999998488634050 -0.0000003779166618
1.0000000701734362 1.0000059107684398 0.0000008554619106
1.0000059372133656 1.0000000874658510 -0.0000008322183336
0.9999998011264291 0.9999993743306551 -0.0000005738990013
0.9999949330953462 1.0000019716531063 0.0000018753302182
1.0000011996564999 0.9999982426050239 0.0000006737420390
0.9999997350911937 0.9999982734823822 0.0000013118328243
1.0000056391224608 0.9999887579219893 0.0000123102465875
1.0000002389093279 1.0000004796975406 -0.0000000221041189
0.9999992928026870 1.0000036109311803 -0.0000009844222402
0.9999994467832035 0.9999832388628672 -0.0000103070093292
1.0000041837712117 0.9999999597033710 0.0000029817159918
1.0000013670513352 0.9999994506375732 -0.0000010428711299
0.9999982149589468 0.9999997979173768 -0.0000005783459320
0.9999995444199239 0.9999968379240095 0.0000005860423766
0.9675704419429633 1.0014111098095417 0.0369450804207847
0.9999860154054850 1.0000086882817354 0.0000101053230515
0.9999975008888033 0.9999979035703911 -0.0000018811655548
0.9999973135522351 0.9999957783308017 0.0000063109720410
0.9999964259056459 0.9999974064424052 0.0000007805331299
0.9999908679482571 0.9999989076508661 0.0000017197054108
1.0000007671676729 1.0000097290851533 0.0000048907305129
0.9999922126821298 1.0000026653574783 0.0000005947806734
0.9999999992958950 1.0000051537540131 0.0000007995159346
1.0000078502653371 0.9999958879326470 0.0000033943859507
1.0000089882462564 0.9999998153865906 -0.0000021337369670
0.9999983207005609 0.9999964259106318 0.0000024451324195
0.9999993707810185 0.9999962555165590 -0.0000149622762358
1.0000046083229950 1.0000092498867033 0.0000021167451406
0.9999981349773789 1.0000004820851423 -0.0000023412316725
0.9999988340875149 0.9999984480533484 -0.0000010206428725
1.0000015295355338 1.0000008198122619 -0.0000013100554016
1.0000035864148569 0.9999988337100363 0.0000044894425881
1.0000039143697508 1.0000000837647933 0.0000000337665048
1.0000048596315685 1.0000058608027009 -0.0000139532426044
0.9999912244928659 0.9999991042805456 -0.0000000089419306
0.9999912244932851 0.9999991042805740 -0.0000000089417174
1.0000044336709331 0.9999966913056210 0.0000038197647303
1.0000005479555107 1.0000001407579897 -0.0000000237944606
0.9999707357102176 1.0000042914310445 0.0000090520108519
0.9711884678164465 1.0013423902213656 0.0361251378703020
0.9999992354448700 0.9999993307922856 0.0000012342817082
1.0000033353533884 1.0000009577425886 0.0000014470559841
1.0000055343530805 0.9999976026317634 0.0000040274679339
1.0010251059511575 0.9464093999189699 0.0315113823861260
0.9853667473739737 1.0009502791765055 0.0306758760861154
1.0016593324229093 0.9954689539047832 -0.0408704483174004
1.0000023892084615 1.0000072396903663 -0.0000132030021682
1.0000212673505149 1.0000006177600291 -0.0000066633727013
1.0000060388371195 0.9999998378270020 0.0000029562990574
1.0000026997935774 0.9999993410710842 0.0000007663517248
1.0000048145895037 0.9999988015995012 0.0000010342286079
1.0000012915442877 1.0000081188143444 -0.0000048994724648
1.0000014204600238 1.0000005480020742 -0.0000024561531798
1.0000073825931568 0.9999991048511975 -0.0000004748548474
1.0000009584991296 1.0000044025585817 0.0000040040497867
0.9999985527727627 0.9999823553013687 -0.0000024302666992
1.0000002854497212 1.0000031787043486 -0.0000019615761806
0.9999993635386663 0.9999862953265353 -0.0000002165901917
0.9999986025180109 1.0000020161229297 0.0000020939849821
1.0000209352730951 0.9999983339963791 -0.0000029952858799
1.0000009602504090 0.9999947752078201 -0.0000092776954096
0.9999992646263216 0.9999960725512614 0.0000006682941773
0.9999999158506007 1.0000051194755910 -0.0000043890932425
0.9999922758481824 1.0000010871508147 -0.0000063014879686
0.9999996344130517 0.9999977861936739 -0.0000013013473458
0.9999996362427412 1.0000016945351473 0.0000004668639874
0.9999994737257154 1.0000004375749030 0.0000011056844126
1.0000059535350605 1.0000019340853816 0.0000017367471538
0.9999996045101682 0.9999948454268285 0.0000005761302893
1.0000004279791221 1.0000076418982051 -0.0000057562395918
1.0000078604712999 1.0000031351396350 0.0000013026449015
1.0000006642777588 1.0000201434805673 -0.0000030513525013
0.9999999020770740 0.9999998450307142 0.0000000664539758
1.0000233023791145 1.0000146775934320 0.0000033621372016
0.9303134054452045 1.0003888967539045 0.0190860192134687
0.9999964677016026 1.0000000956663719 -0.0000027332725407
0.9999916247947578 1.0000055088989881 0.0000068508490020
1.0000055100349912 1.0000120694779981 0.0000083406023065
0.9999955377176383 0.9999990789327899 -0.0000039814275056
0.9999988202842220 0.9999979759374091 0.0000015674252570
1.0000034493015024 1.0000008757081054 0.0000012060973031
1.0000021368013534 1.0000015180833395 -0.0000023119063440
0.9999916245056764 0.9999979145325302 0.0000094060509202
0.9999969807122167 0.9999991626139317 0.0000022643385452
0.9999920012153209 0.9999880248736728 -0.0000076671112889
1.0000001917317578 0.9999999981493868 0.0000001397601032
1.0000022424489834 0.9999989095743362 -0.0000132000601661
0.9999942166149505 0.9999997097409040 -0.0000003733477687
0.9999889363927958 0.9999964836341145 0.0000084022278723
1.0000052297403839 1.0000115158620790 -0.0000051307928629
1.0000065376635519 0.9999993751502908 0.0000061284581281
1.0000177446821203 0.9999889383132700 -0.0000065129396300
1.0000177446757059 0.9999981673511343 -0.0000058579850071
1.0000019940438125 1.0000033576802483 0.0000011165327036
1.0000015415146595 1.0000115950940567 -0.0000031052467404
0.9999978563650863 1.0000004962188562 0.0000035898749817
1.0000038427848570 0.9999988437188689 0.0000015609929775
0.9999979815463532 1.0000115158727989 -0.0000060433810261
0.9999988057495234 1.0000007936706523 0.0000013818440717
0.9999996601616328 0.9999934591364273 -0.0000019327385787
0.9999995560601044 1.0000000569106728 -0.0000009507673632
1.0000019660575055 1.0000034623990306 0.0000044192455489
1.0000024390999473 0.9999999412893490 -0.0000017699187276
1.0000001100975857 1.0000017412079225 -0.0000006003523406
1.0000017405212693 0.9999997913496791 0.0000009480259495
0.9999975813613542 0.9999996932164900 0.0000004055231884
1.0009221057517601 0.9938729311303709 -0.0302301019651564
0.9999971593563678 0.9999997168142090 0.0000000175004928
1.0000023035904113 0.9999990087995101 -0.0000014532503050
1.0000017477430172 1.0000036129084802 -0.0000026023873538
1.0000026274993012 0.9999992770393129 -0.0000041431353201
0.9420947716502046 1.0002333952648397 0.0146875172361158
1.0000001950926205 1.0000010185246928 0.0000006095866651
0.9999998007641349 1.0000004068000596 0.0000010013525842
0.9999993216640650 1.0000014487143951 -0.0000004871846655
0.9999981744682570 1.0000001642953773 -0.0000015703699382
0.9999982730867581 0.9999887754958350 0.0000001584423762
0.9999931884605312 1.0000038223297307 -0.0000072436085159
1.0000004317961459 1.0000080117333316 -0.0000015426024083
0.9999996357156554 0.9999980305569477 0.0000017820752523
1.0000002317898962 0.9999999489259352 -0.0000004437328361
0.9999982303585612 1.0000005861607182 0.0000006490156310
1.0002045535122439 1.0021063901230236 0.0458984767348351
1.0000002110630468 1.0000009363121132 -0.0000007171945751
1.0000000144434344 1.0000002697922750 0.0000003524790715
1.0000146184917276 1.0000084757433352 0.0000030229786032
0.9999915942370859 1.0000136480774520 -0.0000076075869866
0.9999881140160908 0.9999995727021349 -0.0000054527519217
0.9999857891756615 1.0000064717779669 0.0000078196204516
0.9999857894569634 0.9999963610777980 0.0000057629460652
1.0000012662591931 0.9999993537435730 0.0000032002129025
1.0000020486824568 0.9999988434970045 -0.0000028301603130
1.0000049353896643 0.9999982841398091 -0.0000011638066704
1.0000006819105944 0.9999992195805111 -0.0000001143526038
1.0000064734568761 1.0000075897889402 0.0000071857261093
1.0000014771008054 0.9999980173547636 -0.0000023985153842
0.9999985579800128 1.0000013978644815 0.0000026580357458
0.9999945505755460 0.9999986868822387 -0.0000070458506573
1.0000000157914966 1.0000027296203133 -0.0000006540605520
1.0000002096885070 0.9999993786863659 -0.0000035852777407
0.9999891938225255 0.9999978175617201 0.0000023714476490
0.9999998343068007 1.0000037018811492 -0.0000013532336376
0.9999980340439815 1.0000008026032339 -0.0000017230313284
0.9999891938223550 0.9999978175634610 0.0000023714459189
0.9999874370097962 1.0000011327420122 -0.0000103118793425
0.9999976333739248 1.0000004575922357 0.0000020155234840
0.9999984037569296 1.0000156245602145 0.0000036851164439
0.9999925402964221 1.0000002359582674 -0.0000026379365169
0.9999994609941629 0.9999987193561024 -0.0000042818319243
0.9999987193471160 0.9999989834575793 0.0000030801393486
1.0000146929023459 1.0000008155189604 -0.0000022399439580
0.9999978807163260 1.0000019283629431 -0.0000086836091327
0.9999934875636677 1.0000008566484775 0.0000036359949166
0.9999977187849578 0.9999985684325614 0.0000080197070801
1.0000023310950985 1.0000099680892507 0.0000012146290412
1.0000002359524596 1.0000199631004021 -0.0000015892641879
0.9999981881622670 1.0000002362718632 0.0000178907794999
0.9999997488865189 1.0000002359514044 -0.0000002981119789
1.0000025198769811 0.9999999385008446 0.0000006040949092
0.9999996843832535 0.9999998653499994 0.0000003548109133
1.0000002359539233 1.0000199631029600 -0.0000015892625004
1.0000053681646646 0.9999997488864950 -0.0000000548829965
0.9999980485199127 0.9999989834477936 -0.0000004911632667
1.0000010193405431 1.0000026682101557 0.0000029951110437
1.0000010517428646 1.0000014817342111 0.0000009485419667
1.0000014817353615 1.0000000946281209 0.0000014546431354
0.9999994073736632 1.0000068891145748 -0.0000003632487881
1.0000009918300714 1.0000031594146377 -0.0000012005889138
0.9999973776841289 0.9999994609834766 -0.0000028607719089
1.0000002362703284 0.9999981881613860 -0.0000178907805230
0.9999987193479687 0.9999989834569238 0.0000030801400698
0.9999994609833496 0.9999973776849815 0.0000028607713511
0.9999875635506301 0.9999987194338538 -0.0000096193682363
0.9999973776934460 0.9999989834640278 -0.0000040624613582
1.0000007705004939 0.9999967130819487 -0.0000021178504415
0.9999980283925811 0.9999980485296254 0.0000028945414102
0.9999973776843563 0.9999994609833665 -0.0000028607715607
1.0000073650763270 1.0000008566678653 0.0000056186228829
1.0000023311156270 1.0000008155319069 -0.0000043103426564
0.9999980485281191 0.9999980283921903 -0.0000028945421118
0.9999777657194123 1.0000095632025547 0.0000027940460050
1.0000053684982986 0.9999981881756262 -0.0000182438193958
0.9999875634941870 0.9999980485584755 -0.0000060480833133
0.9999885159723738 1.0000042228623862 -0.0000023242250917
1.0000002576847413 0.9999910406243090 -0.0000074799752394
0.9999981881624944 1.0000002362716500 0.0000178907784483
0.9999875635497064 0.9999987194335127 -0.0000096193687408
1.0000015045184107 1.0000170653097737 0.0000018942049968
0.9999885159869182 0.9999978806541138 -0.0000040007687127
0.9999910405941024 1.0000012165747023 0.0000050727829350
1.0000002362697884 0.9999981881616418 -0.0000178907782067
1.0000073568455827 1.0000061018215929 -0.0000150835261932
1.0000115220502737 1.0000061016607666 -0.0000081893423611
1.0000176020239389 0.9999994626227292 0.0000139204679854
1.0000004161277933 1.0000120238766708 0.0000094761320908
1.0000047826749248 0.9999963400145061 0.0000084186374284
1.0000045488790794 1.0000235871288963 0.0000008196572924
1.0000008151457243 0.9999998007682316 -0.0000000471840003
0.9999979797965165 1.0000037747174511 0.0000142526309367
0.9999987886606263 0.9999962294580310 0.0000048667355300
1.0000011017604447 1.0000034615919788 0.0000028214916174
0.9999983489088388 1.0000030566341331 -0.0000028658011035
1.0000040552012732 0.9999987887237045 -0.0000092790157971
1.0000047826228948 1.0000024097674554 0.0000043368567567
0.9999869446684879 1.0000008151491482 -0.0000021263228442
1.0000027315049236 1.0000018517738742 -0.0000004335502650
1.0000061016622090 1.0000115220489947 0.0000081893425369
1.0000014574842533 1.0000120239152110 0.0000111996789919
1.0000027315097046 0.9999829600048975 -0.0000023804978723
1.0000008151454116 0.9999998007677200 -0.0000000471836735
0.9999990401691163 1.0000052297857784 0.0000042316688875
0.9999965446810247 1.0000008760025278 -0.0000030520435657
0.9999993748418391 1.0000002511388464 0.0000000594058179
0.9999955651801242 1.0000018517741287 -0.0000007906221175
0.9999978787047052 1.0000035999827455 -0.0000012344110216
0.9999993781962290 1.0000055471620779 -0.0000003649395395
1.0000042772136954 0.9999995420612824 0.0000025186145041
0.9999963399424602 0.9999793928062751 -0.0000016141550788
0.9999965446811384 1.0000008760034658 -0.0000030520437505
1.0000031185737228 1.0000007383344949 0.0000042679723478
1.0000007025867297 0.9999973505355997 -0.0000007980878065
0.9999998007684909 1.0000008151450990 0.0000000471836983
0.9999913928840372 0.9999990916726661 0.0000000908311508
1.0000010932826042 1.0000037096204639 0.0000009187216676
0.9999997776727122 0.9999947516173525 -0.0000021012556326
1.0000030566356537 0.9999983489080998 0.0000028658009925
1.0000004402981584 1.0000105125225753 -0.0000080351007313
0.9999992655714746 1.0000017517779118 0.0000007312669413
0.9999863693401019 0.9999964508187394 0.0000019595697565
0.9999994591266249 1.0000018518471003 0.0000086553703616
0.9999998007668158 1.0000008151454969 0.0000000471827142
0.9999976855948136 0.9999980945535063 0.0000017700274366
0.9999894854897173 0.9999997389048513 0.0000027932201872
0.9999960571005768 0.9999962415187365 0.0000063255859070
1.0000010783688822 0.9999810744962568 -0.0000003420346158
1.0000061016726620 1.0000014574376261 0.0000089295783214
1.0000011267287359 0.9999971642794082 0.0000112897892928
1.0000189591306599 0.9999910597152827 -0.0000045698261436
0.9999794894052711 0.9999990729008283 0.0000093825716380
1.0000189591385511 0.9999982574730972 -0.0000053694612693
0.9999989264933570 1.0000125613106454 -0.0000011997896107
1.0000059995989776 1.0000098397504944 -0.0000031132908808
0.9999980674058740 1.0000098397758306 -0.0000059506732033
0.9999985727230698 0.9999997425360186 0.0000019583110692
0.9999996729809439 1.0000040774726127 -0.0000004699023448
0.9999980673714551 0.9999980950528415 -0.0000009356672330
1.0000007309743018 1.0000010585061181 -0.0000001666453981
0.9999970687598881 0.9999894694127384 0.0000013160118654
1.0000000331054875 0.9999998150313830 0.0000000543284223
1.0000009620118273 1.0000040425225121 -0.0000012309772071
0.9999980806523453 0.9999992131752082 0.0000003551363875
1.0000047771195542 0.9999999136347032 0.0000025283076318
0.9999920584508657 1.0000008229793629 -0.0000024021616958
0.9999991675507186 1.0000045006304401 -0.0000004934763213
0.9999995216160420 1.0000024420764082 -0.0000001339550690
0.9999920584498496 1.0000008229785813 -0.0000024021617278
0.9999972142200433 0.9999957972275892 0.0000021156309914
1.0000098902030872 1.0000006065186160 -0.0000007511202097
1.0000000208970912 0.9999991281025064 0.0000008751026796
1.0000001706816524 1.0000006864712427 0.0000013408493254
1.0000029312353398 0.9999981680797959 0.0000009255396951
1.0000014209181267 1.0000029456943804 0.0000002823136511
1.0000000209028603 1.0000029795711802 0.0000025471913641
1.0000035427199192 1.0000152007646015 0.0000019734298333
0.9999935672587428 1.0000152007606877 0.0000007174287409
0.9999763360383959 1.0000013627521522 0.0000038434068686
0.9999763360229329 0.9999968056463956 -0.0000007200239954
1.0000136975980414 1.0000108420748357 -0.0000135859343440
1.0000022142376133 1.0000044666967105 0.0000034905572520
0.9999999773352137 1.0000053438979504 -0.0000019642411020
0.9509048365727101 1.0009581845212490 0.0301992315682611
0.9999914666551767 1.0000156497064947 0.0000102718977266
1.0000053513780043 1.0000032904375404 -0.0000150381698437
0.9999997487032689 1.0000005537635697 0.0000002808991811
1.0000038927764161 0.9999955257527521 -0.0000008593238872
0.9999974355678950 1.0000019246143839 -0.0000007033806501
0.9999950298209346 0.9999894032883657 0.0000014070691902
1.0000072796737309 0.9999967153059712 -0.0000093635988487
1.0000060768973258 0.9999932932279876 -0.0000083343083697
1.0000182559357260 1.0000022222406961 0.0000092473475081
0.9999956511056348 1.0000042375756812 0.0000066213129680
1.0000083245726408 1.0000045255805508 -0.0000016029221161
0.9999943302445885 0.9999984160695224 0.0000041226693541
1.0000028995697443 1.0000002300296837 0.0000042430632127
1.0000012246193501 1.0000072796823862 0.0000097952050977
1.0000022396910875 1.0000237085891353 0.0000023204762105
0.9999996952476085 1.0000011787771610 0.0000003500114698
0.9999873769967698 0.9999993866117440 0.0000016602898993
0.9999961579837674 0.9999987602229856 -0.0000020462441436
1.0000002300294457 1.0000028995700001 -0.0000042430631701
1.0000083245895168 0.9999981802036755 -0.0000044945536654
1.0000011787770473 0.9999996952476653 -0.0000003500113747
1.0000017901900988 0.9999940700375026 0.0000001417840198
0.9999984160696477 0.9999943302444180 -0.0000041226692084
1.0000031568997392 1.0000110176248835 0.0000015429941272
0.9999690864834470 1.0000036863436479 0.0000010243540148
0.9999894033111082 1.0000094496486285 -0.0000048237380757
0.9999996952474379 1.0000011787772676 0.0000003500114493
1.0000013528833589 0.9999990795970749 -0.0000028062022693
1.0000007072132586 1.0000032488179729 -0.0000004196738837
1.0000094496484366 0.9999894033110514 0.0000048237378244
0.9999994146094752 1.0000010240837724 0.0000004302525917
0.9999978386095683 0.9999996112892728 -0.0000018739588792
0.9999961579830924 0.9999987602232911 -0.0000020462439908
0.9999996468838721 1.0000012794407440 -0.0000016151698989
1.0000026371868977 0.9999997050961978 -0.0000041745397320
0.9999869268070556 1.0000021912388373 0.0000085775214412
0.9999963134134112 0.9999975133573991 0.0000005773424237
0.9999997382357614 1.0000019752549352 0.0000002075922846
0.9999977923726953 0.9999964969288531 -0.0000021132206662
0.9999990541040918 1.0000028030928361 0.0000027206436677
1.0000007317765591 0.9999924590965287 0.0000052618775263
0.9999986347448409 1.0000237085862111 0.0000014662985325
0.9999985003163884 1.0000003258854766 0.0000007029614284
0.9999965287409999 0.9999987457489099 0.0000031968574017
1.0000031569000873 1.0000110176246562 0.0000015429948519
1.0000045255917864 0.9999782685272515 -0.0000037614972032
1.0000011787776406 0.9999996952473953 -0.0000003500122203
0.9999894032975291 1.0000022396946999 -0.0000031153906036
0.9999944577939840 1.0000110176284405 -0.0000025323185371
1.0000010307148264 0.9999830139735695 -0.0000050348958399
0.9999998754542385 0.9999996847913655 0.0000000642642009
1.0000005360015864 1.0000038131347180 0.0000024436880356
1.0000034952352330 0.9999999092404156 -0.0000008650382977
1.0000012346685618 1.0000056495832041 0.0000021200303132
0.9999870628530724 0.9999963476669147 -0.0000081237588159
0.9999927688484975 0.9999978814963724 -0.0000044263361517
1.0000008336045882 1.0000277204044672 0.0000023509302193
0.9999832822252140 0.9999936347131325 0.0000016595461232
0.9999890044394900 0.9999979548181716 -0.0000096649111333
1.0000013368885066 0.9999857688357913 -0.0000052957419423
1.0000035669474752 1.0000091832757236 0.0000011781013522
0.9999857688362602 1.0000013368881513 0.0000052957411642
1.0000070807278181 1.0000020658730715 0.0000054277705811
0.9999999316585846 0.9999902745258690 0.0000043758904901
0.9999978815287160 1.0000179833818552 -0.0000070831013732
1.0000277204323753 1.0000049145445928 -0.0000057805572761
1.0000008957995667 0.9999979547431327 -0.0000043119239028
1.0000195463109103 0.9999918260846514 0.0000047096670895
1.0000039522840398 0.9999992224161296 -0.0000028079906666
0.9999995584222873 1.0000077951911965 0.0000015806548713
1.0000013857338295 0.9999985824690674 -0.0000024359852454
1.0000090188582555 0.9999993808045210 0.0000021729928416
0.9999987680326328 1.0000037138477156 -0.0000002440937742
0.9999996702979578 1.0000001841670416 -0.0000024531356435
1.0000009409304413 0.9999997824982731 0.0000008614865047
0.9999992140383430 0.9999875961024086 0.0000003037915032
1.0000017477994911 0.9999996304216034 0.0000015044405172
0.9999954365043576 1.0000011800879818 -0.0000022999238078
1.0000077951910402 0.9999995584225999 -0.0000015806549353
0.9999994351305921 1.0000195462931498 -0.0000021687291473
1.0000077951914665 0.9999995584223264 -0.0000015806549690
1.0000000239477407 1.0000024430318615 -0.0000012410567048
0.9999998653051033 0.9999990723946702 -0.0000022703336129
0.9999995422227532 1.0000003675376954 0.0000009625163306
0.9999931435859500 0.9999992224182489 0.0000031275379612
1.0000001411654946 1.0000033490899729 0.0000027793664827
1.0000012500928499 0.9999992224103681 -0.0000013240964519
0.9999918260865841 1.0000195463086934 -0.0000047096656471
0.9999979547432819 1.0000008957994815 0.0000043119238868
1.0000010802278103 1.0000009837714672 -0.0000020913490538
0.9999927688300643 1.0000036361518714 -0.0000012745570304
0.9999995584401372 0.9999970889559536 -0.0000043650738496
1.0000052916541748 0.9999991489328978 0.0000041494851344
1.0000005602786877 0.9999902746139094 0.0000103679756455
0.9999918260850493 1.0000195463105124 -0.0000047096670255
0.9999999316625782 1.0000062534405296 0.0000047950084808
0.9999854402629105 0.9999994351336522 0.0000029449523372
0.9999994351309474 1.0000195462926382 -0.0000021687287067
0.9999987467072258 0.9999974397207424 -0.0000021370808858
0.9999930065937475 0.9999947055709423 -0.0000041330964542
1.0000002913975150 1.0000004920385099 -0.0000000662597933
1.0000001878246354 0.9999992441870897 0.0000002659451318
1.0000019544490668 1.0000005363149505 -0.0000004672112803
1.0000005132629346 0.9999998668023591 0.0000018201729625
1.0000011368149420 0.9999983749103802 -0.0000019962445282
0.9999978564951467 1.0000002912794959 0.0000007161959322
0.9999853104751285 1.0000128286192387 -0.0000047106254224
0.9999989215882190 0.9999999572331985 0.0000013280850125
0.9999935162562050 1.0000000982267856 0.0000012071551972
0.9999998940150783 1.0000002298807760 -0.0000003894407067
1.0000012202851400 0.9999978939531963 -0.0000022127759067
0.9999988224820748 1.0000042117585481 0.0000017731159344
0.9999971945479269 0.9999987507677094 -0.0000011098180322
0.9999942782415671 0.9999962555165590 0.0000103276731573
0.9999984076986651 0.9999991184405137 -0.0000012631947591
0.9999984076952544 1.0000018367518380 0.0000008261194687
0.9999982842045989 0.9999959281685517 -0.0000004123983515
0.9999984076922134 0.9999991184404959 -0.0000012631931781
1.0000000042186885 0.9999976097376420 -0.0000002393489035
0.9999979427531778 0.9999994672506645 0.0000002464698569
1.0000133427157958 0.9999967470480570 0.0000122571065581
0.9999974648654885 0.9999982737504615 -0.0000009812400130
1.0000018543384472 1.0000001269442385 -0.0000005147814601
1.0000012506936407 1.0000008004348824 -0.0000034121751119
1.0000016717935227 1.0000002009210296 -0.0000003082928681
1.0000028536690968 1.0000201318866939 -0.0000074777336758
1.0000044197811973 0.9999997484850073 0.0000005362185078
0.9999996272662151 1.0000001740791573 0.0000010805859554
1.0000016005094445 0.9999995772593057 -0.0000041400083713
0.9999999489431847 1.0000008869588497 0.0000006310692670
0.9999999229555808 0.9999998803030353 -0.0000001375658417
0.9999999201231458 0.9999982257398099 0.0000022079445085
0.9999999451541259 1.0000010496285618 -0.0000032693774893
1.0000237934465570 1.0000010559172401 -0.0000089104841923
0.9999989002866645 0.9999943598285014 -0.0000007286160253
1.0000010807365851 0.9999983374363771 -0.0000012225077704
0.9999931510727426 0.9999980628293019 -0.0000042914452036
0.9999931510731689 0.9999980628295790 -0.0000042914451006
1.0000225610936109 0.9999891172796437 -0.0000114796686333
0.9999990700014146 1.0000024605427609 -0.0000068163960027
1.0000067533514871 1.0000006378432678 -0.0000019129697362
1.0000006479534307 1.0000067052114681 0.0000019163778145
0.9999999217426654 1.0000004732596122 -0.0000000738339508
0.9999980418206911 1.0000036893860815 0.0000153455569172
1.0000002269558761 1.0000008963966314 -0.0000030387739743
0.9999991988238762 0.9999999523730614 -0.0000001117907058
0.9999989076481245 1.0000014859095496 0.0000004210055100
1.0000017070456633 1.0000133409650700 -0.0000077867747410
1.0000051335585400 1.0000015584437292 0.0000090079816056
0.9999982257622566 1.0000057694862272 -0.0000165370588629
0.9999970445475257 1.0000010062872471 0.0000093595947577
0.9999990286564274 0.9999906598090266 -0.0000005048901704
1.0000003873131804 1.0000042602210804 0.0000039124665297
0.9999961778302764 0.9999832471766164 -0.0000106648051084
1.0000111823581390 0.9999850919557119 0.0000037983711245
0.9999832472721195 0.9999982534728130 0.0000143637373067
1.0000087309525831 1.0000020711756734 0.0000058788794932
1.0000015543399550 1.0000045573963141 -0.0000054762244600
1.0000011903634018 1.0000016601223567 -0.0000084465122454
1.0000017168003894 1.0000000089707650 -0.0000004085396355
0.9999999564718902 0.9999998523561558 0.0000001225491408
0.9999999803208099 1.0000002522389044 0.0000000693013737
1.0000000972830037 1.0000006831707851 0.0000000204724470
0.9999998795240315 1.0000008019590299 0.0000010261763433
1.0000001678463275 1.0000036456505437 -0.0000002465913132
1.0000000313728643 0.9999980238237407 0.0000008702435017
1.0000009147623710 0.9999994049786874 0.0000002612715986
0.9999997786720216 0.9999999087813729 -0.0000020880376469
1.0000000308553727 1.0000002559748968 0.0000001233924706
0.9999997351923728 0.9999994049777424 0.0000009202569051
1.0000002659970539 1.0000004747369700 -0.0000008342403991
0.9999988915354443 0.9999999325656284 0.0000000428056776
0.9999983360430859 0.9999999325654987 -0.0000002494334815
-nan -nan -nan
0.9999999532253611 1.0000002779434884 0.0000004349613122
1.0000006483653585 0.9999999058779504 0.0000004474336439
1.0000016153894709 1.0000000901448405 -0.0000000615879461
1.0010699307099284 0.9802251542245228 -0.0324427011293115
1.0008512331611610 0.9903073534223887 -0.0290752628522076
1.0000001151645621 1.0000079115792873 0.0000016332453054
1.0616527285652084 1.0011072296119294 -0.0342515886758222
0.9999991730350837 0.9999992708944411 -0.0000013353894197
0.9999956823557044 0.9999940005208844 -0.0000257531228849
0.9999957043403251 1.0000038198550498 0.0000042516805936
0.9999994923805274 0.9999996318264829 -0.0000003499578997
1.0000071086680324 0.9999995660377794 -0.0000003884783317
1.0000035277772272 0.9999972367700879 -0.0000030675046587
1.0000062483004661 0.9999972333662231 -0.0000005719853094
1.0004210396540398 0.9500046299609176 0.0202483650139353
1.0002600159815886 0.9517836661039282 0.0157306419191510
1.0000199101637088 0.9287118787870792 -0.0034481132777150
1.0000395347744999 0.9371630283414034 -0.0060823985791538
1.0006611803280048 0.9582533853232604 -0.0251456244154154
1.0006720500079638 0.9491741837489538 -0.0252304471394644
1.0000026202088863 0.9999998985261691 -0.0000063172123558
1.0000277457101396 1.0000022487712215 0.0000037578777669
0.9999992290160051 0.9999974135060085 -0.0000022708916543
1.0000010858908526 1.0000006875555749 0.0000004885932367
0.9999996281314514 1.0000010669522152 0.0000051728897921
0.9999944450109172 0.9999994049873555 0.0000021594776934
1.0011770700710156 0.9639819710656639 0.0333851809782722
1.0015561631752816 0.9584728434775132 0.0384373659058768
1.0005676010927225 0.9604718463703467 0.0232195075891218
1.0004837963635798 0.9475393221138778 0.0212563816806579
1.0008445607401584 0.9446554996432064 0.0284518753654640
1.0015080344954497 0.9766087780940910 -0.0383370304213307
1.0010761861756998 0.9912550720770474 -0.0325848625269351
0.9999953964670442 1.0000096408138883 0.0000045718227024
0.9999914512707587 0.9999945817334425 -0.0000033998505288
0.9639824771725330 1.0011752330042947 -0.0333851985014861
0.9430333429790717 1.0002372375587829 0.0149959177992170
0.9521213275177041 1.0002668416980574 0.0159855221291910
0.9787540308171040 1.0012301998525484 0.0348432067224244
0.9927791026459770 1.0009057737711380 0.0300612353158468
0.9999958412750380 0.9999833082830221 0.0000221768665978
1.0000102543118445 1.0000000436890892 -0.0000121758003323
1.0000070962558860 1.0000015359410155 -0.0000097963743711
0.9999953962785453 0.9999969921517626 -0.0000015549056847
1.0000003289681672 1.0000000869014138 -0.0000000312137457
1.0000006259753476 1.0000002237022074 -0.0000009757497880
1.0000836341350026 0.9412229056756382 0.0087877154806343
1.0000850496562597 0.9434849809997926 0.0092966898645484
1.0002428778213537 0.9429289893740473 -0.0150185311797947
1.0001692260078745 0.9448576843785419 -0.0125884679548401
0.9999932260112726 1.0000128837854665 -0.0000095879265722
0.9999997192577760 1.0000082035648616 -0.0000124923188458
1.0000014623058096 1.0000003368956785 0.0000004410745730
0.9999981645171482 1.0000037624452365 0.0000075004470202
0.9358631521858098 1.0000060210566086 0.0031043907268349
0.9434979891323407 1.0000293611451914 0.0056868843805570
1.0000092115628381 0.9999930200825538 -0.0000100459647243
1.0000081726197694 1.0000074769860741 0.0000067148814068
1.0000322491872031 0.9999996505378992 0.0000090234731731
1.0000012046588593 0.9999980653561195 0.0000055137126434
1.0014376051739839 0.9595987885421710 0.0374010131272288
1.0006978046100823 0.9579229739106586 0.0258818579423991
1.0000705200564601 0.9407825834749801 -0.0088341038286851
1.0000982354861290 0.9442714866772214 -0.0096505018983694
1.0007744947339157 0.9701012979765729 -0.0277539450781627
1.0005938188289696 0.9684706652959059 -0.0237491022506518
1.0000141298340937 0.9999898453889139 0.0000175049326993
0.9999906682080109 0.9999809083840083 0.0000013002887530
1.0000097009340980 1.0000031194132071 -0.0000040076182252
1.0000081025036780 1.0000209784182452 0.0000038041401381
1.0000017290806362 1.0000050897926858 0.0000025152873971
0.9656436704742232 1.0000856421947388 -0.0091016917484027
0.9820857020915492 1.0008933730762943 0.0293924078829205
0.9446076143305924 1.0000655930587061 0.0078350502416771
1.0000004095341370 1.0000007854002868 -0.0000004181238919
0.9999997368444851 1.0000010557912462 0.0000000043911449
1.0000002549314186 1.0000016527688709 -0.0000000947658318
0.9393745453248372 1.0002661724768442 0.0159466970450518
0.9468127973644374 1.0002887009641857 0.0166958064580532
0.9800203925116094 1.0011194315544980 0.0327726965215879
0.9858971904069868 1.0009731063301042 0.0308716404128186
1.0000013515884223 0.9999999613572171 -0.0000003648787995
0.9999992428035829 0.9999999450758196 0.0000004483973138
0.9999999723735186 0.9999993201868663 0.0000004123312910
0.9999988490825112 1.0000004601330725 0.0000003005826129
0.9999988902965620 0.9999994049766393 -0.0000002596471633
0.9999957938898086 0.9999991397337007 -0.0000015689941120
1.0000013021304095 1.0000004601389079 -0.0000005911504967
0.9999989356089857 0.9999999325644311 -0.0000001236999723
1.0000012917319687 1.0000001427819014 -0.0000010641922188
0.9999999973480606 0.9999999503629639 0.0000021370189890
0.9999949796072628 0.9999999339970673 -0.0000016624970025
0.9999965930121862 1.0000005008610973 0.0000024597130842
1.0000014290700212 0.9999996644008745 -0.0000009672541579
1.0000030035995822 0.9999950912248993 0.0000063069045220
0.9999975739629662 0.9999999639492122 -0.0000053203632510
0.9999947848461567 1.0000010271863582 0.0000007336773325
1.0000002945495912 0.9999992703974582 -0.0000000887843906
1.0000000237353401 0.9999983500637399 -0.0000060238843834
1.0000001758178338 1.0000005505016409 0.0000014698680660
0.9999929780226118 0.9999997805095240 0.0000031628988976
1.0000001052013361 0.9999987836960795 -0.0000003817795872
1.0000053696143345 0.9999991784779254 -0.0000021838457409
0.9999998169440090 1.0000005124315863 0.0000009690317780
0.9999996135725798 0.9999979496987002 -0.0000012308578418
1.0000029878500460 0.9999996310480879 0.0000006100063199
1.0000013586462795 0.9999999681103042 0.0000006001676331
1.0000030372061171 0.9999993104313014 0.0000000440954157
0.9999993610749923 1.0000006882912746 0.0000015877693230
1.0000004199235819 0.9999992383395144 -0.0000001976191549

SCALARS f:PK2stress double 3
LOOKUP_TABLE default
-0.0005919962831525 -0.0004373924567405 0.0001807500657838
-0.0001811794800572 -0.0002860077827625 0.0000879725577657
0.0031401229493318 -0.0022073789077941 -0.0016747476008897
-0.9890314752921709 -5.7813530831026103 -5.0335350079887879
0.0003946294434748 0.0042449877090974 -0.0001987068557768
-0.0098659155137508 -0.0049158835468558 0.0000844495157797
-0.0031035968167301 -0.0064075754004192 0.0002780122320742
0.0036742874489961 0.0274614806406549 -0.0000767577202795
0.0073532260564416 0.0279317382764646 0.0024156601774933
0.0094275495816806 0.0080815461978576 -0.0011954608572416
0.0029483568000728 0.0145029710732992 0.0025704603881306
0.0004430025543872 0.0004316089881979 0.0000569492666415
0.0008782615331718 0.0034257137685986 0.0000851834142439
0.0029785454255427 0.0001981264246477 0.0001723528731544
-0.0001951448807865 -0.0008160365570750 0.0000438395647547
-0.0005968925599802 -0.0018807295387034 0.0002257699001053
0.0006858586638767 0.0003745458505999 -0.0000739875171871
0.0000763864378783 0.0004670137144516 0.0001593284736054
-0.0000715018241495 0.0005047608611396 0.0001545953876301
0.0026693597838141 0.0037350505185733 -0.0008882989249453
0.0004879315197718 -0.0020493689380487 -0.0000461129193575
0.0015531277517145 0.0019729023688021 0.0003432315797933
0.0003793744274108 -0.0029300637751846 -0.0021029467829490
-0.0000225419611060 0.0028264920925122 -0.0001428567359684
0.0000429461159541 0.0002390716254046 -0.0000311229227146
-0.0003654423527399 0.0035230268757129 0.0003168572477531
0.0026691579487221 0.0011783481177142 -0.0001904639708486
-17.9911016004065800 -8.6415471604778720 2.4262966459130797
0.0015764925109867 0.0213948893016073 0.0012145799110995
-0.0010765940173531 -0.0075961059635129 0.0011510456212952
0.0037744703567871 0.0278956467379304 0.0001255163220545
-20.8620751695456974 -10.0950394190127550 -1.6017628588294233
0.0064626956257979 0.0213738326556441 0.0023238630838990
-2.9803398276164010 -17.3488282984458486 -4.8267492885935823
-5.6366499998281530 -2.1551649724670536 4.5819252413105689
-6.5925207992893231 -37.5646933149856252 -3.8777298106015117
-4.8892801507984576 -28.1715416180731282 4.4522673986087460
-3.0827098102461945 -17.9274895955845111 -4.9904689811505083
-21.9057408870851056 -10.6634848354156127 0.5450488556143883
-9.3814219953044837 -4.0563480257295916 -4.3731624745031432
-6.6353891447712838 -37.7987964850814393 -3.8986354383169095
-20.4354724181129903 -9.9512864760984634 0.5069850732999283
-8.3421781985098455 -46.9671946163670881 3.2842441061669083
-21.7595203263319128 -10.5931702118859103 0.5402840111957746
-20.4382714807342367 -9.9666873493571977 0.5073923023040743
-0.0033910804719277 -0.0009456057462625 -0.0007445547498437
-0.0004443596475059 -0.0025448514478668 0.0001108309010177
-0.0001591657274116 0.0003509192685619 0.0000394195335248
-0.0026037730192589 -0.0044688921332347 -0.0011042912509616
0.0028193924254057 0.0007399964740114 0.0006739569951359
0.0000567319164291 0.0001261959418364 -0.0000427030489238
0.0003513548295460 0.0018625040669496 0.0000937124873597
-0.0002171713740817 -0.0020603471370514 0.0003097697203758
-0.0001269713875140 -0.0003276792420586 0.0004582375027098
0.0005706747615171 0.0023497099118041 0.0004215480548015
-0.0007586242216502 0.0002096154552242 0.0002176585396825
0.0001466205192376 0.0002779048566639 0.0000186872163563
0.0000869826280515 0.0005019602580614 0.0000067758637394
0.0000437120992251 -0.0000873074328171 0.0000994674914869
0.0013764878362467 -0.0000951296109660 -0.0002645794148421
-0.0017831140172313 -0.0074258007444657 0.0006342868760571
-10.0318401920728544 -55.8513814597109146 0.4693546824508568
0.0002096242238165 -0.0003392168477656 -0.0008616602979576
0.0004729326766596 0.0058079337999689 0.0005143986851880
0.0008434719774335 0.0022493260130506 -0.0001658911705360
-0.0012551860796171 -0.0001845280704429 -0.0011537857589896
-0.0150359325342320 -0.0051879034522040 -0.0016511405283515
7.5922459488686105 4.7157023516232215 -5.1095102660648211
3.8967524474829256 24.2094102047663249 5.3132765190493769
0.0000437482852095 -0.0010080479302960 -0.0001237615510441
-8.6319839431402734 -48.5091658318533305 -3.3945958453400564
-0.0036748101569530 -0.0105195240815005 -0.0008693500014870
0.0009979127475567 0.0021390534050894 -0.0016565919076583
-0.0000437381500951 0.0003900017131013 0.0001725088427956
-0.0008624190420957 0.0032655221612186 0.0002378206487994
0.0005269157884076 0.0018626002018365 0.0000323583498034
-25.0228527896588702 -12.0123054561777955 2.1400282638196457
0.0003868659481666 0.0002054912261667 0.0010408951131884
0.0010178785188487 0.0057139525884219 0.0003280815883623
0.0021021402767673 0.0018389032306697 0.0003242416555258
0.0023510370624805 0.0020402567867951 -0.0002398232807463
-0.0004279490966547 -0.0003680507879669 0.0000444271509764
-0.0011592692620329 -0.0000259597367562 0.0000865507830881
-0.0063530712988461 0.0019751750937662 -0.0005722927605229
0.0007888551358807 -0.0005261733173662 -0.0004605370499337
0.0004633904999670 0.0006930704409627 0.0006914852656913
-0.0072546318648851 -0.0034363328177733 -0.0012395605089964
-0.0000818886311271 0.0017943368140507 0.0008555716790432
-0.0028676459855501 -0.0145251868934504 -0.0000994380347767
0.0011541900781018 0.0016667644767269 -0.0003486787665377
-0.0002481648618475 0.0000644934132776 -0.0006032285658323
-0.0012203882721874 -0.0041182091413674 -0.0005128116407010
0.0001676752184743 -0.0007628341197162 -0.0001404722362687
-0.0022553400560503 -0.0142190149086307 0.0006911157451775
0.0014822127421570 0.0013406416517504 -0.0004915189958138
-0.0005818733059016 -0.0009860050397971 0.0002720265539060
0.0041110093855448 0.0036679950233070 0.0010668838927768
0.0002170571150346 -0.0008566560838701 -0.0001135521304364
-0.0005942079670611 -0.0021206347498670 0.0002961132181376
0.0012513553681899 0.0038198385210570 -0.0024910706891906
0.0003904950557208 0.0031018756884038 -0.0020549049299006
-0.0000211055178536 0.0016885582040668 -0.0001835637278639
0.0001400629740797 -0.0002310829567855 -0.0000033444360184
-0.0000051266627632 -0.0009787980810842 -0.0001037816161078
0.0009579155333380 0.0016353253181706 0.0000626995280007
-0.0000322277985348 -0.0021282039723952 0.0009451976149529
-0.0017332418027954 0.0000265773009707 -0.0000492568482225
0.0006982177055458 -0.0009749626554947 0.0003901215589636
0.0004326971257498 0.0016868679321482 -0.0000245878305460
-0.0006463081421837 -0.0003564435136034 -0.0000486034898252
-0.0050767960953848 -0.0234212469175624 -0.0013499393557162
0.0011123675052591 0.0004086485579982 0.0001943382640614
0.0002179494402235 0.0008767098275253 -0.0001363966477299
-0.0006852518749426 -0.0019377899305634 0.0004414654191660
-0.0002450316867938 -0.0007743043515856 -0.0001150037602807
-14.3705294675387236 -6.5189072699146609 4.3868830609985192
12.4711701244555933 81.8149500182366722 3.2587771056452310
-14.6168880520482993 -6.6141789428333198 4.4623843239610892
-10.8465314133034365 -60.0196355752807236 1.5598930808130342
0.0001650399119744 0.0149768919858788 -0.0014311870481739
-11.2778333289212505 -62.2252703751810614 -0.5237921834816277
0.0003732347173150 0.0001563300513077 -0.0001902462974256
-0.0002693875555846 0.0003723897498030 0.0002083087013575
-0.0006898000448230 -0.0003448066269245 0.0003591896905362
-0.0017864113082587 0.0023282117226508 0.0004802059715622
-0.0005678449298215 -0.0031334745593819 -0.0000451026786736
-0.0005950871828205 -0.0002939998591093 -0.0004827226942244
-0.0001271484747209 -0.0022354738179408 0.0003225148518240
-0.0002702133427115 0.0006660141661889 0.0004790241609939
-0.0004622471762492 -0.0011821865378431 0.0000545338514165
-0.0001978205083953 0.0004017675517459 0.0002308056821322
-0.0010230686933305 -0.0032817984154730 0.0006233186421456
0.0003139282432470 0.0000087292855541 0.0001080927435225
0.0009047296369751 0.0003426155891876 -0.0003468291088199
-0.0004519040843673 0.0018911620033795 0.0005547859149093
-0.0002105152644780 0.0008134184878151 0.0003036827902228
0.0003608717582651 0.0003965244679074 0.0000329654969062
-0.0002354613738803 0.0007085953964564 -0.0003972724755919
-0.0015820034869782 0.0006088032835551 -0.0002629642125845
0.0008875929303604 -0.0001317969615032 0.0004387132647428
-0.0001652559977780 -0.0008659605337432 0.0000441516253905
0.0016619168816132 0.0028157732311836 -0.0004542139738701
-0.0013489077958884 -0.0010787395610177 -0.0007579314018539
-0.0003402571406980 -0.0004005029562276 0.0003682970542429
-0.0031778617632472 0.0008935615607954 -0.0006087871845550
-0.0012188198041465 -0.0080994010464989 0.0001262727758668
-0.0010136960217354 -0.0031456901160604 0.0004247392174065
0.0009916147020949 0.0002434996951754 -0.0002227401993035
-0.0000209036266873 -0.0000203753909514 0.0000084524034889
-0.0010843963998449 -0.0005906969753350 -0.0001797146112176
-0.0006294680200107 -0.0042828199641960 0.0008504820377434
0.0026594506810241 0.0002353290896580 0.0005079041306979
0.0015593462056253 0.0029956295934375 0.0000629210650915
-0.0017285519396298 -0.0005853485938888 0.0004792751322051
0.0011378523610554 0.0045271394832185 -0.0000839887325682
-0.0005449102957265 -0.0039846682245461 0.0003532795163043
-0.0072968223845324 -0.0105375472354106 0.0009520624247571
0.0015593457879265 0.0029956292296646 0.0000629209788055
-0.0009388242232883 -0.0005614110474908 -0.0000253664864275
-0.0000215679400562 -0.0008322758335464 0.0005796648842012
0.0012699927735215 -0.0004918540798575 -0.0003743155279543
-0.0028064238961446 -0.0041413910510205 0.0004477317422953
-0.0010751233106944 0.0106094664228705 0.0012360738194498
-0.0013172694533254 0.0003362169425744 -0.0000879741901895
-0.0008217785826848 0.0011724373812992 0.0001838919793156
0.0000257737306991 -0.0007483090918250 0.0002611222667564
-0.0039325574678839 -0.0114262765003352 -0.0017718271619509
0.0023590074156988 0.0285039686870627 -0.0008834485567592
-0.0007165409466058 -0.0001577839191938 -0.0001989827154100
-0.0021722441367458 -0.0014095851327078 0.0014116909678818
0.0038482957156039 0.0165035569668591 0.0014757861259749
0.0006880104567249 0.0229145275426796 -0.0013457260047380
-0.0013254196646999 0.0015255159163848 0.0004201849934665
-0.0002068789479079 -0.0027394430030759 0.0003225950049576
-0.0001858543465919 -0.0011421173137415 0.0002950227079050
0.0002815788558736 0.0010186334481628 0.0000425823560947
-0.0005968770803809 -0.0004676076072423 -0.0000676307812716
0.0003113855176209 0.0046488776455264 0.0018786406750503
0.0018605428807921 0.0054065119191522 -0.0007344339537360
0.0005976904559482 -0.0088761661772623 -0.0017212622642827
-0.0009303337744694 0.0055057485829073 0.0009884536294012
-0.0002581597573038 0.0054189713431550 0.0011091389618527
0.0092096288236757 0.0058935348432303 -0.0020200449963280
-0.0014343840774951 -0.0066544822877203 -0.0008180316739680
0.0008657156973796 -0.0000800611256814 0.0000707666213706
0.0001099189339448 -0.0004579594478945 -0.0000521504758527
-0.0005676596020579 -0.0066861272869578 -0.0000479747624457
0.0008657168246180 -0.0000800593201988 0.0000707662027181
-0.0009455374218394 -0.0021503031769493 0.0001667002652419
26.0957754045663179 13.7127891989348818 2.3872276436555362
-0.0006201234273250 -0.0003336346083136 0.0005000604707107
-0.0080747152426497 -0.0267846577184323 0.0016483866726915
-0.0002481663265686 -0.0020481898337930 -0.0004367503055809
-0.0054825951432237 0.0029710174835483 0.0000771584574378
-0.0006372416654800 -0.0050656551273980 -0.0008449303530453
-0.0023428701649549 -0.0141276900018447 -0.0003054726168172
-0.0014847870197250 0.0003940773652825 -0.0000261200865173
-0.0037618556570340 -0.0037745192249193 -0.0008488371642652
-0.0001895591376452 -0.0000619845671639 0.0000754987445737
0.0023953219672708 -0.0058702991640312 -0.0008551410512574
-0.0065378463484735 -0.0229307109020345 0.0008870198899496
-0.0039463282137142 -0.0087538665110814 0.0008153209153567
-0.0043660463868924 -0.0064751293459227 0.0030678494280249
0.0013464953782458 0.0080910247926806 0.0001770319685938
-0.0039561716377475 -0.0139245474924302 -0.0003464608173729
0.0018363290847331 0.0066707040728031 0.0004854415222293
-0.0047029598834313 -0.0098250225642401 -0.0006987008907555
3.0322543574544851 2.0056136752801872 3.7859465057232646
-2.2199196839228867 -0.2108976507261774 5.3177477394959380
-0.0001013426401303 -0.0047149625061466 -0.0016375911755660
-18.3094902929999392 -8.7854911273872229 2.4706753570680138
0.0004613566425307 -0.0002359012539665 0.0001440335807285
0.0023297395689588 0.0038519854057222 -0.0007362232989985
-0.0007896025086169 0.0006529971308822 0.0010379133716101
-0.0002382749217759 0.0007115598504069 -0.0000329481806853
-0.0002950774768174 0.0000397044766739 0.0001005413998975
0.0005636582320131 0.0026157947337323 -0.0001954611602468
0.0003556709991378 0.0040616582774761 0.0011520437180660
-14.6315320984313963 -6.8846403907441687 -3.2281944436448247
0.0000642913879062 -0.0020642347145473 0.0001399593552399
0.0005050183319434 0.0044323753278477 0.0003012455246413
0.0001848845826125 -0.0010231035985278 -0.0009343918917478
0.0001036132899559 -0.0001632791714801 0.0000459996555985
0.0038585866153982 0.0255148363895174 -0.0025641300515923
0.0019439072683130 0.0023663083177969 -0.0002515528962653
0.0003978768599541 0.0028494868224236 0.0010990576412765
-0.0030488075873161 -0.0014830195425798 -0.0004010166276597
-0.0005824239933253 -0.0002999264689140 0.0006475210528991
-0.0002331095623548 -0.0015328335293608 -0.0000123784862858
-0.0000486620648610 0.0005007991565937 -0.0000263523813387
-0.0012771723537201 -0.0007816440484841 -0.0003260397767987
0.0003551095610189 0.0017670083885532 -0.0000261798705660
-0.0024270394295845 -0.0011144028869035 0.0001495457049192
0.0000712696226352 0.0002607741829626 0.0000949808113494
-0.0000699147575444 -0.0004062994288181 0.0000195521961679
0.0001532739556960 0.0001657279751862 -0.0002556102586711
-0.0011182949251535 -0.0006239683804075 0.0000902956659250
0.0014453565926911 -0.0065645115540337 0.0010645547633751
0.0014615278255332 0.0099504200245841 -0.0000822984626911
0.0044156912534059 0.0282764952053256 0.0001573156258248
-0.0009549334397950 -0.0005342725607318 -0.0001626742218857
-0.0002084303169138 -0.0023251201730742 -0.0006519238303093
0.0000221644219747 0.0037966887725510 0.0018449007870642
0.0026593119015658 0.0098923663949971 -0.0000901566351143
-0.0006145369928340 -0.0014081134950903 0.0006050608417961
-0.0005611302813286 -0.0035933476764242 -0.0000242447200819
0.0001332318741894 0.0002012151158958 0.0000526746911901
0.0015930782425167 0.0027326784876033 0.0003154942368589
0.0001481550525942 0.0000989893845065 0.0000541131364414
0.0004000916151794 0.0008054509776468 -0.0001041583047088
0.0000879674133052 0.0001075341671108 -0.0001206948418862
0.0001991136700905 0.0002820037988276 0.0000557708288718
0.0001239455841918 -0.0014216895134668 -0.0001675936341532
0.0001016295888438 0.0050156125798323 0.0003462889878324
-0.0030753859583542 -0.0010025682998590 -0.0002336084133442
0.0013056262588327 0.0029517062457947 -0.0005822788346899
-0.0018490828092072 -0.0093211716601592 -0.0007666312514814
-0.0007311332651920 -0.0043935882478533 0.0005564885865279
-0.0005143442649748 -0.0001553172553237 0.0003730418983514
0.0000893349715980 0.0007117334647124 0.0002613254618013
-0.0024414791111901 -0.0093483938809372 0.0000665943748250
-0.0001197249914896 0.0011443856726101 0.0002108963316378
-0.0001079824669037 -0.0006373969622004 0.0000586993757828
-0.0010400071764833 0.0003069716251230 0.0012302838703512
0.0014353160981811 0.0049495049939090 -0.0001257732583858
-0.0060234241691628 -0.0078432184920940 -0.0005003902997325
-0.0000374504705654 0.0005778150969741 0.0000873392512854
-0.0000649686604708 -0.0007175072718870 -0.0000773410472927
0.0001173602752378 -0.0005070546357223 -0.0003165797506486
0.0009695828455230 0.0008496213870846 0.0007822536918888
0.0019851801997176 0.0054474845320091 -0.0003940646835328
-0.0000261622054339 0.0000693712814430 -0.0000127528742984
0.0004318337981602 -0.0011533047799038 -0.0001136563432593
0.0048893471153258 0.0198666321183028 0.0004852506885572
-0.0005860544128590 -0.0022011627101021 -0.0004733440640236
0.0009975599065224 0.0025984409010155 -0.0006807946585857
-0.0005376766810783 -0.0042798010017691 0.0001015115335440
0.0045914705782946 0.0046229109129326 -0.0004501944341894
-0.0004615631347035 0.0011573746864318 -0.0002139815885199
-0.0002562515702975 0.0000798285207219 -0.0000704959120650
-0.0010033543031236 -0.0058099870548356 -0.0000898851916490
-0.0000438582875875 -0.0004276147642126 -0.0000447093795522
-0.0003698998964579 -0.0000989443988990 -0.0000867370468241
0.0011025793221269 0.0097555026415084 0.0008099427665464
-0.0002507012156275 -0.0083307781575803 0.0007078852066381
0.0002143770350815 0.0010682084931282 -0.0000845267037057
0.0009757328100710 0.0009654011172090 0.0000958874129734
-0.0007374082918451 -0.0021636481805809 0.0000829892194360
-0.0002413352763996 -0.0010521209872111 -0.0002281998217825
-0.0004131460395586 0.0004534190694799 -0.0001165079910405
-0.0009350540287006 -0.0061038455261663 0.0001486458683175
-0.0000185195642130 0.0001960800392256 0.0001850628935135
-0.0025074045592244 -0.0013758559723303 -0.0008925438448817
-0.0014212127293497 -0.0015987535872563 0.0001698773891542
-0.0001427952354539 -0.0029041335921480 -0.0000590396022949
0.0013849840882435 0.0013154423933989 -0.0003584124906176
0.0005214307719689 0.0021843484605401 0.0005620913917518
-0.0000137793730226 -0.0071141793548425 0.0004122068870145
0.0001393816115644 -0.0003299942230901 0.0003201710571618
-0.0049976997981230 -0.0206700130833360 0.0005885562835137
-0.0018890157430171 -0.0044335660235831 -0.0008372656057909
0.0007070384179292 0.0045168727945178 -0.0000810828213768
-0.0001131851537250 0.0012844223643124 -0.0004045611635367
-0.0003188218759196 -0.0019504453672437 0.0000603560613349
0.0006252024420299 0.0005765609479581 0.0002372483785193
0.0005129008329580 0.0008797807839870 0.0002694506932214
-0.0026354122100595 -0.0017947940216552 -0.0008260302321021
-0.0001329834461867 -0.0009364880451436 -0.0000062265046643
0.0003748445231929 0.0010605287414048 0.0002940707070803
-0.0001762851364407 0.0023736111712903 0.0003345007177019
0.0002433779793738 0.0003810520726975 -0.0004532479410722
-0.0000990544254547 0.0020550945506774 -0.0000386526807177
0.0002242558443427 0.0006216897424161 0.0001464536558138
-0.0001502477558074 0.0007173301375402 -0.0001054542942007
-0.0010751136552047 -0.0026279704284283 0.0002527662102691
0.0000172588859896 -0.0054755055615663 -0.0002381092571023
-0.0012232734469683 -0.0006134464792732 -0.0005061161834619
-0.0076667037325486 -0.0160642825070560 -0.0005413653799119
-0.0057833813234521 -0.0051863491555018 -0.0017211570805171
0.0035435756764853 0.0076212992889223 -0.0012940108760142
-0.0033206429995049 -0.0006042336869511 -0.0000464019243475
-0.0013774203826340 -0.0015408731654869 -0.0001514203272767
0.0005042070619899 0.0026279762756076 0.0016476653940547
-0.0041191774852418 -0.0048145535585143 0.0026485236842301
-0.0003632020684671 -0.0022209256084466 -0.0001409816058715
0.0016174485392701 -0.0090588341921989 0.0008578803324294
0.0018319991540187 0.0005174278243120 -0.0006470189002276
-0.0017775051860326 -0.0050758564527352 -0.0005560289108448
0.0032230557565174 0.0030635159537804 0.0001058709079836
0.0006119324640352 -0.0004519070282651 -0.0000813284589399
-0.0013586369429522 -0.0010790185382884 -0.0002402954036212
-0.0001012709355031 0.0007887752246337 0.0000970812841973
0.0000450002454918 0.0013871724132098 0.0003011575189131
0.0003822825535574 0.0002857811643485 -0.0000810597289299
-0.0005506561339723 -0.0008235584593841 -0.0000107970636830
-0.0010406903621009 -0.0001941355862671 -0.0001009525865913
0.0000644411179144 0.0001564159945436 -0.0000020730465781
-0.0008301089364995 -0.0037358714870282 0.0005851381235036
-0.0006250402381350 -0.0014778591427969 -0.0003785204549263
0.0001073700559216 0.0023287241704327 0.0001722931351862
-0.0007342222349256 0.0017158598807960 0.0001046061544187
0.0004986769018467 0.0017025787764413 0.0007211707756560
0.0002162875377884 0.0003942223740342 0.0002441523676015
0.0011907777456086 0.0031712787361785 -0.0000454868324990
0.0006689361162074 0.0017683778939721 0.0002099358084208
0.0001215405719758 0.0034400317694559 0.0001546594867474
0.0028257376673884 0.0029970786266180 0.0002464630210094
-0.0013478452582692 -0.0009091800432574 -0.0003652005098992
-0.0006691505850164 -0.0010972267614664 -0.0000151784919857
-0.0006422494726702 0.0000234583308783 0.0003913211356955
-0.0014379413755293 -0.0022354017605143 -0.0001582915947375
0.0016963204297548 0.0075195910388834 0.0001476819071567
0.0026224904205323 0.0056154720798040 0.0003211307513785
0.0012174490595461 0.0063677599551003 0.0013254688231079
-0.0015750049682441 0.0041421051610782 0.0017431339459801
0.0004689657301524 -0.0016611472980512 0.0000694052832994
-0.0009010288928722 -0.0029106479983670 -0.0000235867299391
-0.0015653289916769 -0.0055954292348783 -0.0001509066407165
-0.0030320621702552 -0.0096147219542088 0.0007911014647671
-0.0005037981455932 0.0000956101046415 0.0014108510624511
0.0009251280027224 -0.0005833539379695 -0.0002019096012806
-0.0001631770831395 -0.0004565889261970 -0.0000717189414529
0.0001007531470431 -0.0002834233685152 -0.0001962312899718
0.0005798208000794 0.0038958561023315 -0.0002416234041079
0.0000897694286114 -0.0019618278681208 -0.0006432978572306
0.0046125285111527 0.0044333971944445 0.0004322261314201
-0.0014510317173245 0.0001313895817464 -0.0001532765817147
-0.0009607306094856 -0.0007523865688462 0.0005106239939840
-0.0000676474268728 -0.0001892838558443 -0.0000168290566736
-0.0001195035106773 -0.0015322454169168 0.0002964320143122
-0.0000536851546046 0.0006011637135420 -0.0000959552066495
0.0000746902845758 0.0002314751924794 0.0001613869293611
0.0002105211483736 0.0014037687901269 -0.0003140286426251
-0.0001762315478775 0.0014243654332096 0.0002754294453112
0.0025652999376565 0.0015568575526899 -0.0016658853055100
0.0040502656972271 0.0160629144397578 0.0002795682604643
-0.0036080564032606 -0.0084608807047745 0.0002392282655622
-0.0030494954948494 -0.0092170818947614 0.0002863224594165
-0.0009099552402201 -0.0080664109146133 0.0000093189521741
0.0001376271907833 0.0003522776375025 0.0002419092513247
0.0005660746636703 0.0023513769843453 0.0002711923409232
0.0001324867945501 0.0052404766088626 0.0004428756983264
0.0021435456554073 0.0111217483708469 0.0001243395391312
0.0020952749105951 -0.0058810336624058 -0.0000819019257274
-0.0001468279892175 -0.0036232744889324 0.0001689896892393
-0.0004330707839804 -0.0020784237010160 0.0000354094747543
-0.0005536322490256 -0.0032341804809101 -0.0001553413174808
-12.1853099018692852 -5.5954934017291986 3.7221587519252313
-0.0005112039588476 -0.0004533168780624 -0.0000843442084548
-0.0020887174572895 0.0027100673053747 0.0009619794961010
-0.0006494016982114 -0.0002548752353268 0.0003740911472659
0.0003922815828008 -0.0004237284322639 0.0005614599200145
-0.0007822157967235 -0.0037478643765562 -0.0002674837515986
0.0002037494678770 0.0022258970051849 0.0000923766160858
0.0020591346600665 0.0205158099862270 0.0013285352988474
-0.0064142878411365 -0.0055087491619667 0.0010415353786201
-0.0008918711156426 -0.0015448785781902 -0.0004854993675287
-0.0035091728977026 -0.0036727675322440 0.0001109737608610
-0.0054189867056033 -0.0018286953074318 0.0003499992670380
-0.0000010780420625 0.0042346962080588 0.0014079537056704
0.0005559220391332 0.0004381302917069 -0.0001053785315948
0.0006538852540457 0.0049881245651029 0.0000158486979578
-0.0039288120309116 -0.0061916012736331 -0.0002362771230712
-0.0038640248648181 -0.0172809772235553 -0.0003349029012284
0.0003216235360176 0.0016102157658109 0.0001053787647739
0.0005953196874774 -0.0006180727508034 -0.0002106443282385
-0.0004843701148342 -0.0001683158954060 0.0001867373413854
0.0005559220215118 0.0004381299496164 -0.0001053785042389
-0.0016615753152367 -0.0072344096966226 0.0019871484450018
0.0008323708632012 0.0019755858956567 -0.0003790769606068
-0.0031167622563701 -0.0102537600182400 0.0002362752921377
-0.0038659136859410 -0.0003734750643183 0.0015000936794704
-0.0010658557417753 0.0000083580733301 0.0005152105608346
-0.0004437525664970 -0.0004552596847844 0.0009459957146661
0.0066580521329550 0.0069972749209726 -0.0015172165760905
0.0004130275931578 0.0029806818888968 0.0002949972091215
-0.0004233295478265 -0.0024484951004161 -0.0007580390229407
0.0000222984334740 0.0018164884280739 -0.0006641728894114
-0.0051312389954120 -0.0243130051805544 -0.0003149553337933
-0.0006997659746795 0.0027017005185056 0.0001703302044177
-0.0027537100880736 -0.0188394694474852 -0.0004134881372279
-0.0011562253369624 -0.0013669629864926 -0.0003602323161570
-0.0004033157786551 -0.0025944662353734 0.0001125074703807
-0.0001562611943373 0.0002649231257900 0.0001418140908609
0.0001313429204542 -0.0000609896175621 0.0000484227446657
0.0003270008138507 0.0000029317880406 -0.0001646670209170
-0.0010512312411882 -0.0073142879135477 -0.0001454939117655
-0.0023727571769122 -0.0006850116841624 0.0001458463738994
-0.0000746202284746 -0.0029411311078005 0.0001111636533132
0.0003671638695083 0.0004754085197248 0.0003226147062749
0.0009210304413441 0.0031115109641315 -0.0004053025561393
-8.5076698344732335 -3.7411491452065468 -3.9659447420095582
0.0018154418217276 0.0144345121442161 -0.0010014707197757
0.0050128131821254 0.0062493636534683 -0.0015497495333750
0.0025979920571313 -0.0007699819105859 -0.0002698440101999
-2.5499342794667537 -14.9259306675060373 -4.1457871173965053
-0.0022409025013917 0.0030314246702408 0.0004625190944354
0.0017400843733864 0.0075705669409299 0.0004465274032846
0.0002036292495332 0.0000556489288937 -0.0000766208924836
0.0031662046861542 0.0020531794961020 -0.0003366379868718
-11.5298956419869114 -5.3053561800220121 3.5227933541711764
-9.0779547444343507 -50.8643128613098270 1.3129392599773988
-0.0002781080801745 0.0004741100686945 -0.0001348303528293
0.0004290231396490 0.0001753489587091 0.0003137480953896
0.0002778105101014 0.0014596861374891 -0.0000588183130317
-0.0011163467450582 -0.0050282256096365 0.0001969578070913
0.0004070110413139 0.0034465889069780 0.0002143841743364
-0.0011421663630071 -0.0092979843023881 0.0005620345211033
-0.0041885687777419 -0.0014328652865707 0.0006868553797521
0.0013931599837477 0.0008272784762795 0.0001919960160454
0.0008354465572551 0.0029133289054445 -0.0001794763702791
0.0002535544378208 0.0012489807333065 -0.0000664479825216
0.0000480234997211 -0.0003086652184722 -0.0004508386436293
0.0003898678264622 -0.0014257841035220 -0.0004878128513887
-0.0006026304619487 -0.0002729791425918 0.0000188364138739
-0.0007282243405291 0.0015351677245657 0.0005249374022641
-0.0032450838892436 -0.0021414524100559 -0.0002694668195362
0.0018264109255161 -0.0001912513728592 0.0001053709395669
-0.0006787398403969 -0.0028829681200343 -0.0000147084111462
-0.0050438479051427 -0.0033765762187103 -0.0001613860633949
0.0005762138169529 0.0012084000596549 -0.0001739453725598
-0.0010013601627178 -0.0004645554082817 0.0000931517019583
0.0031081160032220 0.0026419019407891 0.0000629017479652
0.0013090178772979 0.0019962508792611 0.0003859876041175
0.0000025695302733 -0.0000010029817072 0.0003893595256636
-0.0014076663174700 -0.0006142293716940 0.0000695514400442
0.0005252228098100 -0.0026669387591610 -0.0003086263454276
-0.0011064085068736 -0.0049543836455524 0.0001998339762015
-0.0001303851628077 -0.0002844180875979 0.0000987765082137
0.0000430181850479 -0.0003812526810007 -0.0000775858038425
-0.0002713901489408 -0.0012747547058214 0.0001269878566468
-0.0001335601196790 0.0003480064168330 0.0003319195510940
0.0007515022317579 0.0015961649126621 0.0002841390201312
0.0000984903215133 0.0001036681534520 -0.0000143550455816
0.0012651724536098 0.0040752640565856 -0.0001907365459168
-0.0006964750918780 -0.0002717679228326 0.0000993530096203
-0.0016743829091138 0.0012632005133203 0.0003611587173018
-0.0014960373311755 -0.0078815952431890 -0.0008080350912714
-0.0005416323817507 -0.0074044010191213 -0.0005493360867338
-0.0028819447673711 -0.0030314880004917 0.0004129730340617
0.0024799827471323 0.0023140804892529 0.0010268081012243
0.0026075021223756 0.0030795242908159 0.0006256037894544
-0.0014960377767276 -0.0078815969059866 -0.0008080353421930
-0.0002993414595044 0.0000707940345641 -0.0000309809181209
-0.0026926856907779 -0.0018954684090419 0.0008080450811912
0.0018614092833431 0.0102998310848119 -0.0003656764564285
0.0030397440177854 0.0162046306678331 -0.0001162490708186
0.0001586671440016 0.0009651410605537 0.0001764883848470
0.0007477960344319 0.0054175244549689 -0.0005041609499757
-0.0011807832602942 0.0000170782893090 0.0001481246220857
0.0001611233942720 0.0065642756311649 -0.0004098636129953
0.0001386020092793 0.0013559113016152 -0.0001051774289443
0.0011212199896688 0.0106628185042059 -0.0009447261367334
-0.0000833638274126 0.0000129648002749 -0.0000004946521945
0.0006260840139490 0.0021512038438822 0.0003467776898417
0.0016415174917482 0.0098044667165289 0.0005310407059283
0.0003174430929244 0.0007102720521451 0.0000383890840262
-0.0015291182396957 0.0003531475518547 -0.0005456422763618
0.0003126653222833 0.0019425403692807 0.0003486892355228
-0.0001245301248799 0.0000897806104564 0.0001035698131088
-0.0009115941086995 -0.0066941411219645 0.0005117636054513
-0.0013197337842219 -0.0062760421481082 0.0005962593704988
-0.0000091233622854 0.0003221544731189 0.0001434697843032
-0.0014092586536939 -0.0042261690312395 0.0001634008564637
-0.0013582444506584 -0.0051118761339678 0.0005996523249419
-0.0004242393909529 -0.0017043187406117 -0.0002925400682336
-0.0000036601514496 0.0005064165392442 -0.0001132991165344
-0.0018209572590579 -0.0006839138739773 0.0002825647793449
0.0030315354222695 0.0017555637419374 -0.0008142694467603
0.0001001730288398 -0.0002638845344238 -0.0000607201458125
0.0004431938266348 0.0021644189745351 0.0000453473357292
-0.0000620097125307 -0.0012838969184478 0.0003453255720996
0.0009896980987853 0.0060575439835005 0.0001783479854430
-0.0000075072498978 0.0000995870416381 0.0000494300442216
-0.0007328296279792 -0.0035956392380541 -0.0000435355718598
0.0013848922057079 0.0141711017681372 0.0005450054100568
0.0025155505114554 0.0015868396416297 -0.0004321372152595
0.0010041359791902 0.0047986940526917 0.0001406026219854
0.0003443726191884 0.0008973704624492 -0.0000559006679669
-0.0049720398130747 -0.0018730182536083 0.0003322637815709
-0.0000690865119732 -0.0008419970841684 -0.0009594695132273
-0.0011407727610668 -0.0017321051695989 0.0002077908551636
0.0002040635049531 0.0006334604380249 0.0000126394142206
0.0014836490496539 0.0013000291090550 0.0001536562686895
-0.0000980382645741 -0.0001812502717615 0.0000241319822573
0.0032788458217264 0.0058478038583198 0.0015532419777561
-16.8353547498898379 -8.2039842509383636 -1.2615339456121510
-8.2415226361422942 -46.5013350588563341 1.1723176313716723
-0.0028060913936181 -0.0014533784641609 -0.0002459203796876
0.0007671070194789 0.0002289845476092 -0.0010670680719274
-0.0002813353653236 -0.0010194045811368 -0.0000505796977053
-0.0006232860488403 -0.0021172249427476 -0.0001215611681524
-0.0003403038801310 -0.0020483964771408 0.0002301767117660
-0.0003301613246362 -0.0015598582322724 0.0002473726432772
0.0001209062556138 0.0000949578637653 0.0000078034311379
-0.0042565155297785 -0.0238784676806071 0.0002018674608544
-15.2037167412126948 -7.1621390550111954 -3.1424943803777907
-0.0065442485779214 0.0101802582560976 0.0000940157610974
-0.0047740796186354 -0.0271170649569049 0.0000683627671668
-7.0740021182155006 -40.1730208257396058 -4.1514513528774790
-17.9723207897436765 -8.6286212740498129 2.4230729391370200
0.0047804979939879 0.0036825643759073 0.0016577786456981
-17.9723206667972164 -8.6286266005748065 2.4230737654754924
24.0641187225352056 12.7614366792758620 -2.9479200901612623
-10.3907349701688556 -57.6621480746502044 -2.6396388279757157
-0.0001505353408996 -0.0064388118487068 0.0002356527043133
0.0043008777523831 0.0149376217914595 -0.0018561527180025
-0.0010072171950471 -0.0057240919491105 0.0000706629278032
-8.3418158711051831 -47.0115869131469069 2.1335979106972993
-4.9307085947241127 -28.3776118918976437 4.4843439775034097
0.0022726896975377 -0.0036458890276650 -0.0007975491766111
-2.4097627722588624 -0.1493267911168830 5.7334339782412131
-12.7609595146987740 -5.8516875892925038 3.8932211727928268
-0.0033354645874547 -0.0104972113211457 -0.0010483310903285
0.0021884099665876 -0.0029662048511063 -0.0001822428129595
0.0001315486356779 0.0008234560782525 -0.0000516781756921
0.0007628113608310 0.0047681660403969 0.0000329633711893
-0.0004274848533227 -0.0046401886624490 -0.0001306452603560
-0.0002408330652427 -0.0000395823387499 -0.0001115475983926
0.0004231048608114 0.0025339339919936 -0.0000095167348622
0.0003733713803925 0.0023473406151061 0.0000132461585921
0.0005143971907103 0.0051858858775706 0.0004222988151054
0.0013576453408353 0.0083208800748972 0.0002465781538322
-0.0009870812712445 -0.0032485315650960 -0.0003123075088335
-0.0003687511906047 -0.0022480196506283 -0.0001707410616374
-0.0016223117401505 -0.0017677939631055 0.0005694448358214
-0.0000635152098352 0.0008715145045317 0.0001590109559138
0.0001795581141007 -0.0014464176724731 0.0001231491938821
0.0024512891556319 0.0009398931364604 0.0001340482783101
-0.0010620989756091 -0.0091596486194005 0.0009820815089448
-0.0009263655355770 -0.0015988738318571 -0.0004462981246948
0.0044196341081348 0.0045212669418591 -0.0008208765864560
-0.0033569905739927 -0.0091897586503115 -0.0009819447257973
-0.0008729901957529 0.0041304591268714 0.0000942260074753
0.0026934562857887 0.0009114248452358 0.0000602736361352
0.0005900737517098 0.0001668531509459 -0.0005451017742870
-0.0000779724008517 -0.0005936831193512 0.0003492320648132
0.0016777432587509 0.0030034820916687 -0.0003092219612904
-0.0002050009642835 -0.0006909901583270 0.0002469379150070
-0.0007820786499754 -0.0028243563015960 0.0001731751356564
0.0000212991370990 0.0000659575704442 -0.0000159416626237
-0.0000528722487645 -0.0002776878991378 -0.0000391558838135
-0.0004115337744004 -0.0011142324800164 0.0003110323264667
0.0006572262032584 -0.0001089127179300 0.0000375149771089
-0.0006899605689615 -0.0009133560169660 0.0010545500221004
0.0007793820623596 0.0043903273200131 0.0005665005779226
-0.0003560948976872 -0.0017475467140244 -0.0000502777336684
0.0016165787404587 0.0003867765513386 0.0004727066936699
0.0002417008715921 0.0040314686290932 0.0001316648420161
0.0010448193512683 -0.0071918685154206 -0.0010184567700223
0.0004364438158520 0.0014886712944541 -0.0001117551311852
-0.0002730205200649 -0.0001806973698923 -0.0002994788802015
-0.0007401237236890 -0.0028678182501142 0.0007430129054183
0.0002194280958323 0.0013109671408949 -0.0000210772585396
-0.0006758779155432 -0.0023976868983824 0.0002852421744698
-0.0007638197026321 -0.0006600544179156 0.0008671228753219
-0.0041103727814024 -0.0138502254765901 -0.0008269618729103
-0.0010328855198272 -0.0036652569652676 0.0002835673942087
0.0002735961464011 0.0021770461138698 0.0000323579328124
0.0027615450481966 0.0094841415059271 -0.0009736839584734
-0.0012322243145937 -0.0084984614167575 -0.0011916348195306
0.0001115230399995 0.0008153506957876 -0.0000473943289575
-0.0002786212568278 -0.0013640284529034 -0.0000402397466964
0.0002852616000738 0.0014802859431943 -0.0002869809906285
-0.0005429288741692 -0.0024343759684773 0.0002813440762447
-0.0002567900829313 -0.0015477556207707 0.0002265456305516
-0.0017922587619037 -0.0044558633767182 0.0001632710787743
0.0015189561909881 0.0005454194124167 0.0004305289110421
-0.0001697279411708 -0.0063038669837243 0.0003116569605273
0.0003501761349449 0.0017715411619123 -0.0002663670388508
0.0004287863343195 0.0024162058271997 0.0001347554309994
0.0002119748161176 0.0011341443131003 -0.0000068176156844
0.0009598729394544 -0.0016060463047863 -0.0005331987943635
0.0029088375227987 -0.0006035167153084 -0.0003106532301084
0.0002922905568863 0.0018494763507228 0.0004446643640238
-0.0003059447673247 0.0003457048708274 -0.0004964992932049
-0.0011257485739157 -0.0007347132460903 -0.0002666757382865
0.0047328290805613 0.0037231798069317 0.0006083203077414
0.0008987771430816 0.0018476902479532 0.0001729534354854
-0.0002134899934548 -0.0005815260986781 -0.0001318541449618
-19.3941968197261012 -9.2873073572064069 -2.6189538212342640
-9.4570842030772280 -52.8384459129787984 2.4107386954702688
-0.0006195087785847 -0.0012666450822453 0.0005449396758674
-0.0003931904886127 -0.0009827521078844 -0.0000186934832566
-0.0001931819593206 -0.0004607810696506 -0.0000175742098857
-0.0001716236322219 -0.0001776657411506 -0.0001915173012622
0.0014586914544038 0.0018437822201970 0.0001330159882557
0.0001567528191768 -0.0003850137569276 -0.0000189612980706
-0.0020262708307388 -0.0129633731448012 0.0006455233940033
-0.0023252959879568 -0.0075429796678813 0.0001945193432372
-0.0001099145717810 -0.0046144830231041 -0.0001788404744468
-0.0006120748902662 -0.0006639774938057 0.0000523260717611
-0.0002796038096399 -0.0005897097941782 -0.0001918619150160
-0.0004640616600587 -0.0004087847575197 0.0003254879946893
0.0004495942626394 -0.0007764807378833 0.0000165532477678
-0.0068968084231120 -0.0376006429274753 0.0025210092880110
0.0001264147083260 0.0001296558631453 0.0000329707683026
0.0005100770023558 0.0014310175202258 0.0003215733094584
-0.0032641853199628 -0.0115842115692594 0.0000265984979120
-0.0000386809917510 -0.0019637777880372 0.0001435758001856
-0.0001827714423184 -0.0010441600361898 -0.0001425516135752
-0.0005151236115314 -0.0041354297498585 -0.0004172520086319
0.0009893328202775 0.0007091507270839 0.0001436825714372
0.0001435722402288 0.0022376631831918 -0.0001875428593958
-0.0001003662380435 -0.0006306856457986 0.0000318285548534
0.0014679076802752 0.0070824075715326 -0.0007902066103585
-0.0001828819427784 0.0028958460543318 -0.0003818318868539
0.0011283918897533 -0.0001414920479384 0.0004376267750543
0.0001885570688831 0.0002483823343950 -0.0000846328386134
-0.0002081105332023 -0.0029589369840684 -0.0003656528175791
0.0020564117796953 0.0004937277387575 -0.0000586217525772
-0.0008640246806824 -0.0041173305917169 0.0002323242058879
-0.0046034572974196 -0.0010407717108915 -0.0003688767765515
0.0008104420266628 0.0023428338696633 -0.0002179718844248
-0.0001552228846532 -0.0006722663754433 -0.0002068926147656
0.0002781149183708 -0.0000403696898571 -0.0000057875549786
0.0008104419690169 0.0023428331160591 -0.0002179719703059
0.0043112771116913 0.0024217420161616 0.0005951378543725
-0.0006498895504536 -0.0009195950691382 -0.0003919731244439
-0.0002797292005675 0.0013022922232153 -0.0002683068025242
0.0009634088354404 0.0013365844769312 -0.0000376380710991
0.0008104419166207 0.0023428326871745 -0.0002179719804810
0.0004115402512062 0.0005771676448805 -0.0000899915656059
0.0003104496734795 0.0020928348986352 0.0000189219095046
-0.0013106521896437 -0.0052212726493863 0.0000603542475243
-0.0009804187222847 -0.0050561474115925 0.0004867249369337
0.0008104416868729 0.0023428302718824 -0.0002179721724936
0.0000601519363734 0.0012910130012322 0.0001745466828246
-0.0000900088982587 -0.0000301174997070 -0.0000516740849853
-0.0000041353710448 0.0022393491509641 -0.0000547499012923
-0.0009696070886051 -0.0019992686435753 0.0000894728071688
0.0012883970797814 0.0078441963506411 -0.0007948442126583
-0.0067928094353894 -0.0088671104539111 0.0006320371686883
-0.0030779168053112 -0.0122256283409382 -0.0007815745519344
0.0033747025865474 0.0059263937519102 0.0002075585954373
0.0022653415097323 0.0044484816194750 0.0000554499261878
0.0002718640984534 0.0016049687087779 0.0000545963271751
0.0026142740571294 0.0019098661905247 -0.0005872206632792
-0.0010877092169830 -0.0007667558732023 -0.0002816711640960
-0.0011290894287684 -0.0072633820567964 -0.0000415807535551
-0.0011289643448956 0.0005711913711041 -0.0009938390612460
0.0025011483185850 -0.0000478086991185 -0.0002949390564463
-0.0013473622422316 -0.0019147615040724 0.0005093183031509
0.0004654339420729 0.0016234985012574 -0.0000762577840269
-0.0001076022746560 -0.0005307373254375 0.0001053925206005
0.0013504770723764 0.0009089294347754 -0.0000971307691890
0.0027371494784920 0.0019089437998035 -0.0010507537906926
-0.0007065696910561 -0.0002189030881235 0.0003266254460017
0.0007389436215446 0.0039681609724473 0.0000971312548451
-0.0008456846878004 -0.0030666627363096 0.0001168324547546
0.0000626775093312 0.0000810851157498 0.0000455579653102
0.0004054525505969 -0.0004082491707546 0.0001499568118639
0.0000816176938333 -0.0069251279110330 0.0013978928213199
0.0002458564880887 0.0013212192184180 0.0000698821623400
0.0006216878837921 0.0027106979229149 -0.0007124576656576
-0.0049451472018622 0.0004955292869018 -0.0008041454280746
0.0003383604705024 -0.0011706153576765 0.0005227022062403
0.0001126087606380 -0.0003796492824067 -0.0001611427446658
0.0003114535282619 -0.0005095810759304 0.0000166614151658
-0.0023870573917557 -0.0071896719364366 0.0004671950765009
0.0014423758946205 0.0090219757993004 0.0008957390758413
0.0006448386078034 0.0007998932251910 0.0001471998719569
0.0006448386008819 0.0007998933370748 0.0001471998201374
-0.0002302650941481 -0.0070332708993531 -0.0010841815517194
0.0020899950845815 0.0018118969398111 -0.0006232475228004
0.0000704003369192 0.0028501895605488 0.0001559765060914
0.0004767846407371 0.0008153694213647 -0.0000673817312824
0.0003124095239297 -0.0004273193918040 -0.0001223115286875
-0.0030020186091193 -0.0031541588713742 0.0011904854221980
0.0032538592905020 0.0004692552426732 -0.0005266825383950
-0.0015064392083127 -0.0022205341305542 -0.0000408702736474
-0.0005202192975746 -0.0050380814880705 0.0001250067014179
0.0004767918604195 0.0022197225101070 0.0000108217974525
0.0031537712560797 0.0022625622891034 0.0007429423565148
-0.0000788181634576 -0.0007106648871572 -0.0001006694379522
0.0004866526188863 0.0019870387319476 0.0000162412169404
-0.0000366598557042 -0.0000608906611880 0.0001244586579567
0.0001539708919033 -0.0003039916193410 -0.0002565262838280
0.0015730142763947 0.0022264934930066 -0.0001276465321661
0.0015397382511395 0.0045155939459988 0.0006298644377062
0.0018389763765672 0.0081054120138326 -0.0006215557580139
0.0018673271256901 -0.0015247466045637 0.0011562691810042
0.0018837786990647 -0.0015423363848989 0.0011729828249962
0.0001788387295585 -0.0029484795809268 0.0009034322840720
0.0002646744765308 0.0065573330210491 -0.0011730016082573
-0.0039226384951707 -0.0063256820966620 -0.0002793132418008
-0.0051206807460129 0.0002171659806562 0.0012048771229122
0.0002734163510401 0.0006737741429166 0.0001005193460458
-0.0016453865119940 -0.0014320197621952 0.0003559781860850
-0.0086867079144634 -0.0059606136926390 -0.0015879689432983
-0.0033605980259436 0.0033680406028393 -0.0004330907214335
0.0007156286001956 0.0006819332347745 -0.0009167142883999
-0.0008792362065165 -0.0089253780823205 -0.0002282397255961
-0.0017307599797081 -0.0126351622823824 0.0004260697459649
-0.0031629826690859 -0.0037387458288311 -0.0005139645814763
-0.0021916652027484 -0.0145824272592180 0.0002020788471280
0.0003121343932636 -0.0002530130581803 -0.0022797617184917
0.0001760560718472 0.0024346411172305 0.0010598294289868
0.0002990137482427 0.0000192468506241 0.0001466406096285
-0.0021695675001663 -0.0087081919863001 0.0005139595389111
0.0029828858093937 0.0008202067728483 -0.0003310399020815
0.0026266553362442 0.0032536401273176 -0.0000722623405325
-0.0009718234372517 -0.0048502739847573 -0.0002810624726221
0.0002734166047290 0.0006737752892374 0.0001005195116465
0.0013084661378029 0.0091966784315768 0.0003310454470684
-0.0065704198499472 -0.0100814147071418 -0.0010398249465636
-0.0039226389575417 -0.0063256815664127 -0.0002793134920427
-0.0031510683510871 -0.0101853472524451 0.0002793113903236
0.0000077774263591 -0.0005003920053871 -0.0001697406170922
-0.0014457495362548 -0.0039980327550935 -0.0000488986790117
-0.0001653181793272 -0.0002129203068812 -0.0000321811608405
-0.0004271066161877 0.0000351419263088 0.0001135636643784
0.0002373867322131 0.0002694545127204 0.0000847703028826
0.0029828857142646 0.0008202070080268 -0.0003310398878821
0.0002905654181222 0.0034059000219764 0.0004167064798897
-0.0017577143558410 -0.0014492233999367 0.0004732853489737
0.0014976482887011 0.0044466567195899 0.0006914973125643
0.0006962690857164 0.0029897224898629 -0.0001245572204244
0.0004485708554603 -0.0001415441021736 -0.0002359698944609
-0.0028411881676634 0.0005197348233742 0.0005031550624143
-0.0002980817580181 0.0000511202328570 -0.0000037920387806
0.0002831134664705 0.0006252613247443 -0.0001005195620275
-0.0004420208667654 0.0009685235586609 -0.0006326919907218
-0.0010559493032362 -0.0048923202000170 -0.0007430687352859
0.0005371920712849 0.0017973200706966 -0.0003592886072164
-0.0002841364582914 0.0020275381404296 -0.0004230263825251
-0.0014150220132877 -0.0071511237539389 -0.0002368047155821
-0.0038758026461658 -0.0154244580180137 0.0012253975434611
-0.0016966913403752 -0.0014556018483615 0.0005120691790499
-0.0001727824355391 0.0017873064056359 -0.0005726147814711
0.0000617227933424 0.0019584944008079 0.0000979658312375
-0.0008671494522059 0.0041317668329756 0.0005343093435792
-0.0007981003994428 -0.0041120995223220 0.0001774772799452
-0.0010302367816292 -0.0003872131306785 0.0002108090439785
-0.0009255991495536 0.0026827459569941 0.0002726503288385
0.0003527191759851 0.0001894607679016 0.0000474820360864
-0.0001116064749011 -0.0001034805158015 0.0002647826340939
0.0010074042851573 -0.0022621449018905 0.0002770324739224
-0.0009403422460732 -0.0001940353023649 -0.0003868386269558
-0.0001312440601551 -0.0003606224212374 0.0001283867263608
-0.0006443154954558 -0.0005037236029962 0.0000510986375279
0.0012161599968633 0.0052080279533091 -0.0000421103548968
-0.0003726507522501 -0.0022843459320255 -0.0001138804254893
-0.0004727087439901 -0.0033040213507910 0.0000495709657154
0.0006096492003210 0.0028045950660180 -0.0000076530066724
0.0000977450096519 0.0005552564364662 -0.0000068222471912
-0.0001449483779989 -0.0009097901537181 -0.0001360296035443
-0.0003859018178045 0.0021799083269790 -0.0001856827888868
0.0012263700389362 0.0001987900293914 0.0000079390766892
0.0007479339780913 0.0016051886580059 -0.0001018531855709
0.0004860527806650 -0.0001713686300240 -0.0001157271924113
0.0012263689921479 0.0001987902715612 0.0000079389826867
0.0005294243135230 0.0011406073848963 -0.0000556802050580
-0.0000993520263571 0.0034006881572130 0.0012344544779581
-0.0001665300843939 -0.0002055275088555 -0.0002258322367076
-0.0004964919770437 0.0008750797227680 -0.0000852456938090
-0.0007011976850821 -0.0009798849749620 -0.0000443888162713
-0.0010271130896959 -0.0005434267023752 0.0003324024521808
13.4138968719565383 88.4999272832733510 -2.1400291860475087
0.0002479805231594 0.0002228130942952 -0.0001140468963637
0.0000163091483139 -0.0003943069739343 -0.0001813351533966
0.0023611959282911 0.0118373789400665 -0.0007939154682898
0.0000452199733534 0.0002655952240138 -0.0000041683034868
0.0002273686686505 0.0019456782086386 0.0000783582160600
-0.0000447115694741 -0.0001316919563888 -0.0001690781834209
0.0003565293781067 0.0007773016033108 -0.0000303096607587
-0.0002208978955710 -0.0009920082854695 -0.0000157760586565
0.0014300502342818 0.0040371013021016 -0.0003577246161555
-0.0005120927537594 0.0000735028595082 0.0002552825793459
-0.0008927695907543 0.0000945999938551 0.0019404012326536
-0.0031388821386517 -0.0010052896534119 0.0013316717778063
-0.0019728780111293 -0.0002108047843889 0.0001676452057734
0.0005615866723109 0.0033775545372826 -0.0003997982848073
0.0038680865269035 0.0053400362199041 -0.0034593094806537
0.0010701720989504 0.0196866833773118 0.0003312262765351
-2.8259668748163103 -16.4739636716798898 -5.2735946503462250
0.7483715594968261 4.6557965130440069 -5.4729251154539691
0.0039295879427548 -0.0073324620852816 -0.0009390594561403
0.0005476241301367 0.0044887557855834 0.0004866156634187
0.0011443893096029 0.0052173590709338 -0.0003923604034082
0.0042739171139113 0.0038804563506153 -0.0030959595314911
0.0026229583278237 0.0044038152372545 0.0010903510132797
-0.0106499447841763 -0.0124337776410440 -0.0009439688473495
0.0100600066971395 0.0220796494629669 -0.0002727167154369
0.0031291442755862 0.0053595527123562 0.0014012845829309
-0.0008621590529779 0.0053733245297336 -0.0012621630383475
-0.0010168779475427 0.0035059963175126 -0.0007881852186643
0.0019175817111484 0.0039205614594987 -0.0004351959137873
0.0028674414064926 0.0056033761929145 0.0017617717501225
-0.0001925243245182 0.0025205418198407 0.0006852479010299
0.0016046310022756 0.0087835194983912 0.0021129457748972
0.0013393412549034 0.0005308028234231 0.0018239297812090
0.0000143844846746 0.0012092449391284 -0.0001957745627318
-0.0036132890119553 -0.0030259767801792 0.0007753721760252
-0.0000627428590983 -0.0004327701064516 -0.0002743377160523
-0.0001553523986010 -0.0024411834980314 0.0000001994143779
0.0001316346773518 0.0008025124959448 -0.0003323839538240
-0.0004938191860886 -0.0011491545429866 0.0000409152382315
-10.9230852691857674 -60.4225201333416422 -0.5099790975419557
0.0011712080531290 0.0002340301556988 0.0004663285804678
0.0009520111936432 0.0049505147591364 0.0000234890253460
0.0032421845203604 0.0018786658135906 0.0002574025876151
0.0003884764564285 -0.0048295373842437 -0.0006795790799962
0.0010124199674679 -0.0003259805235458 -0.0000090698955178
-0.0003193056254045 0.0020400235223765 0.0000846543031433
-0.0000879532974128 -0.0000278486362729 -0.0002118959795862
0.0005797479966355 0.0000201604173875 -0.0000835756556270
23.6868986841207523 12.8161544396372982 -3.9140806214706534
-0.0001065843779446 -0.0001259469075452 0.0000067983998833
-0.0004585575466727 0.0004560206215775 0.0000968028424022
-0.0003862972616760 -0.0036616114968764 -0.0003760137600778
0.0011043373705211 0.0038367214955560 -0.0004647375610092
0.0031867706124191 0.0003883491450401 0.0008289322741977
-0.0013503665477077 -0.0034704100406662 0.0000668822011267
0.0015381709065921 0.0008911768207722 0.0003154670175970
0.0004184786635103 0.0009450733492525 -0.0003418985968019
0.0001478940120738 -0.0070902917988430 0.0010358942848954
0.0016504264727300 0.0033456204698249 -0.0014685589765550
-0.0016204783931539 -0.0082242789705830 -0.0006546066906532
0.0008914223291727 0.0041938554328977 -0.0002094721120078
0.0006388814218870 0.0026814320718208 -0.0010148879918607
-0.0001450305313490 -0.0014014067608455 0.0000289859238506
12.4433057656872865 81.5833969752313521 -3.4314593843853549
-0.0003847857586639 -0.0031114085894078 0.0004412183258416
-0.0000356109229885 -0.0042301759576219 0.0004570534161726
-0.0001114298255892 -0.0009503939374371 -0.0003152433353214
0.0010406098819201 0.0007985561601191 -0.0009690714447332
-0.0001279741979490 0.0012023490738480 0.0003426642271341
-0.0030405375607513 -0.0025441483820482 -0.0007466296463778
-0.0039785341508392 -0.0061899114814099 0.0002212015280308
-0.0000828321856433 -0.0000010386842116 -0.0002735326966186
0.0005764203190232 0.0042578345274225 -0.0001125447174669
-0.0006281940175899 -0.0005283809249396 0.0004618431847843
-0.0008228573359922 0.0018779644400667 -0.0005229827230779
0.0002425941725819 0.0018157018113765 -0.0007341770429570
0.0000174967871933 -0.0003979639902438 0.0000713146728883
-0.0003080532492005 -0.0013749841525391 -0.0007217145810333
-0.0000994548758603 -0.0005079296040134 0.0001145793764999
-22.1430628062445045 -10.7219361922743737 1.5384678736090149
-16.4603838712500554 -7.2361293759673257 5.4710363766253804
0.0074980035032086 0.0144141295274677 -0.0015734423291579
0.0069704994861789 0.0320016476855051 -0.0006927753222013
-0.0020993040155797 -0.0132093006864086 0.0006375612684940
-0.0024850319986574 -0.0248179634316866 -0.0003141422990253
-0.0015004774074798 -0.0099058797771330 0.0010444924217009
-21.1631920987238438 -10.1367504071983916 -2.6429709349829049
0.0055823025749554 0.0292447576150810 0.0009187645914921
-23.6412821324985565 -11.4711584106703661 -0.7841105088566146
0.0036279689029751 0.0211043104368647 0.0010538578034184
-0.0004040471116168 0.0089411957684176 -0.0010678030764613
-4.9980304352880411 -28.7391839111724217 -4.8688478508728155
-11.3578770359648402 -4.9447905502908540 4.7361844494830025
-1.4954795817165754 -8.7126380148399800 -5.4183577049673746
1.9597013837794324 2.0955431881760274 5.8557154903964053
-5.9030313710211688 -33.7551822558754608 -4.4887343582624899
-8.5968953723942771 -48.3057172501192795 -3.5332620436275852
-6.9107609692908820 -39.2666739552846948 4.3343530653931550
-3.5769681271987261 -20.7457666771414218 5.1730933517920912
-22.1627191226375047 -10.3000005528029543 -4.2027169794581418
-0.4803215572415583 -2.6675836966897597 -6.0188664442225761
-4.7327075531085105 -27.2517107365967064 -5.0496209901246125
-23.6101692711816931 -11.3939553540210774 1.8524808550506857
-23.7560889743477901 -11.5294805461992382 -0.3797845284084602
-5.6351984218646143 -32.2812039731325910 -4.7388798052814396
-24.0260704154738356 -11.3367958790534527 3.5763752949363954
-5.7852449861793627 -2.0161415147921771 -5.2575677334569155
-11.1606384248991990 -61.6052909065236918 2.5636902988862995
-8.5645661764460712 -48.1290779209857646 -3.5932590138364509
-22.8186416734523405 -11.0815315011471007 -0.7259336847165364
-24.0230304534334245 -11.3207889200470131 3.5760202638228651
-7.8061811452137881 -44.0782000065066697 4.0622842074593821
-22.9859380487714589 -11.1104430047793432 1.5622111056135355
-23.7205303291771337 -11.5233003369082816 -0.3952846314631602
-22.8184021867183198 -11.0803971430661736 -0.7248438759795572
-0.0002370239101434 -0.0001144125394920 -0.0000057272134872
0.0000068021136597 -0.0013368463002274 -0.0000540953077451
-6.4105730897418658 -2.3412801150198863 5.2044853287937887
-0.0001689507148738 -0.0075663650854418 -0.0015938407655550
-19.7074811960570528 -8.6296643419198826 -6.0316406342892872
-9.5394924470112628 -53.1089011557929993 5.5448499523887893
-0.0008347392840723 -0.0013705934292534 -0.0003899030437428
-0.0007814018918102 -0.0004676963886143 0.0008596254969497
0.0002633664316575 0.0006552887741168 0.0000584185226989
-0.0022840094491075 0.0012829810760272 -0.0002785139045684
0.0001670810555332 0.0020057502882756 -0.0005873843193785
0.0000616549282540 -0.0004705790426660 0.0006145286292032
-0.0001571951220196 0.0008904941902992 0.0000770339550157
0.0009180519414085 -0.0000423667304284 0.0008834478352413
-0.0021222190015469 -0.0133567340727757 0.0007855869315114
-0.0002730443734688 -0.0025543000784177 0.0000767625996697
0.0003329305351678 0.0033951369033929 -0.0004408029087943
-0.0010513294667135 -0.0015036315328319 -0.0004320730733753
0.0003336314366717 0.0004759731978262 -0.0002380452533708
-0.0041958533331201 -0.0005937962171374 -0.0002397136422197
-0.0004280208024187 -0.0012955372378440 0.0000794919979365
0.0006014131321140 0.0022229043769976 -0.0000415015965636
0.0004682579097681 0.0009974571851603 -0.0000348954989569
-0.0007442089428902 -0.0047529899681813 -0.0007402370194000
-0.0000285053154360 -0.0034298997081137 -0.0000312063853111
0.0020003828830901 -0.0000482586288873 0.0003314570179809
-0.0003864869610997 -0.0008551290209694 -0.0001092059615963
0.0004755019972141 0.0015076296976846 0.0001992049215621
-0.0006138094051179 -0.0018757072404383 0.0003713807360090
-0.0023789716312199 -0.0022379411669525 0.0001136821916137
0.0003495069791187 0.0043839102531347 -0.0003498729434624
0.0010357414747846 0.0024400762098442 0.0005043798827126
0.0007628015316345 0.0008017408469761 0.0004772339082440
0.0004959851488639 0.0021365005348106 -0.0004772351757981
0.0009600366889553 0.0002096436476029 0.0003863959245472
0.0001670810777355 0.0020057501258620 -0.0005873842607863
0.0004755019606337 0.0015076295562386 0.0001992048664173
0.0011352146943500 0.0012611587718436 0.0003375683388166
0.0004926588301436 0.0026713052251114 0.0001853131674194
-0.0019050525496036 -0.0132481614984748 0.0005126471497363
-0.0044130205807709 -0.0018973216381045 -0.0007856049755917
0.0007628014985985 0.0008017405089034 0.0004772339403348
0.0004063131859485 0.0029796713704206 -0.0003863979871366
-0.0000402846244004 -0.0004058935204936 -0.0001654092636531
-0.0016878865073341 -0.0131395809584799 0.0002397077132424
-0.0016878868908266 -0.0131395833880683 0.0002397077216293
-0.0000180157863178 0.0036560331087433 0.0009356781472022
0.0009180519934369 -0.0000423664182631 0.0008834477104529
0.0001855796591707 -0.0008242382621035 -0.0000770334864500
0.0001855793549247 -0.0008242394283527 -0.0000770335921319
-0.0035895335861664 -0.0026808659252045 -0.0013059957645462
-0.0016878869999659 -0.0131395830843960 0.0002397079399990
-0.0001091122089904 0.0012778370166532 0.0000183044895521
0.0015316742816614 -0.0008922024809157 -0.0008115256550443
-0.0002465850072008 -0.0002010264259448 -0.0000276254285351
-0.0000048771759014 0.0012266129259315 -0.0000923293577017
0.0007085180330549 -0.0006387160477329 0.0003309581625502
-0.0005323438418238 -0.0012135191711383 -0.0002507856170744
0.0004660716111934 0.0004861272167096 -0.0002311956472886
0.0008480226981455 0.0034125192453906 -0.0001425667164708
-0.0008692798589889 -0.0007251961836956 -0.0000702782115531
-0.0000062025521320 -0.0001889852192417 0.0000280029870308
0.0000452862492336 0.0026240052541364 0.0010855290806838
-0.0005176404455159 -0.0042098405562386 -0.0001143844517425
0.0001252341832999 -0.0019343615341484 0.0001744972872208
-0.0000992005700811 -0.0011458441876615 -0.0001422906701730
0.0003728622347734 -0.0004502195178802 0.0004291609230347
-0.0029786552982174 -0.0023222537496206 0.0005402292685090
-0.0004500751574814 -0.0005339093699694 0.0000497616823724
-0.0001647963185378 -0.0001404627244719 -0.0000157754436909
0.0014594668790989 0.0037846606094524 0.0002259063739863
0.0001396629107109 0.0188474549993940 -0.0011512430108268
-16.9494122411175923 -7.9599521735183201 -3.5032899403366669
-0.0034522625192585 -0.0107449340637665 -0.0010091148185480
0.0011210090948061 0.0048718186961277 -0.0007992848630699
23.7048095550546165 12.8054168509194302 -3.8660841911923916
13.2152016984130629 87.0634895213228077 -1.0203698034096600
0.0005881556598718 0.0026690258552850 -0.0003256168661282
0.0001415362492584 0.0033465300436599 0.0002974165120557
0.0010994154542694 0.0032101776707204 0.0001817764332478
0.0003046595767150 -0.0002430031163356 0.0000915133057581
-0.0000606683676801 -0.0000960632532006 0.0000240803993115
-0.0008452694741228 -0.0049398648363025 0.0007938759826314
0.0000052571435172 -0.0000741632714440 -0.0000323764199450
-0.0000853926542400 -0.0005791864216489 0.0001673665943730
-0.0039011690728150 -0.0027562385446177 0.0013744792060107
0.0006516029517542 -0.0001828562580329 0.0000980302676707
0.0003186124070911 0.0013885081847794 -0.0002621600821692
0.0000009515607444 -0.0008578855125423 0.0003171509943780
-0.0032350925044367 -0.0010270126878288 0.0001893742600951
0.0019035188883587 0.0051738468023564 -0.0019036471827834
-0.0002788154885109 -0.0027871961780864 -0.0002381859033350
0.0013386551976902 0.0070331171868957 -0.0000432309968993
-0.0011000184844158 -0.0019974625253277 -0.0002620612429524
0.0027569556108313 0.0134637495574376 -0.0002185397186014
0.0005292942949393 0.0017826620629622 0.0011652418926205
0.0006596837647059 0.0041631999952960 0.0000980133572957
0.0005462579204038 0.0032139554459838 0.0001657318915374
-0.0014305030816454 -0.0021642839265421 -0.0004891607731015
-0.0008613896078090 -0.0005000613226100 -0.0000861344673208
0.0007553431679449 0.0004931959831521 0.0002204889425018
-0.0000511043385389 -0.0003753332442829 0.0000149062476797
-0.0009444110994527 0.0009297385382012 -0.0000332228060651
-0.0003390053794681 -0.0012064574938126 0.0002724347763829
-0.0006088413076690 0.0019919988337177 -0.0000752431611871
-0.0017960489114064 -0.0090684140548169 0.0001626836363938
-0.0016113328655471 -0.0093034351383965 0.0013199739776967
-0.0016113328526403 -0.0093034350591135 0.0013199739685236
-0.0016551970635459 -0.0050986916018221 -0.0012634656356205
0.0005820752334477 0.0012360819720642 -0.0001397240393238
0.0011954205429597 0.0049177273757202 0.0001107840022608
0.0001775647438564 -0.0003192966192611 0.0000349881556747
0.0006509531422172 0.0026870168097330 0.0006967566685178
0.0002202225577891 0.0008380891774948 -0.0001447296158605
-0.0003122841437689 -0.0008756418609348 0.0002550343071748
0.0010113262353182 0.0005194834530298 -0.0008751008661294
-0.0012393629593398 -0.0076020526431619 -0.0006177775015978
0.0005044724342797 0.0018495372595146 0.0000950028516299
-0.0013930623378915 -0.0006517214449295 -0.0000058810435394
0.0003403009914823 -0.0012598230669767 0.0003354068446089
-11.7342214525270219 -64.4612945319791208 3.2075949775900834
-11.2802285315348332 -62.2371970874771847 -0.7873387545346592
0.0035696849609986 0.0067844498205379 0.0029576047650079
0.0003826535239638 -0.0086919172880698 0.0010276009598189
0.0009288029619491 0.0033060098560166 0.0003008741899414
-0.0001257473115360 0.0015112044197835 0.0000536536520761
0.0010303514461036 0.0073543667168556 -0.0011809582700528
0.0004661464930332 0.0011673754014998 -0.0002630356202131
0.0000545218578744 0.0009526048741850 -0.0001394831780984
0.0000602884649326 -0.0000625279411259 0.0000610014246086
-0.0005597694571083 -0.0013818885917416 -0.0008031786437913
-0.0011986466064100 -0.0025634988890245 -0.0009089408062591
0.0007365810876787 0.0007549550280532 0.0001196328271451
0.0009048405230676 -0.0005229889057282 -0.0001050333054968
-0.0006643475929511 -0.0020200604148489 -0.0010803770954889
-0.0039886663141870 -0.0017279927006493 0.0007836875413221
0.0014085240334441 0.0006002765327585 -0.0003334288290544
0.0007365808291749 0.0007549543875704 0.0001196327341698
0.0000602882466205 -0.0000625283415535 0.0000610014918937
-0.0008929758671228 -0.0049616207780858 0.0001373317159162
-0.0003676641743375 -0.0030791036739206 0.0001417577844858
0.0009185179483910 0.0009462598694241 0.0001293241502740
0.0000048814731969 0.0002146459436275 -0.0000610014743218
0.0006093842298473 0.0007359612532969 0.0002821129583470
0.0001613900235704 0.0010149949726738 0.0000333181841668
0.0008783824679098 0.0003485653733343 -0.0003130490050472
0.0007323052052904 0.0002735463399248 -0.0014291913746300
-0.0029164370458133 -0.0125649822806608 -0.0004677880700134
0.0005065725947808 0.0017637027890041 0.0000253928797640
-0.0003424412301034 -0.0023258314644027 -0.0002655825023159
-0.0001192487877008 0.0012518875432219 0.0002073114833539
0.0001661093049097 0.0006393836790283 0.0001356965004535
0.0001908552266092 0.0024796396283824 -0.0001283467093508
-0.0004780081513906 -0.0003316747595545 0.0002427837118613
0.0006916478580346 0.0010195911225303 0.0000335642553272
0.0009022248042409 -0.0005439346459575 -0.0000107437711137
-0.0019365007724026 -0.0112689314273702 -0.0006671020495607
0.0000048813949536 0.0002146454993574 -0.0000610015006674
0.0001613891423302 0.0010149944709818 0.0000333181070564
-0.0031455734748233 -0.0042722342213934 0.0005037255378724
0.0009289794553429 0.0022155040760039 -0.0004371990436352
0.0000383147462698 0.0004153311448122 0.0005932057621099
-0.0008608383428896 -0.0077348418324818 -0.0002501095413074
-0.0045370192528023 -0.0024458568897820 -0.0009297721913122
-0.0015527099983064 -0.0017601834025206 -0.0005164459796997
-0.0019217239217269 -0.0120676089686109 -0.0007836712238292
-0.0010790042298055 -0.0014103233128163 -0.0010444226352566
-0.0026076803643063 -0.0019421605333186 0.0011201083613233
-0.0015527109279972 -0.0017601850381106 -0.0005164462597011
-0.0017046160387664 -0.0119590622738820 -0.0005108055004699
-0.0010533003487322 -0.0116334100521496 0.0003077896388724
-0.0030642057761657 -0.0147423181661097 0.0004115972263373
-0.0007494185324083 -0.0016103406065347 -0.0008313762346200
-0.0009139406342219 -0.0054825578767223 -0.0002660495018029
-0.0000452205971263 0.0002994382665056 -0.0000348171365278
0.0006768107150509 0.0011212634467520 -0.0002929053605902
0.0008214373755252 0.0023919359894142 0.0011872692048325
-0.0006611574479868 -0.0003861623862482 0.0000593249641533
-11.3677705395900137 -62.6541709197455816 -2.7661673427732545
-7.6223146338967300 -43.0623603941108541 -4.7660408549342428
-0.0003912950022314 0.0007017195999960 0.0000107039362218
-0.0003570705276397 0.0004843191473820 0.0000155967516637
-0.0006982455991790 -0.0004520882994588 0.0000197276597298
0.0000983190514611 0.0008818177354642 -0.0000430986873730
-0.0003222708222752 -0.0002450044659224 -0.0003134620517922
-0.0028673618956258 -0.0027425703580490 -0.0002025987691763
0.0001885238593537 0.0008528778613648 0.0002356870046142
0.0023313941018455 -0.0018221167240947 0.0003676421652587
0.0004601932011918 0.0007583686529222 -0.0000204683941549
-0.0032023328932679 0.0002993485078034 -0.0009205394926016
0.0002671233253536 0.0003208925787135 0.0000372978564696
0.0005598010132632 0.0009109370319856 0.0000330274900930
-0.0006908440816486 0.0005397914030516 0.0003004264163468
-0.0009282572404332 -0.0012948055698800 -0.0001712989646186
0.0018910963655328 0.0007712035019435 0.0020430917118999
0.0005357619126408 0.0066371422680448 0.0016429226990232
0.0009818148839510 0.0008465536674317 -0.0000484304611309
-0.0010845689744535 -0.0001866316780191 -0.0004381532686429
0.0064568748100148 0.0154252466241249 0.0021739273335021
0.0011633251106416 0.0015008432815386 -0.0004410334220942
-0.0011769192806552 -0.0012309715551090 -0.0009965752769149
0.0029369055704814 0.0015637861237473 0.0006150378302973
-0.0001710694426083 0.0052140810153443 -0.0000083879811248
0.0000558340498763 -0.0044176081331823 0.0008910505999033
0.0008778566316256 0.0052548730543346 0.0001863155810692
-0.0002886863170231 0.0012747694832541 -0.0008404474874636
-0.0017422881563275 0.0028613072515838 0.0011159641312996
-0.0038655936875285 -0.0032907311007583 0.0003101640670272
-0.0014120996325508 0.0029041343295389 0.0024018134705784
0.0049604148613734 0.0297465306020487 0.0001540147643483
-0.0003178711831073 -0.0008615275167404 0.0002818447573138
-0.0028904909222708 -0.0135383670185938 -0.0010742300420693
-0.0026641749116195 -0.0134144127048990 -0.0014129104102329
0.0003095897128258 0.0106419010435393 -0.0007622508763652
-0.0006185971832098 0.0009973606619324 0.0007652871949654
-0.0003835112282682 0.0039797825337678 -0.0008092063632820
0.0047376097219287 0.0013908514666599 -0.0011054316291863
0.0036914805431105 0.0005572323988159 -0.0006763046535991
-0.0047419571487794 -0.0042767147186396 0.0010742499347758
0.0019186316878436 0.0075194405223432 -0.0008312013880955
-0.0002828328244004 0.0008860674407301 0.0004135134159462
-0.0001475364632677 -0.0010704662855183 0.0001360028446709
0.0003604787581924 0.0002141516303957 -0.0000299668202879
0.0001891821342799 -0.0033627186558253 0.0003596292843609
-0.0002828329690502 0.0008860678512436 0.0004135134766760
0.0003476305005742 0.0003010081289719 0.0008643182242366
0.0007617281113097 -0.0001822760125763 0.0001952507810537
0.0005730001115290 0.0022522141048026 -0.0001738009388665
-0.0003454715707006 -0.0000802956139723 -0.0001360031003145
0.0000659435471121 -0.0043587156236081 0.0007639886923430
-0.0003891290527642 0.0011184725623717 -0.0001031154059391
0.0001592559013009 0.0017242807305826 0.0001515790979039
-0.0001475363997368 -0.0010704669294292 0.0001360027643628
-0.0026823531795959 0.0001837353721961 -0.0000496920639396
-0.0012080659878126 -0.0046743240380018 -0.0000264015766027
0.0001318740194358 0.0009622539182369 -0.0000539043183512
-0.0026172708303512 -0.0073081783547811 0.0010587042345248
-0.0010309885190370 -0.0018865407364137 0.0001175002733171
-0.0002933160041423 -0.0026722616634993 0.0003488519760439
-0.0003454715608366 -0.0000802959545846 -0.0001360030930813
-0.0008513439853540 -0.0068863237044304 0.0001547963748122
0.0024793946916152 0.0077998431076640 -0.0011719402030481
-0.0011428101224317 0.0019237522257428 -0.0005329422437954
-0.0005528397094463 0.0001517957183854 0.0002572532883380
0.0000468963816937 -0.0023317692280434 -0.0007652820517025
0.0036914806322878 0.0005572339583134 -0.0006763044688724
0.0019186319678810 0.0075194405928834 -0.0008312011936947
0.0030135492711670 -0.0028848983927102 0.0007622302481412
-0.0028816947137804 -0.0058325390997339 0.0007657474933488
-0.0002603483574685 -0.0033916235227532 -0.0016210238279892
-0.0013222007984622 -0.0050528053806472 0.0003027602581232
-0.0001627499029862 -0.0012354616535276 -0.0000794347192043
0.0012302372043478 0.0015369325530137 -0.0001055929332766
0.0012854011973628 0.0075330505701493 -0.0007215231860710
0.0027510556387840 0.0059570666034745 0.0002486007846191
0.0000380342053141 -0.0033609397636969 -0.0000255956819363
-0.0003823501482718 -0.0010123528850880 0.0000821313745388
-0.0007869331577251 -0.0076269600723495 0.0008797056802867
0.0003145099462783 0.0016209572861639 -0.0000569050679107
0.0001539761535307 -0.0006095565515016 -0.0000504084987731
-0.0008984763786424 -0.0009323080494783 -0.0000714021436611
0.0014266706551520 -0.0017752213723788 0.0004263356356787
0.0008499501657702 0.0011263614375915 0.0005234241438903
0.0000882895437136 0.0011151916811563 -0.0002253263910732
0.0011693156565887 0.0007057876943385 -0.0004725890844027
-0.0001588043638102 0.0013460164061985 0.0001882241478796
-0.0019064615485866 -0.0065988565462292 0.0002845856417176
0.0034854678290959 0.0079921059031150 0.0002889008180304
0.0000164607915378 0.0025342881696099 0.0000976088142366
0.0002674372233306 0.0011451063573093 0.0004484817686599
-0.0041431720469068 -0.0025609248242710 0.0006165643824979
-0.0004540347355436 -0.0006211255288465 -0.0001827355452467
0.0019131609183380 0.0016503422543635 0.0003516208575060
0.0007126353749058 0.0012411912042968 0.0003899884611039
0.0025125001969173 0.0021635906367687 0.0005715933939330
0.0003369418511723 0.0040519132176060 0.0002825453216403
0.0002548015904540 -0.0010615945327208 -0.0002361813776461
-0.0001056718185388 -0.0006163073285522 0.0001646680512879
-0.0005167029890946 -0.0067167129138384 0.0005246987680275
0.0006184111397875 0.0016437737810534 0.0004147312661170
0.0000102947910606 0.0004861758814708 0.0003447499999573
-0.0026840828859292 -0.0045162475143460 -0.0002130637918045
0.0000522974285683 0.0013039208848835 -0.0006169551884679
0.0004915970278776 0.0030465494099633 -0.0000039358138830
-0.0009739881707379 -0.0032802427989762 -0.0000866988986564
0.0000118311711261 -0.0026270142226398 0.0009427322708080
0.0025677235496071 0.0014826543642219 0.0010094037138008
0.0000903699535012 0.0003704122813698 -0.0001121223951029
0.0004690957948460 0.0031289090473575 -0.0003340676133061
-21.1972555943839396 -9.9199622891713535 3.9279274726965512
-0.0041038178276691 -0.0019829235868332 -0.0019046861544716
-12.8965579465536280 -5.5371652733698467 5.3317081915476585
-12.9271563444988296 -5.6101820222174617 5.0625991840197599
-22.5516040620639870 -10.5578841582598582 3.8958986685059100
-2.4853679238782860 -14.4650096506805070 5.5480013744341603
-10.9669117037841772 -60.5998083488660626 3.1474137305926502
-12.3420905868606301 -67.5931679176151192 0.8193158067592335
-0.0018481991111102 -0.0083876283505558 0.0021710451690012
-12.2701180891938471 -67.2119914826950264 -2.0758536641757126
-0.0048801493770067 -0.0325985711233005 -0.0021679145686602
-12.3407193117693463 -67.5820235127592923 0.3674726530318922
-0.0013475846228417 -0.0030081944956126 -0.0011938843283077
0.0026039201346371 -0.0008709061845232 -0.0000522968378988
-0.0011527311771187 -0.0025662077081223 -0.0016529480053251
0.0011407305358370 0.0057670410442931 0.0000545117168409
0.0000193169979771 0.0000463623133808 -0.0000385372794409
0.0001824865433116 0.0019023972863186 0.0001527750596197
-0.0004190572688093 0.0011164005972708 0.0000804075152370
0.0000966971657551 0.0006361506278040 -0.0000169623650141
0.0010731998305016 0.0076007236646558 0.0008343269882658
0.0007108992104916 0.0006153756860544 0.0000766077516765
0.0006642860597513 -0.0088214015985455 -0.0007185503541036
-0.0005287032756064 -0.0014156145037586 0.0001358990835310
0.0008719203622477 0.0015383591944305 0.0001340020664422
0.0003772322917242 0.0064005143689382 0.0003799216438439
0.0018810514611105 0.0059974222883565 0.0001062857862723
0.0005047705192539 0.0022037624805588 0.0005058238137481
0.0007845358348853 0.0008097270287264 -0.0005051566682336
0.0003443836273842 0.0020020976414644 -0.0003671588242910
0.0000170554913149 0.0008875764758566 0.0004120074169255
0.0009346546273235 0.0000277144234484 -0.0000298520237556
-0.0013082342046564 -0.0040830211056277 -0.0003355299878394
0.0002366580461819 -0.0003514953533065 -0.0002049016410545
0.0008459294765538 0.0004272684967970 -0.0000210890441489
-0.0012780163536451 -0.0028670705185807 -0.0011698572661210
0.0004710070956345 0.0003990182665154 0.0013243388387893
-0.0001412159499436 0.0018432456223206 -0.0000206302860861
0.0013421580942000 0.0071740326341867 -0.0002451660525475
-0.0004920369412238 -0.0027319109698102 -0.0005651708556333
-0.0008342005206922 -0.0005526015681568 0.0002002895367062
0.0000250965875034 0.0000601228882432 -0.0000069337444647
-0.0010105053684572 -0.0009746343223239 -0.0000059971077952
0.0022362026371952 0.0009847464060816 0.0003375268171408
-0.0003131902397438 -0.0066858521508163 0.0008951788001314
-0.0018150614217005 -0.0084106810901960 0.0006921733864961
0.0007474663018851 0.0016624726240704 0.0000362056998853
0.0011631631327160 -0.0006604819715322 0.0000900496873659
-0.0009599944382129 -0.0007009703768756 0.0004188573832274
-0.0006143411942454 -0.0012658674685687 -0.0008529152115085
0.0015049250723135 0.0045354392387785 0.0016872061413819
0.0011631623940525 -0.0006604806855872 0.0000900496379847
0.0017971961888180 0.0082008302473740 -0.0000720291581213
0.0011485166489403 0.0097359707442642 -0.0004762215164051
0.0005900054531403 -0.0018518798170705 0.0000297062266594
-0.0006242998664681 -0.0039541988008796 0.0004067557492132
-0.0034568788174792 0.0010369960798096 0.0018284948432675
0.0066619427582134 0.0032507265267413 -0.0014015799613322
0.0008613184532255 0.0005142913162705 -0.0000252893284955
0.0000176132776120 -0.0019809568613419 0.0001474871698653
-0.0006015921576145 -0.0027187016114291 0.0000466540367005
0.0002427324905050 -0.0005665188943801 -0.0000028242441232
0.0007137711559703 0.0042476071776604 -0.0001366759707599
-0.0014643848333644 -0.0015173790836753 -0.0003331539858560
-0.0031472400692479 -0.0143063771319602 -0.0002024670263990
-0.0005299587686736 -0.0010216787533486 -0.0003221434637473
0.0005205022954031 0.0006352937186271 -0.0000714441663502
-0.0011072741465191 -0.0066318509792171 0.0001919228572196
-0.0019988282760825 -0.0005858085288783 -0.0001681146676063
0.0031234060858229 0.0244748104918895 0.0011354883377820
-0.0003569949194079 -0.0018146142556935 -0.0001767596044075
0.0000927329089781 0.0002496549935631 0.0001922430673859
0.0078075799881700 0.0010409780625525 -0.0011354350901160
0.0004712246447214 0.0025626628740311 0.0000742713116614
-0.0002714489745215 -0.0019104443118844 0.0002122734506241
0.0021222635082373 0.0012907063687259 -0.0000915619112678
-0.0019013717338999 -0.0008965293883631 0.0002427847756309
0.0071706721206111 0.0245364547249660 0.0003727975407187
0.0002541298583504 0.0061200936560727 0.0007367365024743
0.0029516143447116 0.0054728574512447 0.0026688539028127
-0.0011439407970848 -0.0007982675875675 -0.0002130580365173
-0.0000839093586368 -0.0011886153717479 0.0001045644895034
-0.0025110182158349 -0.0079969588658190 -0.0023006228835561
0.0017628713216628 0.0008278917480183 0.0001547109461808
-0.0014769376557141 -0.0006675898233934 -0.0000951256505102
0.0000308172696279 0.0002763330732038 -0.0002747020417246
-0.0005408257965977 -0.0038338164061394 -0.0005622217154920
-0.0006024330006233 -0.0014778277162398 0.0001503521054771
0.0014115391920004 0.0005719659423865 -0.0001155046553327
-0.0011402791536627 -0.0072987268644187 0.0007167781290479
0.0022532325549575 0.0101168716379568 0.0008467362147071
-0.0004024940037373 -0.0000484279789831 0.0002064822995642
-0.0000664946629012 -0.0013003213733034 0.0000477494288859
-0.0010684030030046 0.0005544818776018 -0.0004510977892328
-0.0007819356099358 -0.0017682245260650 0.0002773904827212
0.0021399568199096 0.0014152492445220 -0.0002203586669993
-0.0001110006863777 0.0000642873741009 -0.0000050627897811
0.0000426099263295 0.0001755809889292 -0.0002113107962090
0.0008201573210861 0.0005454383754594 0.0000018434895519
0.0004651675325580 0.0027716957381069 0.0000024114910495
0.0026623438855062 0.0028810376979411 -0.0008316930064963
0.0004551096050747 0.0002989931734196 0.0000695751646223
-0.0000357498995597 -0.0000477665543821 -0.0000892409912529
0.0006957431522300 0.0015536489489676 -0.0000832957903126
0.0002928177880077 0.0031908475943418 0.0000599141482354
-0.0000786677045495 0.0009701240643350 0.0002432193377964
0.0007172391099956 0.0008936984543119 0.0002140597325469
0.0001153717528342 -0.0002458902233687 0.0008153452678356
0.0021641895534199 0.0024259682391672 -0.0001211452478541
0.0005891360698876 -0.0002433587812807 -0.0000147358903041
0.0007965850976520 -0.0005337067183077 0.0001677662706100
-0.0017485184213307 -0.0015443736582975 0.0003272064103969
-0.0002611500598388 -0.0105480026627058 0.0007034284077394
0.0016515744812817 0.0102603127192083 -0.0010866522919180
-0.0031777336049480 -0.0120063160430589 0.0005266652448890
-0.0073930800774444 -0.0063897352332757 0.0006952241024303
0.0080292123381084 0.0088677993358219 -0.0009956109631036
0.0071835948842338 0.0037917819408994 -0.0010556223537312
-0.0001877546529606 -0.0027848425772375 0.0012659925719440
0.0011067725405106 0.0057192534964595 0.0001825175503236
-0.0020342926017704 -0.0084446544361047 -0.0002172207270462
-0.0006803510671596 -0.0021279921546729 0.0001275002635158
-0.0001954030112584 -0.0005198828299325 0.0001174865625343
-0.0025302866818052 -0.0025801258636991 -0.0002908530797124
-0.0017834072891730 0.0008985378620823 -0.0002619423793289
-0.0006431779291067 0.0008698218041610 -0.0002435160366278
0.0004848083359184 0.0001939743971317 0.0000400729195878
-0.0005301497934182 0.0002420503021732 0.0011660327828139
-0.0000390971716664 -0.0007859714149044 -0.0002810030542556
0.0005939126377554 0.0050978641594823 -0.0017862248879803
0.0010419098080488 0.0107446281018291 0.0018357762977899
-0.0000179091499395 0.0030686748569778 -0.0007513926939873
0.0005629412298788 0.0023242591872566 0.0001566810492099
-0.0006729167374687 -0.0037110789192392 0.0000197576852224
0.0005900272913112 0.0038766877777515 -0.0000415376709232
0.0015152896330179 0.0058535968490321 -0.0006382858404421
0.0007232388001426 0.0007360434659874 0.0004371673687672
-0.0005277122393824 -0.0035247423046125 -0.0003325901032605
0.0002801340947240 0.0034381138017011 -0.0002083039129452
0.0005765722403452 -0.0003508886135321 -0.0002628126769275
-0.0005520373101757 -0.0016952833030858 -0.0000914987963788
-0.0010488653398848 -0.0014452111678187 0.0001769165028307
-0.0008144906476645 -0.0050391197861205 0.0005409186284907
0.0000523165071250 0.0006941662839994 -0.0003105269389724
-0.0001152762145981 0.0001761475925994 0.0002638266585557
-0.0006055085724972 -0.0027839472317528 -0.0009437117287161
0.0032527687036323 0.0033367218821037 -0.0000909982024035
0.0023281745003549 -0.0015924220602285 0.0004976173464584
-0.0012816977990067 -0.0062888341410683 0.0000243214515359
0.0002248131912068 -0.0002793198507911 0.0014152088922875
-0.0010505138740857 -0.0051193621086455 0.0001361705116860
-0.0001028595405586 0.0024042324404425 -0.0003105900845304
0.0012370952294268 0.0023968816426204 0.0000760613471131
0.0001421930008144 -0.0001913578318726 0.0001973810449476
-0.0004639925102088 -0.0040386310204046 0.0002303399429886
0.0003854937328264 0.0020734227458426 0.0000234418052823
-0.0002038665806308 -0.0002977130638167 -0.0000073820701595
-0.0003823661538734 -0.0034015092007720 -0.0003081189070804
0.0003789077391432 0.0015110579483907 -0.0004829299059089
0.0008101017326425 0.0042364436693626 0.0003568557762134
-0.0014296801550130 -0.0076753711357861 -0.0006108146431087
-0.0006545353986244 -0.0018653390189148 -0.0004007090095471
0.0004031032617153 0.0020357593593358 -0.0004190042238765
0.0004415550501080 0.0047635896359610 0.0001828850364516
-0.0014680210174559 -0.0100254343367886 0.0000618136977504
-0.0006441797807939 0.0000410898528192 0.0002332744048228
-0.0000188094371859 -0.0004282720183494 -0.0001970034317356
-0.0007572713116051 -0.0039618341642213 0.0000535283810596
-0.0009964148127005 -0.0020726046571371 -0.0004824986761295
-0.0003561487243574 -0.0025838075220043 -0.0001808563793084
-0.0002981465279155 -0.0029403176584797 -0.0002064105881647
-0.0001583705179638 -0.0015925186683837 0.0007834463436769
-0.0003757839200144 -0.0009339954375363 0.0002359193731448
0.0002282008688182 0.0016168419180936 0.0001701581393905
-0.0004605670520213 -0.0001486203584396 0.0002616068019169
0.0001775296594640 0.0011957224849334 0.0002864138908673
-0.0006138399328083 -0.0021899826539821 0.0005769420519297
-0.0004007248936809 -0.0014160308113377 -0.0002636852440839
0.0002468596409551 0.0006848367996705 -0.0000149536422579
-0.0006580262902392 -0.0022205365877080 -0.0000732619512117
0.0018217753207631 0.0118086931739264 0.0001861736994657
-0.0012986816451459 -0.0055277676267913 0.0002526076858255
-0.0003119862483842 -0.0012451473511997 -0.0003063798838603
-0.0002736459731004 -0.0044822405832312 0.0000230637594732
-0.0000326370667923 -0.0015449447095812 -0.0000864366789511
-0.0002391775213122 -0.0018654514234182 -0.0001465723695345
0.0003721026690239 -0.0008059761096208 -0.0001413797605200
0.0001281722879292 -0.0008336420209904 -0.0001495525450051
0.0012485939678100 0.0051704720668770 0.0004108976570145
-0.0010232054041230 -0.0012176165132095 0.0000114926557657
-0.0005417036182556 0.0016726033967300 0.0002693670305141
0.0016762504919310 0.0001321150599127 -0.0001944057101214
0.0016377786183181 0.0051160395926179 0.0002586106251574
-0.0012291067061433 -0.0024535261709148 0.0003489256688358
-0.0012291067550621 -0.0024535261259854 0.0003489256611920
-0.0003867327901879 -0.0008993656334489 -0.0006759074386076
-0.0000602021658250 0.0045628424344958 0.0005272429432984
-0.0005417038662601 0.0016726030742783 0.0002693671910975
-0.0000602019798801 0.0045628418827485 0.0005272430782348
0.0016762506361461 0.0001321165747114 -0.0001944056143825
-0.0010232064129599 -0.0012176159607262 0.0000114927980190
-0.0010232055854535 -0.0012176168716290 0.0000114928047914
0.0009735839348616 0.0006673473435582 0.0002483070479070
0.0016762507660834 0.0001321151437450 -0.0001944055903016
0.0016762502708101 0.0001321153787010 -0.0001944057144239
0.0012483210221380 0.0051882725273720 0.0004143357455473
-0.0009615961541022 0.0011163563175083 0.0012369934423080
-0.0001000223981977 0.0044957018481265 0.0005138983735830
-0.0010232068010667 -0.0012176170325409 0.0000114924828032
-0.0010232066142525 -0.0012176171344026 0.0000114926018474
0.0003200386199661 -0.0005451729321839 -0.0000919996403270
-0.0010232066461183 -0.0012176156719295 0.0000114927007630
0.0016762503245773 0.0001321150463476 -0.0001944055169774
-0.0010232066381267 -0.0012176162633911 0.0000114924203474
0.0016762504969466 0.0001321163597457 -0.0001944056630044
-0.0010232067580998 -0.0012176156905433 0.0000114926079757
0.0016762506621937 0.0001321170515423 -0.0001944056123954
0.0030510361382046 0.0083844148097463 -0.0003535247873410
-0.0007033937322694 -0.0010568212290343 -0.0003318693752951
-0.0010232066191009 -0.0012176156994838 0.0000114927201198
-0.0010232067233250 -0.0012176158945490 0.0000114925440489
0.0016762503659392 0.0001321157219401 -0.0001944057249931
-0.0010232065993395 -0.0012176168561393 0.0000114923957725
-0.0010232068220654 -0.0012176158131637 0.0000114926003262
-0.0010232066298009 -0.0012176171560700 0.0000114926162471
-0.0010232067662919 -0.0012176166483777 0.0000114926700764
-0.0000602019351745 0.0045628419852542 0.0005272430520556
-0.0010232066566176 -0.0012176160935797 0.0000114926907932
-0.0013056848884373 -0.0029545262198698 -0.0001420615347872
-0.0010232066153225 -0.0012176169482138 0.0000114926935410
0.0016762504248223 0.0001321155729918 -0.0001944056535564
-0.0000602019143765 0.0045628425055248 0.0005272429397007
-0.0010232068410243 -0.0012176165110233 0.0000114926010424
-0.0014350073827188 -0.0036894306696913 0.0006863581316642
0.0016762507166965 0.0001321161812237 -0.0001944055586940
0.0003265183393970 -0.0005427576724283 -0.0000914583632708
0.0016762505343295 0.0001321144230815 -0.0001944056290038
0.0012695454638102 0.0017091289317806 0.0006443849329895
-0.0000602021546569 0.0045628413643294 0.0005272430593611
0.0003263295367284 -0.0005432624596860 -0.0000915571205171
-0.0010232070165033 -0.0012176175999076 0.0000114924997897
-0.0014441681747560 -0.0037315218426269 0.0000624744903027
-0.0010232064913704 -0.0012176170951385 0.0000114926751447
0.0016762504163627 0.0001321152183591 -0.0001944057078848
0.0016762503545371 0.0001321155500802 -0.0001944056796964
-0.0010232067666597 -0.0012176156075602 0.0000114926230026
-0.0007050363901316 -0.0010588232658620 -0.0003322714309121
0.0016762504167974 0.0001321148727879 -0.0001944056564596
0.0003265183720318 -0.0005427618407755 -0.0000914591318153
0.0026786872017629 0.0081689017551230 -0.0001690741964946
0.0000967455090084 0.0022862732022510 -0.0001565295964620
-0.0010232066397317 -0.0012176160694643 0.0000114925516373
-0.0002393173320438 0.0024065437235279 -0.0002743105913393
0.0016762506885423 0.0001321141746863 -0.0001944056693156
0.0016762504572899 0.0001321139478576 -0.0001944056224036
0.0016762501421099 0.0001321148603288 -0.0001944057693739
0.0014088310282896 -0.0007609311002617 0.0000416184867994
-0.0003296311818613 0.0013182926206763 -0.0000797377180852
0.0012895231509871 0.0052376965152513 0.0004242904045260
0.0016762503839285 0.0001321151740439 -0.0001944056778312
-0.0011593562195880 0.0005586061659168 0.0000809926870054
-0.0014350075082424 -0.0036894307862362 0.0006863580785347
-0.0010232069008436 -0.0012176168832299 0.0000114926450241
0.0016762503530324 0.0001321151519911 -0.0001944057475360
0.0003265279807428 -0.0005427857142011 -0.0000914636517628
-0.0010232066838355 -0.0012176170648577 0.0000114926393731
-0.0010232069714298 -0.0012176171147703 0.0000114925931043
-0.0010232069171276 -0.0012176170463115 0.0000114926354762
0.0001679977393636 0.0017315944757471 -0.0003012184513868
-0.0010232069602952 -0.0012176170806324 0.0000114925861265
-0.0010232068846265 -0.0012176170105247 0.0000114925896460
-0.0010232069602952 -0.0012176174234687 0.0000114926113731
-0.0013285830358796 -0.0034159675422931 -0.0003004740946838
-0.0010232067616441 -0.0012176166450586 0.0000114926736291
-0.0007051847825473 -0.0010588398253046 -0.0003322764796961
-0.0010232067686325 -0.0012176153356219 0.0000114927427018
-0.0010232068918156 -0.0012176172059299 0.0000114925393971
-0.0010232069267241 -0.0012176172515156 0.0000114925720045
-0.0016809505440117 -0.0050887163576753 0.0009881704468526
-0.0010232068508549 -0.0012176173474832 0.0000114925970123
-0.0010232071702146 -0.0012176162355063 0.0000114925346175
0.0016762503597199 0.0001321158801135 -0.0001944056899105
0.0016762505607115 0.0001321154298173 -0.0001944056756605
0.0012895230995940 0.0052376973492201 0.0004242906105114
0.0001594320470470 0.0073527896955708 -0.0001032937804260
-0.0010232068116329 -0.0012176170971667 0.0000114924770412
0.0017451827052902 0.0093035876343908 0.0003218518386354
-0.0000521302755511 0.0018830313418123 -0.0001952430150489
-0.0000624791969595 0.0103206398034555 -0.0001506824043410
-0.0003867328180412 -0.0008993656791596 -0.0006759073983121
-0.0010232068581108 -0.0012176165038941 0.0000114925800924
-0.0010232069383269 -0.0012176165757528 0.0000114927234506
-0.0001321945795950 0.0021331148909414 -0.0001280911339797
-0.0008854054370708 -0.0003904660911462 0.0003091464714469
0.0016762503517284 0.0001321153658995 -0.0001944056835656
-0.0010232068941227 -0.0012176171408746 0.0000114926066824
-0.0020137599981867 -0.0035377706916915 -0.0003199127350487
-0.0010232068049789 -0.0012176169785288 0.0000114926264445
-0.0010232068633604 -0.0012176168518181 0.0000114925599196
0.0016762503508256 0.0001321150643919 -0.0001944055969078
-0.0010232068304581 -0.0012176163507839 0.0000114926115785
0.0026392409908836 0.0059125531000217 0.0003213389916599
-0.0010232066569854 -0.0012176170017577 0.0000114926191281
0.0016762505918082 0.0001321150788011 -0.0001944056090366
-0.0010232074544651 -0.0012176166962671 0.0000114926467615
-0.0000602020848064 0.0045628417213171 0.0005272430151019
-0.0010232067764569 -0.0012176171917263 0.0000114925967459
-0.0009632791984099 -0.0010487239794182 0.0003110652051276
0.0016762504010818 0.0001321153140766 -0.0001944057287068
-0.0013724037882540 -0.0074302627836041 -0.0003007115152043
0.0003265841691567 -0.0005427359665269 -0.0000914526586677
-0.0027596727227325 0.0032131276648914 0.0007331498320198
0.0016762502437259 0.0001321149394962 -0.0001944057217569
-0.0010232069087683 -0.0012176169424600 0.0000114925286945
-0.0005551826541678 -0.0029064683246354 0.0005859157405062
-0.0010232068561714 -0.0012176172582139 0.0000114926362700
0.0003264959680014 -0.0005427893876929 -0.0000914647121152
-0.0003867331615426 -0.0008993657194209 -0.0006759075507302
-0.0007824553476569 0.0002274909300829 0.0001404296883593
-0.0010232068347047 -0.0012176172680287 0.0000114926104572
-0.0010232069375578 -0.0012176176715872 0.0000114925061846
0.0012371980849487 -0.0027639213651749 -0.0005833429291967
-0.0001750213475114 0.0010615563762661 0.0002938489225620
-0.0010232065818183 -0.0012176174392170 0.0000114925684685
-0.0010232068346378 -0.0012176170150794 0.0000114925942201
0.0016762503604889 0.0001321155914283 -0.0001944056866075
0.0016762502447290 0.0001321151047055 -0.0001944057202914
-0.0011927184223060 -0.0033142833367680 -0.0001385524105994
-0.0010232069414031 -0.0012176173021030 0.0000114925660370
-0.0007049694331669 -0.0010584952433461 -0.0003322077341103
-0.0010232069221432 -0.0012176164708911 0.0000114926646029
-0.0010232068472102 -0.0012176170331409 0.0000114925539078
-0.0010232067804025 -0.0012176167177112 0.0000114926022081
-0.0010232068906453 -0.0012176164006918 0.0000114925715270
-0.0000602019485828 0.0045628414615122 0.0005272429684440
0.0008080243133202 0.0023474645197609 0.0001664162511758
0.0016762505441600 0.0001321152033453 -0.0001944056823719
-0.0010232069923615 -0.0012176174223951 0.0000114926090194
-0.0010232069142520 -0.0012176171661058 0.0000114925986666
0.0026392410245215 0.0059125534140017 0.0003213390005306
0.0016596221102501 -0.0025747025121484 -0.0004528145008831
0.0016762502426559 0.0001321152351082 -0.0001944057073131
0.0011935936066968 0.0047844338822726 0.0000647839473406
-0.0000602019512578 0.0045628416883854 0.0005272429844980
0.0016833789453879 0.0001477091670049 -0.0001920812779991
0.0019100952144144 0.0089019672549896 -0.0005754620150620
0.0016762505739192 0.0001321151407467 -0.0001944057281016
0.0026392411326578 0.0059125533976852 0.0003213390177720
0.0016762503394234 0.0001321157709771 -0.0001944056852809
-0.0007049692449149 -0.0010584953493311 -0.0003322078161002
-0.0010232068230016 -0.0012176167558562 0.0000114926260225
0.0026392410325799 0.0059125533588822 0.0003213389664081
-0.0005228781833927 -0.0022344886342718 0.0004334378122768
-0.0010232068710844 -0.0012176173292386 0.0000114926169798
-0.0010232068475780 -0.0012176169201486 0.0000114926462787
0.0032255922808276 0.0001245165897970 -0.0009365070127203
0.0028312261929050 0.0087645213599298 0.0005969485281272
-0.0001549746767014 -0.0034329478910126 -0.0003493288290055
-0.0011574886202862 -0.0035331912266922 0.0003416229175217
0.0016762502391784 0.0001321147901274 -0.0001944057432395
-0.0003867332423271 -0.0008993661148806 -0.0006759075392949
0.0012895213498198 0.0052376955785470 0.0004242902250178
-0.0010232069273260 -0.0012176170148011 0.0000114926019528
0.0016762502108570 0.0001321148927454 -0.0001944057335751
-0.0000852750148486 -0.0030145671441106 0.0005834052061457
0.0016762504071674 0.0001321154190263 -0.0001944056216433
0.0009609960292563 0.0060558906570440 0.0001703645395624
-0.0007107992791287 -0.0010576591450546 -0.0003321180646745
-0.0010232067619451 -0.0012176168176946 0.0000114926453572
0.0016762503494881 0.0001321152362589 -0.0001944057078292
-0.0010232069423393 -0.0012176171439789 0.0000114925641163
-0.0006069526445375 0.0015174742458264 -0.0009864281975237
0.0012093639577252 0.0049113984984487 0.0006064603535851
-0.0010232068507211 -0.0012176165681205 0.0000114925908117
-0.0001041045856385 0.0038991038607532 0.0004621903800193
-0.0018677590602937 -0.0075619184915090 -0.0003363311099238
0.0016762503350097 0.0001321154318049 -0.0001944056902823
-0.0010232069196354 -0.0012176168997533 0.0000114926228029
-0.0003867331135601 -0.0008993656277530 -0.0006759075204598
0.0003265251336566 -0.0005427507453174 -0.0000914568874906
-0.0020450171319746 -0.0040168609337495 -0.0003778219455230
-0.0000602020311061 0.0045628414353838 0.0005272429945457
0.0005762650155513 0.0048810653175938 -0.0001601600065230
0.0016762502664967 0.0001321151835106 -0.0001944057331310
-0.0010232069316394 -0.0012176170352877 0.0000114926095357
-0.0014224789945454 -0.0024703215602061 -0.0001395250821998
0.0008218615028191 0.0072831866141726 -0.0001872894847607
-0.0014350075255295 -0.0036894313837641 0.0006863581001559
-0.0010232069455493 -0.0012176172892876 0.0000114926176514
-0.0004956900132605 0.0017732597820622 0.0002843709037024
-0.0010232069154223 -0.0012176166679365 0.0000114926422929
-0.0010232070982240 -0.0012176175618221 0.0000114924850459
-0.0010232069324753 -0.0012176169850857 0.0000114925952137
0.0016762503287235 0.0001321154428498 -0.0001944057490682
0.0016762502594414 0.0001321151120283 -0.0001944057320541
0.0006937580090672 -0.0039972006582168 0.0002291539049188
-0.0010232069858747 -0.0012176172573793 0.0000114924955098
-0.0003702892186612 0.0040203085317502 0.0001670292212052
-0.0000602020488613 0.0045628409509874 0.0005272430361847
0.0016762502543589 0.0001321154596620 -0.0001944056526740
-0.0023538135391725 -0.0139140268904255 0.0008310579310507
-0.0010232069038196 -0.0012176170765954 0.0000114926019917
-0.0003278336355510 0.0022485527213651 0.0003448156299491
0.0026392411398802 0.0059125534066781 0.0003213389949571
-0.0007800463108267 0.0003625358440553 0.0001612824490909
-0.0010232069187995 -0.0012176171827787 0.0000114925993327
0.0016762501902262 0.0001321148831471 -0.0001944057397646
-0.0010232069256876 -0.0012176169868122 0.0000114925731535
0.0003265268696880 -0.0005428071143394 -0.0000914676789881
0.0002750108678110 0.0026044335333563 -0.0001571765988170
-0.0014777798514624 -0.0064698801621093 -0.0008091562508426
-0.0010232067765572 -0.0012176171903254 0.0000114926269718
0.0016762502196510 0.0001321150667259 -0.0001944057420405
-0.0010232475806011 -0.0020360418697979 0.0004142463285021
-0.0007586004551165 -0.0001248584150599 -0.0000711650440895
0.0026392411564651 0.0059125532121338 0.0003213389728082
-0.0012291072167309 -0.0024535262573760 0.0003489256942275
-0.0010232069553464 -0.0012176171922291 0.0000114925984001
-0.0003867331711057 -0.0008993661298396 -0.0006759075303352
0.0001927354777509 -0.0031813661314444 -0.0013033012442461
-0.0010232069412693 -0.0012176171170582 0.0000114926232636
-0.0010232068388843 -0.0012176168073569 0.0000114926434032
0.0024291452114314 0.0035735436866890 0.0001497160741118
0.0016762502822456 0.0001321154335543 -0.0001944057175937
-0.0000602021368683 0.0045628414685265 0.0005272430224126
-0.0000602020535760 0.0045628416259736 0.0005272429924753
0.0005762650037479 0.0048810642208472 -0.0001601599330541
0.0003265251067062 -0.0005427508181688 -0.0000914569219407
-0.0006964099403607 0.0003621105186566 0.0001655425922880
0.0016762502986968 0.0001321149146661 -0.0001944057441276
-0.0010232069417375 -0.0012176172436279 0.0000114926146094
0.0012644538334110 -0.0023397031956877 0.0004804531161876
-0.0010232068996399 -0.0012176167330868 0.0000114926389400
-0.0010232070247957 -0.0012176174332639 0.0000114925668419
-0.0000602019885404 0.0045628414952669 0.0005272430437010
-0.0010232068989377 -0.0012176167286273 0.0000114926376688
0.0016762504726377 0.0001321163107036 -0.0001944057464924
-0.0010232069706607 -0.0012176173523630 0.0000114925963184
-0.0003106684952571 -0.0047191534395713 -0.0010412728499446
-0.0009803075362596 -0.0012173976650530 0.0000205335704365
-0.0012291071098987 -0.0024535261623910 0.0003489256384995
0.0008640595250284 0.0083625407930753 -0.0003338751331205
0.0003302900250879 0.0022332818272771 0.0002707482476350
-0.0010232068848272 -0.0012176169908441 0.0000114925906729
-0.0010232069876469 -0.0012176169280993 0.0000114926408108
0.0000947661811613 0.0019908405285064 -0.0004180344135047
-0.0010232068723885 -0.0012176165887724 0.0000114926311629
-0.0010232070243276 -0.0012176172932066 0.0000114925810584
-0.0010232069899206 -0.0012176169558999 0.0000114926587188
-0.0013837749946188 -0.0125447254890424 0.0004898331803127
-0.0010232070070405 -0.0012176172254482 0.0000114925673470
0.0008321818509141 0.0034496502430110 0.0001220668734952
-0.0010232069626692 -0.0012176170363699 0.0000114925995936
0.0026392411145682 0.0059125535802077 0.0003213389577872
0.0008242794245764 0.0024609118459955 0.0001758322410551
-0.0030862102379889 -0.0022491079348588 -0.0004700114110168
-0.0015450083326532 -0.0053224854180304 -0.0003213812017811
0.0016762503120048 0.0001321149780054 -0.0001944057092059
0.0016762502705426 0.0001321154533546 -0.0001944056728577
-0.0010232069992496 -0.0012176169901469 0.0000114926432533
0.0016762501752463 0.0001321149546031 -0.0001944057070133
-0.0012637129666045 -0.0077865716573272 0.0006002313115645
-0.0010232068991383 -0.0012176173024304 0.0000114925871924
0.0037838532596289 0.0000163667006337 -0.0002879730811575
-0.0005943479986127 0.0037671287897304 -0.0011310787377010
0.0003263402780946 -0.0005427639488922 -0.0000914616231511
-0.0010232069618667 -0.0012176173873333 0.0000114926262002
-0.0029683279624614 -0.0011584571708813 -0.0000138078955422
0.0016762502800053 0.0001321149214486 -0.0001944056775260
-0.0010232068785744 -0.0012176172587189 0.0000114925665033
-0.0005417041666943 0.0016726034000675 0.0002693672169163
-0.0016049999397607 -0.0043772583367425 0.0001371047480324
-0.0010232068492499 -0.0012176172704256 0.0000114926127609
-0.0009699867438497 -0.0011011976468664 0.0000288459183781
-0.0017106107568531 -0.0053437219558284 0.0000910517937281
0.0026392411441268 0.0059125533804418 0.0003213389853260
0.0003265251274039 -0.0005427507711435 -0.0000914568820616
-0.0001107106799566 0.0010885227932357 -0.0000919237859591
0.0003265250827985 -0.0005427509500814 -0.0000914569101946
-0.0014350075905316 -0.0036894314062357 0.0006863580824147
-0.0010112898705779 -0.0010834450276014 0.0000210906051493
0.0016762502510821 0.0001321149319217 -0.0001944056928081
-0.0010232069553130 -0.0012176169021976 0.0000114926341105
-0.0010232070522143 -0.0012176171593211 0.0000114925616294
-0.0010232069633045 -0.0012176171739810 0.0000114925776056
0.0016762502297156 0.0001321148310567 -0.0001944057279186
0.0012895229099376 0.0052376976771556 0.0004242906647242
0.0003265251163027 -0.0005427507801188 -0.0000914569064420
-0.0010232069553130 -0.0012176172276993 0.0000114926138989
0.0003265250716304 -0.0005427510228695 -0.0000914568921924
0.0007016815528013 -0.0008699636201342 -0.0004620040749326
-0.0010232069280616 -0.0012176172057731 0.0000114925636778
0.0016762503329700 0.0001321155182760 -0.0001944057110933
-0.0010232069982131 -0.0012176173246538 0.0000114925878418
0.0016762502799719 0.0001321152381439 -0.0001944057369335
0.0016762502238307 0.0001321151015783 -0.0001944057404030
-0.0010232069763785 -0.0012176171057474 0.0000114925951194
-0.0010232069490937 -0.0012176172021178 0.0000114926006761
-0.0010232434016737 -0.0012176777945905 0.0000114805459143
-0.0010232068539980 -0.0012176173209567 0.0000114926053945
0.0015759781450020 0.0024163105125432 -0.0003042419713023
-0.0010232069707276 -0.0012176172356345 0.0000114925215336
0.0016762502767954 0.0001321151771627 -0.0001944057409025
-0.0010232070496731 -0.0012176173325431 0.0000114926013644
0.0016762501954758 0.0001321152227541 -0.0001944057034773
-0.0010232069830994 -0.0012176171316298 0.0000114925856380
-0.0010232069096711 -0.0012176168676515 0.0000114925558562
0.0016762505170758 0.0001321139706565 -0.0001944057158171
-0.0010232069853397 -0.0012176175175776 0.0000114925842281
0.0005762650319356 0.0048810653047818 -0.0001601600017435
0.0026389920742950 0.0092141261165629 -0.0006162088423465
0.0006221315687325 0.0034981775625946 -0.0001235708655946
0.0003365892213948 0.0018913976609554 -0.0002912951203368
-0.0014350075363966 -0.0036894311902936 0.0006863580978801
-0.0010232069138173 -0.0012176168956211 0.0000114925886301
-0.0003568607677060 0.0002217206402524 -0.0002193454917725
-0.0010232069218757 -0.0012176171036920 0.0000114926094524
-0.0010232069044549 -0.0012176169180595 0.0000114925967181
0.0019507875462523 0.0018892342377952 -0.0000177614216839
-0.0010232069352841 -0.0012176170922775 0.0000114925136620
-0.0004257205410848 -0.0022161405419114 -0.0012420864268742
0.0026392410166972 0.0059125532380419 0.0003213389636492
0.0003006679291015 0.0032267763154770 -0.0007554682689807
0.0016762502702751 0.0001321151770659 -0.0001944057262644
-0.0010214916824596 -0.0012258095225710 0.0000099388982008
-0.0010232067765237 -0.0012176159817310 0.0000114925935428
0.0016762501622726 0.0001321150495339 -0.0001944056954227
0.0003703369610795 0.0001047773167812 0.0004270967884270
-0.0028001671476930 0.0009111093974611 0.0001068565026262
-0.0008864609534245 -0.0003810887356006 0.0002157003342706
0.0012644537096595 -0.0023397038464477 0.0004804531449641
0.0012184055231356 0.0036176601919291 0.0007386576205374
0.0002948877949149 0.0023603597863943 -0.0000083656873106
0.0000565453024995 0.0030684874595637 0.0010587575793879
0.0006021253987235 0.0011115474996476 0.0005038482388746
-0.0010232069257879 -0.0012176172862396 0.0000114926044231
-0.0010232069642742 -0.0012176172463010 0.0000114925936261
0.0000947662952159 0.0019908409623571 -0.0004180344347599
-0.0005417042747636 0.0016726028412112 0.0002693671349592
0.0027500340697203 0.0087662836549482 0.0006920607027681
0.0021577459917189 0.0030223254694540 0.0000634660154463
0.0026392411692716 0.0059125535850875 0.0003213390078134
0.0016762502928453 0.0001321151218975 -0.0001944057148236
-0.0010232069683536 -0.0012176173568858 0.0000114925972122
0.0012895153623021 0.0052376968562397 0.0004242903725968
-0.0010232069255538 -0.0012176172113519 0.0000114926024691
0.0016762502362025 0.0001321150019433 -0.0001944057284626
-0.0010232070022924 -0.0012176170102428 0.0000114926230638
0.0000936717065028 0.0046432958807378 -0.0002655353189643
-0.0025839825574126 -0.0008636169320658 -0.0005927031876296
-0.0000460273183692 0.0020217434486085 0.0000689366053686
0.0016762502519849 0.0001321151806244 -0.0001944057362508
0.0003265250872457 -0.0005427509192873 -0.0000914569008521
-0.0010232069294660 -0.0012176170881453 0.0000114925698062
0.0016762503059527 0.0001321148457250 -0.0001944056763158
0.0012644538455487 -0.0023397032489781 0.0004804531158045
-0.0005569242536821 -0.0021506394313630 -0.0003317696793743
0.0003265250563496 -0.0005427510178063 -0.0000914568945960
-0.0003867328218196 -0.0008993654083687 -0.0006759075045385
-0.0006103478109348 -0.0001511231765053 -0.0002642312105814
-0.0010232070141627 -0.0012176171730411 0.0000114926148592
-0.0014661045502361 -0.0039374854200565 -0.0009388434618170
-0.0010232070552906 -0.0012176170765316 0.0000114926379464
-0.0010232068687104 -0.0012176180616533 0.0000114924989682
0.0016762502275088 0.0001321147962623 -0.0001944057403196
-0.0002276485209983 -0.0007616099321278 0.0002003728374768
0.0016762502280438 0.0001321150076489 -0.0001944057411357
-0.0004459555949587 -0.0034792935603780 0.0000061767073283
0.0016762503314988 0.0001321152286985 -0.0001944057090394
0.0005251624103354 0.0043465747000838 -0.0003714893562393
0.0016762502111579 0.0001321152640916 -0.0001944057147849
-0.0010232069292988 -0.0012176170878673 0.0000114925803978
-0.0010232069453821 -0.0012176169715136 0.0000114926240297
-0.0010232069670829 -0.0012176171560726 0.0000114925824628
0.0012221808971952 0.0009138607943848 -0.0002449904742658
-0.0005417041976907 0.0016726027556299 0.0002693672009121
-0.0010232069406006 -0.0012176172682220 0.0000114926024691
0.0003265251092140 -0.0005427509644825 -0.0000914568874628
-0.0011261570295464 -0.0018355723661205 0.0001802091740727
-0.0003867332334663 -0.0008993660569281 -0.0006759075701702
0.0003265251868888 -0.0005427507328559 -0.0000914568975436
-0.0010232070104511 -0.0012176175783070 0.0000114925852939
0.0016762502932465 0.0001321153373757 -0.0001944057373832
0.0016762503604221 0.0001321151727927 -0.0001944056837931
0.0016762502609126 0.0001321149214258 -0.0001944056876456
-0.0047991871124512 -0.0024787606735757 0.0001214975281699
0.0003265251808367 -0.0005427507739928 -0.0000914569334703
0.0003175868704906 0.0034132506542281 -0.0000651515152049
0.0016762504084715 0.0001321155550482 -0.0001944057007683
0.0016762502795372 0.0001321150996212 -0.0001944057586660
-0.0002074029148796 -0.0009226530861356 0.0003970197264121
0.0016762503036455 0.0001321153186525 -0.0001944057439223
-0.0010232069351503 -0.0012176172093175 0.0000114925830346
0.0008421066748212 0.0002396112612621 -0.0003621589499377
-0.0010232069927628 -0.0012176173646873 0.0000114925978727
-0.0010232069025489 -0.0012176169491018 0.0000114925895516
0.0003265251236589 -0.0005427509098703 -0.0000914569174721
0.0016762502000233 0.0001321149909144 -0.0001944057319099
-0.0003867332283838 -0.0008993656260333 -0.0006759075284649
0.0005553444032819 -0.0000205999875553 -0.0000767851320006
0.0016762502872947 0.0001321150768361 -0.0001944057212684
-0.0010232068731910 -0.0012176173940545 0.0000114925874255
0.0015764465649876 0.0102873401998017 0.0001922100269968
-0.0010232069277272 -0.0012176171975334 0.0000114926276657
0.0016762501172660 0.0001321146797911 -0.0001944056323237
-0.0001625493948871 -0.0024032814768716 0.0004047406873310
-0.0000602021240618 0.0045628414060295 0.0005272430192540
-0.0010232069482243 -0.0012176172737462 0.0000114925785715
-0.0010232069818622 -0.0012176172736528 0.0000114926046951
-0.0003867332906440 -0.0008993657588257 -0.0006759075871181
0.0014923230769304 0.0118907415950763 -0.0004959387273028
-0.0000852808914882 -0.0030145754908901 0.0005834035375860
-0.0003867332724541 -0.0008993659249239 -0.0006759075525123
-0.0015192911918497 -0.0002918618104619 0.0003487912457852
0.0003265250799898 -0.0005427510059695 -0.0000914569209582
-0.0003867332379134 -0.0008993657366023 -0.0006759075780696
-0.0000602021119240 0.0045628414330859 0.0005272429837711
0.0003263444449512 -0.0005430663636696 -0.0000915194844145
-0.0010232069536746 -0.0012176171029405 0.0000114925884802
0.0010139231257995 0.0035833853213297 -0.0001710164380690
-0.0010232069383937 -0.0012176173025218 0.0000114926016975
0.0016762503036121 0.0001321149156727 -0.0001944057277741
0.0016762503983400 0.0001321154676286 -0.0001944056986810
-0.0000602020111774 0.0045628414326611 0.0005272430097113
-0.0010232068791428 -0.0012176169948179 0.0000114925554621
-0.0008087596218770 -0.0020730914177195 0.0002411902598797
0.0009990255556551 0.0046626968776872 0.0000355179783257
0.0016762502798716 0.0001321149658695 -0.0001944057480856
0.0016762502838172 0.0001321148507688 -0.0001944057378105
-0.0003867331940102 -0.0008993658913282 -0.0006759075548324
-0.0010232069647089 -0.0012176175270932 0.0000114926214318
-0.0009875229329939 -0.0007510161881821 0.0000515953255434
0.0016762502585720 0.0001321149297957 -0.0001944057624073
0.0012895230023249 0.0052376976920541 0.0004242906299074
-0.0010232069600945 -0.0012176170455512 0.0000114926131051
-0.0034471546376941 -0.0027044086964593 0.0001852558178375
0.0003265251622790 -0.0005427507551904 -0.0000914569084515
-0.0003867331174388 -0.0008993655844708 -0.0006759075234408
-0.0003867332367097 -0.0008993658682069 -0.0006759075561649
0.0016762502562983 0.0001321149922271 -0.0001944057618356
0.0002247992677127 -0.0006139396558831 -0.0000622825856004
0.0016762502891337 0.0001321149834487 -0.0001944057121479
-0.0000602019671405 0.0045628419595197 0.0005272430767638
0.0003265251070405 -0.0005427509646074 -0.0000914568923089
0.0016762500207659 0.0001321152930296 -0.0001944056845705
0.0006558521011849 0.0024845859356722 0.0000328453189868
0.0016762503011043 0.0001321151401984 -0.0001944057262755
-0.0010232069804244 -0.0012176172465984 0.0000114925989053
0.0021577458862911 0.0030223248884515 0.0000634660048936
0.0000215125623632 0.0002525607267991 -0.0003373444518517
0.0012127259682266 0.0051993164760516 -0.0008475608676009
0.0016762502751235 0.0001321149128922 -0.0001944057141019
0.0021577458712778 0.0030223252186285 0.0000634660428519
-0.0003867331493380 -0.0008993657035504 -0.0006759075745944
-0.0010232069497624 -0.0012176172261136 0.0000114926226586
0.0016762501366596 0.0001321144414644 -0.0001944058030688
0.0003265250721989 -0.0005427510242809 -0.0000914569148964
-0.0009566973545302 0.0051382421450543 0.0007369035759276
0.0016762502592742 0.0001321150259549 -0.0001944057386932
-0.0010232069158236 -0.0012176171475497 0.0000114925659260
0.0005866807122260 0.0003813307081507 0.0000358913646562
-0.0014350075909997 -0.0036894313671527 0.0006863580844631
-0.0009504789263661 -0.0012949537629478 0.0000227151250556
0.0008080243197402 0.0023474643411724 0.0001664162428380
0.0003265251139621 -0.0005427507453631 -0.0000914568977546
-0.0005417042064178 0.0016726032839582 0.0002693671327721
-0.0017106106453397 -0.0053437220588911 0.0000910518308207
-0.0005020918965989 0.0000298253387304 -0.0003783741528551
0.0016762502550277 0.0001321149104442 -0.0001944057404806
-0.0010232070198136 -0.0012176173349648 0.0000114925993272
-0.0010232070816391 -0.0012176178311523 0.0000114925333963
0.0016762501618045 0.0001321147516851 -0.0001944056717752
0.0003265250738373 -0.0005427508023299 -0.0000914568767769
-0.0010232069589577 -0.0012176173883083 0.0000114925715104
0.0000862538556852 0.0037162443027661 -0.0004949860527485
0.0003265251036968 -0.0005427508138026 -0.0000914568977213
-0.0000734526064696 -0.0017780245045657 -0.0004436064916169
-0.0010232068165816 -0.0012176171543695 0.0000114925163710
0.0003265250894191 -0.0005427508212028 -0.0000914568881956
-0.0010232070187101 -0.0012176172183348 0.0000114925852106
-0.0010232068084564 -0.0012176172145922 0.0000114926476887
-0.0014867290667834 0.0038495878143350 -0.0006416639661771
0.0012895229482567 0.0052376976713970 0.0004242906585069
-0.0003753080457837 -0.0011420913547732 0.0000046715752235
0.0012895228745944 0.0052376975226119 0.0004242906289861
0.0007591443717536 -0.0007600187356949 -0.0000013316421290
-0.0010232070087793 -0.0012176172124076 0.0000114925800203
-0.0014350075143949 -0.0036894312482089 0.0006863580992178
-0.0010232070509771 -0.0012176172828532 0.0000114925791654
0.0000534754012580 0.0011994798376806 -0.0000811603147170
0.0003265250246176 -0.0005427511495060 -0.0000914568876571
0.0000412338933519 0.0055927289561225 -0.0002907279390224
-0.0012615960607349 -0.0016295197311400 -0.0000935157143186
-0.0014626352569465 -0.0000641880234810 -0.0001591210253624
0.0026392410506026 0.0059125533605716 0.0003213389699330
0.0016762503074908 0.0001321150534545 -0.0001944056941625
-0.0010232070844144 -0.0012176178322452 0.0000114925529696
0.0005680313440635 0.0030470376535421 -0.0000382857158413
-0.0000602020444141 0.0045628415865892 0.0005272430250327
-0.0003063766375280 -0.0008908125460111 -0.0006585407126881
-0.0010232069536411 -0.0012176170520926 0.0000114925856547
-0.0007049693817069 -0.0010584850539195 -0.0003322058963017
0.0003265251371007 -0.0005427507325707 -0.0000914569372340
-0.0003661418677324 0.0028444521837342 -0.0002770477220905
0.0021577457996885 0.0030223250948534 0.0000634659074834
-0.0003867331797994 -0.0008993657200210 -0.0006759075788966
0.0012895229655773 0.0052376976121188 0.0004242906454839
-0.0003356313829637 -0.0020600868639713 0.0002959104257496
-0.0010232069726670 -0.0012176171114582 0.0000114926149314
-0.0010232069857410 -0.0012176174880012 0.0000114926067823
-0.0000602020868126 0.0045628415360686 0.0005272430283246
-0.0010232069329769 -0.0012176173579665 0.0000114926021804
-0.0007049693051689 -0.0010584950087684 -0.0003322077598452
0.0007047184484142 0.0047313625663977 0.0001704183891220
-0.0031036192846592 -0.0119701455062959 0.0003200765396916
0.0016762503576133 0.0001321156456974 -0.0001944057523322
0.0026392410627738 0.0059125533456530 0.0003213389690503
-0.0010232070054690 -0.0012176172654641 0.0000114925839061
-0.0001336811555314 -0.0026338885312211 0.0000578458428266
0.0021577459456089 0.0030223249425392 0.0000634659935916
0.0003265251298448 -0.0005427507752880 -0.0000914568881623
-0.0010232069326091 -0.0012176179010247 0.0000114926415991
-0.0010232070259660 -0.0012176172517565 0.0000114926145928
0.0016762502757922 0.0001321151837552 -0.0001944057326536
0.0016817826597837 0.0001297368083307 -0.0001933669074124
-0.0007655730637851 0.0003708549669338 0.0003026421609197
0.0008080243111803 0.0023474643017002 0.0001664162461409
-0.0010232071240376 -0.0012176173359676 0.0000114926032851
-0.0007824555061163 0.0002274907340409 0.0001404297153323
0.0023636437176530 0.0042582471533851 -0.0002739650019588
0.0016762502904712 0.0001321150051215 -0.0001944057158783
-0.0005417042181543 0.0016726030982317 0.0002693671912866
0.0008080243687593 0.0023474646041660 0.0001664162307699
0.0026392410855112 0.0059125533765581 0.0003213389637657
-0.0010232069864431 -0.0012176172498524 0.0000114926053113
-0.0005417042327329 0.0016726029780271 0.0002693671872676
-0.0012291071379861 -0.0024535261617908 0.0003489256327708
0.0026392410520404 0.0059125532244184 0.0003213389684397
-0.0000602020880498 0.0045628415198108 0.0005272430052318
-0.0000852734048424 -0.0030145670325726 0.0005834052787818
0.0018031450522228 0.0014760840271344 -0.0000944709670004
-0.0026357416043210 -0.0029620354303838 -0.0004163899589695
0.0012725883732894 0.0033521096322354 0.0006917764133070
-0.0003343294947675 -0.0012343180939998 -0.0000274080268577
-0.0010232069985809 -0.0012176174795327 0.0000114925580378
-0.0000602020992847 0.0045628415777286 0.0005272430091010
0.0003265254522473 -0.0005427508523922 -0.0000914569025228
0.0016762502179123 0.0001321148461757 -0.0001944057425401
-0.0010232069872122 -0.0012176172873692 0.0000114925885801
-0.0010232069906562 -0.0012176170488790 0.0000114926241407
-0.0010232071037412 -0.0012176173612728 0.0000114925502773
-0.0010232070011556 -0.0012176176884976 0.0000114926193113
0.0012895229397971 0.0052376975356768 0.0004242906438463
0.0003265250579546 -0.0005427509270834 -0.0000914569294902
-0.0010232069570518 -0.0012176172287798 0.0000114925823518
0.0016762502422546 0.0001321148727796 -0.0001944057175381
-0.0010232070852838 -0.0012176172533173 0.0000114925724930
-0.0010232069665145 -0.0012176169515355 0.0000114925762788
0.0021820200798519 0.0030118905537986 0.0000680240860560
-0.0019411232095786 -0.0027646404630133 -0.0002483697738491
0.0017361312618982 -0.0006158662611979 0.0002247468285616
0.0018070153417152 0.0020139418513501 0.0002087715737291
-0.0010232069778163 -0.0012176172636075 0.0000114926345324
0.0016762502526871 0.0001321150763945 -0.0001944057093503
-0.0003867330603279 -0.0008993656363290 -0.0006759076050587
-0.0010232068995730 -0.0012176169786306 0.0000114925789600
0.0016762502312872 0.0001321148061739 -0.0001944057337083
0.0021577459159835 0.0030223249756390 0.0000634659992371
-0.0012291071954314 -0.0024535264133740 0.0003489257026207
-0.0010232069399653 -0.0012176172634844 0.0000114926023081
-0.0000965351928451 0.0014622159995542 0.0001405047401590
-0.0010232069008436 -0.0012176171442518 0.0000114925146168
0.0011197846642590 -0.0005930646846834 0.0003447120696880
-0.0010232069746398 -0.0012176172190160 0.0000114925914723
0.0016762502341962 0.0001321149036811 -0.0001944057204302
-0.0012291071701193 -0.0024535263572255 0.0003489256983574
-0.0010243292275060 -0.0012191579184003 0.0000111841978801
0.0002580321546992 0.0047219494812204 0.0001835412272574
-0.0010232069127808 -0.0012176171345478 0.0000114926110623
0.0016762501901593 0.0001321149337169 -0.0001944057281851
0.0004191337695831 -0.0004508449598175 -0.0001114699495458
-0.0009767404475153 -0.0071740268318927 -0.0002465719443910
-0.0010232070269692 -0.0012176172903855 0.0000114926078315
-0.0001892215199468 -0.0008006233026244 -0.0002118321879832
-0.0010232070748514 -0.0012176173353641 0.0000114925960575
-0.0010232069910241 -0.0012176173229995 0.0000114925960853
0.0016762502355337 0.0001321149244089 -0.0001944057213795
-0.0002662670534364 -0.0003064224528423 0.0002174156324339
-0.0010232069812269 -0.0012176173266794 0.0000114925965627
-0.0002622440784459 -0.0015168104133300 -0.0001606349709957
0.0015187300127361 0.0033807266645952 -0.0008844051606999
-0.0010232070354957 -0.0012176174637431 0.0000114926025468
-0.0010232069344481 -0.0012176170193239 0.0000114925776111
-0.0010232070055024 -0.0012176172486187 0.0000114925812748
0.0016762501711669 0.0001321154121951 -0.0001944056755556
0.0000839716610953 -0.0018493538409022 -0.0009989961640975
0.0016762502665635 0.0001321150129653 -0.0001944057584773
-0.0014350075071055 -0.0036894313027172 0.0006863581096372
-0.0011053321104281 0.0007288635786100 -0.0003224366640325
-0.0010232070120561 -0.0012176173310526 0.0000114926011146
0.0016762499185815 0.0001321147065064 -0.0001944056682004
-0.0007050066104671 -0.0010584891871924 -0.0003322071688827
-0.0003825251143832 0.0016327833751081 0.0003007664914562
0.0012062880861861 0.0007564038439761 -0.0002569099587162
0.0009129861433999 -0.0016466890540794 0.0006209556651305
-0.0000602021165718 0.0045628414561861 0.0005272430231287
-0.0003716087600822 0.0016230675845591 0.0002946104896977
-0.0004275368320469 -0.0005159365125010 0.0001798637072399
-0.0003867332397859 -0.0008993658035195 -0.0006759075521070
-0.0010232070224551 -0.0012176173022999 0.0000114926089861
0.0016762502415859 0.0001321149931546 -0.0001944057533758
0.0016762502700076 0.0001321151363919 -0.0001944057278464
-0.0010232071118999 -0.0012176174520925 0.0000114926689328
0.0003265250862425 -0.0005427508452461 -0.0000914569155625
0.0026392410233178 0.0059125531118356 0.0003213389656197
-0.0010232069968087 -0.0012176172330527 0.0000114925911503
0.0017448601744365 0.0032034910311246 0.0008909152804845
0.0016526345267182 0.0028435281042649 -0.0002819224164256
-0.0010232069787191 -0.0012176174075014 0.0000114925782051
-0.0010232069287638 -0.0012176172012151 0.0000114925742915
-0.0000602020542781 0.0045628410817096 0.0005272430478699
-0.0010232069393969 -0.0012176172495516 0.0000114926167522
-0.0027897118347676 -0.0111341384226778 0.0001021442838667
0.0003128062757014 0.0015532906252924 -0.0003302415970283
-0.0010232069834003 -0.0012176174096308 0.0000114925833399
0.0005762650616948 0.0048810652346328 -0.0001601600416117
0.0012895229513330 0.0052376975258056 0.0004242906603830
0.0016762502962224 0.0001321148978065 -0.0001944057223507
-0.0000602021345611 0.0045628413513994 0.0005272430109773
0.0001173259670255 -0.0063381045284486 -0.0004858316445501
-0.0010232069604624 -0.0012176174758177 0.0000114925527198
-0.0010232069766126 -0.0012176172207530 0.0000114926103239
-0.0005417042288877 0.0016726030625486 0.0002693671431860
0.0021577459445389 0.0030223251990795 0.0000634659912824
-0.0000436814235747 0.0001754130428879 0.0005693584795073
0.0003066371780269 0.0031765547761122 0.0005333606239255
0.0003706659068131 0.0010243942010526 -0.0000100951775018
-0.0010232069448806 -0.0012176172845500 0.0000114925914334
0.0016762502456318 0.0001321148756746 -0.0001944057284792
-0.0007260258042354 0.0005447782848392 -0.0002319897928412
0.0012644538874122 -0.0023397033759082 0.0004804531750230
-0.0010232068370453 -0.0012176170050974 0.0000114925649323
-0.0010232069799897 -0.0012176173516625 0.0000114925770449
-0.0010232069834672 -0.0012176171093252 0.0000114925926769
-0.0010232069607299 -0.0012176171809941 0.0000114925538300
0.0003265251168377 -0.0005427508961574 -0.0000914569217075
-0.0010232070001859 -0.0012176173444259 0.0000114926027800
0.0016762503014387 0.0001321147726113 -0.0001944056837654
-0.0010232069997178 -0.0012176172217701 0.0000114926091027
0.0016762502401146 0.0001321149100483 -0.0001944057393094
0.0012895229260209 0.0052376976954547 0.0004242906487536
-0.0003867332852606 -0.0008993657641898 -0.0006759075736566
0.0015282176145988 -0.0000047925855121 -0.0001652556443740
-0.0003867327735027 -0.0008993657028123 -0.0006759075664498
-0.0010232069808591 -0.0012176173990645 0.0000114926142986
0.0003265251731461 -0.0005427509227650 -0.0000914569148186
-0.0010232069545105 -0.0012176172571084 0.0000114925774390
0.0011299213778889 0.0089486654406243 0.0003905314076500
0.0012895229710610 0.0052376975454545 0.0004242906585678
-0.0004354287799694 -0.0043919365454406 0.0002253990514783
-0.0010232070489709 -0.0012176177397695 0.0000114925833954
0.0008080243188040 0.0023474643093926 0.0001664162356493
-0.0010232069388953 -0.0012176172893351 0.0000114925810639
-0.0005417042817186 0.0016726029203158 0.0002693671882835
0.0021577463556840 0.0030223251646668 0.0000634659878127
0.0003265251089799 -0.0005427508974122 -0.0000914569244831
0.0016762502289131 0.0001321149687329 -0.0001944057357511
0.0003265251227561 -0.0005427508597352 -0.0000914569208915
0.0016762502195841 0.0001321149442708 -0.0001944057642725
-0.0010232069713629 -0.0012176172606422 0.0000114925971289
-0.0003867332126014 -0.0008993656403693 -0.0006759075940346
-0.0010232069600611 -0.0012176173026256 0.0000114926128886
-0.0010232069645417 -0.0012176171716809 0.0000114925880195
-0.0008364661087787 -0.0018971796339015 -0.0001868746494798
-0.0000602021197149 0.0045628409957135 0.0005272430188320
0.0003535958083784 0.0004873048592781 -0.0003771678952377
-0.0016453372166803 -0.0023529136355795 -0.0003289634471653
0.0004671533829532 -0.0001880866101093 0.0010121587501876
-0.0010289182446982 -0.0012254813233429 0.0000099190958200
0.0000558299900191 -0.0002842875820704 -0.0001721526915226
0.0003265251085118 -0.0005427508016102 -0.0000914569174776
-0.0002234682482013 0.0018317182515809 -0.0000743338805432
-0.0010232069669158 -0.0012176173561502 0.0000114925889854
-0.0010232069314053 -0.0012176173227392 0.0000114925670751
0.0003265251099830 -0.0005427509010692 -0.0000914569173888
0.0011262894160261 0.0070543784071976 -0.0001023119060685
0.0010445102695672 0.0044864608735137 -0.0000054899482289
-0.0010232069700254 -0.0012176172760850 0.0000114925776111
-0.0000602021409811 0.0045628413257175 0.0005272430046934
0.0003265251039643 -0.0005427509236148 -0.0000914569167560
-0.0009619427150424 -0.0008722224643964 0.0000902481881285
0.0001042078669512 -0.0004560251166490 0.0002261828389430
-0.0000602021370689 0.0045628413335278 0.0005272430488583
0.0016762501870496 0.0001321155327900 -0.0001944056728189
-0.0010232069310041 -0.0012176173718853 0.0000114925956246
-0.0010232069672836 -0.0012176171520812 0.0000114925988942
-0.0000602020940351 0.0045628413325561 0.0005272430478646
0.0016762502094526 0.0001321147955180 -0.0001944057403641
0.0016762502314878 0.0001321148932926 -0.0001944057386210
0.0003265250954044 -0.0005427509222685 -0.0000914569268923
-0.0010232070000856 -0.0012176174741528 0.0000114925931432
0.0028292374536940 0.0010081073633259 -0.0003738254027915
-0.0010232070688995 -0.0012176173311316 0.0000114925735643
-0.0000602020151899 0.0045628420141801 0.0005272430060146
0.0008080243191718 0.0023474642949159 0.0001664162485279
0.0016762501995552 0.0001321149020164 -0.0001944057322651
0.0016762501885878 0.0001321147511166 -0.0001944057244492
-0.0010232069907900 -0.0012176173299598 0.0000114926141043
-0.0008340048832046 -0.0026273960239666 0.0005918146255663
0.0003265251159683 -0.0005427508076501 -0.0000914569224792
-0.0000602018868576 0.0045628414385911 0.0005272429901543
-0.0010232069663808 -0.0012176171684251 0.0000114925846000
-0.0005417042510900 0.0016726029190292 0.0002693671847641
-0.0010232069782176 -0.0012176172293834 0.0000114925779275
0.0013741430602644 0.0075209447396491 -0.0002185152499733
0.0011984015052853 0.0003184598738282 0.0001247805388137
-0.0004420398888465 0.0003332598923909 -0.0001789330317403
-0.0003483400689939 -0.0008801839934548 -0.0000399822300565
-0.0010885581031346 -0.0004908848263671 0.0002151528458634
-0.0010232069748404 -0.0012176170546532 0.0000114925182583
-0.0039697233114217 -0.0032843408927465 0.0002606015285060
0.0016762502230616 0.0001321150059084 -0.0001944057304832
-0.0000602021036650 0.0045628415447326 0.0005272430248163
0.0016762502524530 0.0001321150340081 -0.0001944057230614
-0.0000155848118072 -0.0006076284028353 0.0002803364205813
-0.0005417042049465 0.0016726029933713 0.0002693671862739
0.0026392410318109 0.0059125534176463 0.0003213389928479
-0.0019862141624519 -0.0069980037615986 -0.0005042528633284
-0.0010232069784851 -0.0012176172505212 0.0000114925928545
-0.0010232069830994 -0.0012176172684507 0.0000114925915944
0.0014703520572264 -0.0011037962715635 0.0001430239990469
0.0006085320178542 0.0007388764632963 -0.0000295709565507
-0.0001142342010303 0.0012084644568599 -0.0009061063719210
0.0012644538575861 -0.0023397030582266 0.0004804531368597
0.0005968562985947 -0.0000249079462166 0.0001741098942860
-0.0010800655094799 -0.0002208587477350 0.0005893486260349
-0.0010232069874797 -0.0012176172748161 0.0000114925826460
-0.0003867332678732 -0.0008993657428092 -0.0006759075785804
-0.0005417045264797 0.0016726028365522 0.0002693671596067
-0.0007049693450596 -0.0010584950135639 -0.0003322077744003
-0.0015666663636073 0.0026815740239592 0.0005898141967550
0.0003265251157008 -0.0005427508757218 -0.0000914569221183
-0.0010232070071074 -0.0012176173439894 0.0000114925646825
-0.0010232069678854 -0.0012176173779004 0.0000114925617127
0.0003265256576526 -0.0005427609372143 -0.0000914589097014
0.0003265249748963 -0.0005427508772244 -0.0000914569270811
0.0016762502424887 0.0001321149691939 -0.0001944057397479
-0.0007049696631822 -0.0010584953427146 -0.0003322077074375
0.0012644537803125 -0.0023397033969402 0.0004804531437153
-0.0010232069800566 -0.0012176170968565 0.0000114926163580
0.0003265250744392 -0.0005427509102961 -0.0000914569254324
-0.0003011973309057 0.0005969832942686 0.0000512616504193
-0.0010232069793210 -0.0012176172270164 0.0000114925958022
-0.0010232069878475 -0.0012176173468352 0.0000114925851884
-0.0014350076087884 -0.0036894313320487 0.0006863580896091
-0.0010232069007433 -0.0012176171722495 0.0000114925921495
0.0002738399734642 -0.0005888972715175 -0.0000818147403545
-0.0011019100703022 -0.0009704991929461 0.0001389644719507
-0.0010232069571521 -0.0012176171469653 0.0000114925981281
-0.0010232069845372 -0.0012176172789377 0.0000114925852606
-0.0010232069735029 -0.0012176172382285 0.0000114925727539
-0.0003608741094761 -0.0046688517284963 -0.0000118979388090
-0.0010232069816616 -0.0012176172804354 0.0000114925938815
-0.0000841794273632 -0.0030144433377085 0.0005834445978736
0.0016762502509149 0.0001321150501179 -0.0001944057346742
0.0016762502348650 0.0001321148835007 -0.0001944057339359
-0.0010232069826982 -0.0012176173146947 0.0000114926035682
0.0016762502307856 0.0001321150571768 -0.0001944057248488
0.0015249365656751 0.0004411028911667 0.0000364211940261
-0.0010232069704935 -0.0012176172086258 0.0000114925997157
-0.0031095588098274 -0.0046981585708394 0.0003791267473573
-0.0010232070177739 -0.0012176171066976 0.0000114926153366
-0.0005417042843267 0.0016726030099110 0.0002693671742725
-0.0000791918258344 -0.0006917381600823 -0.0005144949190217
0.0000413618892461 0.0050425983669443 -0.0001344819766496
0.0016762502283447 0.0001321149743029 -0.0001944057396813
0.0003265250661801 -0.0005427510018831 -0.0000914569311556
-0.0000602020857092 0.0045628414931275 0.0005272430379392
-0.0010232070669267 -0.0012176176964820 0.0000114925911004
0.0016762502396800 0.0001321148839512 -0.0001944057332810
0.0016762502927450 0.0001321149678862 -0.0001944057631068
-0.0007049694102289 -0.0010584952035344 -0.0003322077445686
-0.0010232069577874 -0.0012176169190237 0.0000114926255729
-0.0010232070781951 -0.0012176173990696 0.0000114926271994
-0.0010232069689889 -0.0012176172598942 0.0000114925928379
-0.0007049693000196 -0.0010584950423643 -0.0003322077631759
-0.0012368352927052 -0.0017628192592202 0.0001653884767682
0.0000082878372792 -0.0007018679907835 0.0002522427496380
-0.0000602019805489 0.0045628416414830 0.0005272430517502
0.0010397781231916 -0.0001861159713967 0.0004929915554409
-0.0010232069357188 -0.0012176173207541 0.0000114925661980
-0.0000264914084675 -0.0008336637672650 0.0003128284363020
-0.0010232069630370 -0.0012176171949182 0.0000114926011868
-0.0007389298486186 -0.0019458763470102 -0.0001789423702897
-0.0024380507572986 0.0021153789979576 0.0008589452861308
-0.0010232069442118 -0.0012176168570852 0.0000114926186284
-0.0010232069921609 -0.0012176172348706 0.0000114925765286
0.0003265250717307 -0.0005427510428616 -0.0000914569165561
-0.0014350075391719 -0.0036894312312931 0.0006863580810491
-0.0010232069861756 -0.0012176173433084 0.0000114925877308
0.0003265251368666 -0.0005427508275173 -0.0000914569104000
-0.0000602021394429 0.0045628413856186 0.0005272430168837
0.0003265250681195 -0.0005427509178758 -0.0000914568904216
0.0012895229048217 0.0052376974038392 0.0004242906589286
0.0003265250879813 -0.0005427509286709 -0.0000914569097283
0.0016762502488083 0.0001321149417928 -0.0001944057571560
0.0003265250941337 -0.0005427508808958 -0.0000914569181771
-0.0000576658300677 -0.0067822956265072 0.0001928844795230
0.0003265251092808 -0.0005427508535246 -0.0000914569236782
0.0004470777682776 -0.0022806983574810 -0.0014159936729369
0.0003253911268758 -0.0014449582166404 0.0001114681546573
-0.0001892216334330 -0.0008006233578997 -0.0002118321814774
0.0003265250575868 -0.0005427511032110 -0.0000914568985595
0.0012644538064939 -0.0023397032555740 0.0004804531514146
0.0014547929772639 0.0004418502364452 -0.0002969130086807
-0.0000602021184109 0.0045628415456936 0.0005272430130646
-0.0011787836147373 -0.0017156554259196 0.0001426980956658
-0.0005417042064512 0.0016726030684018 0.0002693671820996
-0.0012601980233362 -0.0045485964098343 0.0008786851979998
0.0026392410242206 0.0059125531797194 0.0003213389826005
-0.0000852734027693 -0.0030145669624086 0.0005834052787764
0.0002435039860494 -0.0002833239800231 -0.0000190521835973
0.0016762502118267 0.0001321148390078 -0.0001944057456265
0.0008080243052619 0.0023474642835911 0.0001664162420497
-0.0010232069707610 -0.0012176170428286 0.0000114926142097
-0.0014555122076601 -0.0004434489067737 0.0001575107376849
0.0003263423003159 -0.0005441853112230 -0.0000917337464222
0.0003265250941003 -0.0005427509681588 -0.0000914569227567
-0.0003867332101939 -0.0008993657818573 -0.0006759075631592
0.0003265248321190 -0.0005427512738366 -0.0000914569058870
0.0003265250300679 -0.0005427511463083 -0.0000914568934136
-0.0010232069690557 -0.0012176172614288 0.0000114925824239
-0.0010222150193246 -0.0012180436024888 0.0000116788599664
0.0000309762605992 0.0007338347100762 -0.0000406203473175
0.0008372830346521 0.0006100913888723 -0.0001328923446684
-0.0005417042608872 0.0016726030240603 0.0002693671848751
-0.0007297122736188 -0.0022419442042885 0.0004162806342791
0.0016762502875956 0.0001321148050404 -0.0001944057105825
-0.0005417042558047 0.0016726031082385 0.0002693671991749
-0.0019862141722156 -0.0069980038793946 -0.0005042528537803
-0.0010232069995171 -0.0012176172703161 0.0000114925910504
-0.0001758159990243 0.0005060436543764 -0.0000735503646922
0.0010139231680976 0.0035833855545607 -0.0001710164164974
0.0007883043378798 0.0006528362659159 0.0000692971036727
0.0003265250971765 -0.0005427509468063 -0.0000914569101058
-0.0010232070127583 -0.0012176174328381 0.0000114926089417
-0.0005417042527619 0.0016726031278787 0.0002693671636864
-0.0000602021139637 0.0045628414535762 0.0005272430158012
0.0006447607716440 -0.0003836268813530 -0.0004351560273499
-0.0010232069822300 -0.0012176172963587 0.0000114925982946
0.0006468308825079 0.0023585334761640 -0.0002019609785988
0.0008080243001459 0.0023474643206119 0.0001664162473455
-0.0012121355602278 -0.0049993712398854 0.0004513331689869
0.0003265249913809 -0.0005427509406060 -0.0000914569198480
0.0008080242871054 0.0023474642061022 0.0001664162415723
-0.0010232068911468 -0.0012176168106882 0.0000114926344270
-0.0010232069851391 -0.0012176171487779 0.0000114926124445
0.0003265250466528 -0.0005427511384716 -0.0000914569012018
0.0008080243217464 0.0023474643172575 0.0001664162493494
-0.0010232066842368 -0.0012176164098630 0.0000114927000581
0.0003938972250933 0.0025557007374416 -0.0000046197590947
-0.0002357585707263 -0.0001356704705439 0.0000243542809740
-0.0005417042807824 0.0016726029584223 0.0002693671749608
-0.0010232069010108 -0.0012176171739178 0.0000114926003375
-0.0010232070180748 -0.0012176177328832 0.0000114925778942
0.0024272099420142 0.0022399286728671 0.0004661782799679
-0.0007049693108867 -0.0010584949749842 -0.0003322077915255
0.0005653297426911 0.0036742574801670 -0.0005037430588369
-0.0007824555475786 0.0002274906517319 0.0001404297358660
-0.0010232069735029 -0.0012176172333695 0.0000114925792487
-0.0010232069329100 -0.0012176173376963 0.0000114926038347
-0.0010232069520696 -0.0012176173150028 0.0000114925809529
0.0012060299782510 0.0029283133122189 -0.0001651796004016
0.0016762502442943 0.0001321149537071 -0.0001944057497731
-0.0010232072198021 -0.0012176176268031 0.0000114925001506
0.0008772106648374 0.0070527518755034 -0.0009711071623104
-0.0005413825420250 -0.0027278966974939 0.0001035988769658
-0.0010232069756763 -0.0012176172606140 0.0000114925957911
0.0005762649782353 0.0048810647549727 -0.0001601600539019
-0.0012385046124372 -0.0032291733938405 -0.0000896311155318
0.0001206259158839 -0.0017786610421272 0.0002459745272017
-0.0001892215421492 -0.0008006233107901 -0.0002118321793013
-0.0014159218170642 -0.0054700869293621 0.0005994702270548
-0.0010232069837347 -0.0012176172291898 0.0000114925912669
-0.0010232070036299 -0.0012176173439630 0.0000114926012534
-0.0010232070165367 -0.0012176173487041 0.0000114925897570
-0.0004363653296714 0.0022971480970574 0.0000989369751112
-0.0010232072614315 -0.0012176173807418 0.0000114926156364
-0.0003867332361078 -0.0008993659553802 -0.0006759075415043
-0.0002397205482495 -0.0011539633809778 0.0004124148511740
0.0019525218769313 0.0020285509805495 -0.0001672909796902
-0.0001186511202293 0.0000516162705685 -0.0001169486260140
0.0016762502655939 0.0001321149445593 -0.0001944057349851
0.0034391018493831 0.0064373162820638 0.0006090845965637
0.0003265250822635 -0.0005427509374174 -0.0000914569169558
0.0005391852550828 0.0024933572906921 0.0001190622809837
0.0016762502613808 0.0001321150580250 -0.0001944057401642
-0.0010232069605627 -0.0012176173294900 0.0000114926039846
0.0016701411563158 0.0049494791936020 -0.0007528214443335
0.0005455676004359 0.0033453941685305 0.0005851413020294
0.0047048557311695 0.0015313475183792 0.0001578937948307
0.0001885632252592 0.0045390450589703 0.0002309155253549
-0.0000602021073766 0.0045628413679439 0.0005272430194927
-0.0005256450563224 -0.0014025964114656 0.0000967166268674
-0.0005417042331676 0.0016726030056800 0.0002693672023390
-0.0007381600879019 -0.0005078333317864 -0.0001969530403177
-0.0010232067880596 -0.0012176159872710 0.0000114925908338
0.0026392410228831 0.0059125529830968 0.0003213389585143
0.0016762502347981 0.0001321149357494 -0.0001944057398645
0.0026392410191716 0.0059125531366710 0.0003213389727085
-0.0000339260896179 -0.0002029026873481 -0.0001470272133140
0.0008464374803893 0.0026284844933556 -0.0010492666418998
-0.0003914945595073 0.0007157275481085 -0.0003593099962358
-0.0010232069665479 -0.0012176172924483 0.0000114926072098
-0.0010232069305025 -0.0012176175011669 0.0000114926288703
-0.0010232069684204 -0.0012176173057933 0.0000114925900790
-0.0010232069825979 -0.0012176172327799 0.0000114926038624
-0.0017147280391856 -0.0031388272732176 0.0002940165615261
-0.0011204797504471 -0.0016234310246005 0.0001203401966143
0.0013600924998036 0.0054272339496723 0.0003751052026935
-0.0003867332561702 -0.0008993658808392 -0.0006759075628596
-0.0001440879612269 0.0004850139003124 0.0000863491555824
-0.0004965549628938 -0.0016320212234921 0.0001637781003339
-0.0020796474466641 -0.0126916123984672 0.0004391062125849
0.0016762502221922 0.0001321148639715 -0.0001944057358899
0.0020243435501958 0.0083913832575990 0.0007069993078315
0.0003265250931306 -0.0005427508616164 -0.0000914569188765
-0.0010219288175002 -0.0012148213043574 0.0000119093668939
0.0003265251097490 -0.0005427508447288 -0.0000914569124428
-0.0006795054967513 0.0008454485633200 -0.0000282872043536
0.0000584444739058 0.0005507107868964 -0.0002903898633256
-0.0007168958967649 0.0004857829041952 0.0003995050918700
0.0003265250843032 -0.0005427509322223 -0.0000914569195093
0.0004858299222358 0.0000784907742500 -0.0001685990278716
0.0001518176573389 0.0004772341751292 -0.0009227650229227
0.0016762502222257 0.0001321149131070 -0.0001944057316045
0.0012895229081654 0.0052376976440293 0.0004242906621152
0.0003264863762097 -0.0005427473083407 -0.0000914567482861
0.0043756796886653 0.0014818451477436 -0.0004003012686961
0.0008031337949648 0.0014056797293205 0.0003210541477377
-0.0006448754267895 -0.0003098218861298 -0.0002788809938654
0.0003265250708614 -0.0005427509472603 -0.0000914569166783
-0.0010232069518021 -0.0012176172148857 0.0000114926038679
-0.0000043565482464 0.0019783834384441 -0.0001200519834581
-0.0003867332659004 -0.0008993658786605 -0.0006759075620436
-0.0010232069096377 -0.0012176170582224 0.0000114925778720
0.0016762501875846 0.0001321144393014 -0.0001944056889667
-0.0010232070312491 -0.0012176176124009 0.0000114925940203
-0.0005417043029513 0.0016726028393318 0.0002693671503803
-0.0007061839291566 -0.0043155428900719 0.0003725423094309
-0.0010232770511711 -0.0012177242045697 0.0000114712147826
-0.0010232069936990 -0.0012176172341385 0.0000114925920496
0.0001206258988643 -0.0017786611493469 0.0002459745275514
0.0007415426507427 0.0011224940150450 0.0000607183253115
-0.0000602021478691 0.0045628413789592 0.0005272430353080
-0.0012291072145575 -0.0024535265170159 0.0003489256864003
-0.0010842239396588 0.0001820997988808 0.0000757902498465
-0.0010232070045996 -0.0012176172906813 0.0000114926059552
0.0031574035125585 0.0127549661692202 -0.0000626706485840
-0.0010232069661467 -0.0012176171773758 0.0000114925951749
-0.0010232068922837 -0.0012176169244161 0.0000114926109623
-0.0005541448179559 -0.0002800138199160 -0.0001620787074473
-0.0005417042595162 0.0016726030384613 0.0002693671858410
-0.0010232069494280 -0.0012176172980095 0.0000114925770671
0.0048966039926076 0.0057852226546085 0.0008482854577861
0.0003265250069292 -0.0005427509117777 -0.0000914568867801
-0.0005417042400892 0.0016726031224565 0.0002693672041764
-0.0010232069761445 -0.0012176172886346 0.0000114926040345
0.0003265251095149 -0.0005427509264658 -0.0000914569143246
-0.0010232069077986 -0.0012176167518769 0.0000114925935706
-0.0010232068335343 -0.0012176167176635 0.0000114925861931
0.0016762502585386 0.0001321150539298 -0.0001944057328812
-0.0010232069708279 -0.0012176170651226 0.0000114926122890
-0.0000602021719774 0.0045628412989834 0.0005272430246221
-0.0008977311695673 -0.0074725375007776 -0.0005361238231211
-0.0030010990075832 -0.0135503676379998 -0.0000136976403882
-0.0003867332411568 -0.0008993658733493 -0.0006759075639808
-0.0003621138975096 -0.0015412812653268 -0.0002786289382670
-0.0015017637642155 0.0009986009254148 -0.0007042671853120
0.0008080242945619 0.0023474642928851 0.0001664162462075
0.0026392410212781 0.0059125533165712 0.0003213389443315
-0.0010232069628364 -0.0012176172260626 0.0000114925736198
-0.0010232069921275 -0.0012176172165240 0.0000114925866872
-0.0010232070407453 -0.0012176173818458 0.0000114925951971
-0.0002638634812648 0.0032813366455195 -0.0001628095437419
-0.0002917284333361 -0.0006024780091872 -0.0004256580732744
0.0004176959084218 -0.0005096351263838 0.0001776038823556
-0.0010232069550121 -0.0012176173338422 0.0000114926041900
-0.0000602021389414 0.0045628412759059 0.0005272430177108
-0.0014350076578075 -0.0036894312456007 0.0006863580894261
0.0001206258868937 -0.0017786611868549 0.0002459745286838
0.0019169981463949 0.0015772177102063 -0.0000654700213252
-0.0022696288502488 -0.0005231828500413 -0.0007733319925819
-0.0010232070265679 -0.0012176173366296 0.0000114925761956
-0.0010232070306807 -0.0012176173062015 0.0000114926094025
0.0006141575095575 -0.0002367411267662 -0.0001594536554206
-0.0001459834596122 0.0005457351263127 -0.0005469711431048
-0.0012291072302396 -0.0024535265084841 0.0003489256963091
-0.0011261571074218 -0.0018355724475722 0.0001802092248657
-0.0008640879581392 -0.0011380570307746 -0.0001603576453131
-0.0006043948041464 0.0004837057115955 0.0007190175651733
-0.0007049693430868 -0.0010584950150405 -0.0003322077605503
0.0016762502516505 0.0001321150927384 -0.0001944057406694
-0.0000602021122584 0.0045628414104468 0.0005272430162785
0.0016762502844525 0.0001321148906985 -0.0001944057168275
-0.0010232069862091 -0.0012176172883354 0.0000114925955024
-0.0010232069505649 -0.0012176172533898 0.0000114925973121
-0.0010232069675511 -0.0012176171859059 0.0000114925994493
0.0016762502741204 0.0001321150983805 -0.0001944057557017
0.0016762502573349 0.0001321149927286 -0.0001944057593043
0.0012895228832212 0.0052376974678268 0.0004242906378290
0.0006895951388156 0.0002639963464136 -0.0001598157728288
0.0026392410483958 0.0059125532612299 0.0003213389282000
0.0003265251094480 -0.0005427508436728 -0.0000914569184269
-0.0010232069543099 -0.0012176173285485 0.0000114925847332
-0.0005417042526616 0.0016726030667900 0.0002693671856800
-0.0003483400729395 -0.0008801839841750 -0.0000399822480476
-0.0010232069671498 -0.0012176172504297 0.0000114925833676
-0.0012291072458883 -0.0024535265703028 0.0003489256974360
-0.0009108704063313 -0.0022944120543685 0.0000052251149571
0.0008080243095084 0.0023474642856977 0.0001664162434208
0.0016762501999230 0.0001321150839814 -0.0001944057596874
-0.0010232069472546 -0.0012176172434008 0.0000114925971567
0.0003265250716639 -0.0005427509483268 -0.0000914569214189
0.0012644537957271 -0.0023397033064234 0.0004804531214334
0.0007041377031611 0.0092773716007217 0.0006655709021487
-0.0005473477426627 0.0009996511192585 -0.0004629389540867
0.0016762502431909 0.0001321149392287 -0.0001944057545748
-0.0010232070318176 -0.0012176173179891 0.0000114926005040
0.0004027086356869 0.0018449055108687 -0.0000544148827978
0.0016762501790247 0.0001321150368892 -0.0001944057232503
0.0043199891810569 0.0017949330820574 0.0002384285990872
-0.0010232070059037 -0.0012176175533169 0.0000114925701560
0.0003265250885163 -0.0005427509440257 -0.0000914569215133
0.0012644537845256 -0.0023397032174395 0.0004804531459081
-0.0010232071046106 -0.0012176178296563 0.0000114925766619
0.0016762502449631 0.0001321150104822 -0.0001944057407193
-0.0007618645136765 0.0001746145013954 0.0001071207966964
0.0005762650288928 0.0048810650960372 -0.0001601600340899
-0.0010232069967753 -0.0012176173583764 0.0000114925862598
-0.0013298910514284 -0.0003430266943128 0.0006796512405860
0.0016762502522524 0.0001321149056486 -0.0001944057535645
0.0003265250990825 -0.0005427509206741 -0.0000914569259930
-0.0010232069792876 -0.0012176173425218 0.0000114925895405
-0.0010232069728007 -0.0012176173815979 0.0000114925952915
-0.0005849831925081 -0.0006260285122621 -0.0001277051495919
0.0027255554889988 0.0001149427584511 -0.0001205787806166
-0.0000852734495481 -0.0030145669518124 0.0005834052937367
-0.0010232069881150 -0.0012176172511441 0.0000114925837007
0.0026392411034670 0.0059125532389125 0.0003213389920539
0.0002155418011729 -0.0004515006696938 -0.0002097893253864
-0.0010232070044993 -0.0012176172317609 0.0000114925931432
-0.0004035644279125 -0.0044391545289392 -0.0002944022352017
-0.0007049693412478 -0.0010584950795959 -0.0003322077565368
-0.0000602020886517 0.0045628414408081 0.0005272430171167
-0.0010232069325756 -0.0012176171811385 0.0000114926049005
-0.0010232070428519 -0.0012176176069329 0.0000114925796928
0.0016762502453309 0.0001321149529856 -0.0001944057397035
0.0003265250862425 -0.0005427509087809 -0.0000914569251215
-0.0012953848497262 -0.0001647360430855 0.0001880941149492
-0.0010232068063164 -0.0012176171773850 0.0000114925003060
-0.0005477426584923 -0.0023565344380649 -0.0000378261746279
-0.0010232069210732 -0.0012176168427916 0.0000114926285094
0.0026392410428117 0.0059125532227730 0.0003213389575318
0.0008080243008816 0.0023474642818735 0.0001664162470180
0.0021577458491757 0.0030223248425295 0.0000634659673850
-0.0010232069985809 -0.0012176173671071 0.0000114925974564
-0.0010232069675845 -0.0012176171340795 0.0000114925863708
-0.0010232069912916 -0.0012176173246010 0.0000114925926103
-0.0002574889796346 -0.0005504407115804 0.0004142122812098
0.0016762502381084 0.0001321149254348 -0.0001944057340359
-0.0003853839988831 -0.0001973229218828 0.0003821351921156
-0.0010232067859196 -0.0012176170457435 0.0000114926748837
-0.0023980157300697 -0.0094697914759022 0.0001706104466288
-0.0000305626301778 -0.0005964162304960 -0.0002684242318909
0.0023162165235020 0.0053029315667935 0.0002213378352762
-0.0013497337912294 -0.0066797247422964 -0.0011916500680597
-0.0007091027318679 -0.0027844423738297 0.0002892457412410
-0.0011807191457679 -0.0062664946250307 0.0001533062760630
-0.0010232069439443 -0.0012176172366253 0.0000114926009203
0.0016762502221588 0.0001321149470091 -0.0001944057431174
0.0003265251002862 -0.0005427508958881 -0.0000914569191263
0.0004000622392369 -0.0089022146690923 -0.0006770604427789
-0.0010232069880147 -0.0012176172987450 0.0000114925945587
-0.0010232069503643 -0.0012176172395907 0.0000114925645271
0.0002580322183304 0.0047219496821315 0.0001835412275072
-0.0003867331776928 -0.0008993656048464 -0.0006759075494369
0.0003265250882153 -0.0005427509359092 -0.0000914569104111
0.0012100448967237 0.0056763606100649 -0.0000249252894223
0.0012444807066811 0.0013500553593095 0.0001620265534223
0.0001341478010662 0.0021258823451158 0.0000489778637651
-0.0003867332347034 -0.0008993658151663 -0.0006759075647969
-0.0000602021495076 0.0045628412960302 0.0005272430113270
-0.0007030107121620 -0.0021724207798170 0.0003036695077140
-0.0010232069862091 -0.0012176172206421 0.0000114925943589
0.0021577459417971 0.0030223250720729 0.0000634660085296
0.0032757003401398 0.0062307840823703 -0.0003660590943035
-0.0000602021443248 0.0045628414115205 0.0005272430170614
0.0016762502303175 0.0001321149919068 -0.0001944057231891
0.0016762502294147 0.0001321148947023 -0.0001944057207689
-0.0003139461743358 -0.0009117507028385 -0.0007811921995121
-0.0007049693240945 -0.0010584950734488 -0.0003322077572473
-0.0010232068615882 -0.0012176171764170 0.0000114926117284
0.0026392410951077 0.0059125532494102 0.0003213389362489
-0.0000602020784199 0.0045628408272065 0.0005272430903081
0.0023636437111996 0.0042582471995220 -0.0002739650007431
-0.0010232070314163 -0.0012176174685862 0.0000114925895238
-0.0010232069572189 -0.0012176173774094 0.0000114925993105
-0.0010232061229582 -0.0012176247678920 0.0000114911350554
-0.0007476042833955 0.0004366874430456 0.0006068008997701
-0.0000852734068486 -0.0030145669546634 0.0005834052826732
0.0004719683026399 0.0001455400873328 -0.0001406638111471
-0.0004399317260295 -0.0006524125299385 -0.0000119682865112
-0.0010232069676514 -0.0012176172675761 0.0000114925937094
-0.0000602021413489 0.0045628413299201 0.0005272430280859
0.0003265250984806 -0.0005427508801901 -0.0000914569166561
0.0016762502425221 0.0001321147837268 -0.0001944057791494
-0.0010232069723326 -0.0012176172813805 0.0000114925956578
0.0016762502359015 0.0001321149101434 -0.0001944057289844
0.0027637302109395 0.0010978524114501 0.0002503887324983
0.0016762501988530 0.0001321149184940 -0.0001944057903238
-0.0027965151400994 -0.0101849882330764 -0.0004407751235801
-0.0003286849943245 -0.0026952398253287 0.0000039531689524
-0.0010232070008212 -0.0012176173999779 0.0000114925940647
-0.0010232069825310 -0.0012176172759776 0.0000114925888910
0.0007132570807898 -0.0056482510923513 -0.0007101454735965
0.0021577459222028 0.0030223250041560 0.0000634660041109
-0.0010232069734695 -0.0012176171857017 0.0000114926019029
-0.0010232069713295 -0.0012176172696263 0.0000114925912558
-0.0010232070137280 -0.0012176172808295 0.0000114926044953
-0.0003867332434640 -0.0008993658043800 -0.0006759075760157
-0.0010232069676179 -0.0012176172648518 0.0000114925997379
-0.0010232069825644 -0.0012176173075004 0.0000114926046951
-0.0010232069520696 -0.0012176172741844 0.0000114925880917
0.0016762502244660 0.0001321149325236 -0.0001944057318543
-0.0010232070165033 -0.0012176172807661 0.0000114925909394
0.0003265250741048 -0.0005427509317119 -0.0000914569245386
0.0001002197288167 0.0002255427397773 -0.0000958733602605
0.0019169981591345 0.0015772177585675 -0.0000654700152634
0.0005697080764112 -0.0016687744318418 -0.0000550831947956
-0.0010232069990156 -0.0012176172835028 0.0000114926058442
0.0012644538236473 -0.0023397032357615 0.0004804531547064
-0.0005417042669393 0.0016726030445012 0.0002693671874064
-0.0010232070012559 -0.0012176173283600 0.0000114925921162
0.0012895228887383 0.0052376972877910 0.0004242906959435
0.0017766160734664 0.0020935413234947 0.0001889268358377
-0.0013249414174237 -0.0043734343315959 -0.0000759259180874
-0.0002206066848049 -0.0006464045388015 -0.0000979752173405
0.0003265889446390 -0.0005499614322370 -0.0000928364940092
-0.0000602021254996 0.0045628414111649 0.0005272430232342
0.0003265250942006 -0.0005427509441190 -0.0000914569184213
0.0003265250801904 -0.0005427509636166 -0.0000914569119654
0.0021577459283218 0.0030223250624166 0.0000634659895838
0.0012644538755085 -0.0023397032576930 0.0004804531620614
0.0003006988888352 0.0011269743696166 0.0001456374914751
-0.0014241603955433 -0.0061658257874312 -0.0006704190010109
-0.0010232069398984 -0.0012176171952685 0.0000114925997601
0.0014374734115617 0.0021629823519635 -0.0011888150459331
-0.0010232070089130 -0.0012176173348962 0.0000114925780274
-0.0005417042463419 0.0016726028348738 0.0002693671621875
-0.0000602021191131 0.0045628413674406 0.0005272430086013
-0.0010232069905559 -0.0012176172961351 0.0000114926018973
0.0016762500377855 0.0001321149982816 -0.0001944056276942
-0.0014350075683293 -0.0036894313218486 0.0006863581000784
0.0016762502164745 0.0001321148638202 -0.0001944057272691
0.0003265250773482 -0.0005427510158688 -0.0000914569171668
-0.0010232069779835 -0.0012176172549349 0.0000114925936428
-0.0005417042577775 0.0016726030437004 0.0002693671785857
-0.0010232069774819 -0.0012176173220827 0.0000114925917831
-0.0010232069734360 -0.0012176172523831 0.0000114925954525
-0.0010232069511668 -0.0012176172326533 0.0000114926040234
0.0026392410657832 0.0059125532709021 0.0003213389753619
-0.0010232070459615 -0.0012176172720283 0.0000114926016142
0.0003265251030615 -0.0005427509213921 -0.0000914569249439
-0.0007824555580444 0.0002274906240439 0.0001404297328740
-0.0005417042686446 0.0016726029903710 0.0002693671877062
-0.0012291072189712 -0.0024535264280794 0.0003489256875661
-0.0010232069601280 -0.0012176172796981 0.0000114925913779
0.0003265250728676 -0.0005427509831616 -0.0000914569224292
0.0002750162673672 0.0000739237931773 0.0002017347741723
-0.0010232069905225 -0.0012176173342292 0.0000114925805532
0.0001302290014015 -0.0013430791781303 -0.0001403089057337
-0.0007049693247298 -0.0010584951172589 -0.0003322077737119
-0.0010232070213182 -0.0012176173708925 0.0000114925832622
0.0019169981991590 0.0015772179017857 -0.0000654700332489
0.0016762501815325 0.0001321148915206 -0.0001944057803485
-0.0003867332869659 -0.0008993659231622 -0.0006759075710808
-0.0007049693533187 -0.0010584950633875 -0.0003322077588128
-0.0000602020992847 0.0045628414692161 0.0005272430327488
0.0016762503432018 0.0001321151329212 -0.0001944057395536
0.0016762503142786 0.0001321152946479 -0.0001944056901491
-0.0014708727791412 -0.0031432214052556 -0.0004491325285828
-0.0005417042431654 0.0016726031590460 0.0002693671936182
-0.0005417042824542 0.0016726029233727 0.0002693671759877
0.0019169981535839 0.0015772177543245 -0.0000654700203981
0.0016762502602105 0.0001321150432685 -0.0001944057364117
-0.0010869335753132 -0.0027741006889398 0.0011980587742237
0.0001206259046824 -0.0017786611251893 0.0002459745193413
-0.0007443859604137 0.0000766828968421 0.0001399884204265
0.0009546535206395 0.0034570795188035 -0.0011716232554585
-0.0005417042666718 0.0016726030539306 0.0002693671890274
-0.0002489343473083 -0.0000722294385375 -0.0003782545980630
-0.0010232069933981 -0.0012176172863203 0.0000114925864652
-0.0000602021347617 0.0045628415629088 0.0005272430512510
0.0016762502367040 0.0001321149950834 -0.0001944057201193
0.0016762502659617 0.0001321150759545 -0.0001944057490238
-0.0010232070346263 -0.0012176173186596 0.0000114926112899
0.0003265250515346 -0.0005427510456545 -0.0000914568808681
-0.0010232069642073 -0.0012176173630964 0.0000114926204992
-0.0000602021446257 0.0045628411816749 0.0005272430155624
-0.0010232069843032 -0.0012176172918024 0.0000114925912058
-0.0010232069932978 -0.0012176173068017 0.0000114925961908
0.0005888349625824 0.0026409563558654 0.0001789792834104
0.0016762501937371 0.0001321147536912 -0.0001944057536090
-0.0002796561954967 -0.0018790428286543 0.0002072691633101
-0.0010232069513674 -0.0012176173019481 0.0000114925993882
-0.0010232069872791 -0.0012176173336027 0.0000114925977340
0.0016762502574686 0.0001321147308286 -0.0001944057032940
-0.0000602021028625 0.0045628414899159 0.0005272430164451
0.0021577455779323 0.0030223249004481 0.0000634659363547
-0.0010232069823972 -0.0012176172299553 0.0000114926029409
-0.0010232070303463 -0.0012176176234300 0.0000114925731424
0.0003265250599942 -0.0005427509793409 -0.0000914569186767
-0.0004674002332501 -0.0014010736348657 -0.0005220637903598
0.0015733011670276 -0.0004858412737214 -0.0000256907364481
-0.0001767723429417 0.0001523435055459 -0.0001710223609710
0.0000380463674314 0.0003774200578786 0.0001358697561344
0.0007737781580808 0.0049798233261162 0.0003039160946361
-0.0011261571684449 -0.0018355725289483 0.0001802092198919
0.0003837060713189 -0.0058321397296928 -0.0006795833583498
-0.0010232069008771 -0.0012176169272953 0.0000114925703224
0.0014703520536486 -0.0011037963930664 0.0001430240439773
-0.0007284697012275 0.0007324748895527 -0.0000262204937543
0.0021577459227712 0.0030223250019772 0.0000634659985987
-0.0001225070477976 0.0004070921603660 0.0011816119623627
-0.0005417043600956 0.0016726029422160 0.0002693671884557
-0.0010232069600611 -0.0012176171892549 0.0000114926090583
-0.0010232069623014 -0.0012176172015775 0.0000114925881916
-0.0004193640438380 -0.0008463923056840 -0.0000676375271039
-0.0014350075590671 -0.0036894312453491 0.0006863581097318
0.0001894908983934 -0.0047245680444782 0.0003092135586713
-0.0010232069814610 -0.0012176173069988 0.0000114925858990
0.0026392410671875 0.0059125532716042 0.0003213389756727
0.0003265250322078 -0.0005427511413244 -0.0000914569130257
-0.0000602021411483 0.0045628415386947 0.0005272430226904
-0.0003867332604836 -0.0008993657972508 -0.0006759075580301
0.0004508510720664 0.0018598988526099 0.0000660850245848
0.0008080242922213 0.0023474641895963 0.0001664162406397
-0.0010232070665255 -0.0012176172312345 0.0000114926099464
-0.0010232069827985 -0.0012176173120708 0.0000114925917277
-0.0003867332550333 -0.0008993658394859 -0.0006759075655685
-0.0010232069882488 -0.0012176172788532 0.0000114925914723
-0.0003867333819948 -0.0008993658677912 -0.0006759075468172
0.0003265251446241 -0.0005427508036131 -0.0000914569108940
0.0016762502236300 0.0001321149196467 -0.0001944057129640
0.0026392410361243 0.0059125531788552 0.0003213389659639
-0.0012291072195397 -0.0024535264528090 0.0003489256860784
-0.0014350636027978 -0.0022815172496994 0.0002865466689536
-0.0042063723683855 0.0000271997956701 0.0003600142076661
-0.0000602021070756 0.0045628414550632 0.0005272430179328
-0.0010232071097934 -0.0012176176052450 0.0000114925832622
-0.0007709501495543 -0.0000648903573972 0.0002242133492646
0.0012895228201919 0.0052376975066800 0.0004242906793737
0.0005499830580234 0.0009512877641509 0.0001434253341915
0.0001747936287025 -0.0013741755817538 -0.0001673127532888
-0.0005417042590481 0.0016726031320074 0.0002693671909425
-0.0010232068927853 -0.0012176168992764 0.0000114926037847
-0.0002674703384330 -0.0032930569735104 -0.0003304793502219
0.0003263142111078 -0.0005430037532318 -0.0000915079679613
-0.0010232070124908 -0.0012176172802276 0.0000114926032185
0.0016762502273750 0.0001321149156483 -0.0001944057319875
-0.0000602021226574 0.0045628414648518 0.0005272430162898
-0.0010232069617330 -0.0012176172435627 0.0000114925769949
0.0016762502155048 0.0001321149520160 -0.0001944057420960
0.0008080242962672 0.0023474642248378 0.0001664162342338
-0.0010232069790869 -0.0012176171721542 0.0000114926024913
0.0003265250781173 -0.0005427510113424 -0.0000914569184102
0.0002580322184307 0.0047219497496141 0.0001835412146675
-0.0012291072112472 -0.0024535263924333 0.0003489257054630
-0.0003867332717185 -0.0008993658294986 -0.0006759075632149
-0.0010232069933981 -0.0012176173058901 0.0000114925931876
-0.0007049693448590 -0.0010584951160709 -0.0003322077619935
0.0019169981370325 0.0015772177323667 -0.0000654700238954
-0.0000602021295121 0.0045628415088647 0.0005272430194483
0.0012856461002377 0.0003034363098379 -0.0000667337261971
0.0003265250710954 -0.0005427508794667 -0.0000914569340754
-0.0010232067557926 -0.0012176168261156 0.0000114927106274
-0.0010232068724888 -0.0012176169313641 0.0000114925963961
-0.0011681687713633 -0.0018091994568768 0.0000770837578361
0.0016762502357678 0.0001321149103211 -0.0001944057289788
0.0003265250959393 -0.0005427509276273 -0.0000914569131755
-0.0000659736675361 0.0017931562410905 -0.0003726689816459
0.0012895220565173 0.0052376956703995 0.0004242902453944
-0.0010232070948134 -0.0012176175931073 0.0000114926421542
-0.0005417042166830 0.0016726030999793 0.0002693671934904
-0.0010232070960506 -0.0012176173488658 0.0000114925636444
0.0016762502443277 0.0001321149441669 -0.0001944057394260
-0.0003867332666361 -0.0008993659256841 -0.0006759075814558
-0.0010232070091136 -0.0012176173349630 0.0000114925822741
-0.0007809309458035 -0.0010512296776955 0.0003019262543981
0.0003265250947022 -0.0005427509282626 -0.0000914569118932
-0.0000319912332852 0.0001065156422408 0.0002883388428300
-0.0003867332476771 -0.0008993657922985 -0.0006759075638754
0.0012895229459161 0.0052376975460918 0.0004242906568858
-0.0010232069809260 -0.0012176172783218 0.0000114925877197
-0.0007049693369678 -0.0010584950994385 -0.0003322077551268
0.0000214030980248 -0.0029805224526562 0.0004648120740985
0.0012895228964624 0.0052376974944730 0.0004242906443626
0.0003265251037637 -0.0005427509180888 -0.0000914569132477
0.0012644537696460 -0.0023397032556514 0.0004804531529302
0.0016762502047380 0.0001321148901918 -0.0001944057418407
-0.0010232069843032 -0.0012176173154972 0.0000114926001154
-0.0010232069584227 -0.0012176171573855 0.0000114925949695
0.0016762502180795 0.0001321149418228 -0.0001944057372388
0.0003265249135389 -0.0005427511087647 -0.0000914568807572
-0.0000602021389414 0.0045628414562373 0.0005272430203254
-0.0012291072406052 -0.0024535265068175 0.0003489256844908
-0.0006114068144315 0.0012542140370313 -0.0006633756936375
0.0019169982221973 0.0015772177148222 -0.0000654700350474
0.0016762503116036 0.0001321150086271 -0.0001944057256481
-0.0010232070167708 -0.0012176172908959 0.0000114925910671
0.0003265250624686 -0.0005427509812504 -0.0000914569163341
-0.0013024860855853 -0.0065306283221246 -0.0012206900023036
0.0000171017095940 -0.0003510818673146 0.0002279399074315
-0.0010232069777829 -0.0012176173769782 0.0000114926220646
-0.0012291071032447 -0.0024535261781612 0.0003489257004724
0.0016762502437259 0.0001321148153287 -0.0001944057193477
-0.0005417042563062 0.0016726030107116 0.0002693671845920
-0.0010232069935987 -0.0012176173147633 0.0000114925952249
0.0000862982236108 0.0012846278553076 -0.0000050767105425
0.0003764800903403 0.0002276428019148 -0.0000636031024071
0.0028542228604219 -0.0025022589374423 -0.0002811767503428
0.0003265250709282 -0.0005427509763034 -0.0000914569227512
-0.0000602021159031 0.0045628414257314 0.0005272430182382
-0.0007049693152001 -0.0010584950152517 -0.0003322077593623
0.0026392409884427 0.0059125528505481 0.0003213389967224
0.0007132571423813 -0.0056482509433266 -0.0007101454651478
-0.0006110035772940 0.0002723797677875 0.0004013797761031
-0.0000852734022008 -0.0030145670791473 0.0005834052641492
-0.0010232069513005 -0.0012176172105265 0.0000114925807586
-0.0000602021255999 0.0045628414057497 0.0005272430157901
-0.0007049693466312 -0.0010584950776565 -0.0003322077586851
0.0003265250809594 -0.0005427509590902 -0.0000914569132366
-0.0010232069408681 -0.0012176172656315 0.0000114925686960
0.0003265250389287 -0.0005427509903629 -0.0000914569180716
0.0016762502259707 0.0001321149376959 -0.0001944057189314
0.0003265250574864 -0.0005427509737287 -0.0000914569130756
0.0019169981464283 0.0015772176887130 -0.0000654700088464
0.0016198266727753 0.0010459722546610 -0.0002002598901108
0.0005762650365834 0.0048810651672982 -0.0001601600241090
-0.0010232069631373 -0.0012176171739142 0.0000114926025579
-0.0010232069910241 -0.0012176173102792 0.0000114925948807
0.0016762503082599 0.0001321149406962 -0.0001944057148291
-0.0012291071991429 -0.0024535264152130 0.0003489257017159
0.0003265250911578 -0.0005427509349272 -0.0000914569145522
-0.0010232069623014 -0.0012176173567451 0.0000114925847887
0.0016762502312872 0.0001321148726776 -0.0001944057317155
-0.0007824555563726 0.0002274906278153 0.0001404297260128
-0.0000602021361661 0.0045628412802123 0.0005272430189708
0.0016035094969003 0.0105203050439886 0.0000299969463865
0.0003265250884494 -0.0005427509707229 -0.0000914569241167
-0.0005642387445760 0.0001541856134368 -0.0001532208724396
0.0000371421517030 0.0004397243060449 -0.0001942463168235
-0.0010232071219980 -0.0012176175871465 0.0000114926368861
-0.0000602021096837 0.0045628414244378 0.0005272429853198
-0.0010232068886056 -0.0012176168322008 0.0000114925780829
-0.0003867332129357 -0.0008993657072513 -0.0006759075647302
0.0026392410367261 0.0059125532099118 0.0003213389626166
0.0004971714818159 0.0022019080176837 0.0005123867240737
-0.0003867332350044 -0.0008993658788348 -0.0006759075511466
-0.0010232069834672 -0.0012176172881876 0.0000114925989552
-0.0010232070083446 -0.0012176172810900 0.0000114925826127
0.0016762502071455 0.0001321149048163 -0.0001944057263199
-0.0010232069311713 -0.0012176172397791 0.0000114925879251
-0.0000602021567635 0.0045628412445062 0.0005272430220129
-0.0001892215419820 -0.0008006233251225 -0.0002118321826819
0.0001280517535360 0.0008948237699920 0.0000107566107489
0.0026056386050331 -0.0003877218373897 0.0003137511360583
-0.0013497337820341 -0.0066797243346941 -0.0011916501389923
-0.0000602021089816 0.0045628413866778 0.0005272430116268
-0.0010232069629702 -0.0012176172469223 0.0000114926025413
-0.0010243319682615 -0.0012189630481944 0.0000112215476019
-0.0010232069904222 -0.0012176172916651 0.0000114925887800
0.0003265250955381 -0.0005427509290845 -0.0000914569174443
-0.0012291072225490 -0.0024535264428165 0.0003489256871165
-0.0012291072400033 -0.0024535264811093 0.0003489256946827
-0.0006795055389826 0.0008454484552358 -0.0000282872112703
0.0012644538534733 -0.0023397033478841 0.0004804531525858
-0.0003483400700639 -0.0008801840489628 -0.0000399822462935
0.0002148290826917 -0.0005114943459256 -0.0001035685424746
-0.0018897649567778 -0.0007574811278654 0.0000648994191911
0.0016762502235297 0.0001321149266738 -0.0001944057340969
-0.0014350076109284 -0.0036894315742920 0.0006863580783179
-0.0010232070612424 -0.0012176174766164 0.0000114925801813
-0.0010232069353844 -0.0012176169980207 0.0000114926084810
-0.0000602021513466 0.0045628414177611 0.0005272430058314
-0.0005417042389523 0.0016726030110881 0.0002693671926966
-0.0003867332487471 -0.0008993658573468 -0.0006759075600507
-0.0007049693724782 -0.0010584950663792 -0.0003322077564980
-0.0010232069688217 -0.0012176172403245 0.0000114925916499
-0.0010232069802572 -0.0012176173090878 0.0000114925929933
0.0015733011681310 -0.0004858412387283 -0.0000256907552995
0.0012895229047214 0.0052376975460093 0.0004242906479764
0.0012895229182300 0.0052376975234423 0.0004242906553150
-0.0000602021460970 0.0045628413681201 0.0005272430115602
0.0026392409981061 0.0059125528549073 0.0003213390168783
0.0017159798058659 0.0009343491541079 0.0000565895447101
-0.0012291072359239 -0.0024535265817103 0.0003489256784400
-0.0003867332613195 -0.0008993658115955 -0.0006759075580912
-0.0002726012965189 -0.0036009557398238 0.0009409876004327
-0.0003125886630502 -0.0015184690412117 0.0000311512610450
-0.0010232069250188 -0.0012176172745857 0.0000114925649323
0.0008080243159952 0.0023474644428861 0.0001664162604850
-0.0005417041167389 0.0016726030731900 0.0002693671874952
0.0012895220251531 0.0052376960070965 0.0004242903410569
-0.0003867332731563 -0.0008993658556414 -0.0006759075580523
-0.0014350075434853 -0.0036894311938380 0.0006863580821815
0.0016762501767509 0.0001321148268349 -0.0001944057432341
0.0016762502271410 0.0001321149746795 -0.0001944057311215
-0.0010232070091805 -0.0012176172856832 0.0000114926126332
0.0003272293729725 -0.0006745713931688 -0.0000220205857647
0.0016762502306519 0.0001321149500325 -0.0001944057360232
0.0012644537831213 -0.0023397031748772 0.0004804531253250
-0.0003483401238980 -0.0008801840277562 -0.0000399822584061
-0.0009455876317971 -0.0008357606902286 0.0001445808529155
0.0001206258908059 -0.0017786611125745 0.0002459745172375
0.0003565507430395 0.0000031759693304 -0.0000796688446828
0.0003082914682257 -0.0008213898252434 0.0003768058889062
-0.0037226917377204 -0.0025673515908093 0.0002173936659979
-0.0006884541833616 -0.0007367596432138 0.0006091715749144
-0.0001631210157686 0.0005804897735556 -0.0000318482500615
-0.0007049693430534 -0.0010584950870701 -0.0003322077540166
0.0008080242747002 0.0023474642682769 0.0001664162407286
-0.0007049693413481 -0.0010584950930836 -0.0003322077570641
-0.0003867331802006 -0.0008993656476358 -0.0006759075413322
-0.0010232070031618 -0.0012176173347114 0.0000114925959187
0.0016762502453309 0.0001321149930701 -0.0001944057381270
-0.0007824555338358 0.0002274907206871 0.0001404297372316
-0.0003698740694841 0.0007264686711053 -0.0002000358242390
-0.0016397322670511 -0.0105497637364765 -0.0001176621159326
0.0001875994166977 0.0013625376862544 0.0000444813437017
-0.0000248490125532 -0.0002726487335170 -0.0000113374080992
0.0016762505317548 0.0001321158571468 -0.0001944057689965
-0.0010232070014231 -0.0012176173030531 0.0000114925896959
0.0012644537586786 -0.0023397033205445 0.0004804531471737
0.0016762502307856 0.0001321149625751 -0.0001944057324927
-0.0010232069896197 -0.0012176172457642 0.0000114925796373
-0.0010232069897200 -0.0012176173182056 0.0000114925918054
0.0003265250870450 -0.0005427509215557 -0.0000914569172667
0.0005663917340116 -0.0004600205190302 -0.0000991879318069
-0.0010232070041983 -0.0012176174241215 0.0000114925978061
0.0006357596094981 0.0010268369615467 -0.0002279570273661
-0.0010232070317507 -0.0012176175356460 0.0000114926012701
-0.0002869830839065 -0.0017568066428526 0.0003121288711455
0.0003265250131151 -0.0005427511298165 -0.0000914569122041
-0.0006505128337090 -0.0013593349559134 -0.0001816627052374
-0.0010232068926849 -0.0012176166621941 0.0000114926144540
-0.0014350075121546 -0.0036894314078654 0.0006863580850068
-0.0003867332522246 -0.0008993657887014 -0.0006759075590904
-0.0010232069867106 -0.0012176173462667 0.0000114925924826
0.0016762502481396 0.0001321149092018 -0.0001944057276022
0.0021577459338055 0.0030223250778788 0.0000634660005971
0.0008080242908504 0.0023474642773472 0.0001664162477896
0.0016762501406721 0.0001321147694616 -0.0001944057577334
-0.0005417041968213 0.0016726030091926 0.0002693672035602
-0.0012291072075022 -0.0024535264892875 0.0003489256950823
-0.0003867332353053 -0.0008993656935348 -0.0006759075802846
-0.0010232069526380 -0.0012176169712108 0.0000114926189615
-0.0000602021261015 0.0045628414416531 0.0005272430195649
0.0003265250898872 -0.0005427509336056 -0.0000914569151628
0.0003265250833669 -0.0005427508635294 -0.0000914569159178
-0.0010232069700923 -0.0012176172600069 0.0000114925958521
0.0016762502438262 0.0001321149380619 -0.0001944057321651
0.0016762502328922 0.0001321149379598 -0.0001944057373499
-0.0007049693267360 -0.0010584950417958 -0.0003322077544884
-0.0007824555771371 0.0002274906188840 0.0001404297356384
-0.0006795055352377 0.0008454484839833 -0.0000282872109261
0.0012895229153210 0.0052376975518151 0.0004242906488535
-0.0010232069834338 -0.0012176173008745 0.0000114925943311
0.0003258804870066 -0.0005444900978417 -0.0000910054180464
0.0002292221969996 0.0001850366640902 0.0001158641749294
0.0010655153198574 0.0021613099165502 -0.0002112904398117
0.0013759341445815 0.0002375523392712 0.0003691375017316
0.0026392410291359 0.0059125531807260 0.0003213389585088
-0.0012291072036235 -0.0024535264477529 0.0003489257016660
-0.0010232071471763 -0.0012176174391697 0.0000114926223644
0.0006616224914066 -0.0009605159298807 -0.0001683136433828
-0.0010232070243610 -0.0012176174046538 0.0000114925830512
0.0000526906520022 -0.0006111297406147 0.0000316905258490
-0.0004167554699614 -0.0004445203123009 -0.0001550881441410
0.0016762501605004 0.0001321144526343 -0.0001944057308440
0.0016762502261713 0.0001321149152910 -0.0001944057307108
0.0021577459176219 0.0030223250443462 0.0000634659879518
0.0003265250771141 -0.0005427510154798 -0.0000914569182603
0.0016762502243322 0.0001321149060711 -0.0001944057329312
0.0026392410142897 0.0059125532285209 0.0003213389721756
-0.0010232069617998 -0.0012176172050128 0.0000114926043065
-0.0007049693483031 -0.0010584950755236 -0.0003322077584852
0.0016762502222257 0.0001321150186498 -0.0001944057643781
-0.0009108704021516 -0.0022944120500938 0.0000052251152291
-0.0007049693297119 -0.0010584950564431 -0.0003322077613829
-0.0010232070055358 -0.0012176173273199 0.0000114925956412
0.0003265251209170 -0.0005427507543613 -0.0000914569105166
0.0000947661538765 0.0019908405632658 -0.0004180344102962
-0.0010232069577205 -0.0012176170416900 0.0000114926065103
-0.0001897976118640 0.0001103325392322 -0.0000230005710345
-0.0010232070098158 -0.0012176173522097 0.0000114926022748
0.0012895229291640 0.0052376976349588 0.0004242906487869
-0.0012291072413742 -0.0024535264150634 0.0003489256590111
-0.0007049693222554 -0.0010584950146041 -0.0003322077632425
-0.0010232069824307 -0.0012176172934901 0.0000114925894517
-0.0010232069885497 -0.0012176173105097 0.0000114925850274
0.0003265250951034 -0.0005427509261050 -0.0000914569125205
-0.0005003580739329 0.0002691983468727 0.0000435606947445
0.0003265251020918 -0.0005427509572969 -0.0000914569193817
-0.0010232069768132 -0.0012176173185682 0.0000114925933264
-0.0006364750908369 -0.0063231272185280 -0.0006071994885077
0.0003265251518131 -0.0005427506949149 -0.0000914569366789
0.0003265251039977 -0.0005427509067694 -0.0000914569310778
0.0016762502213898 0.0001321149676788 -0.0001944057294784
0.0016762502386768 0.0001321149960865 -0.0001944057321540
-0.0010232069795885 -0.0012176173429336 0.0000114925847721
-0.0010232070477672 -0.0012176176937349 0.0000114925885857
0.0026392410498001 0.0059125532179333 0.0003213389791866
0.0001206258905384 -0.0017786611425187 0.0002459745256418
-0.0010232070091471 -0.0012176174804126 0.0000114925907506
-0.0000602021037319 0.0045628415119865 0.0005272430085903
-0.0010232069836010 -0.0012176172757788 0.0000114925868149
0.0012895229232791 0.0052376975782660 0.0004242906469217
0.0003265250802573 -0.0005427509594245 -0.0000914569141581
0.0003265250760776 -0.0005427510108778 -0.0000914569116157
-0.0007049693733810 -0.0010584950695048 -0.0003322077604393
0.0016762502260710 0.0001321149519174 -0.0001944057330699
-0.0010232069153220 -0.0012176173134577 0.0000114925952859
0.0003265251018243 -0.0005427508894927 -0.0000914569151628
0.0002580322058248 0.0047219494476346 0.0001835412328473
-0.0010232070122567 -0.0012176173223800 0.0000114926005262
-0.0010232071154777 -0.0012176180225308 0.0000114926152478
-0.0018499852290180 -0.0064431725909812 0.0006883186976189
-0.0006608173020270 -0.0023114820334215 0.0002349402404648
0.0021577459727934 0.0030223248251642 0.0000634659872523
-0.0010232069785519 -0.0012176172940638 0.0000114925843113
-0.0010232069716304 -0.0012176173120462 0.0000114925993216
0.0006606067640072 0.0018645120685723 -0.0000996636674307
-0.0014338789089090 -0.0024359544161819 -0.0006457416664809
-0.0010681204381224 -0.0053683690044484 0.0006540859699527
0.0003265250233804 -0.0005427510963579 -0.0000914568679784
0.0003265250167933 -0.0005427510999129 -0.0000914568609285
-0.0000457473670469 0.0003355292171523 0.0000719447557460
-0.0000602030866549 0.0045628399673019 0.0005272426743080
0.0016762501167979 0.0001321147912488 -0.0001944057974403
-0.0000602020825995 0.0045628419184078 0.0005272430417142
0.0015733011591364 -0.0004858412212264 -0.0000256907512972
-0.0010232069981128 -0.0012176172715709 0.0000114925881916
-0.0010232070787301 -0.0012176173656461 0.0000114925953525
-0.0010232070840801 -0.0012176173556342 0.0000114926225253
-0.0010232069838350 -0.0012176172629141 0.0000114925917998
0.0026392409925220 0.0059125531712423 0.0003213389805522
-0.0010232070493721 -0.0012176176527405 0.0000114925793042
-0.0004787444818248 -0.0030971733661261 -0.0003553549529780
0.0003265275928032 -0.0005427580646085 -0.0000914583534357
-0.0005368225668703 -0.0046730017785778 0.0000408946776700
-0.0013619457361782 -0.0088012569869836 0.0002452787573082
0.0016762502337281 0.0001321149811699 -0.0001944057305887
-0.0007049693429865 -0.0010584951046494 -0.0003322077593012
-0.0001892215183753 -0.0008006231356464 -0.0002118321849190
-0.0000602020779852 0.0045628415399931 0.0005272430023562
-0.0002234682651540 0.0018317182870864 -0.0000743338918398
0.0016762501150591 0.0001321142348895 -0.0001944057598427
0.0004024165963110 -0.0002020727160405 0.0001851511285516
-0.0005417042771377 0.0016726030565089 0.0002693671714747
0.0016762501702307 0.0001321146224685 -0.0001944057113597
0.0016762502330928 0.0001321149537159 -0.0001944057278075
-0.0007985371419295 -0.0033712110954541 -0.0000010429568919
0.0016762501982846 0.0001321147869985 -0.0001944057209798
0.0016762502203532 0.0001321149390123 -0.0001944057201194
-0.0010232070297779 -0.0012176173695127 0.0000114925930044
0.0003265250896866 -0.0005427508872612 -0.0000914569178107
0.0003265250870785 -0.0005427509702020 -0.0000914569124150
-0.0005074589904991 -0.0009597429675600 0.0001318678185734
0.0016762502339287 0.0001321149052597 -0.0001944057264364
0.0016762502353665 0.0001321148844687 -0.0001944057216458
0.0019169981484680 0.0015772177864527 -0.0000654700197376
0.0019169981343909 0.0015772177828556 -0.0000654700224687
-0.0004956275580271 -0.0010309494824067 -0.0001507266646258
-0.0005417042741283 0.0016726030257568 0.0002693671796959
-0.0001892215031947 -0.0008006231251206 -0.0002118321827541
0.0021577458345302 0.0030223248962954 0.0000634659968557
0.0003265250971431 -0.0005427509118589 -0.0000914569208805
-0.0008268394423379 0.0056387040761889 0.0001713583677138
-0.0007049693027949 -0.0010584950535201 -0.0003322077506969
0.0023028692276931 0.0015625704576663 0.0004948890741103
0.0003268112926144 -0.0005395285753749 -0.0000912264035754
-0.0001100882366797 -0.0008605796262405 -0.0004555161316600
-0.0010232069806585 -0.0012176172630884 0.0000114925961685
-0.0000602021526841 0.0045628412054826 0.0005272429971437
-0.0008682332377607 -0.0037895541324886 -0.0009337794639120
-0.0010232068329659 -0.0012176173793069 0.0000114926142819
0.0016762502345975 0.0001321150751943 -0.0001944057317932
0.0003265250980125 -0.0005427509104792 -0.0000914569181993
-0.0010232069933647 -0.0012176173100152 0.0000114925992994
-0.0010232069652105 -0.0012176172788146 0.0000114925923605
0.0016762502348315 0.0001321149172251 -0.0001944057306663
0.0016762502396131 0.0001321149205776 -0.0001944057387876
-0.0010232069781841 -0.0012176172560137 0.0000114925901622
-0.0010232069559818 -0.0012176173084138 0.0000114925912058
-0.0010232069189667 -0.0012176171513563 0.0000114926152034
-0.0000851082247599 -0.0030157509102370 0.0005831815178788
-0.0003867332672714 -0.0008993658189746 -0.0006759075728572
-0.0010232070027605 -0.0012176173484208 0.0000114925945754
0.0020764853309214 0.0014063750618505 -0.0002816331221231
0.0010275260978490 0.0053131376230353 0.0005805776340206
0.0003265250729345 -0.0005427509985059 -0.0000914569233507
0.0003265250845707 -0.0005427509433411 -0.0000914569163619
0.0003265250850388 -0.0005427509345453 -0.0000914569160344
0.0003265250985140 -0.0005427508840706 -0.0000914569261707
0.0016762502364700 0.0001321149651727 -0.0001944057233889
0.0016762502091183 0.0001321149632386 -0.0001944057359843
0.0016762502571677 0.0001321150082841 -0.0001944057252763
-0.0010232069676514 -0.0012176172274916 0.0000114925757626
-0.0010232069825310 -0.0012176172908661 0.0000114925954691
0.0005762649746241 0.0048810649334985 -0.0001601600288164
0.0003265250871119 -0.0005427509095358 -0.0000914569143024
-0.0010232069633380 -0.0012176172959469 0.0000114925862986
0.0018140491570349 0.0009592598900335 0.0001032451033292
0.0003265251266348 -0.0005427507114347 -0.0000914569065142
0.0008080243076359 0.0023474642686498 0.0001664162414946
-0.0007049693760226 -0.0010584950625251 -0.0003322077483656
0.0015109440919642 0.0083928500368848 -0.0007733550202679
0.0003265250883825 -0.0005427509272471 -0.0000914569179606
0.0003265250951369 -0.0005427509141186 -0.0000914569056871
-0.0000344245810753 0.0004590445257540 -0.0001107800541433
-0.0010232069708279 -0.0012176173749685 0.0000114925914779
-0.0015517499668563 -0.0034779622188832 0.0000317838650854
0.0011321586408002 0.0031485766681962 -0.0000092788856221
-0.0003447619828205 0.0002346914993611 -0.0001749869650666
0.0005105303177748 -0.0001684230552898 -0.0001554332281590
0.0002576829637144 -0.0008128034793191 -0.0000222768089496
0.0003265250882822 -0.0005427509287818 -0.0000914569268035
-0.0000535604774297 -0.0008161755969928 -0.0000387884142976
0.0043756796279766 0.0014818449651839 -0.0004003012864371
-0.0005417042597837 0.0016726030378383 0.0002693671852248
0.0016762502328253 0.0001321149550499 -0.0001944057338138
-0.0009108704009813 -0.0022944120069947 0.0000052251112656
0.0003265250894859 -0.0005427508717392 -0.0000914569172778
-0.0010232069980793 -0.0012176173037941 0.0000114925929489
-0.0012291072417420 -0.0024535265076305 0.0003489256871775
-0.0005417042618903 0.0016726030260384 0.0002693671825214
-0.0010232069607967 -0.0012176172206562 0.0000114925975619
-0.0010232069839019 -0.0012176172771691 0.0000114925950195
-0.0004093083662506 -0.0029457685979036 0.0002962804384127
0.0003265251246954 -0.0005427508120762 -0.0000914569144301
0.0009317341361955 0.0023205409029864 -0.0001319765834771
0.0000867182187226 0.0001806775567732 0.0001414017665346
-0.0001892215431857 -0.0008006231788405 -0.0002118321700920
-0.0000602021581010 0.0045628413621014 0.0005272430017625
0.0001521066579994 -0.0008812138715630 -0.0000068048847224
0.0036332953963976 0.0045460013289740 -0.0001728691308290
0.0002732483964304 -0.0013350581155342 -0.0005638251370487
0.0008405090012679 -0.0000154281464840 0.0001294943150678
-0.0007618009619001 -0.0021507880809472 0.0001339493067344
-0.0011860668244646 -0.0008106562448932 -0.0002043851670530
-0.0008026033695109 -0.0013585210243651 0.0000504834739811
-0.0001111354956577 0.0007549092166750 -0.0000806012216080
-0.0010232070036968 -0.0012176172821741 0.0000114925926547
-0.0010232069849385 -0.0012176172874555 0.0000114925942534
-0.0007049693342260 -0.0010584950438284 -0.0003322077596843
-0.0002234682641175 0.0018317183115276 -0.0000743339028255
0.0016762502199854 0.0001321148536059 -0.0001944057329090
-0.0012291072273640 -0.0024535264217403 0.0003489256948714
-0.0010232069655114 -0.0012176172765021 0.0000114925936483
-0.0010232069821966 -0.0012176172855619 0.0000114925923216
-0.0010232070081105 -0.0012176173566886 0.0000114925936817
-0.0003483400789917 -0.0008801840475724 -0.0000399822459882
0.0003265250879813 -0.0005427509276924 -0.0000914569125705
-0.0001079338730713 -0.0008684457852095 0.0001497241733329
-0.0010232069829991 -0.0012176172915894 0.0000114925948196
-0.0010232070073080 -0.0012176173988181 0.0000114925872035
-0.0008910277753688 -0.0011713942719567 0.0000070522606685
0.0016762501937705 0.0001321147255932 -0.0001944057315434
0.0003265250966415 -0.0005427509167742 -0.0000914569150129
0.0016762503029768 0.0001321152960575 -0.0001944057497176
-0.0010232069670829 -0.0012176172772712 0.0000114926018640
-0.0007150596504531 0.0001669853944858 -0.0001056686111567
-0.0000602021533194 0.0045628413224671 0.0005272430219020
-0.0010232070089130 -0.0012176173434245 0.0000114925902788
0.0008080242747002 0.0023474642692888 0.0001664162366374
-0.0010232069934984 -0.0012176172821952 0.0000114925912336
0.0003265250963740 -0.0005427509415813 -0.0000914569160676
0.0021577456372501 0.0030223249076018 0.0000634660042055
-0.0008640879689394 -0.0011380570481444 -0.0001603576483940
0.0006146612647487 0.0049002695461279 0.0004757667448942
0.0012895229245497 0.0052376975984378 0.0004242906463388
0.0003265250963740 -0.0005427508929685 -0.0000914569169947
-0.0019862140940726 -0.0069980039112461 -0.0005042528209395
0.0007737781499890 0.0049798233391939 0.0003039160904727
-0.0004040448412238 -0.0014439702115535 0.0000229466693267
-0.0001205557585345 -0.0016644001830756 0.0001976797786049
-0.0005962937465788 -0.0006187995053954 0.0002095469212492
-0.0000926001557914 0.0001594914550020 0.0001155841304619
0.0002311940701669 0.0032041464477916 0.0001753900004022
-0.0005417042785421 0.0016726031252126 0.0002693671620934
0.0016762500094641 0.0001321146458822 -0.0001944056564210
0.0003265249890737 -0.0005427511812046 -0.0000914568794748
-0.0010232069885163 -0.0012176173019814 0.0000114925790544
-0.0010232069860419 -0.0012176173116853 0.0000114925925659
0.0016762501313097 0.0001321147251851 -0.0001944057426179
-0.0005449191559434 0.0003409121584050 -0.0000661974881984
0.0005677733510524 0.0034026518751987 0.0008979606416930
0.0016762502335944 0.0001321149617779 -0.0001944057404362
0.0016762502438262 0.0001321151112980 -0.0001944057131472
-0.0005417042342711 0.0016726030559596 0.0002693671826879
0.0005776480687912 0.0018010693318409 -0.0003293043040680
0.0003265250313719 -0.0005427509330528 -0.0000914569061923
0.0003265250950365 -0.0005427509175767 -0.0000914569150129
-0.0003867332701804 -0.0008993659062077 -0.0006759075466392
0.0003265250866438 -0.0005427509366783 -0.0000914569154293
0.0008080242889110 0.0023474642656141 0.0001664162450973
-0.0016291066075117 -0.0009361668827501 -0.0004402812689460
-0.0008854055987736 -0.0003904661661601 0.0003091465098610
-0.0007985371844283 -0.0033712110858980 -0.0000010429719520
0.0003265250474218 -0.0005427510929157 -0.0000914569031169
-0.0008262823639418 -0.0064562342565114 -0.0005818741806611
0.0016762501987861 0.0001321147234866 -0.0001944057600426
0.0000371220304039 0.0004501144265239 0.0004492329869732
-0.0001131538186909 0.0000254807872491 -0.0000062370176758
0.0002219805362325 -0.0007971384797314 0.0000889788883102
-0.0007049693411475 -0.0010584950448597 -0.0003322077557818
0.0003265250903888 -0.0005427508954551 -0.0000914569178607
-0.0010232069784182 -0.0012176172761061 0.0000114925913335
-0.0007049693761898 -0.0010584951613523 -0.0003322077429143
-0.0005417042790102 0.0016726030091278 0.0002693671825437
-0.0010232070111533 -0.0012176173210777 0.0000114925946864
0.0016762501577586 0.0001321148359300 -0.0001944057406972
0.0016762500748340 0.0001321145730077 -0.0001944057868710
-0.0005417042735933 0.0016726029957246 0.0002693671811614
-0.0010232070331216 -0.0012176173499025 0.0000114925827293
-0.0010232069801569 -0.0012176173007372 0.0000114925928490
0.0021577459178225 0.0030223250767033 0.0000634659972276
-0.0010232069701257 -0.0012176172788093 0.0000114925894628
0.0003265250855403 -0.0005427509343113 -0.0000914569166727
0.0003265250908903 -0.0005427509413877 -0.0000914569152183
-0.0000602021055041 0.0045628414490163 0.0005272430175720
0.0003265250847713 -0.0005427510192513 -0.0000914569045102
0.0003265250838685 -0.0005427509336795 -0.0000914569237726
-0.0010232069773148 -0.0012176172689998 0.0000114925894628
-0.0010232069959059 -0.0012176173318006 0.0000114925912447
-0.0010232069261222 -0.0012176173328180 0.0000114926045508
0.0001229667397440 0.0019277142085165 -0.0001852641845833
-0.0005417042535978 0.0016726030414038 0.0002693671794516
-0.0009542814446955 0.0049531815883742 -0.0002812068730750
0.0016762502102551 0.0001321149144604 -0.0001944057107214
0.0016762502285453 0.0001321149412015 -0.0001944057295562
-0.0007049693314841 -0.0010584950466160 -0.0003322077544995
-0.0008168076475791 -0.0064307875924930 -0.0005884777432394
0.0003265250494949 -0.0005427509620854 -0.0000914569206085
-0.0004467144773835 0.0003106024149472 0.0000331141731118
0.0003265250274932 -0.0005427509154224 -0.0000914569114492
-0.0002922419049733 0.0001883903039465 0.0000802744807796
-0.0010232070190780 -0.0012176172383164 0.0000114926066269
-0.0010232069154892 -0.0012176169497511 0.0000114926383405
-0.0003787304688671 -0.0020518869856704 -0.0001819163470260
-0.0005417042367454 0.0016726030478730 0.0002693671841201
0.0016762502048717 0.0001321149515584 -0.0001944056907598
-0.0004923301825036 0.0001249896456741 0.0000980082838311
0.0016762501768178 0.0001321147227598 -0.0001944057265363
-0.0014036936779942 -0.0006415676384691 -0.0000352328129291
0.0000194376666880 -0.0027167384516812 -0.0001138670112359
-0.0000647255441176 0.0009559774676011 0.0001192563028188
-0.0005787139944118 -0.0052673212818389 0.0001706035294687
-0.0010232069900544 -0.0012176175263118 0.0000114925724208
-0.0005702987393025 -0.0003307049117178 0.0000648707560515
-0.0005222101023418 0.0010917608837872 0.0002427823359609
-0.0010232069853731 -0.0012176171906082 0.0000114925945976
0.0003265250575533 -0.0005427510878332 -0.0000914569038830
-0.0010232069894525 -0.0012176173004591 0.0000114925917387
0.0003265250806919 -0.0005427509792160 -0.0000914569146965
0.0003265250994168 -0.0005427509302918 -0.0000914569163896
-0.0003867332728888 -0.0008993659205101 -0.0006759075709809
-0.0007049693348947 -0.0010584950646776 -0.0003322077606724
0.0012895229234463 0.0052376975783329 0.0004242906469494
-0.0000602021422851 0.0045628414139914 0.0005272430186046
0.0008080242888107 0.0023474642513926 0.0001664162428047
-0.0003867332525255 -0.0008993658959125 -0.0006759075616883
-0.0000602021844830 0.0045628412223460 0.0005272430223073
-0.0000601350431116 0.0006757304135840 -0.0001306107780671
-0.0004717113330778 -0.0010189121637941 -0.0000086944268945
0.0002344310761421 0.0009638283035840 0.0002075837414143
0.0012895228997392 0.0052376975552434 0.0004242906546322
-0.0010232070527493 -0.0012176175994728 0.0000114925606413
-0.0003259867620614 -0.0008774999696608 0.0000836737410665
-0.0003371213114580 0.0001688482602017 0.0001702583439970
-0.0010232071059815 -0.0012176173323547 0.0000114925981115
0.0016762503682130 0.0001321152910541 -0.0001944056367034
0.0012895229435421 0.0052376976294274 0.0004242906439796
-0.0010232070049340 -0.0012176173724852 0.0000114925869592
0.0016762502276760 0.0001321149243772 -0.0001944057332254
0.0003265250905559 -0.0005427509347055 -0.0000914569145411
-0.0000602021170734 0.0045628414153780 0.0005272430267536
0.0012895229232791 0.0052376975841370 0.0004242906504355
0.0003265251158345 -0.0005427508825043 -0.0000914569181715
-0.0003867331984908 -0.0008993656743770 -0.0006759075310571
0.0000082878070519 -0.0007018680058971 0.0002522427519251
0.0000947661713976 0.0019908405055560 -0.0004180344452127
-0.0010232069834003 -0.0012176173052777 0.0000114925837229
-0.0011261570974910 -0.0018355724287470 0.0001802092324485
-0.0010232069935987 -0.0012176173020430 0.0000114925904453
0.0016762502291138 0.0001321149192419 -0.0001944057379938
-0.0003867331802006 -0.0008993657614958 -0.0006759075734509
0.0002534785023381 -0.0012011175209855 0.0001853200006119
-0.0002076945642093 -0.0008703856469842 0.0001313194490795
-0.0003483400882538 -0.0008801840553669 -0.0000399822432792
-0.0003483400763501 -0.0008801840435441 -0.0000399822467376
-0.0007049693352625 -0.0010584950902854 -0.0003322077576803
0.0003264954055191 -0.0005427463825817 -0.0000914565190993
-0.0007049739812756 -0.0010584952066492 -0.0003322079101770
0.0003265250763117 -0.0005427509799552 -0.0000914569220850
-0.0010232070082108 -0.0012176173147474 0.0000114925995325
-0.0010232069966750 -0.0012176173216831 0.0000114925917554
-0.0000602021144653 0.0045628413951886 0.0005272430127536
0.0003006677224255 0.0032267762375631 -0.0007554683073563
-0.0010232070131595 -0.0012176172962178 0.0000114925974786
-0.0017106107815632 -0.0053437221482514 0.0000910518011222
-0.0010232069749741 -0.0012176172761132 0.0000114925928823
0.0006447607844840 -0.0003836268131106 -0.0004351560263230
-0.0010232069946353 -0.0012176172783605 0.0000114925918942
0.0016762502183804 0.0001321149302147 -0.0001944057343134
0.0016762502194838 0.0001321149307831 -0.0001944057355902
-0.0005417042165493 0.0016726030296617 0.0002693671808949
0.0016762502801391 0.0001321149772224 -0.0001944057316100
0.0003265250865435 -0.0005427509423380 -0.0000914569159233
-0.0010232069919603 -0.0012176171780850 0.0000114925877919
0.0026392410148916 0.0059125531315955 0.0003213389765776
0.0012895229303009 0.0052376975519664 0.0004242906484593
0.0003265250816616 -0.0005427509685072 -0.0000914569120154
0.0003265250894525 -0.0005427509198962 -0.0000914569122540
-0.0010232069906562 -0.0012176171817860 0.0000114925903065
-0.0007166619186598 -0.0003816411290669 -0.0000522400271900
0.0016762502416193 0.0001321149912310 -0.0001944057390485
0.0021577459424992 0.0030223251281478 0.0000634660131481
-0.0010232069753085 -0.0012176171949217 0.0000114925969679
-0.0008854055994758 -0.0003904661660052 0.0003091465057475
-0.0010232070127583 -0.0012176173116395 0.0000114925934540
0.0003265250844704 -0.0005427509419403 -0.0000914569176442
-0.0019862141465023 -0.0069980036327209 -0.0005042528447210
-0.0010232069713964 -0.0012176172652900 0.0000114925999322
0.0021577459071226 0.0030223250357053 0.0000634659975385
-0.0010232070068065 -0.0012176173932024 0.0000114925924326
-0.0002234682629806 0.0018317182402439 -0.0000743338817811
-0.0000602020987832 0.0045628415271479 0.0005272430038607
-0.0010232070365322 -0.0012176174276182 0.0000114925828292
0.0003265250820294 -0.0005427509240970 -0.0000914569169003
-0.0003867332534618 -0.0008993659022515 -0.0006759075639309
-0.0000824990966265 -0.0005226080032650 -0.0000364584672116
0.0000883789395838 0.0007253896590463 -0.0000496030991264
-0.0010232070305135 -0.0012176172061512 0.0000114925816801
0.0001021992990508 -0.0015403640166576 -0.0001173275732367
0.0003255751561351 -0.0005479451951314 -0.0000912580298594
0.0000639733478831 0.0001161584888234 0.0000384610132084
-0.0007049693391078 -0.0010584952261102 -0.0003322077542830
-0.0010232069811600 -0.0012176173281137 0.0000114925978117
0.0002562508033795 -0.0001995270218520 -0.0000870818487361
-0.0002422353331626 0.0003331974461564 0.0000485003478718
-0.0008740869913616 -0.0019804409495501 -0.0001575725572652
0.0008080243102774 0.0023474645671139 0.0001664162629441
-0.0000690310772361 -0.0008456965126395 0.0001484008482215
-0.0010232069863763 -0.0012176172050866 0.0000114926007316
-0.0005417042748640 0.0016726030166161 0.0002693671864850
-0.0010232069913584 -0.0012176173485405 0.0000114925976063
-0.0011167716161649 -0.0035303248070487 0.0003426572968846
0.0016762502380415 0.0001321149894254 -0.0001944057351794
0.0010397781474002 -0.0001861161027515 0.0004929915943317
-0.0010232070465300 -0.0012176173989095 0.0000114925799537
-0.0001591139677017 0.0001870419371467 -0.0000102499762062
0.0026392409664744 0.0059125528986792 0.0003213389925258
-0.0012291072465570 -0.0024535265312866 0.0003489256994788
-0.0005417041636515 0.0016726032940720 0.0002693672145681
-0.0010232064025275 -0.0012176170773306 0.0000114925661869
-0.0005417042360767 0.0016726030833996 0.0002693671937070
-0.0010232070033624 -0.0012176172864435 0.0000114925926269
0.0016762502622167 0.0001321149976158 -0.0001944057203580
-0.0010232069781841 -0.0012176173644585 0.0000114925950806
-0.0010232069800901 -0.0012176172992026 0.0000114925916000
-0.0010232069316728 -0.0012176171836058 0.0000114925982669
0.0003265250981128 -0.0005427508591086 -0.0000914569216299
-0.0010232069954712 -0.0012176172800183 0.0000114925955635
0.0019169981624448 0.0015772177186871 -0.0000654700147805
-0.0005417042450044 0.0016726029914779 0.0002693671963659
-0.0012811891506003 -0.0014694649399973 0.0004695704594272
0.0026392410994545 0.0059125533302520 0.0003213390070085
-0.0009361179254459 -0.0008497615033863 0.0000496282391429
0.0003265250898538 -0.0005427509301809 -0.0000914569156125
-0.0002593347732999 -0.0007106155661520 0.0000557189450951
0.0012895229319728 0.0052376975669570 0.0004242906464720
-0.0010232070235585 -0.0012176175872735 0.0000114926088751
-0.0010232069893856 -0.0012176172989580 0.0000114925986721
0.0014703520796629 -0.0011037962991900 0.0001430240589152
-0.0010232069960396 -0.0012176172966754 0.0000114925874200
0.0003265251007543 -0.0005427508773409 -0.0000914569252214
0.0012895229232791 0.0052376975782660 0.0004242906469217
-0.0010232070060040 -0.0012176173532393 0.0000114925854493
-0.0005417042740949 0.0016726029871734 0.0002693671862074
-0.0007049693467315 -0.0010584950999171 -0.0003322077608278
-0.0036875902746616 -0.0011444451082495 -0.0009504102794436
0.0000178958865312 -0.0001493788677253 -0.0001334156402103
0.0003265250085342 -0.0005427511436209 -0.0000914568736073
-0.0010232070014899 -0.0012176172253638 0.0000114925890298
-0.0010232069829322 -0.0012176172273208 0.0000114925866983
-0.0005417042814845 0.0016726030079241 0.0002693671851249
-0.0010232069966081 -0.0012176173074616 0.0000114925892907
0.0021577459038123 0.0030223249739566 0.0000634659918320
-0.0015047102765211 -0.0041078195154374 -0.0002463807523930
-0.0005417042803142 0.0016726030143634 0.0002693671756491
-0.0010232069745060 -0.0012176172998186 0.0000114925277064
0.0003265250901547 -0.0005427509390981 -0.0000914569186489
0.0021577459376174 0.0030223251418520 0.0000634659812239
0.0021577459477823 0.0030223251889761 0.0000634659777767
-0.0010232069013452 -0.0012176168397436 0.0000114925965682
-0.0005417042751314 0.0016726030091436 0.0002693671829822
0.0016762503070227 0.0001321153105729 -0.0001944057569396
-0.0000602021393426 0.0045628414027756 0.0005272430251827
0.0021577459166856 0.0030223250619802 0.0000634659962395
-0.0002234682698018 0.0018317182696127 -0.0000743338915178
0.0021577459250450 0.0030223250690953 0.0000634659953458
-0.0000602021207849 0.0045628414345431 0.0005272430000415
0.0016762503137101 0.0001321149659098 -0.0001944057172993
-0.0007049693485371 -0.0010584950993522 -0.0003322077558484
-0.0010232070082108 -0.0012176173768145 0.0000114926023081
-0.0005417043022825 0.0016726029349352 0.0002693671925912
-0.0005417042506553 0.0016726030692943 0.0002693671973652
-0.0010232070080102 -0.0012176174234034 0.0000114926018196
0.0003265251004868 -0.0005427509004356 -0.0000914569222793
0.0003265250884494 -0.0005427509414018 -0.0000914569154737
-0.0007367421205992 0.0023083712176219 0.0001066758031543
-0.0002992642708918 -0.0006158798178122 -0.0000230284536698
0.0016762502350322 0.0001321149194935 -0.0001944057301890
0.0016762502348984 0.0001321149392410 -0.0001944057291731
-0.0007049693516468 -0.0010584951150784 -0.0003322077626708
0.0003265250837013 -0.0005427509464667 -0.0000914569163730
-0.0001613605435710 0.0007923542044453 0.0001275671334298
0.0019169981534502 0.0015772177400696 -0.0000654700226408
-0.0005417042813842 0.0016726030079575 0.0002693671851194
-0.0010232069820963 -0.0012176172764774 0.0000114925939203
-0.0010232069318400 -0.0012176173129772 0.0000114925986832
-0.0010232069540424 -0.0012176172876632 0.0000114925997213
-0.0000602021114559 0.0045628414235684 0.0005272430323935
-0.0001317900614075 -0.0015136671280551 0.0001541378564604
0.0003265251010887 -0.0005427508822773 -0.0000914569102334
0.0000538046635760 0.0000086204888809 0.0002106255645808
-0.0000602020906914 0.0045628414427404 0.0005272430226790
-0.0010232069791872 -0.0012176173439226 0.0000114926024635
-0.0001721126922863 -0.0004405648340029 -0.0000058567885094
-0.0002594220072143 -0.0013062985271189 0.0003370586924148
0.0000276201240625 -0.0005596678388595 -0.0001143112682393
-0.0010232070074418 -0.0012176173783702 0.0000114925989386
-0.0010232069952372 -0.0012176173576073 0.0000114925936539
-0.0010232064555256 -0.0012176169509139 0.0000114925622401
-0.0005417041721780 0.0016726032702557 0.0002693672206078
0.0021577463357888 0.0030223251830787 0.0000634660140860
-0.0007049693393753 -0.0010584950815617 -0.0003322077601950
0.0012895229380584 0.0052376975983761 0.0004242906475989
-0.0005417042648996 0.0016726030176508 0.0002693671845975
0.0003265250908903 -0.0005427509345717 -0.0000914569199368
0.0003265250869782 -0.0005427509308848 -0.0000914569173278
0.0003265250816616 -0.0005427509900339 -0.0000914569165173
-0.0010232070026268 -0.0012176173583834 0.0000114925925104
-0.0010232069869113 -0.0012176173871520 0.0000114926008315
0.0016762502297491 0.0001321149571811 -0.0001944057260423
0.0003265250139845 -0.0005427512056703 -0.0000914569001526
0.0006447607587038 -0.0003836267908253 -0.0004351560217545
-0.0000602021117903 0.0045628413236952 0.0005272430203364
0.0003265250786523 -0.0005427510012900 -0.0000914569045047
0.0019169981451912 0.0015772177198452 -0.0000654700258993
-0.0003121401775829 -0.0010854972857057 0.0000206994625723
-0.0003867332255750 -0.0008993658091511 -0.0006759075522791
-0.0010232069891850 -0.0012176172575500 0.0000114925931598
-0.0010232070254310 -0.0012176173587775 0.0000114925958577
0.0000212211405074 0.0001768667251687 0.0002819160127262
0.0000276759150406 0.0005786154683076 -0.0000678099708555
0.0003265251131596 -0.0005427509769424 -0.0000914569117267
0.0002578075681298 0.0003526135059325 -0.0002354788507036
-0.0004950072567774 0.0016811302433573 0.0002796464168291
0.0008080243072681 0.0023474642997274 0.0001664162452583
-0.0003867334266336 -0.0008993660687451 -0.0006759075186231
-0.0010232069925287 -0.0012176173056666 0.0000114925972954
0.0002580322163910 0.0047219496977627 0.0001835412228720
0.0003265250837347 -0.0005427509452435 -0.0000914569176386
0.0003265250849385 -0.0005427509048018 -0.0000914569198924
-0.0010232070058368 -0.0012176173768338 0.0000114925850607
0.0008080242921879 0.0023474642922040 0.0001664162446754
-0.0007049693292438 -0.0010584951068123 -0.0003322077533837
0.0003265250774820 -0.0005427509270711 -0.0000914569138583
-0.0010232069912916 -0.0012176173167731 0.0000114925926547
-0.0010546088100338 -0.0035136200943514 0.0002919125097970
0.0008080242929235 0.0023474642974643 0.0001664162386747
0.0007963506954616 0.0024802795126278 0.0001279338873657
-0.0008480034141165 -0.0008397477460809 0.0000531459125886
-0.0005417042734261 0.0016726030691113 0.0002693671823827
0.0003831038025399 0.0005393576901746 -0.0000224255163935
-0.0000602020981479 0.0045628413823097 0.0005272430175053
-0.0015047103322611 -0.0041078197620257 -0.0002463807348015
-0.0014350074484231 -0.0036894301740136 0.0006863581244206
-0.0010232069572524 -0.0012176171436075 0.0000114925825349
-0.0007049693400440 -0.0010584950855654 -0.0003322077572029
-0.0002669050339586 -0.0010243992409795 0.0000063218012207
0.0016762502289800 0.0001321148783567 -0.0001944057280185
-0.0003867332597145 -0.0008993658464743 -0.0006759075633536
-0.0001409110404825 -0.0009442300520826 0.0000616276219805
-0.0003867332507199 -0.0008993658253594 -0.0006759075637366
-0.0007049693396762 -0.0010584950726779 -0.0003322077571696
-0.0000726507667723 0.0045330831928932 0.0005348754516398
-0.0000602020097731 0.0045628416547245 0.0005272430127701
-0.0006327325228522 -0.0001821368892970 0.0001057569635487
-0.0003010115352873 -0.0006150197216719 0.0001332975358104
0.0003265250662136 -0.0005427509146535 -0.0000914569164451
0.0001206258969583 -0.0017786610933533 0.0002459745236712
-0.0000602021464648 0.0045628411822398 0.0005272430177996
-0.0010232070948134 -0.0012176175838451 0.0000114925593867
-0.0010232069720985 -0.0012176171446704 0.0000114925936705
0.0000947662122580 0.0019908407639809 -0.0004180343976174
-0.0010232069746063 -0.0012176173472752 0.0000114925859822
-0.0010232069713964 -0.0012176172652900 0.0000114925999489
0.0003206328636584 0.0008660093959126 0.0002558465940351
-0.0010232070143299 -0.0012176173461329 0.0000114925827959
-0.0007049693706726 -0.0010584950598501 -0.0003322077759214
0.0000347254559579 -0.0000508122881394 0.0002262491478880
-0.0007824555571751 0.0002274906146937 0.0001404297318359
-0.0010232070349272 -0.0012176184022753 0.0000114926846704
-0.0010232070425844 -0.0012176174291599 0.0000114926004318
0.0016762502105226 0.0001321146298774 -0.0001944056984091
-0.0010232068764344 -0.0012176173631583 0.0000114926270384
-0.0006518741383565 -0.0041413362316920 0.0006650777408534
-0.0003867332579089 -0.0008993658162503 -0.0006759075660459
-0.0010232071228339 -0.0012176173808654 0.0000114925694565
-0.0007049693364328 -0.0010584950439533 -0.0003322077596399
-0.0000852734174148 -0.0030145670288293 0.0005834052721317
-0.0003561666507650 -0.0000123406924114 0.0001829607470256
-0.0010232069840022 -0.0012176173141069 0.0000114926004707
0.0016762502454312 0.0001321149926143 -0.0001944057254872
-0.0014350075976203 -0.0036894314550015 0.0006863580867556
-0.0009127858382318 -0.0035548049669180 0.0004361364462926
-0.0011261570883626 -0.0018355724112011 0.0001802092312994
-0.0005417042184887 0.0016726031479341 0.0002693671878505
-0.0010232070152661 -0.0012176174270147 0.0000114925787158
0.0011712843333169 0.0052866259609768 0.0004026273623872
-0.0003517138390608 -0.0007043506564048 -0.0001767154513511
0.0003265229373607 -0.0005427565989642 -0.0000914554294887
-0.0003084772032223 0.0000919629507327 -0.0001194689098101
0.0003265251013562 -0.0005427509207603 -0.0000914569140970
-0.0010232069795551 -0.0012176173243758 0.0000114925918220
0.0004862006364789 0.0008576505213904 0.0002057271705272
-0.0003062854938230 -0.0020918478442086 -0.0000910716253431
-0.0006895363624880 -0.0035487849553455 0.0002360086907401
0.0014703519989118 -0.0011037963862380 0.0001430240827292
0.0003265260411451 -0.0005427429797960 -0.0000914554723532
-0.0007049693301132 -0.0010584950720549 -0.0003322077562204
0.0007132570519000 -0.0056482512197437 -0.0007101454622668
-0.0000602021294118 0.0045628414175093 0.0005272430124373
-0.0010232069932644 -0.0012176173065571 0.0000114925895627
-0.0010232069827985 -0.0012176173035090 0.0000114925919330
0.0003265251079099 -0.0005427508441638 -0.0000914569176053
0.0001754501187788 0.0017296497891717 0.0004106174586961
-0.0007824555484479 0.0002274905535821 0.0001404297381642
0.0016762502445618 0.0001321149553086 -0.0001944057431729
0.0001035979252136 -0.0003712560705264 0.0001446792465561
0.0001588369683250 -0.0005003479011407 0.0000574184477451
-0.0010232070086789 -0.0012176174603642 0.0000114925927046
0.0003265250855403 -0.0005427509343113 -0.0000914569217187
-0.0007049693434547 -0.0010584951124667 -0.0003322077567810
0.0008080242863363 0.0023474642697586 0.0001664162410228
-0.0010232069843700 -0.0012176173050119 0.0000114925925770
-0.0010232070124239 -0.0012176174211737 0.0000114925849553
-0.0005417042711190 0.0016726030223691 0.0002693671867459
0.0016762502570674 0.0001321150224053 -0.0001944057304777
-0.0003867332495162 -0.0008993658423369 -0.0006759075705590
-0.0003483400815663 -0.0008801840488765 -0.0000399822481753
0.0016762502194838 0.0001321148733639 -0.0001944057307941
-0.0000602021293114 0.0045628415402433 0.0005272430229790
-0.0002873149572098 -0.0013768591883497 0.0001447981168569
-0.0007824555517582 0.0002274905729143 0.0001404297454029
-0.0010232069864431 -0.0012176173221935 0.0000114925991662
-0.0007049693430868 -0.0010584950954207 -0.0003322077568199
-0.0022992293780371 -0.0022436117317768 -0.0002725826485739
-0.0003866471693560 -0.0015640291097166 0.0001095721178386
-0.0010232069953709 -0.0012176171954460 0.0000114925953747
0.0005868007448925 0.0106566078583022 -0.0000335903172946
0.0001888302550696 0.0007939236921320 0.0001346753481229
0.0000842586839727 0.0010281038084984 0.0000612957226213
-0.0010232069670161 -0.0012176173195573 0.0000114925897403
-0.0000602021333239 0.0045628413930646 0.0005272430082850
-0.0010232069532399 -0.0012176171293702 0.0000114925649878
0.0016762503289241 0.0001321155064849 -0.0001944057600260
0.0003265250862091 -0.0005427509706367 -0.0000914569340477
0.0003265250882488 -0.0005427509563906 -0.0000914569136252
-0.0007049693333566 -0.0010584950927404 -0.0003322077617659
-0.0010232069869113 -0.0012176170078670 0.0000114926215428
0.0026392410252906 0.0059125532183822 0.0003213389776934
0.0003265250842363 -0.0005427509334788 -0.0000914569182215
0.0016762502109573 0.0001321149313956 -0.0001944057307163
-0.0000602021151675 0.0045628414305024 0.0005272430255268
0.0003265250920606 -0.0005427509256527 -0.0000914569170557
-0.0002234682637162 0.0018317182784930 -0.0000743338937993
0.0021577459029095 0.0030223249676175 0.0000634659885069
-0.0010232069850722 -0.0012176173114953 0.0000114925981003
0.0021577459186250 0.0030223250434135 0.0000634659975829
-0.0010232070024930 -0.0012176171188548 0.0000114926131550
0.0016762502319559 0.0001321149743961 -0.0001944057453989
-0.0003483400759823 -0.0008801840502263 -0.0000399822473871
-0.0010232070387056 -0.0012176173285271 0.0000114926160694
-0.0010232070272367 -0.0012176173457369 0.0000114926038458
-0.0006795055490138 0.0008454485249743 -0.0000282872171990
0.0019169981380690 0.0015772177187470 -0.0000654700274147
-0.0010232070069402 -0.0012176173803043 0.0000114925888522
-0.0010232069980459 -0.0012176172857255 0.0000114925906618
-0.0001335296209453 0.0044731806824366 -0.0006572666297985
-0.0001180638141090 -0.0006834466735295 -0.0001907431283743
-0.0003867331642845 -0.0008993657081049 -0.0006759075541164
-0.0001464876719249 -0.0007117787791787 -0.0005261213406804
0.0001331608796703 0.0020100337194557 0.0002178916251625
-0.0010232068703154 -0.0012176171866682 0.0000114925353392
0.0005256718840747 0.0008579707004473 0.0000244325882677
-0.0006291786189384 -0.0019149376513253 -0.0001648996785810
0.0003264865484453 -0.0005427549862320 -0.0000914582949397
-0.0010232069884494 -0.0012176173798485 0.0000114925765841
0.0003265251027271 -0.0005427508763377 -0.0000914569224070
0.0016762502730504 0.0001321150567825 -0.0001944057513885
0.0016762502557967 0.0001321148243163 -0.0001944057299558
-0.0010232068238710 -0.0012176168264638 0.0000114926614277
-0.0005417042491172 0.0016726031154628 0.0002693671798347
-0.0010232069918934 -0.0012176173087903 0.0000114925931543
-0.0010232070322188 -0.0012176173562838 0.0000114926016475
-0.0010232069778163 -0.0012176172995335 0.0000114925902788
0.0003265250910575 -0.0005427509259097 -0.0000914569157845
-0.0007049693784635 -0.0010584950187854 -0.0003322077704424
-0.0010232069964409 -0.0012176172553238 0.0000114925841059
0.0009921811332058 0.0003468262851908 0.0000944800532793
-0.0010232069859416 -0.0012176173014112 0.0000114925938815
-0.0007049693544555 -0.0010584951169720 -0.0003322077578691
-0.0007824555800127 0.0002274905362985 0.0001404297245472
-0.0010232069668154 -0.0012176172405111 0.0000114925925659
0.0001331609075570 0.0020100337089702 0.0002178916291537
0.0000556059399847 0.0005979772911596 -0.0002016559239635
0.0021577459421314 0.0030223250282749 0.0000634660086628
0.0003265250811266 -0.0005427509384751 -0.0000914569092065
0.0030965852195294 0.0132313371723917 -0.0003013023002831
0.0000190481699754 -0.0007762189552023 0.0003293452306818
0.0000516011507414 -0.0006768409677516 -0.0003231651515897
0.0002601962836055 -0.0004683255028543 -0.0000566636503247
0.0016762501603332 0.0001321145991732 -0.0001944057176435
-0.0010232070137614 -0.0012176174191850 0.0000114925891353
0.0016762502352328 0.0001321149550306 -0.0001944057351183
-0.0000602021244296 0.0045628414395535 0.0005272430061145
-0.0005417042902785 0.0016726030406595 0.0002693671898157
0.0008080242707880 0.0023474642390067 0.0001664162359491
0.0000947662407131 0.0019908409116554 -0.0004180344239963
0.0016762503098983 0.0001321156318526 -0.0001944057333309
0.0016762502222591 0.0001321149680800 -0.0001944057471863
0.0003265250689889 -0.0005427509623846 -0.0000914569239558
0.0021577457862133 0.0030223249600841 0.0000634660133147
0.0016762502315213 0.0001321149306863 -0.0001944057275744
-0.0010232069930637 -0.0012176172988400 0.0000114925924215
0.0021577459286228 0.0030223249863284 0.0000634660170838
-0.0012291072699631 -0.0024535264296192 0.0003489256924845
0.0000947661759785 0.0019908405850970 -0.0004180344149813
0.0003258489923094 0.0011189604224353 -0.0002272613000135
0.0003265250873460 -0.0005427510067281 -0.0000914569108163
-0.0005417042729580 0.0016726028508870 0.0002693672041431
-0.0007824555649994 0.0002274906073568 0.0001404297395797
0.0049084076241011 0.0022698816378352 0.0000288675110228
0.0000878653638897 -0.0036765715901952 -0.0007922361773723
-0.0004748252368421 -0.0009411231652251 -0.0001789563274259
-0.0005417042244071 0.0016726027280669 0.0002693671903763
-0.0007049693533187 -0.0010584951120338 -0.0003322077411491
0.0016762502243657 0.0001321149268639 -0.0001944057284349
0.0003265251036634 -0.0005427509323103 -0.0000914569155292
-0.0002234682805352 0.0018317182549336 -0.0000743338877597
0.0008080242977719 0.0023474642847052 0.0001664162448808
-0.0010232069883825 -0.0012176172999241 0.0000114925939259
0.0021577459213000 0.0030223250574379 0.0000634660016740
0.0003265251038640 -0.0005427509038673 -0.0000914569157235
-0.0007049693426522 -0.0010584951008129 -0.0003322077568976
0.0003265250723661 -0.0005427510183431 -0.0000914569167948
-0.0007049693275385 -0.0010584950793461 -0.0003322077581910
0.0016762502150367 0.0001321149490911 -0.0001944057288234
-0.0010232069831663 -0.0012176173290834 0.0000114925973787
-0.0010232069846041 -0.0012176173097935 0.0000114925903232
-0.0010232069958056 -0.0012176173253736 0.0000114925887134
-0.0000456020018775 -0.0006200904926463 -0.0001122542661499
-0.0010232069819291 -0.0012176173243230 0.0000114925728815
-0.0007356456408728 -0.0093527480284102 -0.0004157371681595
0.0008117232291383 -0.0008876136245309 0.0000383563037414
0.0004388948234875 -0.0002816130495225 -0.0002140837992090
0.0001206259099989 -0.0017786609974354 0.0002459745383649
-0.0001980858765389 -0.0006267419759312 -0.0000877253665707
-0.0001092663768980 -0.0011391577784102 -0.0002139560010334
0.0003265250975778 -0.0005427510001110 -0.0000914569229510
-0.0005417041369351 0.0016726030557533 0.0002693672081399
0.0016762501575579 0.0001321148553325 -0.0001944057699846
0.0003265251141292 -0.0005427509114718 -0.0000914569105332
-0.0000602021439904 0.0045628412704626 0.0005272430206473
-0.0010232070020584 -0.0012176173412370 0.0000114925993494
-0.0000602021313846 0.0045628413700946 0.0005272430176664
-0.0010232069895194 -0.0012176172787547 0.0000114925955968
-0.0010232069780504 -0.0012176172800975 0.0000114925913113
0.0026392410327471 0.0059125531615275 0.0003213389587309
0.0023636437273163 0.0042582471958720 -0.0002739650324231
0.0012644537919153 -0.0023397033207716 0.0004804531434988
-0.0012291072452195 -0.0024535265362442 0.0003489256888595
-0.0005417042824542 0.0016726030411470 0.0002693671827546
0.0016762502524196 0.0001321149535945 -0.0001944057246434
-0.0010232069952372 -0.0012176173028455 0.0000114925897459
-0.0010232069964075 -0.0012176173073948 0.0000114925940203
0.0014703520707017 -0.0011037963530172 0.0001430240541413
0.0021577459267168 0.0030223250743344 0.0000634660024623
-0.0010232068049455 -0.0012176170249735 0.0000114926329282
0.0016762502630861 0.0001321149970385 -0.0001944057116873
0.0016762502576358 0.0001321149407914 -0.0001944057212906
-0.0010232069630036 -0.0012176170609658 0.0000114925969790
0.0003265250997846 -0.0005427509300911 -0.0000914569194094
-0.0010232069452484 -0.0012176172945021 0.0000114926056055
0.0003265250767463 -0.0005427509921968 -0.0000914569161343
-0.0010232069851725 -0.0012176172736458 0.0000114925917609
-0.0010232069655114 -0.0012176173087587 0.0000114925976396
0.0003265250696911 -0.0005427509102239 -0.0000914569134642
-0.0010232070151992 -0.0012176173761334 0.0000114925961186
-0.0010232070305469 -0.0012176174016479 0.0000114926088640
-0.0010232069356519 -0.0012176171684886 0.0000114926188727
0.0001674066590410 -0.0006223103252216 0.0000803928433188
-0.0007526822529841 -0.0007263892687433 0.0001832873704566
-0.0010232069872456 -0.0012176172731812 0.0000114925861099
0.0003265249109976 -0.0005427514905099 -0.0000914567894692
0.0012895229040861 0.0052376975461642 0.0004242906488924
0.0015733011596380 -0.0004858412466441 -0.0000256907544169
-0.0010232069504980 -0.0012176172858911 0.0000114925959021
-0.0010232069665814 -0.0012176173500787 0.0000114925918054
-0.0002332074602615 -0.0006063752639724 -0.0002789094357297
0.0003265250477896 -0.0005427509490113 -0.0000914569163952
0.0015733011748519 -0.0004858412392650 -0.0000256907508309
-0.0007049693640520 -0.0010584951188515 -0.0003322077517628
0.0000506241334082 -0.0018265484345521 -0.0001921218415862
-0.0005265179189940 0.0006855710763446 0.0000736164641811
-0.0010232070035965 -0.0012176175489665 0.0000114926288759
-0.0010232115540458 -0.0012176238263073 0.0000114912296344
-0.0007049685899450 -0.0010584946887947 -0.0003322077029562
0.0026392409905827 0.0059125531927445 0.0003213389756062
-0.0015047102871542 -0.0041078195493412 -0.0002463807503169
-0.0010232070279054 -0.0012176175711672 0.0000114925767396
0.0008080242837617 0.0023474642474170 0.0001664162343393
0.0003265250613986 -0.0005427510011105 -0.0000914569083294
-0.0012291072509039 -0.0024535265207732 0.0003489256879047
-0.0010232070290088 -0.0012176173370995 0.0000114926042177
-0.0010232069907231 -0.0012176173054976 0.0000114926002653
0.0010785754426554 0.0003580709792188 -0.0000043068150361
-0.0010232069975778 -0.0012176172432053 0.0000114925841725
0.0003265250872791 -0.0005427508860187 -0.0000914569070360
-0.0010232070123905 -0.0012176172786930 0.0000114925840893
0.0005014733417462 0.0032487930012033 -0.0001954934772550
0.0003265250608971 -0.0005427509466162 -0.0000914569193484
0.0012895228750625 0.0052376974666829 0.0004242906824599
-0.0006932489858621 -0.0045297231408077 0.0003820676785915
0.0026392410285674 0.0059125532567141 0.0003213389746014
-0.0010232069918265 -0.0012176173304614 0.0000114925951527
0.0016762501629079 0.0001321143829980 -0.0001944057288844
0.0016762502179457 0.0001321148855264 -0.0001944057309883
-0.0010232070129255 -0.0012176177642775 0.0000114925275121
0.0016762502467352 0.0001321150309213 -0.0001944057353015
0.0003265250779501 -0.0005427509410251 -0.0000914569159400
0.0016762503023080 0.0001321149391880 -0.0001944057042820
0.0016762502381084 0.0001321149596484 -0.0001944057348186
0.0001099063507850 0.0000698236810580 -0.0001024295369263
-0.0006795055317602 0.0008454484412342 -0.0000282872125748
-0.0004469283149965 0.0005955673345815 0.0000579543721876
-0.0000602021395767 0.0045628413039144 0.0005272430157901
-0.0003867332667029 -0.0008993657852273 -0.0006759075904154
-0.0010232069936990 -0.0012176173006421 0.0000114925927546
0.0002087148441312 0.0008126168417236 0.0002465122852016
-0.0007601396406722 -0.0033519991526236 0.0006348815970473
-0.0010232069208057 -0.0012176174557782 0.0000114925837562
0.0000548110933651 0.0001218500475966 0.0000980690577042
0.0002969335613816 0.0004755598065063 -0.0003571998500586
-0.0010232068659017 -0.0012176248681179 0.0000114911238697
0.0003265250868444 -0.0005427509844904 -0.0000914569186156
-0.0010232070329879 -0.0012176171890752 0.0000114925920218
-0.0010232069952706 -0.0012176172857889 0.0000114925972455
0.0016762502207879 0.0001321149055220 -0.0001944057303666
0.0016762502090848 0.0001321148683923 -0.0001944057303000
-0.0005417042796120 0.0016726029487166 0.0002693671790187
-0.0010232070854510 -0.0012176178662599 0.0000114926008260
-0.0012291072385320 -0.0024535265490454 0.0003489256853734
-0.0010232069209060 -0.0012176171554726 0.0000114926016808
-0.0010232069991159 -0.0012176173539204 0.0000114925962463
-0.0007049693291435 -0.0010584950559310 -0.0003322077636089
-0.0010232069888841 -0.0012176172926084 0.0000114925950639
-0.0010232070040980 -0.0012176173652011 0.0000114925831789
-0.0005417042640303 0.0016726030367103 0.0002693671841646
-0.0005417045105301 0.0016726029715802 0.0002693671646249
0.0008080242844639 0.0023474642536223 0.0001664162419443
-0.0010232070040980 -0.0012176173353907 0.0000114925918220
-0.0014652734231049 -0.0078196467260809 0.0003691203199404
0.0021577458950851 0.0030223250154985 0.0000634660080800
-0.0010232069786522 -0.0012176172642868 0.0000114925942312
-0.0001892215884933 -0.0008006233017055 -0.0002118321945003
-0.0007824555419945 0.0002274906721200 0.0001404297329239
0.0000441150351928 -0.0006803434337760 -0.0001815472773983
0.0016762501930015 0.0001321148774575 -0.0001944057398090
-0.0010232069951034 -0.0012176172913148 0.0000114925937372
0.0001206258736191 -0.0017786611199448 0.0002459745220336
0.0003265250833000 -0.0005427509312896 -0.0000914569147354
0.0003265250930972 -0.0005427508938730 -0.0000914569157068
-0.0010232069810597 -0.0012176172962795 0.0000114926026634
0.0003265250898872 -0.0005427509406996 -0.0000914569104555
-0.0010232069609305 -0.0012176171918578 0.0000114925970734
-0.0010232070156339 -0.0012176172986446 0.0000114925880084
0.0012644538046549 -0.0023397032704202 0.0004804531526525
-0.0007049693269032 -0.0010584950636005 -0.0003322077484987
0.0008080242879413 0.0023474642695492 0.0001664162457579
0.0026392410017507 0.0059125530233454 0.0003213389845878
0.0003265250950700 -0.0005427509212126 -0.0000914569126537
-0.0004896841872679 -0.0015173287389476 -0.0005071911571889
0.0003265250916594 -0.0005427509192486 -0.0000914569146577
0.0003265250912581 -0.0005427509539408 -0.0000914569209471
-0.0010232070550899 -0.0012176174931099 0.0000114925929877
0.0018420140644101 0.0013013523550645 -0.0000262587600461
0.0016762502109907 0.0001321148004456 -0.0001944057391095
0.0003265250904222 -0.0005427509883110 -0.0000914569100058
0.0025629319747428 0.0098020906466556 -0.0001818631091555
0.0003462356551005 0.0007061097557424 0.0003434028475412
-0.0007237426532717 -0.0041104289571564 -0.0005036657650976
0.0012895230493043 0.0052376973788374 0.0004242905987709
0.0003265250739376 -0.0005427509796912 -0.0000914569223459
0.0003265250579546 -0.0005427509935202 -0.0000914569194871
0.0002151855770190 0.0015970188518301 0.0002043583898786
-0.0010232069974440 -0.0012176173377067 0.0000114925956800
-0.0010232069989821 -0.0012176173707324 0.0000114926051781
-0.0002978793002566 -0.0016927252535106 0.0001940713297114
0.0005762649723838 0.0048810652451786 -0.0001601600624061
-0.0010232069802572 -0.0012176173403659 0.0000114925930100
0.0016762503925887 0.0001321151253748 -0.0001944057345521
0.0012644537726219 -0.0023397035488586 0.0004804531337788
-0.0010232070132599 -0.0012176174089215 0.0000114926006872
0.0016762502196844 0.0001321149458054 -0.0001944057305109
-0.0010232070101168 -0.0012176172594876 0.0000114926005761
-0.0010232070016571 -0.0012176173241909 0.0000114925921384
-0.0003867332521577 -0.0008993659294362 -0.0006759075602560
-0.0010232069497290 -0.0012176170629070 0.0000114925936039
0.0016762501428455 0.0001321144619088 -0.0001944057131694
0.0016762501314434 0.0001321148637852 -0.0001944057303944
-0.0010232070095483 -0.0012176173506083 0.0000114925882027
0.0001206258917421 -0.0017786611790658 0.0002459745300938
-0.0010232069784182 -0.0012176172900830 0.0000114925938260
0.0003265250935319 -0.0005427509119856 -0.0000914569132366
0.0014703520624092 -0.0011037963334686 0.0001430240592371
0.0003265250900209 -0.0005427509164152 -0.0000914569169725
0.0018140491312882 0.0009592598223982 0.0001032450938257
0.0003265251104846 -0.0005427508541124 -0.0000914569221350
-0.0007585551487395 -0.0011886766700572 0.0002225038109427
-0.0003483400994553 -0.0008801841034816 -0.0000399822552919
0.0010273131820690 0.0126334217948804 0.0001679207175689
-0.0010004230929655 -0.0015557994133722 -0.0000015817557578
-0.0010232069670829 -0.0012176173249390 0.0000114926107070
-0.0000852735002724 -0.0030145671760787 0.0005834052691953
-0.0014350075909329 -0.0036894313275241 0.0006863580959817
0.0016762501952083 0.0001321148504628 -0.0001944057469033
0.0016762502488083 0.0001321149630414 -0.0001944057409913
0.0016762502273082 0.0001321149327383 -0.0001944057370057
0.0003265250530727 -0.0005427509661507 -0.0000914569166339
-0.0010232070021252 -0.0012176173329533 0.0000114926019417
0.0016762502319894 0.0001321149365467 -0.0001944057433895
-0.0010232069579211 -0.0012176172712560 0.0000114926027411
-0.0009411919620050 -0.0007799042253348 -0.0000075646327245
0.0000903023389586 -0.0003079293540361 -0.0000877481420188
0.0002342114131489 -0.0007038186227284 -0.0003462183110963
-0.0003867331864868 -0.0008993658037449 -0.0006759075718356
0.0021577458536229 0.0030223252454825 0.0000634658466492
-0.0010232069942675 -0.0012176173190116 0.0000114925879307
0.0003265251197467 -0.0005427511483693 -0.0000914569586557
0.0016762502329925 0.0001321146765491 -0.0001944057036104
-0.0010232070649539 -0.0012176177252892 0.0000114925587650
-0.0000602021376039 0.0045628413738009 0.0005272430177386
0.0016762502468690 0.0001321150356025 -0.0001944057199750
-0.0000602021271715 0.0045628414088612 0.0005272430171002
-0.0008854055978708 -0.0003904661422083 0.0003091465068023
0.0021577459744987 0.0030223251754425 0.0000634660005083
-0.0010232069726335 -0.0012176171517873 0.0000114925772114
-0.0010232069774151 -0.0012176172656085 0.0000114925913724
-0.0003483400811651 -0.0008801840660106 -0.0000399822473760
0.0010139231184432 0.0035833854021908 -0.0001710164439587
-0.0003221284299831 -0.0012245671856670 0.0001826630710915
-0.0000602020941354 0.0045628413212700 0.0005272430649120
-0.0001306299144122 0.0001691126002858 0.0000336863749885
-0.0001031614455776 -0.0023337389171173 -0.0000266963592799
-0.0010232069979456 -0.0012176173281559 0.0000114925964850
0.0003265250954044 -0.0005427508995521 -0.0000914569252214
-0.0010232069908234 -0.0012176172948012 0.0000114925873256
0.0003265249286191 -0.0005427510914565 -0.0000914568766604
0.0005762649884337 0.0048810649614242 -0.0001601600358608
0.0016762502490424 0.0001321150183594 -0.0001944057401365
-0.0010232070019581 -0.0012176173355438 0.0000114925842169
-0.0010232070087124 -0.0012176173487059 0.0000114925953470
-0.0005514602793724 -0.0065684330604651 -0.0001222543427236
0.0014657846389947 0.0011936516476040 0.0000138011866156
0.0016762503329700 0.0001321153785196 -0.0001944057119092
0.0015733011588020 -0.0004858413445490 -0.0000256907420435
0.0001541433217953 0.0020672936479225 -0.0001101765329721
-0.0002953222227710 0.0017668367927180 -0.0001375053297109
-0.0010232069901881 -0.0012176174244717 0.0000114925404296
-0.0014350076154090 -0.0036894315936557 0.0006863580713290
-0.0001997381221468 0.0000209053724153 0.0000861197416519
-0.0001145862108802 -0.0004110125674002 0.0000687415374303
0.0019518480260729 0.0017864072307667 0.0004008963331567
0.0026392410466236 0.0059125532222327 0.0003213389795863
-0.0010232070127249 -0.0012176173873385 0.0000114925803700
-0.0005417042335354 0.0016726031256999 0.0002693671780527
-0.0010232069858413 -0.0012176173125635 0.0000114926055167
-0.0010439337364114 -0.0014821952834357 0.0000852631950517
0.0016762502361690 0.0001321149391425 -0.0001944057332920
-0.0010232069812269 -0.0012176172809352 0.0000114925957966
-0.0005417042582790 0.0016726030390632 0.0002693671845587
0.0016762502297825 0.0001321149662321 -0.0001944057243992
-0.0034041323227379 -0.0069031815355090 0.0004952012858304
0.0003265251255648 -0.0005427508312113 -0.0000914569262151
-0.0001230359805100 -0.0009495522266209 0.0000246491525491
-0.0010232070013227 -0.0012176173027416 0.0000114925897015
-0.0010232069910241 -0.0012176173229995 0.0000114925960853
-0.0000602021403458 0.0045628413783344 0.0005272430159123
-0.0010232069995840 -0.0012176173275241 0.0000114925886246
-0.0010232069927628 -0.0012176173436832 0.0000114925821297
-0.0010232068524264 -0.0012176171080567 0.0000114926452850
0.0016762502508480 0.0001321150439689 -0.0001944057399144
-0.0010232069641070 -0.0012176171680555 0.0000114925877419
-0.0010232067352621 -0.0012176165465448 0.0000114927072690
-0.0003867332306910 -0.0008993657459560 -0.0006759075584686
0.0012895228949242 0.0052376974981072 0.0004242906472270
-0.0010232069740045 -0.0012176171651764 0.0000114925866428
-0.0010232069872791 -0.0012176172878919 0.0000114925926935
0.0003265248749188 -0.0005427511283027 -0.0000914568391461
0.0021577459228047 0.0030223250567392 0.0000634660005471
-0.0000602019777736 0.0045628417362332 0.0005272430659446
0.0006210997745077 -0.0004446252199196 -0.0000301255803153
0.0003265250782510 -0.0005427509167073 -0.0000914569170003
0.0003265246090253 -0.0005427524869674 -0.0000914566116285
-0.0004431328413386 0.0010977532289649 0.0002580999968162
-0.0010232069830660 -0.0012176173148619 0.0000114926019584
-0.0010232070667595 -0.0012176173513437 0.0000114925984223
0.0003265250803241 -0.0005427509256668 -0.0000914569170391
0.0030401739557806 0.0076395732976515 0.0004466806424845
-0.0010232070548559 -0.0012176172818571 0.0000114925757570
-0.0003358043720277 0.0029085231229196 -0.0000680671555343
0.0010853094740514 0.0003914827002840 0.0001033333334258
-0.0007757114847572 -0.0037577496499478 -0.0003715053246206
0.0007453648658846 0.0016321911811811 0.0001142338020130
0.0008080243086056 0.0023474642803706 0.0001664162429434
0.0003265250885831 -0.0005427509357086 -0.0000914569173722
0.0003265251000521 -0.0005427509255542 -0.0000914569176442
-0.0010232069804244 -0.0012176172839921 0.0000114925995325
-0.0014082665700799 -0.0009871620907107 0.0005014833020777
-0.0002234682728780 0.0018317182495167 -0.0000743338852228
0.0016762502529880 0.0001321151232510 -0.0001944057227506
0.0003265250336457 -0.0005427509741686 -0.0000914569162009
0.0004019716197544 -0.0000420473321227 -0.0000918064134798
0.0003263150208925 -0.0005430697012397 -0.0000915204701590
-0.0007049693406125 -0.0010584950885572 -0.0003322077524789
0.0016762502317219 0.0001321149417612 -0.0001944057313214
-0.0010232069903219 -0.0012176173114125 0.0000114925970789
-0.0010232070039643 -0.0012176173507350 0.0000114925854493
0.0016762502343300 0.0001321149572533 -0.0001944057316100
-0.0003867333328085 -0.0008993660149832 -0.0006759075653300
-0.0010232069777829 -0.0012176173466786 0.0000114925981670
0.0021577459243093 0.0030223250335353 0.0000634659934806
0.0016762502587727 0.0001321149320977 -0.0001944057279796
0.0003265250889175 -0.0005427509397000 -0.0000914569173833
-0.0010232069410353 -0.0012176172402911 0.0000114926071709
-0.0007049693313169 -0.0010584950416233 -0.0003322077600284
-0.0010232069826313 -0.0012176172611226 0.0000114925931987
-0.0010232070016237 -0.0012176172002681 0.0000114925897459
0.0003265250926625 -0.0005427509111972 -0.0000914569185990
-0.0010232069992496 -0.0012176174216806 0.0000114925974342
-0.0000602021304818 0.0045628413856959 0.0005272430211747
0.0003265250709617 -0.0005427509330388 -0.0000914569128425
0.0002580322103389 0.0047219497582551 0.0001835412170267
0.0016762502319894 0.0001321149082040 -0.0001944057298670
0.0000196734918363 -0.0009952092435571 0.0001537593464586
-0.0010232068182869 -0.0012176169377597 0.0000114926018418
-0.0010232069901547 -0.0012176174014773 0.0000114925670140
-0.0010232071270804 -0.0012176175237068 0.0000114925493780
0.0003006677515828 0.0032267765312335 -0.0007554682943501
0.0016762502226938 0.0001321149160319 -0.0001944057363340
0.0003265251000856 -0.0005427509595232 -0.0000914569092564
-0.0010232069992831 -0.0012176173146700 0.0000114925980004
-0.0010232069818288 -0.0012176172846608 0.0000114925958577
0.0004178117351101 0.0004584550302661 0.0000682736953535
0.0006533146196984 0.0016046573055211 0.0000675912959856
0.0004383445412235 0.0016436747030840 -0.0003688776685474
0.0003265250914922 -0.0005427509545409 -0.0000914569155736
-0.0013581895527238 -0.0054844320403285 -0.0001279139588215
-0.0005083606601774 -0.0015246632185880 0.0003327723836902
0.0003256091354581 -0.0005440730372583 -0.0000917209391720
0.0012895228492154 0.0052376975255951 0.0004242906527782
0.0016762502399475 0.0001321150136007 -0.0001944057337028
-0.0010232070004534 -0.0012176173167396 0.0000114925978339
0.0003265250832332 -0.0005427509628457 -0.0000914569137528
-0.0000602021431879 0.0045628413739611 0.0005272430029726
-0.0010232069857075 -0.0012176172809739 0.0000114925936428
-0.0005417043256887 0.0016726028543489 0.0002693671984699
0.0016762502137660 0.0001321148934828 -0.0001944057236387
-0.0010232069491940 -0.0012176172514645 0.0000114926080535
-0.0000602021319864 0.0045628414025398 0.0005272430127148
-0.0000590096190181 -0.0008818366999201 -0.0000205006996444
0.0003265250793210 -0.0005427510050808 -0.0000914569161786
-0.0002627081639872 0.0006122553993320 0.0001720539782852
-0.0003606205336332 0.0034467133802379 -0.0005719863325577
0.0006397060107546 -0.0005219321261481 -0.0002199399542557
-0.0005417042767364 0.0016726029819554 0.0002693671918918
-0.0005417042813173 0.0016726031404426 0.0002693671852971
-0.0010232069700923 -0.0012176174325091 0.0000114926015365
-0.0000602021667278 0.0045628415689419 0.0005272430322605
-0.0010232068844594 -0.0012176171753768 0.0000114926098854
-0.0010232066806924 -0.0012176162771409 0.0000114926626101
-0.0010232069513340 -0.0012176172806660 0.0000114925719767
0.0001206258888331 -0.0017786611565641 0.0002459745259416
0.0021874279429209 0.0030727759102227 0.0000723792867700
0.0001206258759263 -0.0017786611581251 0.0002459745204682
-0.0005417042630271 0.0016726030454621 0.0002693671837316
0.0003115016189632 -0.0000098825459540 0.0000194660640773
0.0016762502400812 0.0001321149410818 -0.0001944057323927
-0.0008963971032153 -0.0003206391897579 0.0000868644992372
-0.0006364751673080 -0.0063231277500994 -0.0006071994922379
-0.0021627875003012 -0.0014086886700226 0.0002689210706389
-0.0000495147583513 -0.0000577087170444 0.0002793698662709
-0.0010232070014231 -0.0012176173030531 0.0000114925897015
0.0016762502611467 0.0001321150635510 -0.0001944057366615
-0.0003867333617318 -0.0008993663986835 -0.0006759075338383
-0.0000602021417501 0.0045628413688258 0.0005272430106998
-0.0010232069786522 -0.0012176172984670 0.0000114925950528
-0.0005417043183993 0.0016726028316078 0.0002693671670004
0.0016762502224932 0.0001321149498671 -0.0001944057292508
-0.0011456323896393 -0.0018745836282343 0.0000393114690086
-0.0003208566510428 -0.0021217055589884 0.0003143791822751
-0.0001892215272696 -0.0008006231271954 -0.0002118321878223
-0.0004180254646537 -0.0019535185066527 0.0004804929976414
0.0001206258939155 -0.0017786611681775 0.0002459745256473
-0.0017615387160529 -0.0091515432809048 -0.0005167877339030
0.0003265250982465 -0.0005427509352968 -0.0000914569097560
-0.0005044644964643 -0.0027258166157756 0.0003681579149140
0.0003218826248694 0.0013571356252624 0.0000119163550329
-0.0008224196916680 -0.0026625567613856 -0.0002588560252571
0.0016762502070451 0.0001321148688569 -0.0001944057390928
-0.0010232070042652 -0.0012176172056973 0.0000114925874200
-0.0010232069752751 -0.0012176172880222 0.0000114925966237
0.0016762502196176 0.0001321149511536 -0.0001944057339082
-0.0007824555504207 0.0002274906229633 0.0001404297340175
-0.0010232070110530 -0.0012176171934855 0.0000114926000432
0.0003265250990490 -0.0005427509558996 -0.0000914569101668
0.0038735951110242 -0.0001660065708508 -0.0005941911135323
0.0012895229021801 0.0052376975902052 0.0004242906370685
-0.0010232069949028 -0.0012176172904807 0.0000114925869315
0.0005762649702438 0.0048810647949590 -0.0001601600239037
0.0003265250858747 -0.0005427509617529 -0.0000914569193095
-0.0010232069536077 -0.0012176172116633 0.0000114925833232
0.0008080243027541 0.0023474642832990 0.0001664162474732
-0.0003867332617876 -0.0008993658885738 -0.0006759075582244
0.0016762502183470 0.0001321148507796 -0.0001944057282905
-0.0010232069651770 -0.0012176172057396 0.0000114925954913
0.0016762502363028 0.0001321149780373 -0.0001944057362896
-0.0005417042764355 0.0016726028721093 0.0002693671576856
-0.0005417043010454 0.0016726029101632 0.0002693671762153
0.0016762501433805 0.0001321149372192 -0.0001944057318877
-0.0000602020813624 0.0045628415178063 0.0005272430250715
0.0016762501849097 0.0001321148592569 -0.0001944057283793
0.0016762502278432 0.0001321150280633 -0.0001944057297949
-0.0005417042815180 0.0016726029844069 0.0002693671859965
0.0003265250930972 -0.0005427509251512 -0.0000914569206973
0.0016762502812760 0.0001321151190483 -0.0001944057115207
-0.0010232069919603 -0.0012176172870525 0.0000114925912003
-0.0010232069623348 -0.0012176172297424 0.0000114926000932
-0.0011167715999813 -0.0035303247256709 0.0003426572890243
0.0016762502349987 0.0001321149524840 -0.0001944057297449
0.0016762502180460 0.0001321148714052 -0.0001944057370779
-0.0010232069919937 -0.0012176172953696 0.0000114926002764
0.0003265250950365 -0.0005427509254046 -0.0000914568995476
-0.0017616247632439 -0.0086014102241564 -0.0006730153479835
-0.0014350076745596 -0.0036894314541373 0.0006863581176813
0.0000225884221734 0.0003918802950604 0.0002477588064377
0.0010325599794490 0.0035974521800696 0.0001208941558149
0.0002580321458718 0.0047219494978109 0.0001835412219339
0.0003265251142630 -0.0005427508959937 -0.0000914569212413
0.0009888555419475 -0.0039939817963732 -0.0001148469786515
-0.0010232069805582 -0.0012176172937769 0.0000114925903621
0.0000947662635508 0.0019908407979780 -0.0004180343815190
-0.0014350075987906 -0.0036894313554091 0.0006863580789342
-0.0010232069883156 -0.0012176172121384 0.0000114926006372
-0.0010232070091805 -0.0012176173491845 0.0000114925991384
0.0016762502236969 0.0001321148984315 -0.0001944057291454
-0.0010232070153330 -0.0012176172843228 0.0000114926105071
0.0023636440179534 0.0042582474731531 -0.0002739649665647
0.0026392411664963 0.0059125538823119 0.0003213389578317
-0.0000602021539882 0.0045628414023023 0.0005272430061090
0.0003265250819291 -0.0005427509375512 -0.0000914568998862
-0.0005417042778399 0.0016726029022296 0.0002693671875119
-0.0010232070222211 -0.0012176172713772 0.0000114926051558
-0.0003867332849597 -0.0008993659050690 -0.0006759075615385
-0.0007049693653895 -0.0010584951136493 -0.0003322077594179
0.0002580322079648 0.0047219496471047 0.0001835412483684
-0.0000602021192803 0.0045628412402699 0.0005272430103997
-0.0003483400708998 -0.0008801839154785 -0.0000399822452221
-0.0010232070028943 -0.0012176173502000 0.0000114925903454
-0.0010232071345704 -0.0012176174216309 0.0000114926184120
-0.0006587998823359 -0.0026872980611874 0.0006427651305354
-0.0010232070003531 -0.0012176173975422 0.0000114925907340
0.0019931402416403 -0.0005672653905351 0.0000563007835598
0.0016762502190157 0.0001321148665251 -0.0001944057279742
-0.0010232069014455 -0.0012176170582681 0.0000114926380519
0.0006146612550519 0.0049002695412795 0.0004757667558299
-0.0009165225533173 -0.0008006703979260 0.0005871967846244
0.0003586075460234 0.0021702719473888 0.0001343058763689
-0.0000602020229808 0.0045628414580211 0.0005272429645250
0.0016762503316660 0.0001321150890425 -0.0001944057348185
-0.0010232070258323 -0.0012176173051948 0.0000114925736143
-0.0010232070531840 -0.0012176170471524 0.0000114925823129
-0.0010232070112871 -0.0012176173458179 0.0000114925839672
0.0003265250850054 -0.0005427509924872 -0.0000914569197480
-0.0006833530094542 -0.0033020092339690 -0.0003522623489553
0.0008080242895129 0.0023474642625238 0.0001664162468015
-0.0010232069972434 -0.0012176172796979 0.0000114925998323
0.0003265250981796 -0.0005427509308936 -0.0000914569151295
-0.0003867332412237 -0.0008993657255538 -0.0006759075648413
0.0021577459137432 0.0030223251401555 0.0000634660024234
0.0005762649701769 0.0048810650324654 -0.0001601600128957
0.0003265250899206 -0.0005427509638718 -0.0000914569130478
-0.0010232070023259 -0.0012176173399030 0.0000114925875088
0.0003265063147405 -0.0005439540991742 -0.0000916872721267
0.0003265250575533 -0.0005427510105997 -0.0000914569122707
-0.0000602021105866 0.0045628414366901 0.0005272430049265
-0.0005417042670396 0.0016726030253872 0.0002693671786467
-0.0010232069824975 -0.0012176172556740 0.0000114925772669
0.0016762502264388 0.0001321149391530 -0.0001944057356679
0.0016762502153042 0.0001321148646860 -0.0001944057272636
-0.0000602021301139 0.0045628413863858 0.0005272430173667
0.0012895229247169 0.0052376975926671 0.0004242906479264
-0.0005417042218993 0.0016726031242128 0.0002693671901986
-0.0000602021268371 0.0045628414466670 0.0005272430112548
-0.0010232068944237 -0.0012176171393294 0.0000114926154921
0.0026392410087057 0.0059125532272134 0.0003213389649592
0.0000680094128427 -0.0001579599191717 0.0001145374887553
0.0016762502005249 0.0001321148980813 -0.0001944057344688
0.0043756797606224 0.0014818456062048 -0.0004003012724430
-0.0001892215336227 -0.0008006233221659 -0.0002118321833480
-0.0010232069266907 -0.0012176172175132 0.0000114926188727
-0.0010232069961400 -0.0012176173089399 0.0000114925914723
0.0016762502213563 0.0001321149480756 -0.0001944057554797
0.0021577458334267 0.0030223250471923 0.0000634659735856
0.0001993428058386 -0.0009150749508811 0.0000456363276687
-0.0004168596622399 -0.0006563845190614 -0.0005981493520959
0.0016762501453199 0.0001321149098128 -0.0001944057389653
-0.0019557187290510 -0.0006582582830127 0.0000566362380911
-0.0001559508151685 0.0003904746219372 0.0000227888915601
-0.0001426839190233 0.0022143164352611 0.0001417562635136
0.0004265124368957 0.0001233926349331 0.0000681753150124
-0.0010232069820963 -0.0012176172764774 0.0000114925939203
-0.0010232070037302 -0.0012176173576953 0.0000114925949029
-0.0010232070127249 -0.0012176173873385 0.0000114925803811
-0.0010232069844369 -0.0012176173001529 0.0000114925932320
0.0016762504542137 0.0001321160945144 -0.0001944057621908
0.0003265250910909 -0.0005427508924299 -0.0000914569279803
0.0016762502473705 0.0001321149847776 -0.0001944057326536
-0.0010232069880816 -0.0012176172650876 0.0000114925892963
-0.0010232069761779 -0.0012176172698991 0.0000114925894295
0.0003265250913919 -0.0005427509335704 -0.0000914569169170
-0.0010232069848047 -0.0012176172355957 0.0000114925976174
-0.0000602021193137 0.0045628414831580 0.0005272430433017
-0.0005417043320083 0.0016726028145458 0.0002693671703145
0.0003265250840691 -0.0005427508407232 -0.0000914568984540
-0.0010232070511443 -0.0012176173980366 0.0000114926031963
-0.0010232070020584 -0.0012176173749613 0.0000114925960742
-0.0007049693503093 -0.0010584951554726 -0.0003322077601617
0.0003265250610308 -0.0005427510619104 -0.0000914569073136
0.0004323247554573 -0.0000252517320654 -0.0001835499243307
-0.0010232069999518 -0.0012176173643845 0.0000114926103184
0.0016762502238641 0.0001321149033908 -0.0001944057295783
-0.0010232070182420 -0.0012176173339177 0.0000114925911115
-0.0000602021319196 0.0045628414358085 0.0005272430090677
0.0003265250559483 -0.0005427509674372 -0.0000914569119265
0.0009418278781080 0.0027068344587108 0.0000731586380446
0.0001305094968489 -0.0023471472509423 -0.0001787899814100
-0.0000852734388481 -0.0030145671439155 0.0005834052807248
-0.0007049693599392 -0.0010584950840325 -0.0003322077618048
0.0003265250896531 -0.0005427509449585 -0.0000914569137584
-0.0010232069463853 -0.0012176174836844 0.0000114926352264
0.0003265250846710 -0.0005427510530091 -0.0000914569109717
0.0026392411008589 0.0059125532742685 0.0003213389953901
0.0016762502438262 0.0001321149168132 -0.0001944057249599
-0.0008704939613212 -0.0007397877128720 -0.0000077126528559
-0.0010232069748070 -0.0012176173080248 0.0000114925842114
0.0005967760671206 0.0013920146737557 0.0000926024854072
-0.0001242943105987 -0.0006062998047138 -0.0001030349075881
-0.0010232069931640 -0.0012176173805437 0.0000114925952582
-0.0010232070208167 -0.0012176173818776 0.0000114925954080
0.0003014597231626 -0.0081200429182751 -0.0000352887591726
-0.0004896841905447 -0.0015173288327080 -0.0005071911525371
-0.0010232069459171 -0.0012176173295059 0.0000114925969402
-0.0005826385674618 0.0009350062046063 -0.0005459262186535
0.0003265250936656 -0.0005427509619993 -0.0000914569121541
0.0021577458971248 0.0030223250971601 0.0000634660065867
-0.0010232070400431 -0.0012176173687911 0.0000114926175182
-0.0010232069963406 -0.0012176174202428 0.0000114925926713
-0.0010232070397088 -0.0012176174387300 0.0000114925932265
-0.0010232069700589 -0.0012176174071019 0.0000114925777665
0.0012895229273584 0.0052376975744348 0.0004242906560311
-0.0010232070204154 -0.0012176173225454 0.0000114925987554
0.0016762502345975 0.0001321149559527 -0.0001944057255927
0.0005762650250475 0.0048810649983392 -0.0001601600296823
0.0003265250327428 -0.0005427511664641 -0.0000914568941463
-0.0010232070132264 -0.0012176168370753 0.0000114926307965
-0.0010232069996174 -0.0012176173822859 0.0000114925901733
-0.0010232069710285 -0.0012176173680082 0.0000114925995659
0.0000947661900556 0.0019908405066012 -0.0004180344442357
0.0003265251076758 -0.0005427508064481 -0.0000914569279026
0.0007299257132944 0.0049249527819773 -0.0005677723981202
-0.0003867332413575 -0.0008993658243475 -0.0006759075594900
0.0016762502438931 0.0001321149454340 -0.0001944057220512
-0.0010232070172055 -0.0012176174460529 0.0000114926047062
-0.0010232070012224 -0.0012176174661929 0.0000114925884580
-0.0005848015795621 0.0007681593684699 -0.0006134884490490
-0.0010232068419940 -0.0012176173115467 0.0000114926372082
-0.0010232069333781 -0.0012176172983017 0.0000114926202716
0.0005762649535586 0.0048810647778601 -0.0001601600202510
-0.0000602021513466 0.0045628411851472 0.0005272430030557
-0.0005417042849955 0.0016726030790160 0.0002693671903375
-0.0005417042616897 0.0016726030906187 0.0002693671802344
-0.0010232069698582 -0.0012176172124834 0.0000114925985500
-0.0010232069866772 -0.0012176174334963 0.0000114926120282
-0.0005417043029513 0.0016726029712942 0.0002693671924136
-0.0010232070034293 -0.0012176173350563 0.0000114925911781
0.0016762502284450 0.0001321149191521 -0.0001944057240884
-0.0010232069751079 -0.0012176172703426 0.0000114925922605
0.0016762502509818 0.0001321149135416 -0.0001944057279519
-0.0010234237192920 -0.0012178708318725 0.0000114413591558
0.0016762502340291 0.0001321149133657 -0.0001944057324094
-0.0010232069886834 -0.0012176172883495 0.0000114925734477
0.0008804519830881 0.0057929109763216 0.0002397498722884
0.0016077552525784 0.0053968073217200 0.0000805901405148
-0.0007049693741835 -0.0010584951082782 -0.0003322077624932
0.0004696641091125 0.0054139252733829 0.0003203779646753
0.0016762502135989 0.0001321148809402 -0.0001944057271747
0.0010139231367000 0.0035833854162117 -0.0001710164394290
0.0017524782603043 0.0008672764888710 -0.0001353977857998
-0.0035254530979713 -0.0042245898299853 0.0006966573242144
0.0026539119372239 0.0000072242969576 -0.0003046103572002
-0.0010232069996174 -0.0012176174204135 0.0000114925999766
-0.0010232070030949 -0.0012176173446740 0.0000114925946142
-0.0010232070221207 -0.0012176173610196 0.0000114925910171
0.0016762502305516 0.0001321148681512 -0.0001944057417019
-0.0007824554926745 0.0002274907476112 0.0001404296985679
0.0003265250973103 -0.0005427508775784 -0.0000914569117211
-0.0002741676858294 -0.0005162119701001 -0.0001793727696465
-0.0002502663616464 0.0003162878031275 -0.0000613912748455
-0.0003867330149535 -0.0008993653497347 -0.0006759075356697
0.0003265250563830 -0.0005427508953512 -0.0000914569284078
-0.0010232069893856 -0.0012176172928424 0.0000114925980837
-0.0010232069777829 -0.0012176172404019 0.0000114925959076
0.0006115610692426 0.0012728213518868 0.0002074913945698
-0.0000602021319196 0.0045628413639561 0.0005272430046878
0.0007175498519926 -0.0008583608885995 0.0000238612782151
-0.0023980157858097 -0.0094697915460411 0.0001706104464289
-0.0010883857799077 -0.0013356059734078 0.0000407150313645
-0.0010232069705270 -0.0012176172853701 0.0000114925915111
-0.0010232069844035 -0.0012176173128733 0.0000114925944588
-0.0010232069774485 -0.0012176172233224 0.0000114925722764
-0.0000602021246302 0.0045628414609466 0.0005272430004525
-0.0010232069509662 -0.0012176172797650 0.0000114926076428
-0.0010232069733023 -0.0012176174209380 0.0000114925760124
0.0001634703249208 -0.0011109741445930 -0.0000180213237314
-0.0001951393662729 0.0001477178033739 0.0000820374195826
-0.0010232070060040 -0.0012176172447276 0.0000114925906119
-0.0003867332603833 -0.0008993658167536 -0.0006759075723298
-0.0010232069843032 -0.0012176173453076 0.0000114925899013
0.0003265250586902 -0.0005427509323419 -0.0000914568931583
0.0016762502396465 0.0001321151065340 -0.0001944057264143
-0.0011462069343121 -0.0067940077426855 0.0000668470360537
0.0054236937817582 0.0032483184226623 -0.0003108949510761
0.0027154017971095 0.0037733283255724 0.0003255914633734
-0.0007049693330556 -0.0010584950847788 -0.0003322077530451
-0.0010232069995171 -0.0012176173455927 0.0000114925932875
-0.0010232069966750 -0.0012176173216831 0.0000114925917554
0.0016762502230616 0.0001321149318549 -0.0001944057353348
0.0003265250851725 -0.0005427509415725 -0.0000914569182714
0.0016762502045708 0.0001321148226428 -0.0001944057297893
0.0003265250838016 -0.0005427510026293 -0.0000914569135863
-0.0007933060345698 -0.0018571219382495 0.0004714257429584
0.0012895229254191 0.0052376975285213 0.0004242906506798
0.0003265250998850 -0.0005427509188051 -0.0000914569278860
0.0016762502482399 0.0001321149080121 -0.0001944057263199
-0.0029484090004529 -0.0014219649899494 -0.0001723553698520
0.0003265250820294 -0.0005427510025202 -0.0000914568980765
-0.0006856141768950 0.0014374498206090 0.0007659841013507
-0.0010232069883825 -0.0012176172527456 0.0000114925918942
0.0016762502186145 0.0001321149677421 -0.0001944057446051
0.0016762502331931 0.0001321149574187 -0.0001944057344466
0.0014703520801310 -0.0011037962965097 0.0001430240483404
0.0016762502369047 0.0001321149671191 -0.0001944057354014
-0.0010232070034293 -0.0012176173983465 0.0000114926068823
-0.0007049693358309 -0.0010584950873728 -0.0003322077587295
0.0003265250712292 -0.0005427509527194 -0.0000914569138528
-0.0005028351863727 -0.0037280982551116 -0.0000612211936100
0.0016762502328253 0.0001321149093391 -0.0001944057330256
-0.0004872884355468 -0.0005680136214752 0.0000908318948178
-0.0010232069915925 -0.0012176173362320 0.0000114925955746
-0.0010232069757432 -0.0012176172154259 0.0000114925905841
-0.0010232069967084 -0.0012176172828217 0.0000114926015532
-0.0010232069941003 -0.0012176173062244 0.0000114925914667
-0.0010741353875503 -0.0050254723218289 -0.0005963473690894
-0.0010232070009549 -0.0012176173619506 0.0000114925935706
-0.0010232069947022 -0.0012176173504904 0.0000114925859267
0.0014703520645158 -0.0011037963424280 0.0001430240591705
0.0016762502287460 0.0001321149627951 -0.0001944057264420
-0.0000020139959786 0.0009132621935534 0.0001835258206294
-0.0010232069918934 -0.0012176173290605 0.0000114926055555
0.0012895229072292 0.0052376974348535 0.0004242906556424
0.0026392410135875 0.0059125531177506 0.0003213389642209
-0.0010232069384606 -0.0012176173157983 0.0000114925867760
-0.0010232070147645 -0.0012176171885086 0.0000114925968125
-0.0013470680038848 -0.0026387995729357 -0.0001332464446365
-0.0022552855952416 -0.0053172830339921 -0.0007468159082384
-0.0000851515430885 -0.0007037517406555 0.0012645835595254
-0.0001034378183393 -0.0007852093382777 -0.0000508594112305
0.0016762501678901 0.0001321147490681 -0.0001944057414743
-0.0002199443725584 0.0003286983350244 0.0000219462124750
0.0002580322117098 0.0047219495928141 0.0001835412146563
0.0019532021753714 -0.0017735518627706 0.0004680648927425
0.0016762501952083 0.0001321150254447 -0.0001944057377274
-0.0001843987870320 -0.0011064908677293 0.0000350549569601
-0.0010232069862425 -0.0012176172910597 0.0000114925980393
0.0002532850636876 0.0009384175852027 -0.0001421626716961
0.0019169981571283 0.0015772177033252 -0.0000654700187828
-0.0000602020765808 0.0045628418949979 0.0005272430358688
0.0003265250758770 -0.0005427509467095 -0.0000914569151351
0.0016762502030327 0.0001321149462524 -0.0001944057318266
0.0003265249390515 -0.0005427510581422 -0.0000914568830165
-0.0010232070727783 -0.0012176174367237 0.0000114926378298
0.0003265250643411 -0.0005427509942910 -0.0000914569142414
0.0002503653563969 0.0016954170663992 -0.0002375119491362
-0.0010232070058033 -0.0012176173276983 0.0000114925877641
-0.0010232070371675 -0.0012176172197356 0.0000114925741527
0.0011506930714059 0.0018957230721965 -0.0005447841341621
0.0021577456158502 0.0030223253519208 0.0000634661428159
0.0026392410200409 0.0059125531409862 0.0003213389831556
-0.0010232069704935 -0.0012176173549869 0.0000114926051059
0.0016762502194169 0.0001321150006446 -0.0001944057258369
-0.0000602021550916 0.0045628413553223 0.0005272430224181
0.0012895228885377 0.0052376976454514 0.0004242906723515
-0.0010232070245617 -0.0012176173737540 0.0000114926106071
0.0003265250975109 -0.0005427509368877 -0.0000914569227012
0.0003265250785520 -0.0005427509675991 -0.0000914569230176
-0.0010232070198470 -0.0012176174114645 0.0000114926172129
-0.0010232070091136 -0.0012176174026564 0.0000114925959354
-0.0010232069468534 -0.0012176172982401 0.0000114926030575
-0.0005417044638850 0.0016726029748938 0.0002693671863187
-0.0010232070014899 -0.0012176173888485 0.0000114926071987
-0.0004392580601797 -0.0008580779430945 -0.0001961438771796
-0.0003867332720863 -0.0008993658213820 -0.0006759075677391
0.0016762501683247 0.0001321149257184 -0.0001944057373943
0.0026392410518398 0.0059125531725248 0.0003213389767552
-0.0005417042533303 0.0016726029521060 0.0002693671947339
0.0006402080619474 0.0008073490689457 -0.0003706933021819
0.0007132570761754 -0.0056482512723299 -0.0007101454874908
-0.0010232069682532 -0.0012176173174683 0.0000114926087363
0.0016762500207325 0.0001321140614407 -0.0001944056730019
-0.0006564352434914 0.0000755344286453 0.0000169209887725
-0.0010229507509636 -0.0012175791659270 0.0000115032278178
-0.0000602021338255 0.0045628414534302 0.0005272430148354
-0.0010232069890847 -0.0012176173186386 0.0000114925976452
-0.0010232069939331 -0.0012176173012317 0.0000114925968569
-0.0007049694050462 -0.0010584951772315 -0.0003322076977837
-0.0010232069972768 -0.0012176172374118 0.0000114925854715
-0.0010232070151658 -0.0012176173465676 0.0000114925919386
0.0014297471586896 0.0035975420393279 -0.0000429851190620
0.0016762502181798 0.0001321149306371 -0.0001944057314657
-0.0010232069788863 -0.0012176171810381 0.0000114925854049
0.0003265250762782 -0.0005427509714268 -0.0000914569237948
0.0000947661944025 0.0019908408220129 -0.0004180344154421
-0.0000602021313511 0.0045628413246615 0.0005272430143191
0.0016762502315881 0.0001321150093876 -0.0001944057449715
-0.0000602023400668 0.0045628411758491 0.0005272430423694
-0.0014350073550327 -0.0036894304188000 0.0006863581511266
-0.0000602021123253 0.0045628410409441 0.0005272430288016
-0.0010232069925622 -0.0012176173621407 0.0000114926000821
0.0026392410199741 0.0059125531903333 0.0003213389757561
0.0016762502401815 0.0001321147910848 -0.0001944057272913
0.0012895228939546 0.0052376975538021 0.0004242906581738
0.0016762502195507 0.0001321149019847 -0.0001944057350962
-0.0010232069709617 -0.0012176172257053 0.0000114925944255
0.0016762502342631 0.0001321149208046 -0.0001944057281518
-0.0014350075654202 -0.0036894314332584 0.0006863580891869
-0.0037636974522999 -0.0006879266719566 -0.0002926149653105
-0.0010232070594368 -0.0012176171783435 0.0000114926142930
0.0016762502004246 0.0001321148191020 -0.0001944057427011
-0.0010232070031618 -0.0012176173410381 0.0000114925906785
-0.0005417042647659 0.0016726030353640 0.0002693671879949
-0.0002380661579395 -0.0035918453782895 -0.0003751665563328
0.0021577458891333 0.0030223250364956 0.0000634660051822
0.0001937992954839 -0.0003627040181676 -0.0001218521995710
0.0016762502394793 0.0001321149500765 -0.0001944057333254
0.0016762502112248 0.0001321149163962 -0.0001944057355291
0.0003265250933647 -0.0005427509277082 -0.0000914569192984
0.0032560167326496 0.0014422252979536 0.0005651968422997
-0.0003914877864470 0.0006055100357301 -0.0005528152610989
-0.0010232069807588 -0.0012176172968127 0.0000114925881361
0.0003265250851725 -0.0005427509142083 -0.0000914569202310
0.0016762502138329 0.0001321148529424 -0.0001944057307719
0.0008080242989422 0.0023474642770233 0.0001664162495493
0.0003265250798894 -0.0005427508863056 -0.0000914569149908
0.0008080243015169 0.0023474642924820 0.0001664162492551
0.0003265250643745 -0.0005427509842281 -0.0000914569113492
0.0016762501736078 0.0001321145772399 -0.0001944057251319
-0.0000602031039754 0.0045628402122932 0.0005272427374357
-0.0010232069794213 -0.0012176173369958 0.0000114925727816
-0.0000602021330564 0.0045628414464928 0.0005272430252161
0.0003265250857410 -0.0005427509383361 -0.0000914569113270
0.0004137699180983 -0.0007251024070738 -0.0000339416552132
-0.0007049693158689 -0.0010584950324315 -0.0003322077545272
-0.0007049693833119 -0.0010584950915770 -0.0003322077546828
-0.0010232069993834 -0.0012176173846318 0.0000114925851051
0.0003265250556474 -0.0005427509409406 -0.0000914569374061
0.0012895228682078 0.0052376972066519 0.0004242906699365
0.0003265250941672 -0.0005427508806511 -0.0000914569181826
-0.0005417936376646 -0.0012335727749189 0.0000476577206579
-0.0010232069615992 -0.0012176170575728 0.0000114925947807
0.0021577459103325 0.0030223250651304 0.0000634659972887
0.0016762502591739 0.0001321148318591 -0.0001944057185928
-0.0010232070281395 -0.0012176174556618 0.0000114926043565
0.0016762500482848 0.0001321145912893 -0.0001944056486939
-0.0010232070488037 -0.0012176175241804 0.0000114925678022
-0.0010232069868778 -0.0012176172730140 0.0000114925939814
0.0000891810648023 0.0000608124995135 0.0001281354940969
-0.0000602022220331 0.0045628413726663 0.0005272430082576
0.0002110475905417 0.0013941166655290 -0.0000395116618863
0.0003661099232366 0.0021582348729380 -0.0001923681599541
-0.0010232069159573 -0.0012176170980253 0.0000114925857213
-0.0007351328476116 -0.0030054256079105 0.0001501712010270
0.0016762503131083 0.0001321151359430 -0.0001944057652772
-0.0010232070045662 -0.0012176173862280 0.0000114925933708
-0.0010232069842697 -0.0012176172998749 0.0000114925870591
-0.0010232069887838 -0.0012176172079693 0.0000114925671416
-0.0010232069967753 -0.0012176173146225 0.0000114926259004
-0.0005417042326326 0.0016726030274409 0.0002693671857188
-0.0003647719320473 0.0007560859782899 0.0001785813617382
0.0003265251005871 -0.0005427509409425 -0.0000914569091676
0.0014491413336096 0.0001016775450180 0.0000654410251385
-0.0000602020971782 0.0045628414560980 0.0005272430279026
0.0014703520122867 -0.0011037963694876 0.0001430240863596
0.0021577459231725 0.0030223250969911 0.0000634659983267
0.0014703520802647 -0.0011037962321743 0.0001430240519153
0.0010209957050863 0.0008291101989794 -0.0005242943083972
-0.0003867332421934 -0.0008993657837192 -0.0006759075598675
-0.0010232069994503 -0.0012176173528979 0.0000114925910449
-0.0005417042652006 0.0016726030140924 0.0002693671938957
0.0003265250772813 -0.0005427509398918 -0.0000914569165617
0.0005762650828606 0.0048810647794485 -0.0001601599918792
-0.0004000619803653 -0.0038244682711886 -0.0004213026708551
0.0016762502082489 0.0001321149053848 -0.0001944057276299
0.0012644537715854 -0.0023397032461534 0.0004804531497327
-0.0002117880993349 -0.0017476165393631 0.0002153158503112
-0.0010232069550455 -0.0012176173727036 0.0000114926079980
-0.0005417042721555 0.0016726026904938 0.0002693671778917
-0.0010232071475106 -0.0012176175605689 0.0000114925302988
-0.0005428315575032 -0.0032219708824767 0.0000690659579825
-0.0003867331568948 -0.0008993656000737 -0.0006759075216090
-0.0010232069815613 -0.0012176173224100 0.0000114925965738
0.0003265250940669 -0.0005427509427516 -0.0000914569095784
-0.0010232071325307 -0.0012176176813716 0.0000114925820520
0.0003265250063608 -0.0005427512162982 -0.0000914569034222
0.0020199471183675 0.0021951765808160 -0.0002341853100520
0.0000315662167262 0.0020709743586552 -0.0000522393845942
0.0008684441507130 -0.0000861943644117 -0.0009232967056634
-0.0000003669537836 0.0007610460450908 -0.0002457169596882
-0.0000602021664603 0.0045628410651973 0.0005272430362516
-0.0010232070937769 -0.0012176173477289 0.0000114925840060
-0.0010232069646420 -0.0012176172846292 0.0000114925850441
-0.0010232070010218 -0.0012176173296940 0.0000114925864374
-0.0005417042773049 0.0016726030945363 0.0002693671970710
0.0016762502984627 0.0001321150118248 -0.0001944058044679
-0.0000852733223191 -0.0030145671081394 0.0005834052789315
-0.0014186910888530 -0.0056628020884715 0.0003703189312587
0.0003265250810932 -0.0005427509914911 -0.0000914569146133
-0.0010232069834338 -0.0012176172862306 0.0000114925936095
-0.0012837027155533 -0.0042903546680566 -0.0009681528189617
-0.0010232068800791 -0.0012176174534500 0.0000114926298751
0.0043756796424884 0.0014818450005378 -0.0004003012972616
0.0021577458781993 0.0030223250139217 0.0000634660152464
-0.0008224206432937 -0.0006004616361381 0.0000910764624603
-0.0010232069887503 -0.0012176173362953 0.0000114925795707
0.0003265250959393 -0.0005427505796874 -0.0000914568780315
0.0016762502661289 0.0001321148519709 -0.0001944057258646
-0.0000310989840324 0.0006159566089381 -0.0000008119095752
0.0003265250616996 -0.0005427509858102 -0.0000914569150796
-0.0010232069944012 -0.0012176172980745 0.0000114925807642
-0.0007049693979575 -0.0010584952340418 -0.0003322077557652
0.0045014656392133 0.0029953203483397 -0.0006003954943758
-0.0007368463636021 -0.0006182126821456 0.0001034371721376
-0.0010232069878475 -0.0012176172784080 0.0000114925962019
-0.0003867331978890 -0.0008993656995167 -0.0006759075659015
0.0011100299253191 0.0020206911471266 0.0000701202747720
-0.0003608741387671 -0.0046688515761998 -0.0000118979396917
-0.0010271508404793 -0.0012159851680278 0.0000107699922152
-0.0010232070264342 -0.0012176171339720 0.0000114926131994
0.0012895229034173 0.0052376974568872 0.0004242906458447
-0.0010232069825644 -0.0012176173288159 0.0000114925967237
0.0016762502411846 0.0001321149144973 -0.0001944057313048
-0.0022578462524247 -0.0100427533150926 0.0005379306545431
-0.0000602021157359 0.0045628414595228 0.0005272429912152
-0.0026423827731341 0.0004655732713119 0.0001383531866049
-0.0010232069208057 -0.0012176171950344 0.0000114926065714
-0.0010232067915371 -0.0012176166863908 0.0000114925303598
0.0006238974810791 0.0018466887260325 0.0004512961410693
0.0003265251042318 -0.0005427510168262 -0.0000914569084238
0.0023636437583462 0.0042582472118427 -0.0002739650338219
0.0021577459079585 0.0030223249794210 0.0000634659850041
-0.0007049693611095 -0.0010584950846344 -0.0003322077605281
-0.0010232069808257 -0.0012176172866055 0.0000114926042621
-0.0014350075849476 -0.0036894313795210 0.0006863580934781
-0.0010232070038640 -0.0012176173663239 0.0000114925891797
-0.0003483401531222 -0.0008801840650847 -0.0000399822513117
-0.0007049693210517 -0.0010584949546260 -0.0003322077597009
-0.0010232070352282 -0.0012176173693191 0.0000114925931210
-0.0006758744639775 0.0008333340299336 0.0002789532512516
-0.0010232070570962 -0.0012176171673883 0.0000114925499720
-0.0010232070196798 -0.0012176174375052 0.0000114925859822
0.0003782803152127 0.0020374269130185 0.0001307922649782
-0.0003867334161677 -0.0008993660339297 -0.0006759075278102
0.0026392410041582 0.0059125532019451 0.0003213389684509
-0.0010232070129924 -0.0012176172245102 0.0000114925901955
0.0021577459598532 0.0030223248187108 0.0000634660013132
-0.0010232070141961 -0.0012176172839990 0.0000114926006594
-0.0035590068934000 -0.0019718761595326 0.0004180760719541
-0.0007049693506771 -0.0010584951060485 -0.0003322077567921
0.0005762650024105 0.0048810650319478 -0.0001601600105587
0.0011124764656304 0.0051286795063312 0.0004436151583721
0.0000837977041217 0.0000505101876228 -0.0002495098719939
0.0018077198854777 0.0032695782144658 -0.0004253043098766
-0.0008536286823249 0.0005564345159447 0.0001438357649825
-0.0000852734298200 -0.0030145670956478 0.0005834052695282
0.0003265250915925 -0.0005427508904835 -0.0000914569221406
0.0016762501803287 0.0001321150573389 -0.0001944057319820
-0.0000602021310836 0.0045628413199028 0.0005272430256102
-0.0008372865809123 -0.0019359764022492 -0.0000636810571545
-0.0008246248676406 0.0002301225353564 -0.0004440100880248
0.0002055180852347 0.0006719015629704 0.0000539995266887
-0.0010232070094814 -0.0012176173759820 0.0000114925847943
0.0007533555616900 0.0012035475401227 -0.0002299630408592
0.0001498243787462 -0.0020919672092450 -0.0001378037461323
-0.0010232069728007 -0.0012176172710958 0.0000114926065603
-0.0007002085117507 0.0004873416233871 0.0000720441548294
-0.0010232069500634 -0.0012176174053544 0.0000114926210710
-0.0001111355484886 0.0007549092307999 -0.0000806011820118
-0.0005417042760008 0.0016726030096874 0.0002693671691099
-0.0000602020218439 0.0045628414585895 0.0005272430185099
0.0026392410185362 0.0059125531895976 0.0003213389723033
-0.0010232068819516 -0.0012176170570996 0.0000114926346213
0.0003265250584896 -0.0005427509844797 -0.0000914569090289
-0.0005417042670062 0.0016726028582661 0.0002693672025055
0.0008080243044594 0.0023474642768297 0.0001664162420553
-0.0010232069835007 -0.0012176173321860 0.0000114925986333
0.0005762649191181 0.0048810655059051 -0.0001601601398111
-0.0019862141350667 -0.0069980035507486 -0.0005042528585323
0.0016762502619492 0.0001321149542174 -0.0001944057396591
-0.0005417042591150 0.0016726030718637 0.0002693671825048
0.0016762501804625 0.0001321148316094 -0.0001944057480135
0.0016762501962783 0.0001321148676321 -0.0001944057398922
-0.0014210056706486 0.0019259113112010 -0.0001879174706909
-0.0010232069930303 -0.0012176174058506 0.0000114925976840
-0.0005417042670062 0.0016726029286505 0.0002693671793795
0.0027303093826293 0.0004698267456434 0.0003182280859701
-0.0010232070424172 -0.0012176174022181 0.0000114925796706
-0.0004853189347896 -0.0006278059083726 -0.0002178119312392
-0.0010232070233914 -0.0012176173729075 0.0000114926093525
-0.0000602021501094 0.0045628414071437 0.0005272429842653
0.0026392410507029 0.0059125533337299 0.0003213389588086
0.0012644537922831 -0.0023397033545398 0.0004804531480728
-0.0010232069750410 -0.0012176172208955 0.0000114925848720
0.0003265250781507 -0.0005427509182084 -0.0000914568846096
0.0003265250938328 -0.0005427509619324 -0.0000914569121652
-0.0001338513837775 -0.0004227635782261 -0.0001253607714989
-0.0010232070131930 -0.0012176173455979 0.0000114925990274
-0.0010232070397422 -0.0012176173744949 0.0000114925805754
-0.0010232069930972 -0.0012176172729770 0.0000114925858934
-0.0010232070418822 -0.0012176173584748 0.0000114925976785
0.0016762502210888 0.0001321147644316 -0.0001944057384545
0.0021577458892336 0.0030223249891391 0.0000634660259322
-0.0001358424258826 0.0001099622588655 0.0000328163638399
-0.0002807081429866 -0.0002042333917525 -0.0002274880488860
-0.0015866294941882 -0.0013863519401776 0.0004120480764965
0.0016762502269069 0.0001321149098213 -0.0001944057508056
0.0021577459538679 0.0030223249881709 0.0000634659615730
0.0016762501844750 0.0001321148478037 -0.0001944057129363
-0.0003543839938857 -0.0013289371304182 0.0000540428351542
-0.0010232070417819 -0.0012176175602313 0.0000114925166652
0.0016762502181463 0.0001321148534035 -0.0001944057355513
-0.0010232069435431 -0.0012176173402886 0.0000114925750798
-0.0010232069906562 -0.0012176174195687 0.0000114925810306
-0.0007174659973191 0.0003939017456789 0.0000974443176673
0.0028995233731736 0.0056920424651900 -0.0007013135651305
-0.0010232070123571 -0.0012176174211737 0.0000114925818355
0.0018207836673868 0.0010556346355534 0.0004258700476058
0.0003265251026602 -0.0005427508639289 -0.0000914569119432
0.0016762501805294 0.0001321146344338 -0.0001944057455988
-0.0002099918591193 -0.0022691869823069 -0.0001111235595914
0.0003181241597871 0.0005396057370291 0.0001623086664930
-0.0004840755429503 0.0015211074289570 0.0002734949114992
-0.0001039453111858 -0.0004133432337375 -0.0001564916607576
-0.0010483179258394 -0.0054127488250964 -0.0000169687435630
0.0011521279517653 0.0012595150208568 0.0001775388087848
-0.0000602021392089 0.0045628414277606 0.0005272430158068
-0.0010232071770692 -0.0012176182959683 0.0000114925134511
0.0016762501569895 0.0001321149320205 -0.0001944057207522
0.0003265250486590 -0.0005427510346166 -0.0000914569084182
0.0022859049649470 0.0058582942963397 0.0003135303754725
0.0017980437881016 -0.0020958171672552 0.0010141221706727
-0.0009606273950141 -0.0011077515026462 0.0000304687919531
-0.0003867332280828 -0.0008993657580727 -0.0006759075814780
-0.0005417043142865 0.0016726025726916 0.0002693673103699
0.0016762502165413 0.0001321149337151 -0.0001944057260756
-0.0010232070892294 -0.0012176176088898 0.0000114926356594
-0.0010232070379366 -0.0012176173493745 0.0000114925853272
-0.0010232069862760 -0.0012176172692884 0.0000114925937149
-0.0010232069357188 -0.0012176167548123 0.0000114925816689
0.0023040957404480 0.0054489796597222 0.0002267005621739
0.0026631845532365 0.0011048580151363 -0.0004057802447409
0.0026392409801502 0.0059125530560547 0.0003213389468128
-0.0010232071606849 -0.0012176175825338 0.0000114926897829
-0.0003817195208135 0.0023320708461732 0.0005117333825119
-0.0007370724316114 -0.0014197897458212 0.0002893711950371
0.0001507780726569 0.0060189241736298 -0.0010538018209596
-0.0007049693432540 -0.0010584951067736 -0.0003322077586573
-0.0000430326175581 0.0011637007496691 -0.0007156878603751
-0.0010232070028609 -0.0012176173799770 0.0000114925973121
-0.0004077120600489 0.0008298066580664 -0.0001159393322745
-0.0000602021428536 0.0045628413003189 0.0005272429859638
-0.0010232070830101 -0.0012176177665739 0.0000114926068545
-0.0010232069967753 -0.0012176172782408 0.0000114925846943
0.0000947661126817 0.0019908405172611 -0.0004180344210654
0.0016762502366706 0.0001321148541039 -0.0001944057345743
-0.0010232070415478 -0.0012176173778439 0.0000114925966626
-0.0010749351948949 -0.0067966313748169 0.0000710129191291
-0.0010232069727673 -0.0012176172224495 0.0000114925917831
-0.0010232070331551 -0.0012176174513202 0.0000114926000321
-0.0000602021882949 0.0045628413641114 0.0005272430099671
0.0020305453518609 0.0058113283540045 0.0003100884325227
-0.0010459391326831 -0.0012906144078541 0.0004033964722657
-0.0000602022631610 0.0045628414884685 0.0005272429553553
0.0003265250858413 -0.0005427509326763 -0.0000914569248828
0.0026392410298046 0.0059125532573160 0.0003213389733302
-0.0003867332761323 -0.0008993658993987 -0.0006759075623045
-0.0010232069966750 -0.0012176171369164 0.0000114926006761
0.0016762501959440 0.0001321148960522 -0.0001944057293730
-0.0019204986127483 0.0003797297700317 -0.0000855816571225
-0.0010232069955381 -0.0012176173294318 0.0000114925964572
-0.0010232070974884 -0.0012176174324278 0.0000114926254064
0.0012895229304681 0.0052376975354323 0.0004242906534886
0.0000155916209465 0.0002731478863131 0.0000983004092735
-0.0000602021595053 0.0045628413799906 0.0005272430231677
-0.0010232068148763 -0.0012176174081952 0.0000114926470392
-0.0011160483884058 -0.0024146353245304 -0.0000898722553766
0.0016762502524530 0.0001321153328794 -0.0001944057272969
-0.0005417042821198 0.0016726029484579 0.0002693671727459
0.0003265759825343 -0.0005427461596129 -0.0000914549043645
-0.0002077729923427 0.0000202198076341 0.0002473991341100
-0.0000602020965763 0.0045628413283835 0.0005272429812674
0.0016762502424553 0.0001321148127699 -0.0001944057153954
-0.0010232070059371 -0.0012176174573143 0.0000114925940481
0.0003265250854735 -0.0005427509035558 -0.0000914569225458
-0.0010232069961065 -0.0012176173228499 0.0000114925900234
0.0006011135147416 0.0037430567826297 -0.0000528376075016
0.0003265250810597 -0.0005427510054345 -0.0000914569145022
-0.0010232069922612 -0.0012176173328970 0.0000114925872257
-0.0024515808866489 -0.0147773154289252 0.0004114050853355
0.0006837841806841 0.0029757360303709 0.0001706247226436
0.0021577458908052 0.0030223250211864 0.0000634660005749
0.0012644538137164 -0.0023397033716932 0.0004804531501988
-0.0010232069945350 -0.0012176173337893 0.0000114925897792
0.0016762502080817 0.0001321148779203 -0.0001944057331256
0.0008335204442090 0.0060257293456267 0.0003089699549491
-0.0010232070385719 -0.0012176177827437 0.0000114925546294
0.0016762502134651 0.0001321148270900 -0.0001944057292842
0.0006057933211030 0.0008854020367374 -0.0003734946626474
0.0002235740358405 0.0006001120378610 -0.0000933726300911
-0.0008632707285213 -0.0011604009286786 -0.0000167413982099
0.0016762502049720 0.0001321147373262 -0.0001944057283571
-0.0010232070350275 -0.0012176172521454 0.0000114926188283
0.0003265250926291 -0.0005427509505478 -0.0000914569176442
-0.0000602019921182 0.0045628415653471 0.0005272430519445
-0.0010232070182086 -0.0012176172552498 0.0000114925908006
0.0014703520281694 -0.0011037964676283 0.0001430240816690
-0.0010232070299785 -0.0012176173525229 0.0000114925848720
0.0008080242962672 0.0023474642209238 0.0001664162430711
0.0016762502394793 0.0001321146558530 -0.0001944057477192
-0.0003248340521579 -0.0007635536603686 -0.0000971769926246
-0.0003867330198688 -0.0008993653959294 -0.0006759074920157
-0.0010232070761220 -0.0012176174276322 0.0000114925606746
-0.0006687415617206 -0.0063389120739764 -0.0006048374400485
0.0011687311229893 0.0041535156304687 -0.0000137840988444
-0.0010232070006540 -0.0012176172967810 0.0000114925871702
-0.0005417042833905 0.0016726029575741 0.0002693671694762
-0.0005417042282858 0.0016726030310820 0.0002693672240273
-0.0010232069641739 -0.0012176171587599 0.0000114926040512
-0.0006424008269289 -0.0065559028627517 0.0003067203668076
-0.0010232070215523 -0.0012176173428947 0.0000114925724708
-0.0000852734432618 -0.0030145669885091 0.0005834052930428
-0.0010232068628589 -0.0012176173803768 0.0000114926406831
0.0003265251062715 -0.0005427509029082 -0.0000914569135474
-0.0010232069927294 -0.0012176172703636 0.0000114925883970
0.0016762502339287 0.0001321148512652 -0.0001944057471586
0.0000015326460549 -0.0010558207300870 0.0000328838473281
-0.0010674479489647 -0.0000610657081186 0.0002658263811247
0.0003265250484918 -0.0005427511783538 -0.0000914569102390
-0.0010232069387281 -0.0012176172391877 0.0000114926046174
-0.0010232070146308 -0.0012176173673041 0.0000114925618681
-0.0007417651224361 -0.0039403433161067 -0.0004097955696422
0.0005762649119960 0.0048810645781650 -0.0001601600080774
-0.0038673326948826 -0.0008014434168150 0.0003916536473719
-0.0006426906403166 0.0002421024805985 -0.0000202040999572
-0.0010232070703039 -0.0012176173765662 0.0000114925901289
-0.0010232069998181 -0.0012176173628499 0.0000114925993938
-0.0004093216887092 0.0017177317015426 0.0002652507083984
0.0016762502146689 0.0001321148345413 -0.0001944057267140
-0.0010232069338128 -0.0012176175306922 0.0000114925895461
0.0003265251121230 -0.0005427508002939 -0.0000914568949402
-0.0007049693853182 -0.0010584951219013 -0.0003322077536391
0.0016762501514723 0.0001321148479199 -0.0001944057528596
-0.0005417042542331 0.0016726029418530 0.0002693671702423
0.0016762502626514 0.0001321149250195 -0.0001944057356401
0.0012746963040181 0.0014994906610338 -0.0007018046423944
0.0021577458917080 0.0030223247958574 0.0000634659987763
0.0022610742319996 0.0071245863781944 0.0002710546123409
0.0004597541319035 0.0010464081567934 0.0000255700225723
-0.0005417042636290 0.0016726030251356 0.0002693671828933
0.0003265250811266 -0.0005427509198838 -0.0000914569203364
0.0005188194800741 0.0007611609144544 0.0000743900999800
-0.0000685173885239 0.0045313727026995 0.0005356327557735
-0.0002712672408668 0.0006396022629405 0.0004718109728662
-0.0005512876942645 -0.0019379104530428 0.0000963595149598
-0.0012291072147247 -0.0024535265019497 0.0003489257027207
0.0016762501996555 0.0001321147737572 -0.0001944057229448
0.0016762502700745 0.0001321149470442 -0.0001944057448493
-0.0010232065215643 -0.0012176169958695 0.0000114927194260
0.0016762502773972 0.0001321151298293 -0.0001944057136024
0.0003265250957053 -0.0005427509194439 -0.0000914569180383
-0.0010232070176067 -0.0012176173433682 0.0000114925875976
0.0006257642575557 -0.0016172978250386 -0.0013427645409188
-0.0007049693318185 -0.0010584950572685 -0.0003322077556541
0.0003265250771476 -0.0005427509878710 -0.0000914569119987
0.0003265250848382 -0.0005427509573620 -0.0000914569192595
0.0023843822764064 0.0058802950159087 -0.0000139321487667
0.0003261438086534 0.0017468625188879 -0.0000329645939178
-0.0007824555748634 0.0002274905178692 0.0001404297373093
-0.0000602021409811 0.0045628414596374 0.0005272430152851
-0.0010232069621342 -0.0012176172044127 0.0000114925790488
-0.0010232070362982 -0.0012176177256219 0.0000114925914834
0.0003265250611646 -0.0005427509085995 -0.0000914569345362
-0.0004305068861876 0.0002154468242419 -0.0002726295456551
0.0016762502058080 0.0001321148232447 -0.0001944057310883
-0.0007824556009445 0.0002274905615475 0.0001404297343284
-0.0003483401376407 -0.0008801840150746 -0.0000399822605321
0.0021577459031770 0.0030223251539530 0.0000634660094400
-0.0017854454216356 -0.0118024369166252 0.0000295256201861
-0.0010232069307366 -0.0012176171494134 0.0000114925114971
0.0016762501555851 0.0001321148756115 -0.0001944057348242
-0.0004496519930146 -0.0007752437829076 0.0001404463016556
-0.0007049694674736 -0.0010584953848781 -0.0003322078206913
-0.0010232070110196 -0.0012176173332419 0.0000114925859545
0.0000661498853731 -0.0004689956841366 -0.0002405181716558
-0.0010232070149986 -0.0012176174197869 0.0000114925997324
0.0007071147294144 -0.0000199188347248 0.0000221839233341
-0.0010232070341582 -0.0012176173504041 0.0000114925840060
0.0012895229409674 0.0052376975826903 0.0004242906493919
0.0003265250722992 -0.0005427510775416 -0.0000914568998085
-0.0005417042736602 0.0016726030675433 0.0002693671847586
-0.0004896842082665 -0.0015173287905098 -0.0005071911489789
-0.0003358043870745 0.0029085230953371 -0.0000680671601306
-0.0000852734807451 -0.0030145671763444 0.0005834052677908
0.0009888554902200 -0.0039939820482935 -0.0001148469524504
-0.0003867332237026 -0.0008993656742960 -0.0006759075653964
-0.0005897200780866 0.0001676761946397 0.0001697366650654
0.0009888554587890 -0.0039939817529416 -0.0001148469436852
-0.0007049693304475 -0.0010584950920030 -0.0003322077667120
0.0006106503826268 0.0016590025783073 -0.0009284074272586
0.0016762502277428 0.0001321147936718 -0.0001944057229892
0.0008501685942248 0.0009873024963879 0.0000319458255294
-0.0010232070731795 -0.0012176171756913 0.0000114926217815
-0.0010232069841025 -0.0012176171695250 0.0000114926152145
0.0016762501666863 0.0001321148474377 -0.0001944057129863
-0.0010232069996509 -0.0012176173908811 0.0000114925918498
-0.0010232070802682 -0.0012176172183417 0.0000114926179345
-0.0001961866991807 -0.0029964950223169 -0.0001375061442128
0.0003265250672167 -0.0005427510055401 -0.0000914569100281
0.0012895229486914 0.0052376975401574 0.0004242906342318
0.0016762502131976 0.0001321148501953 -0.0001944057204802
-0.0010232070185430 -0.0012176173426132 0.0000114926040068
-0.0002734647144561 -0.0008772080524848 -0.0000359071984201
0.0016762500858684 0.0001321143742552 -0.0001944057296839
-0.0010232070355291 -0.0012176173135014 0.0000114925904897
0.0003265250893522 -0.0005427509536540 -0.0000914569125316
-0.0010232069621008 -0.0012176172952782 0.0000114925966959
0.0003265251118889 -0.0005427508448819 -0.0000914569192595
-0.0000852735056224 -0.0030145671887831 0.0005834052619678
0.0003265250375244 -0.0005427510203863 -0.0000914569301675
0.0026493236962453 0.0030271745210088 -0.0000801969370625
-0.0010232069919269 -0.0012176173356987 0.0000114925886301
-0.0010232069647089 -0.0012176173105591 0.0000114925970123
-0.0003867332651648 -0.0008993658699755 -0.0006759075702481
-0.0010232070012224 -0.0012176174028693 0.0000114925933708
0.0008536607244576 -0.0001319233784518 0.0001543849998925
-0.0003867332761657 -0.0008993658527429 -0.0006759075485377
0.0016762502002908 0.0001321147061537 -0.0001944057433782
0.0021124083816826 -0.0002699874131340 -0.0000515613371324
-0.0008847655705175 0.0006682225627965 -0.0000204113169003
-0.0006316912459417 -0.0063246822719224 0.0000682170810903
0.0026392410358568 0.0059125531743183 0.0003213389618617
-0.0003608741402049 -0.0046688517333253 -0.0000118979394641
-0.0010232070144302 -0.0012176173813919 0.0000114925993882
0.0000221461060225 -0.0010414033074268 0.0001927672020588
0.0016762502425890 0.0001321150850443 -0.0001944057420017
-0.0010232070124574 -0.0012176173493552 0.0000114926181288
-0.0010232070544881 -0.0012176172743179 0.0000114925866650
0.0003265250515346 -0.0005427510175230 -0.0000914569052375
-0.0001860618248643 -0.0011228586405560 -0.0001905262825676
-0.0014350075989244 -0.0036894313471589 0.0006863580908358
0.0016762502073126 0.0001321148861142 -0.0001944057362285
-0.0010232070836454 -0.0012176175034737 0.0000114925560893
0.0008428447761286 0.0013613887436077 -0.0013610952182950
0.0004974507640911 -0.0006111896928083 0.0000693941197861
-0.0014350076161780 -0.0036894315036141 0.0006863580802164
0.0021577459030767 0.0030223249031710 0.0000634660086017
-0.0000602021643203 0.0045628410633319 0.0005272429878900
-0.0010232068360756 -0.0012176170001592 0.0000114926843983
-0.0000602021888298 0.0045628411380794 0.0005272430163675
-0.0002173951987153 0.0014057246765061 0.0001575277678793
-0.0010232069717976 -0.0012176174538933 0.0000114925905897
-0.0005069216321211 -0.0018374494244861 0.0000037599339114
0.0016762501431130 0.0001321145849535 -0.0001944057461983
-0.0010526711738239 -0.0024057559014074 0.0004648864504568
-0.0010232069781507 -0.0012176172549683 0.0000114925888910
-0.0003702676809244 -0.0008633464439993 -0.0006705386178370
0.0016762501442499 0.0001321147402002 -0.0001944057222177
0.0004746354676014 0.0008275050990435 -0.0007012089991158
0.0016762502458324 0.0001321148867829 -0.0001944057092947
-0.0010232070469312 -0.0012176176302547 0.0000114925929267
-0.0005417042862995 0.0016726031237801 0.0002693671881615
0.0021732238560138 0.0028889525497181 0.0000596777878599
0.0003265250736701 -0.0005427509891205 -0.0000914569282357
-0.0010232070104177 -0.0012176173273481 0.0000114925802867
0.0004664383876256 0.0017914931611777 0.0001669487435772
0.0010165574910057 0.0009815268718073 0.0002399375804072
-0.0007476042148156 0.0004366875017811 0.0006068008317075
0.0016762500972370 0.0001321138274520 -0.0001944056857525
0.0003265250862760 -0.0005427508254652 -0.0000914568981154
0.0003042431041897 0.0002965331556058 0.0003952396866797
-0.0010232070276713 -0.0012176174134197 0.0000114925675636
-0.0006017815518893 -0.0024822393283090 0.0002074388657469
-0.0005927343740609 -0.0013470227479222 0.0000765268516834
0.0003265250686879 -0.0005427510385288 -0.0000914569098504
0.0016762502399475 0.0001321150233521 -0.0001944057265475
0.0012479011733143 0.0009114031464793 -0.0002398284822920
-0.0005417042451382 0.0016726029288211 0.0002693671771368
-0.0010232069974440 -0.0012176173249864 0.0000114925800703
-0.0010232068172504 -0.0012176169673131 0.0000114925265351
-0.0001294968384256 -0.0013377496089267 -0.0002290276692604
-0.0010232069884494 -0.0012176176770075 0.0000114925849497
-0.0010232071337010 -0.0012176178906462 0.0000114926027744
0.0014703520035596 -0.0011037966456193 0.0001430240546852
-0.0007049693328885 -0.0010584950001397 -0.0003322077560483
-0.0011235993270173 0.0018278234252455 -0.0004221410167082
0.0007332637608514 0.0010966980523001 0.0000957870042518
0.0016762501773194 0.0001321149133870 -0.0001944057493679
-0.0000602021537207 0.0045628413657760 0.0005272430084905
-0.0010232070887947 -0.0012176174498523 0.0000114925715548
0.0012895229074967 0.0052376976622529 0.0004242906650351
-0.0010232070008881 -0.0012176173604160 0.0000114925954358
0.0026392410572566 0.0059125532705361 0.0003213389454860
0.0003265250259885 -0.0005427512118493 -0.0000914568751505
-0.0007850185476466 -0.0014195755835693 0.0002231104834241
-0.0007049693213860 -0.0010584950210188 -0.0003322077645359
0.0003265250895528 -0.0005427509113010 -0.0000914569221628
0.0016762502184473 0.0001321146880956 -0.0001944057091893
0.0013171896778692 -0.0026165673275370 0.0006007612762916
-0.0010232069905894 -0.0012176172367924 0.0000114925941979
-0.0009454482730709 -0.0011142775850590 0.0000333194497308
-0.0010232070397088 -0.0012176173685905 0.0000114925786603
-0.0005453916133163 0.0016310899123628 0.0002663977981476
-0.0010232069148873 -0.0012176171073086 0.0000114926266998
0.0016762502443277 0.0001321149412314 -0.0001944057485796
-0.0001549746806470 -0.0034329479284220 -0.0003493288308207
-0.0010232070028609 -0.0012176174305802 0.0000114925740695
-0.0003867333334104 -0.0008993659747104 -0.0006759075528622
-0.0020212437562048 -0.0050806126695344 0.0003287314796039
-0.0010104287483457 -0.0012231104563485 0.0000138921666853
-0.0005417042643646 0.0016726029690607 0.0002693672030273
-0.0007049694213301 -0.0010584951767950 -0.0003322077667620
0.0026320246776662 0.0029267013038794 0.0000832381127767
-0.0010001576195279 -0.0014041614802151 -0.0002534463003757
-0.0000602021678647 0.0045628413420863 0.0005272430194818
-0.0008157396106937 -0.0069255597176446 -0.0009538708936561
-0.0007049694148767 -0.0010584951325220 -0.0003322077752109
-0.0011356248372271 -0.0039668036505647 0.0001184778411297
-0.0000602020011797 0.0045628409889829 0.0005272429872624
-0.0010232069673504 -0.0012176171916430 0.0000114925959187
-0.0010232068019027 -0.0012176170654434 0.0000114926222867
-0.0001503045957806 0.0000410799995268 -0.0001097704850782
0.0006138505471796 0.0006159938483755 -0.0002540037531284
-0.0010232069830325 -0.0012176172767009 0.0000114925975785
0.0004860629745622 0.0016280250560613 -0.0000979300686429
0.0006146611813895 0.0049002694326126 0.0004757667389546
0.0021803778858988 0.0029694968988686 0.0000654391687191
-0.0010232069901547 -0.0012176172763648 0.0000114925921551
-0.0003867332839231 -0.0008993660357286 -0.0006759075759435
-0.0010232069899206 -0.0012176172647673 0.0000114925961408
0.0016762502097870 0.0001321149733244 -0.0001944057406417
0.0014242821452153 -0.0021071241904967 -0.0002926081714675
-0.0010232069958056 -0.0012176173662254 0.0000114925885913
0.0026392410616369 0.0059125531110029 0.0003213389688337
0.0016692460558306 0.0000532575016706 -0.0002000465316486
-0.0007049693535193 -0.0010584951739231 -0.0003322077692044
-0.0010232070570293 -0.0012176178251741 0.0000114926435198
-0.0002039572966392 -0.0008153005649173 0.0002795808718230
0.0003265250778498 -0.0005427509552466 -0.0000914569360738
-0.0010232070601055 -0.0012176173672917 0.0000114925903121
-0.0005487196847867 -0.0002409022265481 0.0001038256011318
-0.0010232069191673 -0.0012176172433340 0.0000114926077427
0.0003265247510670 -0.0005427515257597 -0.0000914568553220
-0.0010232069208057 -0.0012176173345462 0.0000114926243683
-0.0007049693332228 -0.0010584951229732 -0.0003322077581133
0.0025193085750225 0.0028672953793557 0.0002043105554901
-0.0010232069725332 -0.0012176175236667 0.0000114925868316
0.0003102670993782 0.0012584168617083 0.0000041032047931
-0.0000602021049022 0.0045628414972299 0.0005272430209027
-0.0007049693921394 -0.0010584951045525 -0.0003322077569643
0.0003265250970093 -0.0005427510055490 -0.0000914569120431
0.0003265250135164 -0.0005427509844778 -0.0000914569029837
0.0005762649785028 0.0048810649960710 -0.0001601600321304
-0.0010232067617445 -0.0012176170573006 0.0000114926466340
-0.0002420239183499 -0.0015345968174068 0.0001595224638760
-0.0003867332788072 -0.0008993657639153 -0.0006759075680833
-0.0010229548529518 -0.0012175946452850 0.0000115053047252
0.0003265250710620 -0.0005427509823521 -0.0000914569046324
-0.0009641540701620 -0.0013248706081207 0.0000182559887608
-0.0010075315917749 -0.0014608851732073 0.0000019408594893
-0.0006339683631103 -0.0012882494839753 -0.0001269011386038
0.0003265250112092 -0.0005427512827737 -0.0000914569061090
-0.0003867332892731 -0.0008993661244436 -0.0006759075619769
-0.0028098177529699 -0.0119415618308185 0.0008454709827353
-0.0014350075569940 -0.0036894316771015 0.0006863580609981
-0.0010232069733692 -0.0012176171831886 0.0000114925821464
-0.0007049693361319 -0.0010584949619382 -0.0003322077585408
-0.0005103988414585 0.0003370307946238 -0.0001926620383762
-0.0010232069992162 -0.0012176173060748 0.0000114926126832
-0.0007985371514925 -0.0033712109511506 -0.0000010429545825
-0.0010232069805916 -0.0012176172615538 0.0000114925949029
-0.0000976090747051 -0.0005086974287972 -0.0001289975460579
-0.0003867332614198 -0.0008993659367748 -0.0006759075178511
-0.0010232070616436 -0.0012176175699176 0.0000114925517317
-0.0010232070151658 -0.0012176174169517 0.0000114925831400
-0.0010232070084783 -0.0012176174043124 0.0000114926053501
0.0016762502075801 0.0001321149072520 -0.0001944057269916
0.0016762501742097 0.0001321148057499 -0.0001944057862382
-0.0009598292001836 -0.0014420166785185 0.0004238549186176
0.0016762502722813 0.0001321150043437 -0.0001944057440111
-0.0010232069803910 -0.0012176173621707 0.0000114926042954
-0.0025223555151347 0.0003020756748783 0.0003289294489818
-0.0005417046795222 0.0016726028279524 0.0002693673052797
0.0016762502552617 0.0001321149169047 -0.0001944057421681
-0.0006795055502510 0.0008454484300151 -0.0000282872150063
0.0026392410620716 0.0059125531390571 0.0003213389733579
-0.0012291072347202 -0.0024535266008893 0.0003489256931783
0.0003265250798894 -0.0005427509596252 -0.0000914569072025
0.0003265250596933 -0.0005427509841225 -0.0000914569390437
-0.0005417043001091 0.0016726029443558 0.0002693671734675
-0.0010232070511109 -0.0012176172628611 0.0000114926035571
-0.0000220292017837 0.0016825302492987 0.0000912282553641
0.0016762502458324 0.0001321150233926 -0.0001944057245713
-0.0010232070324194 -0.0012176173720399 0.0000114926006650
-0.0010232070254645 -0.0012176173353273 0.0000114925976618
-0.0005417042324320 0.0016726033408462 0.0002693671944842
-0.0010232070441894 -0.0012176176963324 0.0000114926204381
0.0006447607486057 -0.0003836269424802 -0.0004351560405116
0.0005521434110890 0.0016711941840731 0.0000956116834194
0.0007590765963107 0.0014008873838959 0.0001043505512247
0.0003265249701816 -0.0005427511469135 -0.0000914569688087
-0.0000852734698111 -0.0030145671410504 0.0005834052773942
-0.0010232069517687 -0.0012176171513844 0.0000114925827459
-0.0006306846574256 -0.0038231896305972 -0.0002877153477580
-0.0010232069857410 -0.0012176173225596 0.0000114926174905
-0.0010232069385275 -0.0012176170572895 0.0000114925915611
-0.0010232070122902 -0.0012176173944765 0.0000114925945587
-0.0001077585742252 -0.0008122384188538 0.0001974264419433
-0.0005417043496966 0.0016726028286460 0.0002693671842202
-0.0010232070129589 -0.0012176173413056 0.0000114925824461
-0.0000602021342936 0.0045628411345751 0.0005272429975489
-0.0005417043193356 0.0016726029792137 0.0002693672072462
-0.0010232070867551 -0.0012176171936982 0.0000114925671305
-0.0010232069824975 -0.0012176172442103 0.0000114925820465
-0.0010232070372344 -0.0012176174122968 0.0000114925898624
0.0000947661049577 0.0019908404713408 -0.0004180344084699
-0.0010232070155002 -0.0012176172846343 0.0000114926190614
-0.0010232070347935 -0.0012176173179926 0.0000114925993105
-0.0005417042583794 0.0016726030888659 0.0002693671625096
-0.0007049694007996 -0.0010584950582961 -0.0003322077738841
-0.0000561399528266 -0.0022708229639240 0.0000547631225299
-0.0003867332841906 -0.0008993661248043 -0.0006759075715415
-0.0010232072041200 -0.0012176177706882 0.0000114926567370
-0.0005926352324202 -0.0021352909652671 -0.0003384748991217
0.0003265250977784 -0.0005427509841437 -0.0000914569093064
0.0003265250998850 -0.0005427509048951 -0.0000914569256378
-0.0000602021511794 0.0045628413572617 0.0005272430147632
-0.0007049693780288 -0.0010584951693491 -0.0003322077580634
0.0016762502505136 0.0001321150689644 -0.0001944057412467
0.0003265250873460 -0.0005427508190593 -0.0000914568958950
0.0003265250336122 -0.0005427509460705 -0.0000914569195649
-0.0007824555654006 0.0002274905802812 0.0001404297300151
0.0016762501375959 0.0001321147412597 -0.0001944057774120
0.0005610237165396 -0.0005972095057219 -0.0000679494683285
-0.0010232069466862 -0.0012176172786035 0.0000114925668530
0.0016762501913965 0.0001321149666088 -0.0001944057599538
-0.0010232070048337 -0.0012176174796735 0.0000114926124556
0.0026392409857677 0.0059125527367842 0.0003213389798914
-0.0005417042735933 0.0016726029087059 0.0002693671783081
0.0016762501830037 0.0001321147569030 -0.0001944057192423
-0.0001967875422265 -0.0016103622195087 -0.0002578558358866
0.0003265250646755 -0.0005427509532720 -0.0000914569109218
0.0016762501742432 0.0001321148048049 -0.0001944057063250
-0.0000602022343046 0.0045628410962614 0.0005272430646070
-0.0010232070962847 -0.0012176173306863 0.0000114925920052
0.0003265250839354 -0.0005427509998382 -0.0000914569129535
0.0016762501604001 0.0001321150317188 -0.0001944056714310
0.0007568690536122 -0.0005064565270103 -0.0004188129199027
0.0016762501658504 0.0001321149159529 -0.0001944057521768
0.0003265250875800 -0.0005427510024357 -0.0000914569215577
0.0001718623238166 0.0006342637580737 -0.0000849352616657
0.0012895228785400 0.0052376974757269 0.0004242906473769
-0.0010232070937769 -0.0012176177550784 0.0000114925432829
0.0003265250242163 -0.0005427510397272 -0.0000914569219796
-0.0003867332824853 -0.0008993657376229 -0.0006759075925582
-0.0011736468598600 -0.0040952635010584 -0.0003171389121961
-0.0010232069905559 -0.0012176173709225 0.0000114925883414
-0.0010232070217529 -0.0012176174302581 0.0000114925958577
0.0023074102634905 -0.0008237663768807 0.0002206959106708
-0.0010232068061158 -0.0012176168615680 0.0000114926196776
-0.0010232069864431 -0.0012176175592090 0.0000114925682908
-0.0010232071550340 -0.0012176176774734 0.0000114924605987
-0.0004538671807772 -0.0011514591868100 0.0001960807618402
-0.0012291072424777 -0.0024535266533808 0.0003489256872774
0.0014703520229866 -0.0011037964998021 0.0001430240787936
-0.0005417042823873 0.0016726030866133 0.0002693672036047
0.0003265250726001 -0.0005427508097812 -0.0000914568995865
0.0026392410376289 0.0059125532416583 0.0003213389374536
0.0026392409611913 0.0059125528041596 0.0003213389982545
0.0002298683501673 -0.0007542038985513 -0.0001229743269607
0.0016762502544592 0.0001321149179712 -0.0001944057385266
-0.0010232070445906 -0.0012176173004361 0.0000114926080480
-0.0014350075646177 -0.0036894311760616 0.0006863581081609
-0.0000602021436895 0.0045628414543525 0.0005272430012351
0.0004269653374247 -0.0008224811583844 -0.0000850842907398
-0.0001688806173103 -0.0004811680324093 0.0002444619494940
-0.0010232069965078 -0.0012176174203096 0.0000114925879307
-0.0010232069507990 -0.0012176173832505 0.0000114926031463
-0.0010232070735473 -0.0012176174063026 0.0000114926020472
0.0012895228764000 0.0052376975450416 0.0004242906595505
0.0018991926529011 0.0025191043563049 0.0010155112260502
0.0003265250696911 -0.0005427508508477 -0.0000914569297012
0.0012658104407526 0.0029344197171555 0.0002929257685501
0.0031262613467555 0.0137094926205599 0.0004499114100554
-0.0011771431698562 -0.0011120751608699 0.0002937351796112
-0.0010232070393075 -0.0012176173498321 0.0000114925818633
0.0003265250780504 -0.0005427510282213 -0.0000914569157901
0.0012895228319618 0.0052376975130543 0.0004242906665839
-0.0003867332891059 -0.0008993659383868 -0.0006759075963440
-0.0010232069941337 -0.0012176173289408 0.0000114925882471
-0.0010232069988149 -0.0012176176286850 0.0000114925814803
-0.0010232069857744 -0.0012176172981308 0.0000114925920219
-0.0012180909536373 -0.0100220698172762 0.0004049800985367
0.0016762501981843 0.0001321148067460 -0.0001944057348074
-0.0006532236039914 0.0004173999461516 0.0001796157453468
-0.0010232070002862 -0.0012176173547669 0.0000114925633058
-0.0012291072065660 -0.0024535264416409 0.0003489256987017
-0.0005417042017366 0.0016726030585113 0.0002693671938845
0.0003265250680861 -0.0005427510051054 -0.0000914568833383
-0.0010232070257320 -0.0012176172193995 0.0000114926121836
0.0016762502099876 0.0001321149609825 -0.0001944057161004
-0.0000602022290215 0.0045628413662534 0.0005272430153407
-0.0010232071781058 -0.0012176181325294 0.0000114926421930
-0.0010232068672726 -0.0012176171736328 0.0000114926178235
-0.0000602022175191 0.0045628413915745 0.0005272430152575
-0.0010232070399428 -0.0012176173684462 0.0000114926058220
-0.0010232069721654 -0.0012176173475057 0.0000114926080480
-0.0003867332183526 -0.0008993658619471 -0.0006759075548103
-0.0010232070429856 -0.0012176173648473 0.0000114925008223
-0.0010232069579211 -0.0012176174130028 0.0000114925795929
-0.0007072261355239 -0.0007154176844132 0.0001087016729704
-0.0007049693125920 -0.0010584949956345 -0.0003322077712028
0.0003265249973996 -0.0005427508701480 -0.0000914568962669
0.0003265250815947 -0.0005427509856307 -0.0000914569218797
-0.0010232069972434 -0.0012176173601116 0.0000114925944588
-0.0010232069918934 -0.0012176172234843 0.0000114925829013
-0.0014350075526806 -0.0036894309689874 0.0006863581258248
0.0000409980137342 -0.0014503136152915 0.0001259857683145
0.0003265250872122 -0.0005427509420371 -0.0000914569126315
-0.0010232071693118 -0.0012176176772569 0.0000114924957097
0.0016762501438821 0.0001321146500792 -0.0001944057431064
-0.0010232069369225 -0.0012176175093028 0.0000114925579767
-0.0016517313629943 -0.0026601872547212 0.0001116215569227
0.0003531553147278 0.0027053267781398 0.0002997468693732
-0.0010232069666817 -0.0012176172871000 0.0000114925787935
0.0016762501905271 0.0001321147875229 -0.0001944057094946
0.0001120407467722 0.0002567240747956 -0.0001135232589149
-0.0010232069854066 -0.0012176176950391 0.0000114926445079
0.0007193214701812 0.0027139233797982 0.0003815868728501
-0.0005748387799054 -0.0014333751561140 -0.0003190657662847
-0.0030736979243314 -0.0038435624160021 0.0004228227669062
0.0026392410605335 0.0059125528797441 0.0003213389116353
0.0026392409097313 0.0059125527251853 0.0003213390059983
-0.0010232069825644 -0.0012176172906549 0.0000114925986055
-0.0010232069929634 -0.0012176173190768 0.0000114925955135
-0.0005417043462526 0.0016726027160352 0.0002693671696761
-0.0010232070500743 -0.0012176175697926 0.0000114925290775
-0.0010232070077427 -0.0012176173914689 0.0000114926066602
0.0012643601678646 0.0052189731764703 0.0004279543552199
-0.0015578147811355 -0.0025281593593004 0.0000030147586242
-0.0010232069652105 -0.0012176173900171 0.0000114926402724
0.0016762502020964 0.0001321148284997 -0.0001944057085787
0.0014703520808666 -0.0011037964144048 0.0001430240832732
0.0003265251366660 -0.0005427509766696 -0.0000914569269200
0.0003265250489599 -0.0005427510835849 -0.0000914569056149
-0.0015478735782324 0.0060329634514855 0.0013821500404170
-0.0004451112679166 -0.0011910842655356 0.0000419453252086
0.0016762501485633 0.0001321148433021 -0.0001944057266475
0.0003265250576871 -0.0005427509384363 -0.0000914569358574
-0.0010232070299785 -0.0012176173461293 0.0000114925784216
-0.0003867332362081 -0.0008993658388964 -0.0006759075715304
-0.0010232069797557 -0.0012176174006977 0.0000114926039846
0.0007737780633529 0.0049798230998719 0.0003039160667195
-0.0010232069608302 -0.0012176172712595 0.0000114925945587
0.0016762504465900 0.0001321140312050 -0.0001944056200389
0.0003265250938328 -0.0005427509003212 -0.0000914569185601
0.0016762503762379 0.0001321154631656 -0.0001944058603836
0.0021577458665631 0.0030223247680850 0.0000634660171948
-0.0010232070182420 -0.0012176174692708 0.0000114926051281
0.0003265251072412 -0.0005427509207533 -0.0000914569266036
-0.0000602021234599 0.0045628413726059 0.0005272430153182
-0.0010232069697245 -0.0012176174120383 0.0000114925935318
0.0023508697625064 0.0019018871587300 0.0000417117091387
-0.0003867333057577 -0.0008993661395185 -0.0006759075479104
-0.0005926351296340 -0.0021352906590349 -0.0003384749123056
-0.0005417042713196 0.0016726031269003 0.0002693671977371
0.0003265250450812 -0.0005427510562031 -0.0000914569103500
0.0002580322511993 0.0047219497532779 0.0001835412157443
0.0012895228706153 0.0052376975094199 0.0004242906451177
0.0003265250082333 -0.0005427509069838 -0.0000914569152017
-0.0010232069939331 -0.0012176178586452 0.0000114925767174
-0.0010232070531171 -0.0012176174979777 0.0000114925720211
-0.0010232069863428 -0.0012176174971085 0.0000114926005651
0.0023112534309823 0.0022417967331952 -0.0002525583509404
0.0005403493103640 0.0049111289621002 0.0003080852156194
-0.0010232070390400 -0.0012176174217614 0.0000114925790766
0.0003265251194123 -0.0005427510273380 -0.0000914569158067
0.0003265847906224 -0.0005427442515981 -0.0000914548363263
0.0016762501904602 0.0001321149902914 -0.0001944057488240
-0.0010232069637392 -0.0012176171121481 0.0000114926078537
0.0020867952291566 0.0018143882556330 0.0012271520246650
-0.0007049694123689 -0.0010584950594329 -0.0003322077515742
-0.0004420334616617 -0.0003221321291851 0.0001803552460417
0.0010397780257219 -0.0001861160257745 0.0004929916272278
-0.0000602021692021 0.0045628413839486 0.0005272430024786
-0.0018743270271905 0.0014480468973134 -0.0011343169933337
0.0016762502481730 0.0001321150766004 -0.0001944057127308
-0.0010232068924174 -0.0012176172568006 0.0000114925269126
-0.0010232070900653 -0.0012176167628245 0.0000114926855196
-0.0005417042737605 0.0016726029448097 0.0002693671773256
-0.0002234682897639 0.0018317182561902 -0.0000743338735543
0.0002974288686045 -0.0005109871423821 -0.0000957048465654
0.0003265250965412 -0.0005427508781909 -0.0000914569177163
0.0006800519515139 -0.0007449775725536 -0.0000108001444386
0.0026392410556851 0.0059125532629510 0.0003213389786315
0.0020882787827620 0.0090105101065705 0.0007286047658726
-0.0010232069525712 -0.0012176173125794 0.0000114925993549
0.0012761142305273 0.0052505425185313 0.0004197620656812
0.0002144110323269 0.0011695046796090 -0.0001784373715055
0.0021577459593851 0.0030223251092097 0.0000634660221186
0.0016762501364256 0.0001321148222946 -0.0001944057151512
0.0003265250289644 -0.0005427509953451 -0.0000914569196592
-0.0010232070281395 -0.0012176173249229 0.0000114925824406
-0.0000602021306824 0.0045628411549387 0.0005272430155291
-0.0000602021438901 0.0045628414385963 0.0005272429909377
-0.0010232069871453 -0.0012176173609000 0.0000114925535636
0.0016762501990202 0.0001321148775314 -0.0001944056969714
0.0016762502373728 0.0001321148476223 -0.0001944057709227
0.0016762500654716 0.0001321148107905 -0.0001944057608699
-0.0007049693870903 -0.0010584950243219 -0.0003322077252840
0.0012644538724323 -0.0023397030112084 0.0004804531424941
0.0003288789884689 -0.0005364287909776 -0.0000930975022556
0.0000623178712954 0.0003632281682817 -0.0005020190158127
-0.0010232070740489 -0.0012176172885182 0.0000114925601972
-0.0010232070696017 -0.0012176173312883 0.0000114925959965
0.0016762502010599 0.0001321147605160 -0.0001944057302889
0.0012895229129135 0.0052376973282382 0.0004242906810775
-0.0003867334095137 -0.0008993663805163 -0.0006759075422040
0.0026392410546151 0.0059125532486836 0.0003213389776767
-0.0010232069621008 -0.0012176173833085 0.0000114925650933
-0.0002234682503413 0.0018317182714816 -0.0000743338753973
0.0016762501511045 0.0001321148506548 -0.0001944057515495
-0.0010232070874572 -0.0012176176732341 0.0000114925179475
-0.0010232070182420 -0.0012176172576626 0.0000114925831622
0.0026392410354221 0.0059125531667789 0.0003213389703826
0.0004928169843463 -0.0001614856130548 -0.0001887973768127
-0.0010232069482577 -0.0012176173145646 0.0000114925858434
-0.0003867333273248 -0.0008993661016725 -0.0006759075819166
-0.0010232071820848 -0.0012176176946514 0.0000114926234913
-0.0010232069742051 -0.0012176173385128 0.0000114926080979
-0.0032105490934968 -0.0028596426880961 -0.0003305095351608
-0.0024989389858540 -0.0028309511377941 0.0003726630581103
0.0012895228836893 0.0052376975838786 0.0004242906290916
-0.0017974051037576 -0.0076710413932432 0.0004117450782436
-0.0010232070010887 -0.0012176173238900 0.0000114925899402
-0.0014350078071719 -0.0036894315104140 0.0006863580872615
-0.0004706893454794 0.0014176181523072 -0.0000183782611806
-0.0000602021473676 0.0045628414632768 0.0005272430277362
0.0006291573721062 -0.0001664086824734 0.0001500576635736
-0.0010232070210173 -0.0012176174198608 0.0000114926020361
0.0010397780222444 -0.0001861161286863 0.0004929916562488
0.0005313137882113 -0.0003531434906854 -0.0000388700786957
0.0016762501404715 0.0001321146100017 -0.0001944057387487
0.0016762502749897 0.0001321149140818 -0.0001944057067856
0.0017436661263281 0.0096226246064678 0.0001932624787734
0.0003265250780170 -0.0005427510929791 -0.0000914568735573
-0.0010232070771920 -0.0012176175351777 0.0000114926224976
0.0016762502995996 0.0001321150392682 -0.0001944057120758
0.0002891809455022 0.0010020120273068 0.0001872650995036
-0.0006651855439674 -0.0013248149832540 0.0000580930831198
0.0008737886119050 0.0008153754898849 -0.0003221479974449
-0.0003867332716517 -0.0008993658253400 -0.0006759075560762
0.0003265249854625 -0.0005427509476737 -0.0000914569221184
0.0016762501383315 0.0001321146986410 -0.0001944057447273
0.0026392409176225 0.0059125525428951 0.0003213390032893
-0.0010232070089799 -0.0012176174969131 0.0000114925941424
-0.0010232071530947 -0.0012176179606977 0.0000114926461010
-0.0000602022152788 0.0045628410632600 0.0005272430428963
-0.0005417043157912 0.0016726028588084 0.0002693671977260
-0.0010232070284070 -0.0012176172727745 0.0000114925794707
-0.0010232070043990 -0.0012176173059587 0.0000114925607023
-0.0010232070262670 -0.0012176177044948 0.0000114925509768
-0.0014350076571387 -0.0036894318300422 0.0006863581083994
-0.0010232070860194 -0.0012176175510887 0.0000114925316088
-0.0000852734801098 -0.0030145673055254 0.0005834052753680
-0.0010232070441225 -0.0012176174736828 0.0000114925751797
-0.0010232069564499 -0.0012176174428114 0.0000114925992161
0.0003265250839688 -0.0005427509252954 -0.0000914569188210
-0.0002757748775454 -0.0004977055621428 0.0002070965748460
-0.0000816906096934 0.0018205756262188 -0.0000720092563088
-0.0010232069116105 -0.0012176171872066 0.0000114926326284
-0.0010232070126914 -0.0012176175058462 0.0000114926026856
0.0003265250896866 -0.0005427510111506 -0.0000914569216076
-0.0010232068783403 -0.0012176173343175 0.0000114926211709
0.0016762502225935 0.0001321148712662 -0.0001944057242049
-0.0010232069967753 -0.0012176175079510 0.0000114925591536
-0.0007049694109646 -0.0010584954643680 -0.0003322077247121
-0.0010232070422834 -0.0012176173530157 0.0000114926081257
-0.0010232069806251 -0.0012176172193011 0.0000114925922383
0.0026392410280993 0.0059125531523374 0.0003213389647538
-0.0010232069753085 -0.0012176172616031 0.0000114925932376
0.0005214984204504 0.0015564781840313 0.0000046147920711
0.0000209403008563 -0.0005783858420709 0.0002616292869121
-0.0010232070158680 -0.0012176173229625 0.0000114925696175
0.0016649677901316 0.0000050953688382 -0.0002034910889068
0.0008653753872091 -0.0015174057348907 -0.0007564995965974
-0.0010232069464856 -0.0012176170627029 0.0000114925979727
0.0003265250528052 -0.0005427510381698 -0.0000914569164118
0.0003265242307825 -0.0005427525375555 -0.0000914566923529
-0.0010232069587905 -0.0012176176228441 0.0000114925963684
0.0016762501902596 0.0001321148423956 -0.0001944057266474
-0.0010232070996953 -0.0012176175139449 0.0000114926109235
-0.0010232070351279 -0.0012176173875989 0.0000114926009481
0.0016762502759594 0.0001321148864519 -0.0001944057125975
-0.0010232071405891 -0.0012176175375551 0.0000114925922106
0.0003265250348160 -0.0005427511978953 -0.0000914569067862
-0.0010232070979900 -0.0012176175033241 0.0000114926118672
-0.0010232070029946 -0.0012176173497776 0.0000114925870036
-0.0010232070620114 -0.0012176176686004 0.0000114925563447
-0.0010232067342590 -0.0012176165126304 0.0000114926975989
-0.0000160128526701 -0.0012921248704752 -0.0002031509948786
0.0002787632090850 -0.0033986077343163 -0.0005565089667409
-0.0010232070244948 -0.0012176174191533 0.0000114925605691
-0.0005417042908135 0.0016726028717697 0.0002693671708307
-0.0010232070260329 -0.0012176175279114 0.0000114925822574
-0.0010232070100833 -0.0012176173630734 0.0000114926077593
-0.0003867331451249 -0.0008993656555219 -0.0006759076672593
-0.0000602021732146 0.0045628411307371 0.0005272430237004
0.0016762502415859 0.0001321148707329 -0.0001944057374276
-0.0010232071377804 -0.0012176179532518 0.0000114926496926
-0.0010232070694680 -0.0012176174428463 0.0000114925731424
-0.0010232070385050 -0.0012176172961368 0.0000114926136768
-0.0010232070257988 -0.0012176173616690 0.0000114925904453
0.0003265250178632 -0.0005427509358932 -0.0000914568858475
0.0013254870968086 0.0067854147960817 0.0000392527948331
0.0016762502924440 0.0001321149650616 -0.0001944057131804
-0.0010232070456272 -0.0012176174924870 0.0000114926425705
0.0012895228826862 0.0052376972280625 0.0004242906568247
-0.0012291072775199 -0.0024535266315848 0.0003489256812489
-0.0010232070252304 -0.0012176173923681 0.0000114925793153
0.0010508788148767 0.0025889075088057 -0.0002157699710872
-0.0010232070515121 -0.0012176174270357 0.0000114925825350
-0.0002871581916918 0.0015476063019051 -0.0005205703593949
-0.0010232070144970 -0.0012176176013173 0.0000114925954247
-0.0010232070274038 -0.0012176176458982 0.0000114925780829
-0.0010232070108858 -0.0012176173444276 0.0000114926100575
0.0016762503030102 0.0001321150128755 -0.0001944057204412
-0.0007452019397774 -0.0037034075460070 -0.0003241765431183
-0.0010232072200696 -0.0012176179421309 0.0000114925084495
0.0000232187894226 -0.0002916416820277 -0.0002216015571309
-0.0004379647342739 -0.0069959558451631 0.0009484748603210
-0.0010232073027600 -0.0012176176017952 0.0000114925396468
-0.0010232070282398 -0.0012176174725741 0.0000114926077427
-0.0010232069359528 -0.0012176173108249 0.0000114925744525
-0.0004920460926462 0.0017144686356524 0.0002820311599843
-0.0000602021890973 0.0045628412860202 0.0005272430485475
0.0003265250131820 -0.0005427512817705 -0.0000914569032890
-0.0010232071468753 -0.0012176177755456 0.0000114926371859
0.0003265725505963 -0.0005426941480048 -0.0000914417825633
0.0016762500670432 0.0001321147059833 -0.0001944056965163
-0.0005417042647993 0.0016726028070872 0.0002693671896268
0.0016762501579257 0.0001321147216142 -0.0001944057408304
-0.0000602020781524 0.0045628412813822 0.0005272430000414
0.0003265250594593 -0.0005427510431432 -0.0000914568816286
-0.0014350075767889 -0.0036894314135691 0.0006863580802941
-0.0000602021380386 0.0045628412089248 0.0005272430051263
-0.0010564400734182 -0.0013148304927351 0.0001900619904255
0.0012895228398864 0.0052376974099886 0.0004242906635252
-0.0010232071892070 -0.0012176177436954 0.0000114925593146
0.0012895228949577 0.0052376975812123 0.0004242906306182
0.0003265646742386 -0.0005428914752370 -0.0000914831953569
-0.0005417042468435 0.0016726028927930 0.0002693671727791
-0.0005417042019038 0.0016726031346998 0.0002693671798180
-0.0000855689967646 -0.0005287556426919 -0.0000229604027730
0.0000947662206173 0.0019908405712289 -0.0004180344231247
-0.0010232070380035 -0.0012176172296771 0.0000114925788712
-0.0010232070144970 -0.0012176176577914 0.0000114925834620
0.0002909477452415 -0.0004363362539900 -0.0000312672468809
0.0016762503056518 0.0001321150383971 -0.0001944057365394
0.0002580322200357 0.0047219496013635 0.0001835412128133
0.0003265250404334 -0.0005427508962821 -0.0000914569053318
0.0014703520796963 -0.0011037963011135 0.0001430240543744
-0.0010232070431194 -0.0012176174453278 0.0000114925907895
-0.0000602021570310 0.0045628411725535 0.0005272430128979
-0.0000602022178534 0.0045628407633606 0.0005272430425742
-0.0003483401625180 -0.0008801840529204 -0.0000399822475758
0.0016762501582936 0.0001321147589639 -0.0001944057189037
-0.0010232070411466 -0.0012176175948778 0.0000114925996325
-0.0010232071071184 -0.0012176175799346 0.0000114925379760
-0.0010232070429856 -0.0012176173110974 0.0000114926161970
0.0012895228848262 0.0052376975634428 0.0004242906528615
0.0016762501795262 0.0001321147554089 -0.0001944057154398
-0.0007049695840026 -0.0010584953735090 -0.0003322077070710
0.0016762502395128 0.0001321149121936 -0.0001944057530483
-0.0008901043199827 -0.0004724742427775 -0.0001913599237270
0.0026392410115144 0.0059125529862189 0.0003213389732191
-0.0003867333260541 -0.0008993662806335 -0.0006759075127829
-0.0010232072968082 -0.0012176175008263 0.0000114925486397
0.0006447606720678 -0.0003836269284837 -0.0004351560433872
-0.0010232070734136 -0.0012176175448025 0.0000114926170797
-0.0010232070802682 -0.0012176173253522 0.0000114926224032
0.0003265249687104 -0.0005427511166156 -0.0000914569010520
0.0012895228445008 0.0052376975559671 0.0004242906523342
0.0016762500666419 0.0001321152731922 -0.0001944058502477
-0.0005417044324205 0.0016726029993823 0.0002693671115504
-0.0003867332798772 -0.0008993660994587 -0.0006759075784471
-0.0010232070375353 -0.0012176175006721 0.0000114925566556
-0.0010448553140253 -0.0014613217361233 -0.0000059376459138
-0.0010232069333781 -0.0012176173491161 0.0000114925943089
-0.0010232070935763 -0.0012176174815475 0.0000114926046396
0.0016762501979836 0.0001321148770298 -0.0001944057540919
-0.0010232070559259 -0.0012176177066206 0.0000114925934540
0.0003265249826872 -0.0005427513691145 -0.0000914569023786
0.0016762501387327 0.0001321148264003 -0.0001944057638174
-0.0010232070477003 -0.0012176175551347 0.0000114925589759
-0.0010232070114542 -0.0012176178722648 0.0000114926202327
0.0003265249758326 -0.0005427511130713 -0.0000914569087347
-0.0010232070002193 -0.0012176173390776 0.0000114925993327
-0.0000602020777177 0.0045628413094365 0.0005272430045656
0.0024658815934220 -0.0000694761834506 0.0004541126702195
-0.0010232069810932 -0.0012176174426741 0.0000114924840356
-0.0009985784585381 -0.0013600802045894 0.0000091522683770
0.0016762501381309 0.0001321145245707 -0.0001944057510666
-0.0010232070906338 -0.0012176176188876 0.0000114925742194
-0.0010232070290423 -0.0012176174043370 0.0000114925335073
0.0003265250063608 -0.0005427513345613 -0.0000914568927918
0.0012644537914472 -0.0023397034436382 0.0004804531515700
0.0016762501672882 0.0001321149518471 -0.0001944057350462
0.0016762500829927 0.0001321141262617 -0.0001944056963995
-0.0016575919771276 0.0005133661693407 -0.0000240994693254
-0.0009009384182811 -0.0008146922943338 0.0000587989786137
-0.0010232070225554 -0.0012176171882288 0.0000114925888522
-0.0010232071997397 -0.0012176176372867 0.0000114926568147
0.0012895228384486 0.0052376971834551 0.0004242906829317
-0.0010232069927962 -0.0012176176598892 0.0000114926226031
-0.0011453636046714 0.0008583848405114 0.0001399991419529
-0.0010232070908344 -0.0012176172715037 0.0000114925959298
-0.0010232070924394 -0.0012176180332555 0.0000114926157974
0.0003265250513674 -0.0005427510938449 -0.0000914569198979
-0.0010232069881819 -0.0012176173000684 0.0000114925784271
0.0016762500745665 0.0001321147295427 -0.0001944057575337
0.0016762501365927 0.0001321146884760 -0.0001944057412134
0.0012726624280575 0.0030543756977188 0.0004909001216505
-0.0000602022110657 0.0045628409426994 0.0005272430030446
-0.0010232069182310 -0.0012176176841844 0.0000114925892185
0.0016762502067442 0.0001321149014356 -0.0001944057011181
0.0016762503015055 0.0001321150556156 -0.0001944057364062
-0.0010232071369779 -0.0012176174187095 0.0000114926109179
0.0016762501621388 0.0001321143422677 -0.0001944056864187
0.0003866529504653 -0.0036428873958248 0.0012884594030094
0.0003265250521365 -0.0005427509326833 -0.0000914568971995
-0.0000602021672628 0.0045628411249066 0.0005272430163340
0.0003265250148873 -0.0005427510426960 -0.0000914568646645
0.0016762501890224 0.0001321147342271 -0.0001944057762294
-0.0014350076700121 -0.0036894313135753 0.0006863580827481
-0.0008182825185197 -0.0015288269039132 -0.0002235279584016
-0.0007049693765241 -0.0010584953122838 -0.0003322077657405
-0.0010232071219311 -0.0012176173855009 0.0000114926104738
-0.0010232070620783 -0.0012176174249801 0.0000114925677134
-0.0006069002937899 0.0012685069094792 -0.0000389258374650
0.0003265250431753 -0.0005427509726006 -0.0000914569262817
-0.0010232069797557 -0.0012176172851254 0.0000114925985888
0.0003265250264901 -0.0005427510581600 -0.0000914568539952
-0.0010232070233245 -0.0012176177113072 0.0000114925786603
-0.0007462643931345 0.0001762827888041 0.0002730223538851
-0.0000136264288869 -0.0013845530318874 0.0007438634289021
0.0006447606505676 -0.0003836270558013 -0.0004351559689859
-0.0010232070442228 -0.0012176175865976 0.0000114925807475
0.0003265249899097 -0.0005427509415528 -0.0000914569182382
0.0021577456944947 0.0030223253941451 0.0000634660227572
0.0016762501306743 0.0001321145609102 -0.0001944057598484
-0.0010232069821966 -0.0012176172271642 0.0000114925817911
-0.0010232071242717 -0.0012176173317316 0.0000114926255618
-0.0010232071163136 -0.0012176177055363 0.0000114926163081
0.0003265247654785 -0.0005427512477639 -0.0000914568208775
-0.0010232070947131 -0.0012176175808427 0.0000114926199330
0.0003388941046335 0.0007209061769230 -0.0003342166283431
0.0026392410235184 0.0059125530063923 0.0003213389626887
0.0003515970388120 0.0070346984674959 -0.0001476274093634
0.0016762501024198 0.0001321148703109 -0.0001944057653218
-0.0019862141564666 -0.0069980039282217 -0.0005042528807587
0.0014703520523112 -0.0011037965887423 0.0001430240402636
0.0016762500511270 0.0001321148146094 -0.0001944058209546
0.0016762499407839 0.0001321149365545 -0.0001944057405529
0.0002580330116304 0.0047218723103044 0.0001835265521865
-0.0007049693640520 -0.0010584950382267 -0.0003322077198494
0.0004155719842292 -0.0015834669753932 -0.0005482432097086
-0.0010232071171161 -0.0012176179272973 0.0000114926165468
0.0016762502415859 0.0001321145963237 -0.0001944057083288
0.0016762501822681 0.0001321149791514 -0.0001944057304166
0.0010068916264144 0.0012435205415180 -0.0004215025343208
-0.0014350076388485 -0.0036894318900412 0.0006863581088434
-0.0003867332507533 -0.0008993658107155 -0.0006759075588517
0.0016762502172435 0.0001321143260662 -0.0001944056649417
-0.0002991144206431 0.0009651900722557 0.0007415172376525
0.0021577458698065 0.0030223246602663 0.0000634660075525
0.0016762501964790 0.0001321147887865 -0.0001944057379715
-0.0000602021245968 0.0045628414042943 0.0005272430312833
-0.0016847254992690 -0.0049948688844022 -0.0000886247605347
-0.0021919689599935 -0.0088756911231258 0.0000154410384613
-0.0005417044757218 0.0016726031517524 0.0002693672311386
0.0003265250674508 -0.0005427509110827 -0.0000914569178829
0.0016762502206541 0.0001321147402915 -0.0001944057701344
-0.0010232071240376 -0.0012176179136513 0.0000114926123057
0.0016762502985965 0.0001321150155610 -0.0001944058479437
-0.0007049693788982 -0.0010584952469839 -0.0003322077420705
-0.0012291075872163 -0.0024535266495788 0.0003489257489900
0.0016762499253359 0.0001321142512638 -0.0001944059018892
-0.0010232070901657 -0.0012176181276319 0.0000114925967071
-0.0034160991348635 -0.0032050142929475 0.0004995287881825
-0.0011167716471613 -0.0035303248648496 0.0003426572993327
-0.0000602020388301 0.0045628414217535 0.0005272430319326
-0.0005417043703275 0.0016726024356363 0.0002693671929797
-0.0010232070257988 -0.0012176172492434 0.0000114925615295
-0.0020699574574923 -0.0014011790545552 -0.0000051648608905
-0.0003867332797100 -0.0008993658559828 -0.0006759075636646
0.0016762500945621 0.0001321141897102 -0.0001944057087008
0.0020880463888829 0.0026039504387494 -0.0008692672791402
0.0007132573063244 -0.0056482507479685 -0.0007101453421359
0.0012895228907446 0.0052376971758785 0.0004242906801727
-0.0010232071449360 -0.0012176181215708 0.0000114926324064
0.0005762650432040 0.0048810642914234 -0.0001601599504458
-0.0010232068580105 -0.0012176168082914 0.0000114926500590
0.0003265250112092 -0.0005427509670569 -0.0000914568840933
-0.0000602022363443 0.0045628410400069 0.0005272430290740
-0.0003867333489921 -0.0008993660934592 -0.0006759075856582
-0.0009764712496969 -0.0027430285151220 -0.0003103964498072
-0.0010232070964853 -0.0012176172589348 0.0000114925597364
-0.0010232070849160 -0.0012176173714132 0.0000114926314738
0.0002079144164243 -0.0009152118283561 0.0003779001005090
-0.0008293423409915 -0.0003954397050015 -0.0007395922979013
-0.0010232069756763 -0.0012176174661067 0.0000114926392010
-0.0010232069485921 -0.0012176171116518 0.0000114925997213
0.0016762501344862 0.0001321144284080 -0.0001944057144072
0.0005302113220037 -0.0003644491560397 -0.0001287045397772
-0.0010232072627356 -0.0012176175803319 0.0000114924842632
0.0016762499527879 0.0001321147661236 -0.0001944057842510
0.0016762501454202 0.0001321147363655 -0.0001944057765682
-0.0010232070338238 -0.0012176176503313 0.0000114925910893
-0.0007985371417288 -0.0033712115576750 -0.0000010429399667
-0.0010232072288636 -0.0012176175521266 0.0000114925381925
-0.0010232071915476 -0.0012176177113525 0.0000114925013218
0.0021577458082150 0.0030223243758199 0.0000634660295570
-0.0010232071623234 -0.0012176181204796 0.0000114926288703
-0.0003867333838004 -0.0008993664886303 -0.0006759075374799
0.0005227232940753 0.0018657355851346 0.0005318416705858
0.0016762501489311 0.0001321143510582 -0.0001944057313269
-0.0010232069582889 -0.0012176168719015 0.0000114924425686
-0.0000602022173519 0.0045628408506137 0.0005272430745432
-0.0010232071188883 -0.0012176178128390 0.0000114925940092
0.0016762501367934 0.0001321143027200 -0.0001944058350321
-0.0010232070708055 -0.0012176178266805 0.0000114926197387
0.0016762500871055 0.0001321145723108 -0.0001944056664017
-0.0010232071638280 -0.0012176176254464 0.0000114925378872
-0.0010229171039072 -0.0012175348301367 0.0000115163635590
-0.0010232071382819 -0.0012176172810562 0.0000114926711699
-0.0010232070790310 -0.0012176174630390 0.0000114925387809
0.0030050961831522 0.0032668807986590 0.0001231524061088
-0.0010232070727114 -0.0012176176627312 0.0000114925881472
0.0016762501507702 0.0001321142095138 -0.0001944056965605
0.0016762501528098 0.0001321144854488 -0.0001944057202026
0.0002840359419764 -0.0010277459133268 0.0000434749704377
-0.0010232071070849 -0.0012176179149430 0.0000114925312703
-0.0001325343416277 0.0009555795547351 -0.0006476533886838
-0.0010232071392851 -0.0012176182682698 0.0000114926292034
0.0010335382289469 0.0047473539297162 0.0005467123238250
-0.0010232070408456 -0.0012176181741066 0.0000114925387365
0.0016762501012830 0.0001321142099328 -0.0001944057362063
-0.0007049695273598 -0.0010584953859726 -0.0003322076464859
-0.0010232071854954 -0.0012176181980299 0.0000114926342716
-0.0003745226873671 0.0004762742608363 -0.0003108758593667
0.0016762501258259 0.0001321143776165 -0.0001944056936241
-0.0010232071786742 -0.0012176182835612 0.0000114926310131
0.0003265250387616 -0.0005427509845589 -0.0000914568740958
-0.0010232069561824 -0.0012176172281005 0.0000114925880028
-0.0010232068391853 -0.0012176167891440 0.0000114925872867
-0.0010232070974216 -0.0012176177034122 0.0000114925880750
0.0010276929224115 0.0002749879813649 0.0007763749324966
-0.0010232072341467 -0.0012176181397570 0.0000114924720618
-0.0010232070299785 -0.0012176173566815 0.0000114926003541
-0.0010232071836229 -0.0012176177689847 0.0000114925483566
0.0016762500404605 0.0001321135456586 -0.0001944056689161
-0.0026689339495124 -0.0008327059207971 -0.0003062961439616
0.0003265248196135 -0.0005427511505736 -0.0000914568671570
0.0016762502564320 0.0001321152131644 -0.0001944058409106
-0.0010232071460394 -0.0012176180157957 0.0000114926520852
-0.0003867334659893 -0.0008993660016659 -0.0006759076633798
-0.0010232070708389 -0.0012176175136880 0.0000114925967348
-0.0010232069859750 -0.0012176175142760 0.0000114924791228
0.0003265248706054 -0.0005427512697432 -0.0000914568620610
0.0016762500892121 0.0001321148583421 -0.0001944056956448
-0.0010232070819735 -0.0012176176646547 0.0000114925803867
0.0016762500192612 0.0001321145450101 -0.0001944058309799
-0.0025704926069290 -0.0046515152086060 -0.0004957276398460
-0.0010232071910126 -0.0012176175248840 0.0000114926697433
-0.0010232071261108 -0.0012176180837988 0.0000114926420099
0.0003264582567743 -0.0005432481643182 -0.0000915527215557
-0.0021423648790665 0.0025563252439580 0.0000309435718552
-0.0000602018952838 0.0045628421137287 0.0005272430377280
-0.0003867334067718 -0.0008993664050418 -0.0006759075626932
-0.0000602022455061 0.0045628410198035 0.0005272430368790
0.0003253530072789 -0.0005405620009740 -0.0000910472964041
-0.0005417045954274 0.0016726032272533 0.0002693672432513
-0.0010232071024371 -0.0012176182835702 0.0000114926118783
0.0026392409755693 0.0059125527527059 0.0003213389586586
0.0003265244811611 -0.0005427508061736 -0.0000914566813229
-0.0010232069337459 -0.0012176172691477 0.0000114926576585
0.0016762501782891 0.0001321145204155 -0.0001944057358677
0.0014703519258513 -0.0011037964259316 0.0001430239634868
-0.0010232071817504 -0.0012176174252121 0.0000114926131106
-0.0010232071423947 -0.0012176176523513 0.0000114926897218
-0.0002869731217298 -0.0089982874012060 -0.0003911314420704
-0.0010232070252973 -0.0012176177404084 0.0000114926547331
-0.0010232073054685 -0.0012176176177765 0.0000114925382036
-0.0015583676348284 0.0018119216363854 -0.0005418899395842
-0.0010232070280057 -0.0012176178475667 0.0000114926269496
-0.0010232071788748 -0.0012176175972550 0.0000114926633040
-0.0007049695715974 -0.0010584955041106 -0.0003322076663256
-0.0010232069465190 -0.0012176175844685 0.0000114925204899
-0.0010232070812713 -0.0012176177207276 0.0000114925482955
0.0026392410035898 0.0059125527452227 0.0003213389910602
0.0024150170323543 0.0081063151770650 0.0006098741176059
0.0003265250127473 -0.0005427512228731 -0.0000914568853645
-0.0010232076780938 -0.0012176180809445 0.0000114925001561
-0.0018623222795738 -0.0031021910887844 -0.0004933337515528
-0.0010232071752970 -0.0012176181044947 0.0000114925333464
-0.0002807084926405 0.0022056993751983 0.0003973261958232
-0.0010232072605287 -0.0012176178074376 0.0000114925304376
-0.0003867330803568 -0.0008993656612487 -0.0006759076493234
-0.0010232072635715 -0.0012176176950823 0.0000114925221108
-0.0010232072866433 -0.0012176178742280 0.0000114924607542
0.0016762500197628 0.0001321143947244 -0.0001944057819862
0.0003264536410889 -0.0005429038149109 -0.0000914869873529
-0.0010232072559478 -0.0012176163472894 0.0000114925108364
0.0002581235363106 0.0047218824523398 0.0001835296202395
-0.0010232066438111 -0.0012176174242914 0.0000114926529179
-0.0027606435348711 -0.0011958005615067 0.0003245230818421
0.0016762500911849 0.0001321142586337 -0.0001944056828050
-0.0007049702131589 -0.0010584957995009 -0.0003322076245765
-0.0005417045207619 0.0016726033633299 0.0002693671797074
0.0019177517509084 0.0101564007789633 0.0004463756268927
-0.0007088510791716 -0.0010571809965299 -0.0003320088925364
0.0003264882044278 -0.0005428542088230 -0.0000914771452334
0.0003682103225135 -0.0005272754935414 -0.0000879946784710
0.0016762499978279 0.0001321144245754 -0.0001944057496401
-0.0000602019602859 0.0045628414884068 0.0005272429889222
-0.0010232074759653 -0.0012176172184585 0.0000114926151922
-0.0005417044564285 0.0016726029522196 0.0002693671315123
0.0016762500295599 0.0001321138317410 -0.0001944056856693
0.0021577456666749 0.0030223255503252 0.0000634659466853
-0.0017106108485047 -0.0053437220260661 0.0000910518564060
0.0003264873890257 -0.0005428042709434 -0.0000914674419790
0.0016762500678122 0.0001321141379631 -0.0001944058670172
-0.0010232072453482 -0.0012176176449244 0.0000114925556452
-0.0000779878922879 -0.0013712336227279 0.0008628820373116
-0.0003867334856504 -0.0008993660916320 -0.0006759076391325
0.0009186499490712 0.0008656602282316 -0.0000239160445908
-0.0010232068835231 -0.0012176178696323 0.0000114925790767
-0.0010232070979231 -0.0012176181826031 0.0000114925514320
0.0016762499974936 0.0001321147946421 -0.0001944058907982
0.0012896750751178 0.0052375118913891 0.0004242570497666
-0.0005417043924964 0.0016726030286401 0.0002693672672097
0.0005396092682887 0.0024276963715696 -0.0001754464869408
-0.0003867334162680 -0.0008993668232550 -0.0006759075026909
-0.0010232071030725 -0.0012176175762160 0.0000114926571755
0.0016762501133538 0.0001321142188870 -0.0001944057888694
-0.0005417043608981 0.0016726034598460 0.0002693673058512
-0.0001010015607012 0.0037260406327781 0.0004739145683605
0.0016762499250349 0.0001321146456924 -0.0001944057949979
0.0003256173942382 -0.0005446039850123 -0.0000918236272451
0.0016762502011936 0.0001321145991220 -0.0001944058142542
0.0016762501121166 0.0001321141791791 -0.0001944056496262
-0.0010232071079543 -0.0012176183664811 0.0000114926293200
0.0016762503250454 0.0001321152399212 -0.0001944058831930
0.0003407436224789 0.0033970161035624 -0.0007911527959718
-0.0010232069099052 -0.0012176176521848 0.0000114925216501
-0.0010232071682752 -0.0012176176430310 0.0000114924860507
-0.0010187177273751 -0.0091748209448776 -0.0003891475147708
0.0016762500423999 0.0001321137311504 -0.0001944057023558
-0.0010232071204933 -0.0012176181459925 0.0000114926388624
0.0005220827630893 0.0099746430888248 0.0004556261773979
0.0016762499993326 0.0001321144551214 -0.0001944057476250
0.0003265248765572 -0.0005427512105712 -0.0000914568587581
0.0003265247497629 -0.0005427512160599 -0.0000914568223985
-0.0003867334534837 -0.0008993657432311 -0.0006759075869243
-0.0003867334293085 -0.0008993669016272 -0.0006759074812969
0.0003265627544358 -0.0005427467944189 -0.0000914555994350
-0.0000601090078234 0.0045626491653917 0.0005272074065391
-0.0004333072884076 0.0003713688333303 -0.0002696791337582
0.0000825551881391 0.0011524649145182 -0.0007436300540832
-0.0003867335064484 -0.0008993652010808 -0.0006759076102839
0.0003265254726440 -0.0005427998618729 -0.0000914661914709
-0.0017106109386851 -0.0053437222082379 0.0000910519022306
0.0016762501709663 0.0001321147950939 -0.0001944058720575
-0.0010232072839348 -0.0012176176910927 0.0000114925020268
0.0016762500814881 0.0001321141340544 -0.0001944058000715
-0.0007557192095532 -0.0002058649028542 0.0001573730821239
-0.0034031036666376 -0.0052083204247540 0.0003026071992235
-0.0010232075819615 -0.0012176172392335 0.0000114927003800
-0.0019235713367002 -0.0035538957708101 -0.0008412722599663
0.0003248948204459 -0.0005429375433073 -0.0000915113214724
0.0003253862081146 -0.0005428863866093 -0.0000914933938860
0.0003249926838787 -0.0005446762343124 -0.0000918441611887
-0.0010232075687538 -0.0012176174989495 0.0000114926887947
-0.0010232075463508 -0.0012176173118211 0.0000114926953284
0.0003249970385860 -0.0005449630130355 -0.0000918995017968
0.0003201310164665 -0.0005518681329891 -0.0000932808098337
0.0003249239645675 -0.0005449717319345 -0.0000919018276412
0.0003235954078139 -0.0005447723213338 -0.0000918796806399
-0.0010271136388033 -0.0012157578995419 0.0000118161027972
0.0001464154634979 0.0050198115701509 0.0004117437596583
0.0012894993441615 0.0052391360749356 0.0004245702925337
0.0003235683804743 -0.0005430928339780 -0.0000915538049131
-0.0006977460745758 -0.0010604304374687 -0.0003322719011922
0.0012887065550730 0.0051928560993469 0.0004156877305182
0.0012907365802934 0.0052287767738441 0.0004226052684318
0.0003269181622179 -0.0005469993804484 -0.0000914383619622
-0.0010156723788117 -0.0012052020372793 0.0000135797644835
0.0012882066424967 0.0052284997388395 0.0004225177054688
-0.0007051592021736 -0.0010621324871770 -0.0003322757011084
-0.0002634022359885 -0.0037183486481702 0.0005155819313759
0.0010210438367817 0.0042209056031589 0.0004071143665808
-0.0006307429427932 -0.0007812349458292 0.0001161346607236
0.0002819785913228 -0.0002234895472617 0.0000177272209991
-0.0002838555374545 0.0002555330579002 0.0000720823010361
-0.0000239291260978 0.0020211219049484 0.0000779866295201
0.0000975252754372 0.0024284210861345 -0.0008918462243845
0.0011308266449196 0.0036220013170246 -0.0003007470487254
0.0015275640645309 0.0107543311854752 -0.0001491596259735
0.0011286819603407 0.0102815155819158 -0.0000404280012878
0.0008374332416435 0.0056667233142836 0.0005914737698172
-0.0007436619552039 0.0000767103422530 -0.0004009684637328
0.0005953387555348 -0.0022144804727116 0.0003506080293693
0.0009870881466564 -0.0005112672787314 0.0001916615433648
-0.0005965712959658 -0.0029201347019267 -0.0007495683097142
-0.0003200284234274 -0.0002570287325074 0.0000335643874150
0.0004738088238776 0.0023672545024085 -0.0001938657128264
-0.0002856071174357 -0.0027163371897377 0.0001416255340088
0.0015084300306009 0.0103306599401012 0.0006259173762842
-0.0003738098764317 -0.0026529750006534 -0.0002576150877485
-0.0003374867845375 -0.0024820444632182 0.0003523334949245
-0.0000019671209239 -0.0020186789348450 -0.0003142825356373
-0.0009126322480205 -0.0025725766614694 -0.0002232847868244
-0.0004632577024759 -0.0003378727946128 -0.0000003720432276
-0.0001011769893174 -0.0009435483692206 -0.0005372483895970
-0.0006438656878106 -0.0020099551179606 -0.0000825102226558
0.0027641965081578 0.0138909997158471 -0.0003042969819611
-0.0004683462992757 -0.0031904839549348 -0.0001111904151902
-0.0010942045263229 -0.0081610353249242 -0.0001153632105846
-0.0005096692156719 -0.0028162804834357 -0.0001275992488528
-0.0009281823108449 -0.0035439173943738 -0.0000602038465269
-0.0009053972132565 -0.0058658527497456 0.0009036849232349
0.0024836119389151 0.0138929174642065 -0.0003621838188790
-0.0005095038328924 -0.0003731161366723 0.0000065971544369
0.0009242558641691 0.0061134056404664 -0.0000187558976746
0.0002041964799963 0.0023250520908661 -0.0003748372120675
-0.0001963346009709 -0.0003310426756168 -0.0000311342062782
0.0002309142323977 0.0007236393160368 0.0001382453406639
0.0001490390610897 -0.0003927016694674 0.0001256340437560
-0.0000770804408984 -0.0007117170729674 0.0005256306194208
-0.0006906840829105 -0.0044655025733681 0.0000820861282898
-0.0005161616616082 -0.0041293756531275 0.0002475182575196
0.0009992704869182 0.0041655800972858 0.0005396949907802
0.0008347122010596 0.0029342878786553 -0.0003994947184145
-0.0007116907837328 -0.0026009918671691 -0.0001110104943232
-0.0014763574445885 -0.0057979618601765 -0.0001442761586520
0.0002761420309163 -0.0004101670203222 0.0005820945587557
-0.0004607406068110 -0.0019871425626031 -0.0003546443831111
0.0002473919397340 0.0005410435628182 -0.0001330692095861
0.0006229200637020 0.0029989568511116 0.0000792696967333
0.0007673591976758 0.0041196546995649 -0.0002295194989141
-0.0011844464095319 -0.0048184871033311 -0.0004032645270337
-0.0000331596197338 -0.0005544730072425 0.0003216083853540
0.0006292366836198 0.0009450375334169 0.0000225923826796
-0.0005627907944772 -0.0048689453005020 -0.0003546475746664
-0.0004148982170309 -0.0061009043813501 0.0000065544481407
0.0008287904317352 0.0046426386481051 0.0004830929700108
-0.0000257117961179 0.0001414956208465 -0.0000056466925195
0.0049708064732581 0.0016650945801800 0.0009479770666043
-0.0024127164271178 -0.0015568698269810 0.0003762048224526
0.0001533357561602 -0.0010457159312453 0.0017163483171809
-0.0001705666689691 -0.0019216323694695 0.0002825298234400
0.0006758571987592 0.0013558030078702 0.0002037751501249
0.0000304053412323 0.0001556143397186 0.0001055630167617
-0.0007299628918318 0.0002521051767303 -0.0000839615931126
0.0004489373958585 -0.0004445527904798 0.0001248322632559
-0.0010959687928854 -0.0009372914190937 -0.0000201808520627
0.0000739253324110 0.0000373859760676 0.0001367958227471
-0.0000084087414556 -0.0000820632211873 -0.0000300577217967
-0.0003075386243441 -0.0014611757914979 -0.0005204398974426
-0.0021132868236359 -0.0061073081850538 -0.0014105139167185
0.0030188495668294 0.0032044041212454 -0.0000459575595349
0.0005645996224001 0.0050224104687720 0.0000180395953291
-0.0000972659765990 -0.0003340083512301 0.0002196532069915
0.0007975964206563 0.0042887027747878 0.0002416855899924
-0.0000573500472968 -0.0013529641065974 0.0002107541356202
0.0033101621413819 0.0024547346314553 0.0001819009432862
0.0004246250206747 -0.0009892259984117 0.0000917190422983
-0.0007980674188252 -0.0000849198814011 -0.0000638241230205
-0.0001773845246442 -0.0012889801222354 -0.0003635488236551
-0.0009198707655473 -0.0059534489216901 -0.0000472785018997
0.0001898984446297 0.0033328917927022 -0.0001679540753172
0.0025063481206364 0.0000240905955993 -0.0001017874914320
-0.0113971227833377 -0.0125232751845458 0.0025317260169807
-4.8809007775435909 -1.2309517968687058 6.2942362349590839
-0.0032278745448333 -0.0008455171218888 0.0002051281515812
-0.0012992793806958 -0.0071645774313204 -0.0010583902504848
0.0004480996355017 -0.0011782166480131 -0.0003609966930692
-0.0001505900707449 -0.0001059226211042 -0.0000227602538788
0.0005090315983123 0.0008073574303478 0.0004057812750349
-0.0013193386741550 -0.0005155762928218 -0.0007643446865072
0.0003765864775438 0.0033016407395861 -0.0000003601304517
-0.0008618112497081 -0.0037275350822448 0.0001579481842695
0.0004888707098171 0.0006664606064762 0.0001325908335431
-0.0004477603824516 -0.0007659351932448 0.0005303008702559
-0.0022145498165421 -0.0155485188104833 -0.0008765625677467
-0.0005981071738699 -0.0003275738938330 0.0001041969984501
0.0031474546184736 0.0038211182656838 0.0006402124835688
0.0007503732182366 0.0038482878604111 -0.0002777755111418
-0.0021868430298416 -0.0018047818801219 -0.0008762124514788
0.0003228717451024 0.0003479405001603 -0.0000159116238914
0.0002585417257077 0.0012621040074299 0.0001645696915679
-0.0022970114763281 -0.0056343422101015 0.0000718994688017
0.0003883389013440 0.0054322844794586 0.0003708351294662
-0.0006709107838306 -0.0006048909617468 0.0000953936209195
-0.0002300920539250 -0.0012488049497264 0.0003709988815462
-0.0032635798224443 -0.0049601400861264 0.0004573646525334
0.0038391798970419 0.0059025883954513 -0.0005214845282102
0.0000214447808346 0.0005860504457613 -0.0002497266163268
0.0016444074673570 0.0002929944257638 0.0003597368086879
0.0001561667225506 0.0001128190769504 -0.0005343065298070
-0.0005269393460250 -0.0112510186070411 0.0006669322634489
0.0003627560819702 0.0010530099271035 -0.0002962401014410
0.0005414119137878 0.0010565738402338 0.0000437033357041
0.0000007379912317 -0.0023176826943304 -0.0001764754781682
0.0004052543483008 0.0011319979289175 -0.0002682719519401
-0.0005313127040402 -0.0034407311139749 0.0009330322312234
-0.0036600730671108 -0.0016730157636815 -0.0000130514379052
0.0009857785741330 0.0051335513629954 0.0005936022736782
0.0001939718553132 -0.0011577884547305 -0.0012568135582896
-0.0008461076707026 0.0002272247274476 0.0003387146130829
-0.0008003942647219 -0.0005449838491290 0.0001061929439345
0.0004019183781033 0.0020985023521189 0.0000165823005601
-0.0009719223923790 -0.0004704106218588 0.0001248862121866
0.0007182326249938 0.0005161282371334 -0.0000165822544241
-0.0010466121641938 -0.0120622963774586 0.0010090615545350
0.0006589584348438 0.0018826123469598 -0.0003351641695241
-0.0002450802371243 0.0010385701723905 0.0012568193999376
0.0025683270800424 0.0028372955760890 -0.0001186040778436
0.0011522295242310 0.0007467442313731 -0.0004232973958325
-0.0039795703021119 -0.0168433141616470 -0.0002361807460420
-0.0003216930065981 -0.0034762992922767 0.0004809602797735
0.0000613948812562 0.0001692297055273 -0.0001034906758274
0.0002530703355055 0.0004905316633261 0.0004890439159066
-0.0025363740645929 -0.0088405750384914 0.0000661738734546
-0.0004810180161864 0.0010682834590453 -0.0000300945996131
-0.0024708812555858 -0.0009573382221839 0.0001702424786272
0.0004366249100516 -0.0007424440373770 -0.0002929594371220
-0.0014295225505196 -0.0006427054430560 0.0003297710631722
0.0014447479324383 0.0000366643280709 -0.0001547501795705
0.0003048221913538 -0.0016510272518838 0.0003693695207566
3.6854588407503721 2.9883192052169054 5.8654452689555026
-4.4366702163418976 -1.2467993948227976 5.5522780003864884
0.0049607589856368 -0.0020930933572138 -0.0013521606859347
-0.0134933931770173 -0.0153497381777409 0.0014654375351369
-0.0032309819760049 -0.0010497161029235 0.0004591688364680
-24.7179322186150863 -11.9669497643125524 1.0511151399083136
-17.8637002226548063 -8.3683560526567415 3.5916772944792621
0.0007835713426647 0.0048076311942551 0.0008474728946008
0.0008607136708640 0.0048585550609726 -0.0007787302825138
0.0016047500606124 0.0018399807669953 -0.0007263712596921
0.0002616134016676 0.0001700166439011 0.0000795938322856
0.0010401128477942 0.0053949813525890 -0.0018415533834256
-0.0005098805250903 -0.0030906087486587 -0.0003074566080701
0.0001360970174505 0.0002300708572030 0.0001132958055375
0.0002082002328838 0.0030703811631767 0.0000601805279345
0.0005139966082942 0.0028906847524907 -0.0001623624718314
-0.0024755264295603 -0.0079498586023878 -0.0005408017456003
-0.0001668718083939 -0.0032461895307307 -0.0005025753950153
-0.0001015192082230 -0.0007448725843163 -0.0004647150582048
0.0001935446771996 0.0005922761913549 0.0001615687221885
0.0012569844895460 0.0054156473344371 0.0001316631958140
0.0003943637504878 -0.0003806435383598 -0.0000873919036537
0.0006985967867721 0.0030221892594497 -0.0001236994511152
-0.0009661530375769 -0.0064045289924060 0.0002633781470981
0.0007913597446518 0.0027927315259838 0.0000973520234978
0.0005617874381113 0.0030093869190065 0.0002608960824809
-0.0005884646971347 0.0001147810965733 0.0002082394607122
0.0000379675392206 -0.0001972262208777 -0.0000280188984318
-0.0005751795541523 -0.0000089910313509 -0.0001107916882700
-0.0042043450179489 -0.0136420162491925 0.0003259027002757
0.0078742461991879 0.0067341113993472 -0.0005700284197509
0.0030755989339201 0.0118412273588795 0.0005228921529207
-0.0001531891389643 -0.0009919090195896 -0.0000613944909992
0.0003141498639276 -0.0046375049121077 -0.0014690885097247
-0.0009967051660672 -0.0052929755921296 -0.0009786404823623
-0.0018053994732862 -0.0012475254296209 0.0009786484057972
-0.0007651575684650 0.0018569617090088 0.0002602039559345
-0.0009953110336106 0.0004754643959234 -0.0003183312687591
0.0003141498504189 -0.0046375077337562 -0.0014690885251748
-0.0002188480811174 0.0006269486242206 -0.0000399835336132
-0.0011499661347476 0.0026867203282733 0.0014691100179727
-0.0006308614223972 -0.0046599019546520 -0.0003575502740540
0.0034752600012412 0.0071686770361814 -0.0019001552715366
0.0028390649240872 -0.0003451249367922 -0.0004537976547363
-0.0038239674792676 -0.0051618924751904 -0.0009271543033141
0.0004884260631195 -0.0002689575729910 -0.0001956863808725
-0.0001689924131984 0.0007263128860457 0.0002272712367200
0.0020998981104759 0.0017766931433610 -0.0000722278022132
0.0005682456776520 0.0001881021887787 -0.0001520262798572
0.0004120918303694 0.0003127823617855 0.0001640640209809
0.0002379188996502 0.0010051286514540 -0.0001344026622952
0.0005406858989625 0.0008742780426063 0.0000327619285889
-0.0006268077965332 -0.0050154147575001 -0.0007426673327293
-0.0000558993663733 -0.0003978410519078 -0.0004338861054781
-0.0003568378533555 -0.0019428414585431 0.0002638379514333
0.0013150525402237 -0.0013606718325092 0.0006362718659844
0.0000445404775759 0.0017087360448425 0.0001147577979367
-0.0014154131317430 -0.0060423955004146 0.0000372257769399
0.0008134171949723 0.0015252279166935 0.0001149669238458
0.0020287793718706 0.0009006744347149 -0.0000760411279671
-0.0003611592046929 0.0008572331722030 -0.0005848249045210
0.0006289346142898 0.0006629603405904 0.0001761454223586
0.0000139197879329 0.0014983527372890 0.0002754421148925
-0.0003764715284176 0.0001414656584220 0.0001909566201655
-0.0012953383225198 -0.0001125392568931 0.0001987507396853
-0.0000239397569202 -0.0045569456260813 -0.0004130394700856
0.0003963610408882 -0.0013423803769841 0.0004291264504829
-0.0013315291530232 -0.0015246184031500 0.0000897058867353
0.0000647363365426 -0.0006650157353243 0.0001149913284405
-0.0009226249102662 -0.0010110009877368 -0.0002890116896534
-0.0001170003665939 0.0003306837580098 -0.0001673369832776
0.0013738921361001 -0.0016110024102229 0.0001872012400171
0.0024679236440011 0.0007747171418952 0.0005478339189706
0.0008287983360464 0.0075505518935119 0.0006113084667277
0.0016955891540713 0.0113555291136607 0.0010225923293397
0.0005101954297642 0.0029771736494083 0.0002720231100476
0.0012065828897905 0.0002443319755506 -0.0002437561778799
-0.0005618912769241 -0.0025414260562213 0.0002590594814001
0.0020482819477893 0.0093359143572802 -0.0003005315826226
-0.0003961215863545 -0.0001857893459079 0.0001366279868308
-0.0028603059155197 -0.0032137094429738 0.0008105589663584
-0.0002938216716464 0.0007157872270918 -0.0004896085843155
0.0009507584908856 0.0044785072360179 0.0001199544399856
-0.0000838448180859 0.0013627897066269 -0.0003042384443578
-0.0006482205805092 -0.0035726917579737 -0.0010868284223285
0.0004194486340988 0.0004595310600232 -0.0004492595814598
0.0006581042786720 0.0005237754635534 -0.0006948860336827
-0.0002959277099240 0.0064829647808660 0.0003709501494309
-0.0000004353710891 -0.0000375803440379 0.0000561469241643
-0.0015675452163714 -0.0071117890682457 0.0004861362757216
-0.0004318969153854 -0.0001004991566421 0.0000181227778101
-0.0006888674343030 -0.0024560177870418 0.0001610246741826
0.0015260075150834 0.0040123205535836 0.0014492941704826
-0.0014654405522144 0.0002314528007077 -0.0003389932051665
0.0030368797138341 0.0129758425743074 0.0002692468981732
-0.0033180655233578 0.0019159980244214 0.0000629229669710
0.0001220559016906 0.0006374766862973 -0.0000154373318228
0.0004456199353154 0.0014325639741780 0.0000360322887713
-0.0002151459414751 -0.0004077096267462 -0.0000384354710474
0.0001965789824245 0.0017942543980456 -0.0001051192736095
0.0001532590100235 -0.0001206485323190 -0.0002605683470472
0.0006140254668466 0.0012469716167177 0.0002478901360119
-0.0000955903689150 -0.0019968991646404 0.0001382101374729
0.0010614473882441 0.0035833791443054 -0.0008133126448961
0.0004424941139608 0.0024951777817393 -0.0003193458730425
-0.0005859809647105 0.0009000785325031 -0.0006112027484213
0.0002595587403764 0.0020597112735080 0.0000106604644359
0.0005081140927935 0.0012924163864627 -0.0001768981369599
0.0008394222358809 0.0035416658079651 0.0000122727545407
0.0005962527595325 0.0022681266621951 0.0003925556023661
0.0003622443071425 0.0005439810013924 0.0000796260612751
-0.0000426736893962 0.0004777734795009 -0.0000144101730087
-0.0019059444357942 -0.0029544553341401 0.0008228900175174
0.0007349272054150 0.0025708571209541 0.0004580515163257
0.0008859505813585 0.0036994355748801 -0.0002760356560727
-0.0001016322325308 -0.0002178389863865 -0.0001981214404713
-0.0039017173806396 0.0006129608089929 0.0012129361535716
0.0001454849488281 -0.0001574986650163 0.0001284095613950
-0.0008784992385332 -0.0049679338049158 -0.0007782825122996
0.0009188097285275 0.0068474374818599 0.0007801331471955
-0.0001645055335624 -0.0012993501652849 -0.0001187340035359
-0.0005984103590695 -0.0013053939736853 -0.0004679764883686
0.0003402838927149 0.0012976049507815 -0.0005567840919758
0.0004988845891357 0.0016342447256786 0.0001292122619633
0.0000470252633086 -0.0015647899762540 -0.0000001090732322
0.0000063951719030 -0.0006162433960777 -0.0000588111233101
-0.0001241646998164 -0.0010706222802402 -0.0000133758888076
-0.0025677154708534 -0.0058819158222299 0.0003266615684429
-0.0000086822021624 -0.0015945356589374 0.0002227103917833
-0.0008400511269734 0.0029938810343718 0.0000413645837310
0.0004950994546936 0.0009802036631783 -0.0002711268758044
0.0016269545287411 0.0034287061326515 -0.0002980534397602
-0.0009753172091559 -0.0000531468936338 0.0008581983807053
-0.0000722332759473 -0.0018955017106994 -0.0000927602485353
0.0031453328798101 0.0023625910014039 -0.0007414117271556
-0.0001883419526610 -0.0010297640306281 0.0000428791593262
-0.0000585315513002 -0.0008653302464176 0.0000868367084881
-0.0001961101513273 0.0001044621080299 0.0002041566195924
0.0012221963946166 0.0041625409064532 0.0004261723115504
-0.0001107319642720 -0.0006209528109163 -0.0000499487417516
-0.0005224746405714 -0.0016735621147537 -0.0001152748029288
0.0065263730332417 0.0011688007238283 -0.0011536214405352
0.0003037792813654 -0.0000008602815173 -0.0002906512364027
0.0007965981012190 0.0023268126099681 0.0002616525253131
0.0000685682690667 0.0007921151906055 -0.0000183727716171
-0.0002304673855924 0.0002920467934663 0.0000739505382816
-0.0020582641396781 -0.0062061160090457 -0.0008202986325895
0.0001785962567063 0.0000563808940917 -0.0000057788691950
0.0000771483187933 0.0005755331674389 0.0000083260260122
0.0009678094113879 0.0034826933294669 -0.0002870387815653
-0.0009847825585260 -0.0051460123652326 0.0000029812282191
-0.0006841270577027 -0.0019457753587916 0.0001260840451609
-0.0002477340254254 -0.0033898465528285 0.0002014385783614
0.0000376513454383 -0.0004407962540701 -0.0000039847744022
0.0004167622229259 0.0018970673265149 0.0000832879542064
-0.0017516950091734 -0.0033289886011076 -0.0003486235406761
-0.0000747453650781 -0.0004774115471410 0.0000029434362767
0.0006625522872746 0.0001079459971491 0.0002309520558551
-0.0000463526099738 -0.0000389787712062 -0.0000030183671921
0.0000174177422754 0.0007629122281829 0.0004074102905133
0.0001940477092088 0.0000368609242605 -0.0000321955617426
0.0018065576385863 0.0079377473872235 0.0004715692198300
-0.0004268801618773 -0.0016985284360915 0.0002052167550517
0.0009143947853394 0.0010089688443719 -0.0000578859357324
0.0021876242917538 0.0011647950753567 -0.0002197838913503
0.0003899779957592 -0.0003880585281040 -0.0014965948344492
-0.0004269031658733 0.0032608241855555 0.0008591448679711
0.0004227491544007 0.0014081894487550 0.0002187646552546
-0.0041003455742752 -0.0029441258896960 -0.0005105209476227
-0.0001859758869130 -0.0009394425169514 -0.0003235669605527
0.0027977449085109 0.0001665827348340 0.0003386317995177
0.0009630257786524 0.0006633292750965 0.0000561383220846
-0.0000931502853472 -0.0030323830156431 -0.0003652475021861
-0.0009740580202969 0.0000443143458160 -0.0000462200949550
0.0008869573211450 0.0052253638569818 -0.0000842718923067
-0.0000559957407761 0.0027457482362415 -0.0004090298938477
-0.0042743223795562 -0.0054936551954265 0.0001661305011354
0.0000032894737200 0.0002096301887370 -0.0001306253481143
0.0002189032460154 0.0013820722253426 -0.0000830187006067
0.0006942635074789 0.0003611287166109 0.0003866298026076
-0.0019819032395409 -0.0030868304384167 -0.0000624422688806
0.0001366831303271 0.0005612476754827 -0.0001932305998445
-0.0003854445000071 -0.0024063530115401 -0.0000664797697031
0.0008819182356638 -0.0003736177188153 -0.0003808076821541
0.0010352169125954 0.0008551725207428 0.0000038152511950
0.0002460518201265 -0.0008236434257522 -0.0004887629218411
0.0001959149459499 0.0003961645530164 0.0000801678900939
0.0004774020116083 -0.0003310073261716 -0.0001052541702033
0.0009163139731855 0.0001492851637904 -0.0002408727532456
0.0011838006509913 -0.0009886638669923 -0.0007710595844567
0.0024092446247597 0.0062083878732411 0.0010429171325913
-0.0000826678559049 0.0009355606455481 -0.0001140862041529
-0.0006229409263730 0.0006899798146678 0.0003736465416479
-0.0000115459671043 -0.0015930352221763 -0.0000629390463960
-0.0003601497617345 -0.0019006996653997 0.0003032023655425
-0.0002340389576105 -0.0012892476747075 -0.0000800494157214
0.0002851344297467 0.0022186001869108 0.0000132649648509
0.0000579060845889 -0.0017609550578211 0.0000262538312235
-0.0019980772185554 -0.0100733481206818 -0.0007860948758502
-0.0010264116388840 -0.0058058714394035 -0.0001972740646109
0.0003319348306281 0.0003761676954968 -0.0004128821641099
0.0006256660886397 0.0003081882356489 0.0000348847043021
0.0007253716949955 -0.0002621095105543 0.0002455787695350
-0.0016430993733308 -0.0048728002188364 -0.0005698614404083
-0.0013351629603911 0.0032224131411637 -0.0000096192140913
-0.0004652041650642 0.0006152428463324 -0.0001520698743318
-0.0010633731087028 -0.0008981986968829 -0.0001695080735035
-0.0001977122494384 -0.0014643102612685 0.0000773727904097
0.0000066718626199 0.0002718732534332 -0.0000281448204604
-0.0013417081786193 -0.0005908941683663 -0.0001378196965123
-0.0003794006464370 -0.0016988053880653 0.0002735845019111
-0.0014514106535333 -0.0000661178149491 0.0002270727156385
-0.0018550121863542 -0.0027012515403889 0.0006823445000205
-0.0001740244572849 0.0001268799959755 0.0001905606162992
0.0000817183647290 0.0021952320330246 0.0002510736413535
-0.0002169326156793 -0.0018207288481425 0.0001047503456092
-0.0027562641297863 -0.0075114036384524 0.0001462547083766
0.0026197478565897 0.0049585230570074 0.0000208023628849
-0.0005785550429635 0.0000786798219627 -0.0000555542503836
0.0011905249693519 0.0020966767894559 0.0005022043736595
-0.0006205352593543 -0.0052083754309497 -0.0008215756781978
0.0018340106730621 0.0022743078470687 -0.0001684298671968
-0.0001941220907263 0.0039200072125587 -0.0007019838636801
-0.0008521291967468 0.0013385618847835 -0.0003958845015490
-0.0020810988822340 -0.0017733701101878 0.0001205923679539
-0.0005504294262405 -0.0015331105762173 0.0003483340668801
0.0020178280657895 0.0020310999250084 -0.0011841707687707
0.0020652441329084 -0.0015731516606294 -0.0003143308319856
-0.0007392994968471 -0.0021543747138974 0.0004233163730553
0.0001168931284444 0.0016768872000920 -0.0000580625448980
0.0004773575469151 -0.0026382907790111 -0.0002113481147428
0.0002072288787265 0.0006965657084111 -0.0000841521537390
-0.0010164970341527 0.0004004608450926 -0.0005400861053589
-0.0006017777421766 -0.0036059081588326 -0.0004957442866138
0.0001991083574044 -0.0010420725730180 -0.0000973000047365
0.0066519867039978 0.0056148516479551 0.0016734154873037
-0.0121931780408559 -0.0084474015789638 0.0017926415191686
0.0002168998631041 0.0010169266325068 0.0000722001833983
0.0036639298792630 0.0008223997493758 -0.0005739994975569
0.0003373014529954 0.0050807684160447 0.0001154061220474
0.0001498710436475 0.0022624210789003 -0.0001932949423549
0.0001076141667336 0.0005221151936656 0.0001272291694724
0.0003278538604723 0.0005333859271599 0.0000724423135989
0.0002137005581910 0.0000647427030771 0.0001166408764628
0.0002693290671857 0.0001844233961045 -0.0000131449181883
-0.0001048477961660 -0.0066580114621931 -0.0001711838545582
0.0000345339109622 0.0010780417947035 -0.0012402674718869
-0.0029391616022532 -0.0113297765182354 -0.0001863683585001
-0.0000322950176814 -0.0000769821315689 -0.0002821581333381
-0.0002680893040630 -0.0027300250310359 -0.0004543812311380
-0.0001314677536142 0.0005723048888324 0.0001852116179874
-0.0002860229512082 -0.0032128142295365 -0.0000247232042672
-0.0040720028560906 -0.0046645510214148 0.0007899921741851
-0.0002236674380013 0.0005302009020496 0.0008092202212853
0.0002203914327271 0.0011421114888231 0.0000781986289750
0.0007140357232904 0.0037616934431025 -0.0001813764325808
-0.0009838389875586 -0.0070231218507507 -0.0001431313482441
0.0016203514854768 0.0046522115634486 0.0002405374736924
0.0003176748226717 -0.0021795916826641 -0.0014243873329640
0.0011759303303506 -0.0011032487134373 -0.0014406269386681
0.0014406028140180 0.0104458268170784 0.0003150552548332
0.0014465726357580 0.0074776557229643 -0.0003158681338363
-0.0005065350333528 -0.0033906714765209 -0.0003198224943106
0.0007105671738471 0.0041737314902778 0.0000088234871434
0.0000734876213125 0.0001993899002480 -0.0000086963370499
0.0003326985714597 0.0015999623472075 -0.0001925106193084
0.0006561508675110 0.0013003880816622 0.0000634207980799
-0.0001695388224863 -0.0010086876235128 -0.0002029247248368
0.0012334874836288 -0.0012838337176012 0.0024915297879331
-0.0002886281513611 0.0000786946160967 -0.0003374001670059
-0.0033406845669464 -0.0015843886516656 0.0000982480539774
-0.0015907863350920 -0.0012583059903379 0.0001601442601488
0.0040431938153756 0.0029132653426464 -0.0006641610480258
-0.0007400515167332 -0.0005712043775234 -0.0000585901868599
0.0002690716718330 0.0001348062211893 -0.0001334650341640
-9.0232761308178677 -50.5356664987950666 -3.7960294703538993
-11.5851903177127049 -4.6826048440820314 -6.0270187253977960
-28.1081454035239169 -13.5804599284182164 0.5371643521262266
-28.1081475965746534 -13.5804728258203014 0.5371642380748933
-24.9214568005506543 -11.8299459316225928 3.1907219025267461
-0.0004028639209020 0.0020536645750415 -0.0019150509265835
0.0023126924912722 0.0093721776184485 0.0016842440713914
-0.0014805851701365 -0.0043163142252790 -0.0010004355693453
-0.0020250493002090 -0.0045173589389351 0.0005006792025321
0.0005396458326831 -0.0025137618569438 0.0004069545478537
0.0024290783233476 0.0061024678516128 0.0000856404957773
-13.5516606752283000 -73.5776096304274176 0.3529968812067900
-13.5564805404677955 -73.5778828151678539 -1.2514074724645290
0.0003865802997964 0.0051881045426827 0.0001033760762271
-0.0026666138036156 0.0003903686999324 0.0020210353538035
-1.2518921617603698 -7.2253933786184810 6.5752401407246088
0.0001802311886118 -0.0019141936391343 0.0011261951506415
3.9167629422412582 3.4343924782115636 6.6425312685757500
0.0005956742098731 -0.0077520950754506 -0.0017617508956011
0.0022601971715085 0.0086216835438364 0.0000895673033829
-0.0011507790452020 -0.0049311516668287 0.0002533269747548
0.0030156308662067 0.0027085307536535 0.0003048035043553
-0.0014921969553977 -0.0004267949539427 -0.0006219154747096
0.0012789420574224 -0.0005794682430394 0.0005116376035125
-0.0011538413691492 -0.0020944821598985 0.0009636032588289
-0.0002832204113413 -0.0007811950007248 0.0006935539556990
-0.0019460463070365 -0.0022853500738555 0.0002249753303272
0.0000154824732260 0.0006744991762991 -0.0000117363924127
0.0001276772178437 0.0001936661436543 -0.0000774049466693
0.0004325858112252 0.0005190698480216 -0.0001819622889658
-0.0006102954677105 -0.0008451384627784 -0.0001302582963973
0.0001315011290594 0.0002443432785098 0.0000133817956409
0.0003083323314537 0.0002761838323004 -0.0000421762561051
-0.0018135223297359 -0.0087267491425697 -0.0006443310758267
-0.0002437264308257 0.0005328860390893 0.0000819980381048
0.0000986510664717 -0.0010248615679015 -0.0001010424472917
-0.0007528554563143 -0.0068698152681453 0.0009648348115191
-0.0008294642444417 -0.0020074701598882 -0.0002043061979758
-0.0010764927743785 -0.0022406028076981 -0.0005127975710473
0.0031284654438735 0.0055884254346734 -0.0009880802825990
-0.0004383221046586 -0.0012495052284904 0.0003672883443324
0.0002799579039713 0.0018192279892873 -0.0000029025767578
0.0020827856454721 0.0010379572683598 -0.0004218125023270
0.0013782905370512 0.0104772647025454 -0.0004081064261973
0.0022240386402373 0.0020477548616371 0.0003691138004946
0.0004247388143414 0.0024986927051331 -0.0000678026120166
0.0017234965184205 0.0076918385210620 -0.0002161080544964
0.0031687824906222 0.0013184976356484 -0.0002581598847211
0.0015176984125815 0.0095817537520035 0.0002544258291516
0.0011178956028222 0.0010669208480906 -0.0005951359997049
0.0014776532750821 -0.0029930764911971 -0.0000297586287823
-0.0003531173610803 -0.0006480734503468 -0.0000200166512587
-0.0014347458007481 0.0008249265865175 -0.0003973708358864
-0.0000763527477545 0.0003973594781202 0.0003160922656962
-0.0012108824880883 -0.0109389520712451 0.0003469986740992
0.0010153221808626 0.0007248062804644 -0.0000111411153460
0.0001399635232444 0.0025430136310324 0.0003572121187583
-0.0017944229981771 -0.0084910508734316 -0.0007886537841750
0.0008282493096877 0.0017111492075331 0.0006499903867892
0.0019636020800085 0.0108068121981962 -0.0003303018957081
-0.0003698125957692 -0.0014911012870453 0.0002234704980029
-0.0003429669581511 -0.0019731488934660 -0.0000707994972748
-0.0006652866414562 -0.0015580037054226 -0.0002810481054122
0.0001020574474065 -0.0027430697077923 0.0000686411636519
0.0002293692294533 -0.0002249208172596 0.0000333615199099
0.0001261643837928 0.0004823968690921 0.0000472704601859
0.0001753170945493 0.0019445317543755 0.0002192764841370
-0.0008011789561646 -0.0033075149631194 0.0006182075786637
-0.0007938950393052 -0.0021214552502487 0.0004148558740210
-0.0026499380410739 -0.0092249053885020 0.0002393845614861
0.0000376841129600 0.0003880473328411 -0.0000317468919094
0.0017974857627945 0.0060020779710971 -0.0022929760788864
-0.0006912265688656 0.0001596136266213 -0.0002152418183835
0.0011972329748890 0.0076298583385802 0.0002872543153930
0.0009229827964213 0.0007741917731562 0.0010127074986190
0.0008707060968751 -0.0000421944054703 0.0000581438493200
-0.0003254181854793 -0.0002768860876397 -0.0001822072986469
-0.0003523881618868 -0.0002922837647288 -0.0002242733307795
0.0000368941551418 -0.0004591013142912 -0.0000137032554867
0.0018832761622619 0.0029244602351818 -0.0005370506430257
0.0001651271096428 0.0006502313565550 -0.0001306680210970
0.0006929436403451 -0.0011092164202659 -0.0003587607825242
0.0008707061346927 -0.0000421944689155 0.0000581438516125
-0.0010676292918042 -0.0047879264543752 -0.0002132724427101
0.0006661570533407 0.0045475992640015 -0.0000507693635553
-0.0030300934548735 -0.0172326946207335 0.0002973778581547
0.0018832761020079 0.0029244600296165 -0.0005370506217707
-0.0013624568723868 -0.0072229978730303 -0.0001196183370609
-0.0057998635559925 -0.0033774581332580 -0.0002973860682076
-0.0033856246346529 -0.0174104490818016 0.0007142824590814
-0.0034812339083845 -0.0171031580735125 0.0013437815357899
0.0019027442955503 0.0105235310464835 0.0012677142312326
0.0008888465818012 0.0015544678512112 -0.0001713365917505
-0.0062653984028216 -0.0059281140695403 -0.0000252328263140
-0.0016806406378804 -0.0080610465999275 -0.0014999539983885
-0.0007500569018063 -0.0023909764332432 0.0009117298781984
0.0026549648631897 0.0059268314067040 0.0008067313593147
-0.0010261916059739 -0.0004870260669701 -0.0004324318980897
0.0005662967481932 -0.0003884102421236 0.0002907074555176
0.0001252832388347 -0.0008824754650925 -0.0003438359268640
-0.0000830972641529 -0.0001093209037556 0.0000877738668828
0.0017102644481974 0.0050194296329715 0.0015566687851501
0.0000229628762787 -0.0000708531469617 -0.0000372833755127
0.0008018180173136 0.0017865900017562 -0.0003232243044519
-0.0013410503813784 -0.0005660311017231 0.0021004741111956
0.0003968349145984 -0.0007278615532990 -0.0000109929657021
-0.0014099860951552 -0.0068688418897164 -0.0004172410270871
-0.0004451152775844 -0.0034480038559238 0.0000972868421510
0.0008231639593158 0.0020616986508994 0.0000129383205019
0.0000547413024218 0.0002906386455630 0.0007606962416618
-0.0011618018804647 -0.0087266339712592 0.0000260903216141
-0.0029824435987709 -0.0190305974176937 0.0007637446523667
0.0002402144604012 0.0056999047573693 0.0001038930588623
0.0016087984412333 0.0037066655577427 -0.0002319618575710
-0.0001570061754035 -0.0003776005011488 0.0000997465184001
0.0005990215938610 0.0001151400523855 0.0007100892884299
0.0012320850296971 0.0043086377898762 0.0000672671279245
-0.0031684534731656 -0.0026933422598852 0.0001289648439718
-0.0001586249991552 -0.0005383203701571 0.0002961184972568
0.0002790061816578 -0.0015601975051602 -0.0006358640106043
0.0087766674002108 -0.0004558014883551 -0.0008484263037932
-0.0022124946327931 -0.0028312668784866 -0.0013211431341119
-0.0066422705451533 -0.0123104532063634 0.0006395292036200
0.0004606136976961 -0.0017096760894322 -0.0000281315379274
-0.0024205239068925 -0.0081365783927733 0.0035784703680626
0.0003663768858046 -0.0003562883943763 0.0005746130593244
0.0000528738900011 -0.0019676807461868 -0.0001165366336975
0.0007500971037447 0.0049576272767702 0.0000825207477403
-0.0011104115518599 -0.0005286074282274 -0.0000265041081698
-0.0004091408377325 0.0018642073162889 0.0000652579288821
-0.0005401471194991 -0.0016340487730184 -0.0001837971619600
0.0021891585448724 0.0129914624108800 -0.0003540623558810
0.0014631061181897 -0.0003719855149252 0.0002002814780244
0.0002031329537364 -0.0013538294445189 0.0003450288762477
-0.0005084599691049 -0.0010366942899573 0.0000903422012173
0.0027248224765817 0.0000959487536830 0.0003720127226858
0.0002630143079871 0.0027651583233116 -0.0002586938006362
-0.0004975135085573 -0.0016287523791332 -0.0004559466492025
0.0046715954323478 0.0016535416512054 -0.0001716869468841
0.0020632338292442 0.0008089004422518 -0.0001068758734192
-0.0003323500597872 -0.0032488755169896 0.0011431748696239
0.0021405548140302 0.0028407146600207 0.0004052769679490
0.0018477054803000 0.0057315295326929 -0.0013032124497032
-0.0012616707502768 -0.0014076556966095 -0.0013235488014881
-0.0002128847253161 -0.0008323941391976 -0.0009548916978777
-0.0014356987417510 0.0058620708672153 0.0021574546708676
-0.0006242380433000 -0.0045757042291139 -0.0001646244811904
-0.0022342494157240 0.0006392348424049 0.0000258243484469
0.0027107017168746 0.0031117077518633 -0.0002557195178556
0.0001779071736845 -0.0029937581939050 0.0009628068221828
-0.0007417921584694 -0.0023828871845497 -0.0001367298327788
0.0005298118339571 -0.0004138876488545 -0.0001910444516979
-0.0001180862422142 -0.0000053453507219 -0.0001285200296723
0.0019452308820633 0.0016682672398256 -0.0000256284282344
-0.0001335489183158 -0.0005719188294158 0.0000197094722163
0.0002382373041733 0.0018754719128480 -0.0001149485941147
0.0000425743519468 0.0002570108958228 -0.0001770101522307
0.0009918160545194 0.0053035407684090 -0.0005813503841651
-0.0000770065339901 0.0009432478132120 0.0004124722107224
-0.0003569959036350 -0.0007852818003943 0.0001477800141442
-0.0014743946081871 -0.0003228283944182 0.0001646258208719
-0.0007514124327007 0.0016551651758759 -0.0009628156891920
-0.0009257088999815 -0.0091229222154063 0.0005859005508107
-0.0027127055484142 -0.0010797231267692 -0.0000269152333988
0.0011014735044648 0.0071304926927712 0.0003666353729112
0.0027107004502695 0.0031117053312983 -0.0002557200198664
-0.0000677585059320 -0.0031314185376185 0.0008849986820006
-0.0010586401478278 -0.0036268340476034 0.0012550959248755
0.0020691180213916 0.0131756033737053 -0.0004621885672587
0.0001779076043236 -0.0029937592399975 0.0009628066922166
0.0010608515111730 -0.0019643342366784 0.0005115866186951
-0.0053986231138834 -0.0043331295143280 -0.0018512859740126
0.0002056893468272 0.0012651609409586 -0.0001096999156910
0.0031376741010439 -0.0034150493017702 0.0008385759376245
0.0023429613120370 0.0146013432425376 0.0001182400308161
-0.0006720928798415 -0.0032193157995484 -0.0005699898128718
-0.0000708801815958 -0.0010403841287596 0.0002185221277990
0.0005440771397200 0.0026691853728835 -0.0001161564334619
-0.0003643868887155 -0.0021330799398103 -0.0000875806738088
-0.0019606897865707 -0.0022875731248850 -0.0008221213295304
0.0004073557407994 0.0021265001112788 0.0001484216708230
0.0031925706485560 0.0039106880915119 -0.0000933715522280
-0.0060465125565094 -0.0260797303080270 0.0013628612607871
0.0024206924907254 0.0004131643338905 0.0001670086987537
-0.0054994461370681 -0.0036399538448791 0.0001306575857019
-0.0008503394452406 -0.0044448365548839 0.0001175805187195
0.0023652473309756 0.0162844532263990 -0.0014437866903991
-0.0005580957312757 -0.0008653992540191 -0.0003472010523114
0.0006891450133822 -0.0001462909623051 -0.0001232838603350
-0.0006905111703176 0.0021724307809095 -0.0000181981956378
-0.0016371094668053 -0.0088095506102400 -0.0007020802776616
0.0016948396244952 0.0047618941650053 0.0011325394608104
0.0000582403145534 0.0000238595495819 0.0001311108573851
0.0005184447446942 0.0007564563401295 -0.0000559716201391
-0.0058480110490956 -0.0021056303396686 0.0002359937616737
0.0011132445675893 0.0032835998787575 0.0004470050150230
0.0002562234190632 -0.0021212879352143 -0.0001249616408330
-0.0019598965310987 -0.0015674672957005 -0.0005888544120368
0.0006660221162968 0.0034924075091004 -0.0004659334972575
0.0003864066390773 0.0004434939956973 0.0004206979452854
0.0027075966297249 0.0020474098635859 0.0000629497281105
0.0022507549947253 0.0099448301159598 0.0004922969165625
-0.0002514455445993 0.0000947334732640 -0.0002681764488848
0.0004594275902452 0.0008518101129051 -0.0000966383357687
-0.0005225415655031 -0.0037056989887937 0.0008258484002522
-0.0035799112726272 -0.0008433869171209 0.0000939572292547
-0.0022649428755073 0.0009564469968863 -0.0004177077010012
0.0004057342450727 0.0000616694004994 -0.0000642275068507
-0.0003666139320833 0.0011270424353385 -0.0004303163914787
-0.0022649430659327 0.0009564470673438 -0.0004177077064417
-0.0001383739708432 -0.0053683061175674 -0.0000246586169721
-0.0020141131258122 0.0219983177343056 -0.0002749736607212
-0.0018012126909483 -0.0105430309683688 0.0003811063635068
-0.0001446560346111 -0.0017847694793994 0.0002256951110921
0.0001599034979571 0.0021122646608080 -0.0003100135122309
0.0004106833411715 0.0003322473811306 0.0000305106386513
-0.0007224164801967 -0.0052737764318147 -0.0001533638999001
0.0016161991307223 0.0023582144517234 -0.0001087010160897
0.0005482181744088 0.0043654985210495 -0.0000420443338906
0.0003162312991705 -0.0044896013509615 0.0000009863213871
-0.0019106459255452 -0.0027991712174601 0.0013526427356280
0.0038013834354417 0.0041982592425005 0.0012524244952503
-0.0002286420082435 -0.0004366920514931 -0.0001411091590911
0.0013910754780241 0.0028497400695726 -0.0003067851314888
0.0010210901103996 -0.0029289338838807 -0.0021939619884145
0.0022280802414447 0.0065818276165972 -0.0007966310249542
0.0012827759292767 0.0033915184006987 0.0003067855230529
0.0022037841759748 0.0163196418096230 -0.0020062376696493
-0.0012524241667771 0.0023272257343631 0.0014194316131717
-0.0022769290110844 -0.0026210291815062 0.0009942675239716
-0.0026908359826408 -0.0163295553738212 -0.0009347245447537
-0.0007265160950602 -0.0003552625799460 -0.0002581986545653
0.0002259518445692 0.0068583419110076 0.0005971477629120
0.0009002428089329 0.0014560762268874 -0.0004136517582029
-0.0010595825588552 0.0048503490798172 0.0005887624142281
0.0003883820056739 0.0010652549819004 0.0000141734448379
-0.0011566339732883 -0.0016050178343094 0.0001273011644622
0.0003612001052369 0.0020954752310606 0.0002285443057066
0.0004041808274634 0.0001923692293761 0.0002298744931865
0.0001125036588648 0.0013154557432532 0.0001763739508754
-0.0000359167556537 0.0010030282406126 0.0000512930974167
0.0000553542617757 0.0004483838298232 0.0000994573611610
0.0007841605100726 -0.0025690709902748 0.0009038371554544
0.0004590491005917 0.0015350089673269 0.0002143304155294
-0.0022463819879021 -0.0012907241238260 0.0001232241683914
-0.0003089773895163 -0.0016879378517498 -0.0002441589837979
0.0002633798914765 0.0003634769869725 0.0000846642383778
-0.0013426268015124 -0.0002851721401956 -0.0003366350106945
-0.0016689315820967 -0.0120104345801747 -0.0004513979443283
-0.0031999908975975 -0.0020068423432621 -0.0006543884011275
0.0024515954587264 0.0147275371217720 0.0016826362638318
0.0027335892831154 0.0171906494065792 0.0007544399620805
0.0002037584415132 0.0034325572391542 -0.0007969824116761
-0.0038687227612961 -0.0009712492308828 0.0004657107318037
-0.0002022222150921 -0.0019326668220683 -0.0001966768880179
0.0037658911248033 0.0019292040901816 0.0004965946775790
-0.0038811364589474 -0.0009441370810601 0.0004514079819443
0.0019541125802445 -0.0000329778414997 -0.0005853438624674
0.0013521818557802 0.0060962811045397 0.0009395154339596
-4.9374309898517748 -1.1466627368524551 6.5045163851968617
-26.0524820914266080 -12.4341547055340040 2.6923343897795831
-0.0013178561759982 -0.0127972762979344 -0.0001922736717700
-0.0044041212654104 -0.0171424202744296 -0.0016921534885779
-0.0049105590381381 -0.0123550334273935 -0.0013817331699024
0.0004462361565452 0.0014450725551790 -0.0000892476128602
-0.0007203852778160 -0.0043691725185838 -0.0004038604512879
-0.0000307397035417 -0.0009093421832794 0.0001929927335321
0.0005626046984246 0.0018317005733367 -0.0003747651694170
0.0025618090691135 -0.0026957739748286 0.0006429351090570
0.0007923816806230 -0.0005357851589911 -0.0001185101887366
-0.0004830396793053 0.0010757998201129 -0.0002648053590686
-0.0000338384687336 0.0008607126791363 0.0000017652559254
-0.0000352104004586 -0.0003048685905747 -0.0002375355039435
-0.0007856803932088 -0.0003062734234433 -0.0000602599992707
0.0007880207314255 -0.0053798353530761 -0.0012278790499364
0.0002314747418958 0.0013472899693762 0.0002468475635179
0.0004609742333563 0.0006346662975677 0.0001738371506009
-0.0016059882670614 -0.0073785462407351 -0.0001292208291727
0.0003461084739063 0.0001061639433502 -0.0002555097807779
-0.0020162746470100 -0.0131611982355293 0.0002675298687705
0.0015121622797667 0.0098427513266884 0.0004136972725022
-0.0020276602308137 0.0016572146866012 0.0005021762698396
0.0000741070132681 -0.0001668593211000 -0.0002262390020997
0.0012856126336089 0.0008093203818410 -0.0003558145960933
0.0006093941678822 0.0029729327375308 -0.0002310602015770
0.0000258398024111 -0.0008547523208214 0.0001493867882701
0.0003477526290240 -0.0010609130275143 -0.0000208670336417
-0.0030549102189189 -0.0172685903312771 0.0007181883859268
-0.0061055576988179 -0.0051653376129714 -0.0002583809365934
0.0004674807990638 0.0019481546702562 0.0005221013447881
0.0001047979002515 0.0006732333868532 -0.0000198885041464
0.0004090181865907 0.0018553326585316 -0.0006514657726463
0.0047994287423825 -0.0023270987188148 -0.0024244048588230
-18.1198092639710566 -8.4849009919138432 -3.7008668576230099
-2.0110151170855772 -0.0239696389200369 -5.5457158772276989
-0.0016065036141301 -0.0097210199313645 0.0007907637466743
0.0019947840069795 0.0111676571473365 0.0006661299910354
0.0054388837488236 0.0062880481735090 -0.0007243083050828
-7.3386819563967727 -41.5827729237534456 -4.1805160183740950
-0.0047996460239709 -0.0045509560754182 -0.0000232862289434
-0.0009207388463166 -0.0034320184757851 -0.0009719526409293
1.1335087877442671 6.9899180644234598 -5.4661686176766082
0.0003126962330983 0.0001486565330466 0.0000360933763169
-6.5599793195059588 -2.3691469046726810 5.3762072232539024
-11.6247645411354554 -63.9892951562161230 -0.3339133435822084
-9.4213366118436390 -52.5575053727593442 4.5652383968346788
-18.1079413638893207 -8.5991580216952563 2.9891689150023693
-0.0007070011674682 -0.0031031064201267 -0.0002306421571461
-0.0005963474934342 -0.0044562178186725 0.0000764028807374
-0.0017035908517529 -0.0007571685367524 -0.0000263358883723
-0.0003682934651062 -0.0039126160098113 0.0007325068038460
-0.0007331615755467 -0.0040962633401258 0.0001007960723534
-0.0013520106059576 -0.0092636159072315 -0.0008733147252592
0.0001121951440263 -0.0013687839394233 -0.0001007927562534
0.0000455291277138 0.0000677234198469 0.0000368602879007
-0.0006818223241294 -0.0041386773578547 0.0001544162534759
-0.0003970704309533 0.0003930533950498 -0.0000541757527547
0.0014767846075216 0.0004513647414596 -0.0004592763060443
0.0003667244293333 0.0010436863575175 0.0002315232790291
0.0002770184386778 0.0015900923050025 0.0001383296085742
-0.0001591325562013 -0.0006506856284360 0.0001850893954970
-0.0010893067433453 -0.0010162300581632 0.0000780923545838
0.0024092389021991 0.0140664079445773 0.0007800787000763
0.0015418943643549 0.0022913187272490 0.0001014857391439
0.0024092390235431 0.0140664086923853 0.0007800786937371
-0.0019684822330003 -0.0004701432784005 -0.0009283487164973
0.0015719340067391 -0.0061380184747287 -0.0012135896963986
0.0003072303191909 0.0057821250334854 0.0005243235494577
-0.0009818128063576 -0.0114454494141453 0.0008306325900414
0.0011009140454330 -0.0005412455991172 0.0000391509583328
0.0000433086787175 -0.0000174451321141 0.0000387133645089
0.0002789194078073 -0.0023474051971470 0.0005473406881481
0.0012449650022306 0.0005334054344529 -0.0002781725710513
-0.0012526411836758 -0.0015319187685600 0.0001841114904730
-0.0010066163309024 -0.0006081380951505 -0.0023970441113677
-0.0010316539017309 -0.0027403828583803 0.0000939530089801
-0.0009567342658032 -0.0010272345141975 -0.0003219532355858
-0.0042573086024822 -0.0031893180079577 0.0007533774261687
0.0014337345629421 0.0088161575958562 0.0018164084750432
-0.0016315457469773 -0.0080695432108159 0.0004945088856268
-0.0047791394270865 -0.0063015461799509 -0.0009317624112895
-0.0036144565943036 -0.0035237007213113 0.0023665422377932
0.0001228394126293 0.0000970348132456 -0.0000787626505102
0.0000849755068830 0.0008628688084682 -0.0002268503166249
0.0004784661006181 -0.0023116874454798 -0.0007142658677770
0.0017695464050307 0.0002078707039057 -0.0015375300181128
0.0019248064706288 0.0109611496003173 -0.0020315369687591
-0.0010166362123174 -0.0007207744381923 0.0001677418836403
-0.0038402811095512 0.0000024534496740 -0.0002456081496153
-0.0013268202505897 0.0001236563856166 -0.0006987666650692
0.0003238098557580 0.0070456302447688 -0.0017454370483758
-0.0032374121760922 -0.0094945784840806 0.0004195358448244
-0.0003477081802470 -0.0007912989890394 -0.0001305044075216
-0.0025387745354545 -0.0049105214500433 -0.0014649089042074
-0.0026532617386439 -0.0128532767125694 0.0002830343607705
-0.0003421715527942 -0.0008189958288180 0.0001305044245056
0.0009386954198498 0.0003679157502775 0.0001848952627655
-0.0000725574432226 -0.0001439100694770 0.0006232475853047
0.0001666808969014 0.0008463816868910 0.0006144670932589
-0.0000478803765563 -0.0005761520882561 0.0000052644198795
0.0010432300727856 0.0029567785479266 -0.0000509009384901
-0.0000670800773729 -0.0003879224425936 -0.0000291528831594
0.0017001809776230 0.0076081368448579 0.0001134888418903
-0.0025841063252600 -0.0074231133591094 -0.0007736038046600
-0.0003421714400770 -0.0008189952201663 0.0001305043586249
-0.0003026009698889 -0.0037925018429338 -0.0000360841744636
-0.0012986459768378 -0.0082825936011362 -0.0003601351196145
0.0006167443459763 0.0012336847519575 -0.0014142883574819
-0.0062198852794054 -0.0097317909134873 -0.0002041526127002
-0.0014581868540512 0.0001961943869220 -0.0010971783555593
0.0012024938306158 -0.0042098908534663 -0.0004955825335863
-0.0029634251465007 -0.0055256199182601 0.0007736067696510
0.0006338612262759 -0.0116807055316296 -0.0003386134784067
-0.0003918408535175 -0.0014366089091488 -0.0001916919400190
-0.0003902690721742 -0.0014013106740645 0.0000107862018036
-0.0001534786814429 -0.0017300206868461 -0.0002367301891732
0.0002131040388561 0.0000795207612047 0.0001204028316604
-0.0019920610753822 -0.0061619852666540 -0.0000475536193555
-0.0000720939775086 -0.0004442571578457 -0.0001132051166098
0.0001938985586356 -0.0004066789375861 -0.0001739562956711
0.0017446212092578 -0.0003715708467782 0.0002758134733315
0.0021659804083571 0.0006319182854265 0.0024792556659062
-0.0011627886379509 0.0001469622079100 0.0018458224144694
-0.0060735664494160 -0.0146869207835460 -0.0000686952586110
-0.0009683584261439 -0.0090117588567864 -0.0007398077232190
-0.0002247105669706 0.0003009552753643 0.0002451010488798
0.0002658968398835 0.0043407238503259 -0.0011312073613073
-0.0040608303873197 -0.0224986883332144 -0.0003703094825811
-0.0005188490949595 -0.0022676524579552 -0.0000737518508464
-0.0076103648849059 -0.0047430635795609 0.0003703225719758
-0.0031505079892816 -0.0220435222466138 -0.0000655902535596
0.0026277507787789 0.0146535536139897 0.0001086629439547
-0.0102093854883294 -0.0015117286072752 0.0001089661898757
-0.0076103651492612 -0.0047430645308406 0.0003703226379460
-0.0104949921272773 -0.0032260157415414 0.0010075486604255
-0.0040608298716496 -0.0224986874598289 -0.0003703094432133
0.0015474501067443 -0.0053258999516595 -0.0011386126214389
0.0004951659515609 -0.0043852030780579 0.0003430570387802
-0.0019474424580363 -0.0089882289403960 0.0008285179827362
0.0001840544989927 0.0000965616082591 0.0002220746646669
-0.0004109590138563 -0.0039632199483911 -0.0001823351866715
0.0053769661554308 0.0014908148973388 -0.0000016404512853
0.0003711930836991 -0.0044797819131231 -0.0006039667088015
0.0027897121056098 0.0162458674110325 -0.0006048554708847
-0.0044584332183335 -0.0131588140681967 0.0003707041755144
-0.0041694684175514 -0.0088944257419266 -0.0017770348210789
0.0006469519248472 0.0017252044069408 -0.0001693283884822
0.0000597302970155 0.0001782545632429 0.0000788122432308
-0.0004660406081918 -0.0015468427471062 -0.0000364782962068
-0.0001906914897142 -0.0019128762055101 -0.0000645755290391
0.0008190380574480 0.0025171232773524 0.0002225395214846
-0.0043560791523792 -0.0046820416593722 0.0010626922478730
0.0012176619708789 0.0002844758147088 0.0001662481816930
0.0003680002373685 0.0053712343081453 -0.0001437467529090
-0.0000479697180574 -0.0000464147434300 -0.0002372786676086
-0.0028046006326018 -0.0141652948261410 0.0000245886892603
0.0005418063932940 0.0025617003078446 0.0000421434892502
0.0009135090274377 -0.0008154639321299 -0.0004092433827083
0.0003769942534275 0.0007438596179051 -0.0001640988654960
-0.0047915269101922 -0.0074277923423508 0.0009509686046703
-0.0029850805335003 0.0007983923678259 0.0019658239599203
-0.0004143779078663 -0.0003050521055008 0.0002854401685459
-0.0048816223953535 -0.0037753375091874 -0.0000245892735086
-0.0025932506356487 -0.0109787794889130 -0.0008212774311767
0.0003769942482448 0.0007438596455967 -0.0001640988321114
0.0003398901812301 0.0009294741970057 0.0001640988877995
0.0002105970099933 0.0058499803831248 0.0014901632185551
0.0000476463576912 0.0024682841393434 0.0022880714603501
0.0012988680682153 0.0072704466835173 0.0002450297358109
-0.0048816223332604 -0.0037753373547575 -0.0000245891439426
-0.0023931256830799 -0.0121712328399448 -0.0008547294538054
-0.0043835808473949 -0.0043625890942345 0.0001312401739472
0.0017038286744458 0.0162594106737303 0.0028069657880659
0.0004113960786117 0.0017049250332679 0.0001028634252476
0.0015754838245473 0.0021435679093956 -0.0003480279553879
0.0005527901232950 0.0040346320846353 -0.0009541117211319
-0.0008564042282225 0.0107736972044857 0.0005055114202950
0.0015149159381734 -0.0005355123449810 -0.0006360656155833
-0.0001122298915379 -0.0008232370436506 -0.0011124807216081
0.0016223976203222 0.0065092243301897 -0.0003774932005943
-0.0041089723228419 -0.0024822352070104 -0.0003169763526686
0.0003284905246013 0.0015012621086795 0.0002229459544068
0.0003488298072672 -0.0011185710366065 -0.0001350582380932
0.0001863721506672 0.0048790533868752 0.0002217660682345
0.0000133311901295 0.0001578614035133 -0.0005860099632778
0.0010490684138958 0.0037124564467108 0.0003930120024604
0.0006621131436552 -0.0009619174656993 0.0006151325021260
0.0006234994580546 0.0054192293194185 -0.0002215070852307
0.0003226442301942 -0.0010889297208793 -0.0002790251485573
0.0001882888269370 0.0003058296139061 -0.0001468447164647
-0.0001395502156602 0.0059850174974359 -0.0002217701057301
0.0007744843217135 0.0000553087028416 0.0001589900049801
-0.0002249604625366 -0.0016038201015632 -0.0001251999942057
-0.0001024620496219 0.0007411844026086 -0.0001305598227862
-0.0006411781969472 -0.0024622445930102 -0.0003233925773981
0.0005103005214727 0.0003466914006754 -0.0001823113254793
0.0001883699225648 0.0009698469580792 0.0002076382083864
0.0019242278717162 0.0024763446867508 0.0008022044357966
-0.0009819683823100 -0.0053514891325773 -0.0002540690134979
-0.0008698481744592 -0.0092254141222502 0.0007008720821543
0.0006109525672486 0.0018889132693917 0.0000483188504854
-0.0000685393981948 -0.0008289002129722 -0.0000772684810433
0.0011671471488333 0.0066015433727209 -0.0001119417306048
0.0003692934787782 0.0027970391551259 0.0000522793632552
-0.0030339622141077 -0.0117446196329178 -0.0004561854661063
0.0016981871055182 0.0119043710499222 -0.0001103631267545
0.0003910558823048 0.0012340773841111 0.0000131515888770
0.0001281306292612 0.0012498255243712 0.0000764447046667
0.0006849334341066 0.0027564221191349 0.0001465710528935
0.0004198293021593 0.0009827037872663 -0.0003376624168338
0.0000737408173076 0.0001458734338950 0.0000597203242902
0.0001759223917450 -0.0007092428370652 0.0001999461338161
-0.0002038402352785 0.0007838498141013 -0.0003139033120577
0.0000029764558129 0.0006896355425659 -0.0000234260492770
-0.0004732567991958 -0.0014562021141991 -0.0000124934111618
0.0048150218916144 0.0193037462617057 -0.0016647447827548
0.0088060295762277 0.0064176767000441 -0.0011922924080582
0.0020803399591161 0.0011968423673481 0.0002729028793455
0.0043425474084083 0.0054585421205453 0.0000710664699017
-0.0033974109530459 -0.0082750641690898 0.0003300439924085
-0.0000601718566140 -0.0152907395170500 0.0015273819910453
-0.0047278291862757 -0.0181705161036955 -0.0016837632588374
-15.9558053666348076 -7.1378688939980472 -4.8765902055446277
-15.8960928817271938 -7.1270197056840390 -4.8567749092508912
0.0036373839083708 0.0090895443076247 -0.0002294829010159
-0.0097701257465208 -0.0390816067657296 -0.0002879439448117
0.0009585567256136 -0.0069902994225209 -0.0000036892111752
-15.8905038852761020 -7.1381265215507215 -4.8535910897619292
-0.0041604922918545 0.0066408594865457 0.0020303040977113
-0.0001235352002318 -0.0158683962280586 -0.0009625586343835
-15.9582850538002496 -7.1517409485511276 -4.8758754870752483
0.0040921726909372 0.0140082747756540 0.0024140846818229
0.0005572569397125 0.0004007375321328 0.0001135167347468
-3.4863225276935368 -20.2122441989968351 5.6391298994207366
-7.2069100243611866 -2.5521236432097241 -5.8385669739880406
-0.0000021756976452 -0.0042503385375064 0.0007995156567444
-0.0041179325349232 -0.0008383169075153 -0.0010949406297964
-11.9429703532964311 -65.5820638736846604 -1.7131611937826727
-0.0047278299960603 -0.0181705198350112 -0.0016837627544588
0.0027740846893269 0.0021099857969136 0.0000737685200233
-24.6290390951748428 -11.8510807339893791 1.8941678403932247
-0.0017202891353890 -0.0230696039230471 0.0002220983546141
0.0027740843859503 0.0021099840774520 0.0000737684615153
-0.0000509195587793 0.0044174440643746 0.0001644158641292
-0.0066730077778454 -0.0084402616269978 0.0016837953239922
-11.9429703534107858 -65.5820638746789086 -1.7131611937545719
-25.5978082425198608 -12.4037218646334342 -0.6401063555303010
-0.0016458228263159 0.0002182218706573 0.0001793311585127
0.0001041832508090 -0.0014568915923552 0.0003873111647502
0.0000515245385546 -0.0026349196186791 -0.0003595614057826
-0.0025836284443229 -0.0005688693821110 -0.0001520273192416
-12.4589582067633131 -68.1581544348318147 0.5773548002933284
-12.4510149425580998 -68.1406425763484975 0.5797313233464114
-12.4535197309448868 -68.1552263092931696 0.5769832923003861
-25.6937823058568924 -12.4343462317953453 -0.6419055704523683
-0.0003330057711421 -0.0052798496133401 -0.0000019723574369
0.0011218827504768 0.0069330443618837 0.0001165865579087
-0.0041179334800620 -0.0008383174383048 -0.0010949407062578
0.0016539897292249 0.0069120944011290 0.0006684225728523
0.0005572556605684 0.0004007357108567 0.0001135163916005
0.0058491820824747 0.0080844009705089 0.0041264216982017
-22.5786536913384559 -10.7349963806201156 -3.0516630446545738
-0.0079414498467937 -0.0032477405823828 -0.0003778291756124
-24.6352625240538856 -11.8840789874217876 1.8946803800740002
12.3119933197512434 80.6435758268883234 -4.2207971892897378
0.0007476323437472 0.0082704066323592 -0.0014623225056863
-0.0001345874692501 0.0000110407854403 0.0000090380376793
0.0029684497382479 0.0086250692159709 -0.0008889903855966
0.0006222824609211 0.0009577460771772 -0.0004852912104539
-0.0012908882246876 -0.0052234175335876 -0.0000744324538620
0.0052131005431585 0.0250673777273583 0.0016154527719235
0.0025603428775609 0.0042944838196692 0.0009942593589340
0.0012797537868044 -0.0034645978387142 0.0013914080297065
0.0001325214528510 0.0005705544609259 -0.0001059876358398
0.0011455905198816 0.0016630445229391 -0.0000627356111324
0.0000152040847968 0.0006216393332342 0.0001173600015265
-0.0013607495032094 -0.0088969953943873 -0.0011431699691871
-0.0002882288258533 0.0000755173350492 0.0000677383676203
0.0015024915696752 0.0078503410893227 -0.0003136422955971
0.0013106911771726 0.0023998963761055 -0.0001535121787871
-0.0033241415161626 -0.0022998335627453 -0.0001995015390127
-0.0067473851160365 -0.0097159359455896 0.0006616855639722
0.0005207002150202 0.0029039157393080 0.0002005000382378
-0.0001471506006551 -0.0000825335369960 -0.0004384794745914
-0.0035138051058608 -0.0067664822174775 -0.0014313632508424
0.0011387735531373 -0.0017065738379754 -0.0007861034983806
0.0029977960409077 -0.0106008122064823 -0.0002638215055913
0.0002379154521972 0.0036416984098837 -0.0000774640447899
-0.0026557806480485 -0.0096801323200688 0.0015231750155723
-0.0028352266863240 0.0007407546489853 0.0003486061364920
-0.0015571167163188 -0.0111156229443560 -0.0004864099203290
-0.0003016889610617 -0.0101230382552519 -0.0015926535632439
0.0050112010050076 0.0336328959893414 -0.0027799802872770
-0.0013663469966206 0.0004238497664090 -0.0001932908363282
0.0001191965535156 0.0219488972428948 0.0000401104951013
-0.0008189429157784 0.0142270991008818 0.0009990733308186
0.0000961190403148 0.0030248560515512 -0.0007146081425050
0.0011435333413633 0.0046124011421415 0.0001871183935516
0.0004434409750587 0.0005678750087119 -0.0000425047391198
0.0001787144600178 -0.0001919212139907 0.0000806344130613
-0.0006163510218627 -0.0056756000466692 0.0004612067085966
0.0013300271714173 0.0005105802520969 -0.0000168725757664
0.0024909332172139 0.0261654265835439 0.0015847005206964
12.3362247870497672 80.8509879743126731 4.0598514009960409
-12.3806681069704432 -67.7912307774626441 -0.5741662987309063
-19.4750491167938158 -9.0594602179635313 -4.0348158935261651
-19.4963924703446239 -9.0802829046704634 -4.0380419623143320
-19.4949937828107842 -9.0725255473491551 -4.0393231300004695
-11.6758562170172571 -4.8850634494778316 -5.4435306267943622
0.0024909326182181 0.0261654226279059 0.0015847006079922
-0.0014715233341963 -0.0057170847060235 -0.0000912112398763
-0.0078282512943062 -0.0032122599163347 -0.0004565241584792
0.0093509966176343 -0.0003884343155667 -0.0021147146534377
-10.8925612253106401 -60.2273899497509575 -2.7623220241904849
-12.3861125000016585 -67.7941599864882392 -0.5745585925485435
-19.4819690574627487 -9.0669762703100059 -4.0366124896224500
-5.6862848931973362 -32.5365865457669159 5.1567214089282052
0.0032950784959830 0.0299081587689811 0.0021148428531521
-0.0030319056911277 -0.0081675301763371 0.0003906935460755
0.0022372452412323 0.0039528383149709 0.0003692747029916
-0.0074848458456999 -0.0216754500926894 -0.0005680124458845
0.0000771343185606 0.0011824663436070 0.0000156623790635
0.0012154432437700 -0.0001763299771394 -0.0001611509846969
-25.5203434788724337 -12.3539685994654160 0.6385616006127710
0.0035277682472649 0.0019413833444507 -0.0018975452526516
-10.8925612254589339 -60.2273899505245609 -2.7623220242163948
-0.0006260434467749 0.0014186082529541 -0.0003346378093811
0.0036498146318293 0.0238878301047570 -0.0002824565091466
-0.0007473248356057 -0.0047224728888512 0.0001136947570155
-12.3810231676038569 -67.7708454071371165 -0.5750356679970829
0.0013796145233265 0.0024214452178777 0.0006034448577796
-22.4279397350637453 -10.6658219772664271 3.0324157567846339
0.0005053514835214 0.0067966749690414 -0.0002157527925151
-25.2559266113666112 -12.2426394704134083 0.6308670725357194
12.3676887764362498 81.0573417282572137 3.8695392772545976
12.3715485484340437 81.1104259954078799 3.8237490826022866
0.0020609380787030 0.0092966099572704 0.0000672287156531
0.0013796141151239 0.0024214435906336 0.0006034447187862
-0.0048217055758260 -0.0251782396234374 -0.0006167326941992
0.0034270261127311 0.0030308603275846 0.0032648033700039
23.9132383896332641 12.7759216826206625 -3.3296390356092704
0.0080383642907935 -0.0015870315337935 -0.0015846128221812
0.0010924466992502 0.0016901286761848 0.0004905424449481
-22.4279397361622266 -10.6658219785001158 3.0324157570522630
-0.0007707163077397 -0.0015312750718356 -0.0010186749250471
-24.4818006745497492 -11.7834522709872580 -1.8829253746767669
0.0042018437403358 0.0062784593595581 -0.0025704757342666
0.0000818124644923 -0.0001171640483823 0.0000053918953031
-0.0007807483099100 -0.0002352021667577 0.0000163074710235
-2.0052347609367924 -11.6409648139503865 -6.2331892438492655
-0.0096316805079088 -0.0068213034254925 0.0002672047100377
-0.0009246798572791 0.0055181859389883 0.0015594419273094
-0.0012954177953349 -0.0001237115747741 -0.0001432536046707
0.0012472495111835 -0.0010013398178541 -0.0001367261921149
-0.0013235780038185 -0.0006690000302760 0.0003624195133905
-0.0004802447587301 -0.0148792236919919 0.0001562678900494
-0.0089993455029104 0.0010140242888655 0.0005913531350816
-0.0006346604080754 -0.0064442992333849 0.0005371623227011
0.0029328826872429 0.0106799374002472 0.0013737345897291
0.0000189409105263 0.0002570279100175 -0.0000312193992534
-0.0010482385668783 0.0007104142466483 -0.0005634953373613
0.0001923364384330 -0.0036959396450830 -0.0010496578787584
-0.0001847839340529 -0.0009852627895153 -0.0000122554935737
-0.0056247790923593 -0.0209782920637263 0.0002446649240439
-0.0013098200882497 0.0076400944929576 0.0015773099215581
0.0013445272024084 0.0059242665537102 0.0016767830194580
-0.0028655446401647 -0.0071632940401022 -0.0007504361592638
0.0053362446164754 0.0026287703368980 -0.0029311518517668
-0.0004757132723927 -0.0013190097635407 0.0000052063007343
-0.0002193400081298 -0.0014271593848200 -0.0001640847156927
-0.0005674627246147 -0.0004585799307105 -0.0002631594036331
-12.6571013144323281 -69.1765344784943466 0.6440137294295452
-0.0005179075804532 -0.0006971720340513 0.0000747692328828
-0.0005136577211485 0.0006841919042314 -0.0000595803543891
-0.0006341498380271 -0.0043198190186482 -0.0003612688975037
0.0007036201432785 0.0033870709045606 -0.0000880169198273
-0.0002369362401063 0.0002585348592748 -0.0001528997134214
0.0001892287624000 -0.0007709568662378 0.0002455969064746
0.0018613982856465 -0.0014974074165491 0.0002987659516783
-0.0010121797350488 0.0013052969287553 0.0009185215347026
-0.0011026796552055 -0.0055481455393462 0.0001927202540451
0.0010255207861402 0.0015934718256453 0.0000617348142455
-0.0096971623976632 -0.0169589374662397 0.0031158305911924
0.0000371757230240 -0.0009036224970064 0.0001469237451373
-0.0085131115102127 -0.0053448905414617 0.0006485386907680
0.0000179922010478 0.0001882899348003 0.0002212907122599
-0.0040964880392419 -0.0067438225969416 -0.0001894999425493
0.0019057789837661 0.0010511636936695 0.0002343597064710
-0.0002132287182713 0.0004951481430983 0.0001742738229026
-0.0012014150609576 -0.0058980980273251 0.0006573681386805
-0.0049775448553156 -0.0048345648757849 -0.0019024907484850
-0.0000411792293447 -0.0002400832247448 -0.0001745018978943
0.0007352599834983 0.0000933842094287 -0.0002465580660804
0.0007496037959389 -0.0012643484860686 0.0003326806170095
0.0025766809977942 0.0009823346979295 -0.0006301425061122
0.0008879182320965 0.0057502052384387 -0.0005448580309927
-0.0007627729657777 -0.0017819125340742 -0.0007371109312334
-0.0023084842281412 -0.0031067295939159 -0.0014815001336768
0.0012248798734382 -0.0072592238186255 -0.0003928324953761
0.0011874235833106 0.0022437207461036 0.0003047834897568
0.0020855704190292 0.0009375114380916 0.0004893382907772
-12.0471274341335466 -5.0053532908300351 5.6140040796763504
-0.0032808887806298 -0.0051830787561798 0.0001660092708849
0.0005013666792199 0.0018469257598735 0.0006827595716025
0.0009352777654944 0.0052307588364260 -0.0000198400011766
-0.0016236405580495 -0.0049700309606620 0.0001399865519158
-0.0028021726157880 -0.0016181587643853 -0.0005718362374441
-0.0019453708825182 -0.0033605984540685 -0.0001399870216983
0.0016262507562100 0.0155893265051204 0.0010622696892379
-0.0004958221555477 -0.0070941235917827 0.0013890997470689
-0.0008518550762551 0.0061361262380400 -0.0005916814199324
0.0001548185970160 0.0007957824087069 -0.0000513983328264
-0.0002283238323982 -0.0009956465961930 -0.0000915626278891
-0.0006360905561534 -0.0023511181060633 0.0001476892973248
0.0001942417129164 -0.0009215277269164 -0.0001209526429484
0.0005953548422219 0.0013428965488515 0.0000420224578680
0.0004362042281041 -0.0043485912710489 -0.0009271767847927
-0.0017901037576030 -0.0031072491918967 0.0007334072064296
0.0007005288696811 0.0002421971961262 0.0000821055863210
0.0007005288257445 0.0002421978354024 0.0000821054632920
0.0006769166851240 0.0012617566705752 0.0001188043239464
0.0004785583232111 0.0029123164451893 -0.0003324071807530
-0.0001554254454685 -0.0000791894328476 -0.0004740981435191
-0.0004164987097837 0.0026627694374832 -0.0008039021148328
0.0000315185791338 0.0005966759786931 0.0001952739087539
0.0006525066305129 0.0004744208974258 0.0000284957137634
-0.0003997037029603 -0.0005021435269060 -0.0000982806624778
-0.0001249121240795 -0.0006883387642214 -0.0000292969571798
-0.0011430587726587 -0.0090088398934838 0.0003678072523818
0.0032011652663142 -0.0029764576340867 -0.0031529634617982
-0.0032662212357662 -0.0158020144186919 0.0008636087262652
0.0013527636837332 0.0058215880752164 -0.0026445595830494
0.0032991460377508 0.0193644131733000 -0.0024142610813734
-0.0007234993229533 -0.0065022837875317 -0.0027958603928280
-0.0039488298623477 -0.0117015304486137 -0.0015768956038768
0.0024280060160503 0.0016495091490901 0.0006647950614847
-0.0009394410163964 0.0060886319865765 -0.0012339383663915
-0.0023745112672324 0.0044805807493355 -0.0011550873431638
-0.0002836300369098 -0.0007444831217164 -0.0000115817972338
-0.0005731535993887 -0.0027912802615751 0.0006844087134035
-0.0001358008873548 0.0037113269553695 -0.0003509615441604
0.0027981106578828 0.0024569606648962 -0.0003759566251206
0.0025054107470392 0.0123237245677740 -0.0004440993916181
-0.0077655160946243 -0.0026746192524220 -0.0022141801474116
0.0012030443348031 0.0068806426931542 -0.0010064304515831
0.0028555866073301 0.0076648706538586 0.0020725541051983
-0.0002301603492846 -0.0000172954134681 0.0002826943651588
0.0004589323090700 0.0020288877325931 -0.0000054639945184
-7.8530640729990111 -2.6564992809899324 -6.3598650884497383
-0.0095829089790772 0.0105290228180156 0.0023477512207387
-0.0119007533095637 -0.0033834850346094 0.0024618779850926
-8.4663716341193513 -47.5299263747786469 4.9377906742597784
-8.4663716339988113 -47.5299263751689267 4.9377906742747184
-0.0023888285015970 -0.0115526190432993 -0.0007320845472766
-10.3511941827544494 -57.4149108275106244 -4.0434412740498118
-12.8142518357753090 -5.2703499081961489 5.9717813983586465
-0.0040308883366568 -0.0329511015056612 0.0004031085120812
-0.0025042407646949 -0.0021920726912582 0.0001166244776594
-0.0005826271599911 0.0031418964164669 0.0003763212982435
-8.4604871576454546 -47.5079982721344152 4.9388814563835481
-0.0005124997508883 -0.0034664175102060 -0.0001118335324263
0.0001279903966511 0.0002516861497625 0.0000443658923706
-0.0001567478892141 -0.0012413097869362 -0.0002033255229198
0.0012788343124637 -0.0007349798832544 0.0011330355432450
0.0007204191050662 0.0004314918569952 -0.0015290032750887
0.0019069885460815 0.0029218820074914 0.0008496702003070
0.0008556102806652 0.0014172061652930 0.0003683503330454
0.0000569805244582 0.0011341404719563 0.0000577837798865
0.0013106095683825 0.0066155486514009 -0.0002558807362604
-0.0047760623017154 -0.0101964518629738 0.0005687681477945
-0.0011953580698707 -0.0067316214824699 -0.0003573326148328
0.0031859274644098 -0.0037379248846230 -0.0000519282189678
-0.0041821487777377 -0.0209041464240191 -0.0003426810403847
-0.0122793876983097 -0.0145475385249090 0.0012418602608546
-0.0010218112370588 -0.0006976421989814 0.0001338774335392
-0.0003448976040585 -0.0016672449298172 0.0000240324431467
0.0002808741615095 -0.0052476145532609 -0.0019625247603515
0.0133108714833414 -0.0058571234667447 -0.0005457759905671
0.0048707147479259 0.0064997358221127 -0.0007045002501193
-0.0037327954855790 -0.0010875156109392 0.0001889513172316
-0.0024889381233101 -0.0021788741328315 0.0017366833930810
0.0060690456761568 0.0051347392089127 0.0003089550767104
0.0010437116097241 -0.0156827381349946 0.0014630109230677
0.0044503881379229 0.0223931386439068 0.0008063972461507
0.0018760888761356 0.0058615429990988 -0.0006085469980627
0.0002458374450089 -0.0090126084055883 -0.0008790255749042
-15.6603439851081543 -6.9531939685369908 -5.0926700702609482
0.0012023084757680 0.0039086142053208 0.0005925203552472
-1.5546296704695508 -9.0359267507445420 -5.9791139119042986
-0.0074361774870354 -0.0359391752661719 -0.0023766970376293
0.0059163995620567 0.0000319094619303 0.0023208833496110
-0.0050079529484714 -0.0340491204445723 -0.0001469572616876
0.0070760683295570 0.0001537114244332 -0.0001676479844330
0.0028329096571852 0.0066458363358269 -0.0014898139127294
-0.0049913953923844 -0.0060716312161801 -0.0030074490370875
-0.0016542701705040 -0.0071923474388881 -0.0013995171161491
-0.0012405081577869 -0.0002936223949339 -0.0024369863134963
-0.0054212637668648 -0.0022956571900322 0.0016962422684723
-0.0012405085382700 -0.0002936237092494 -0.0024369864736532
-0.0011584714409311 -0.0040418289434522 -0.0040946206033719
-0.0002299123003272 -0.0022595374616435 -0.0008132222886872
-0.0017380451723679 -0.0009362211919160 -0.0000097098148712
0.0013238451784124 0.0072025133677332 0.0004708430942391
-0.0012969213323105 -0.0006322701434931 0.0003847444300019
-0.0001476130854523 -0.0017655403821251 -0.0002332856071584
0.0004011930036024 -0.0060117455992548 -0.0004427258633868
-0.0005263942085585 0.0010727973369171 0.0001920628673356
-0.0017891759981671 -0.0073366234568442 -0.0009165095894313
-0.0015232621382945 -0.0022169812192233 0.0040946355326126
0.0070760676102203 0.0001537071142888 -0.0001676483307525
0.0009606198111995 -0.0014621707971273 0.0011865534586036
0.0120041987215482 0.0271633793262230 0.0027346940141560
-0.0029339991193097 -0.0048513191317728 0.0013377480933857
-0.0008873398520311 -0.0051918326801131 0.0000097096784065
0.0069218981021005 0.0020961099566485 -0.0024735284129449
-0.0001511036402865 0.0003393198250849 0.0005532717744206
-0.0009947116444188 0.0051534241964395 -0.0008952144518140
-0.0040082520316284 0.0003073751574662 0.0026462791889225
-0.0049726571068060 -0.0080482796485030 -0.0016131007043934
-0.0015232623618563 -0.0022169817645279 0.0040946352622188
0.0008549157042622 -0.0030351807997793 -0.0039036994898071
-0.0037282455611429 0.0019880812871792 0.0017449380767860
-0.0011584701848253 -0.0040418293441491 -0.0040946203092647
0.0061862277599876 -0.0023198622926431 -0.0013704794517891
-0.0010958519087090 0.0022979209410266 0.0005156732160848
0.0076802184572994 0.0205376678177707 -0.0011135021508657
-0.0000433554661330 0.0000270629241539 -0.0000425054927411
-0.0014624444890672 -0.0097024010100988 0.0006196321300997
0.0004319193653921 0.0009492874774409 0.0006804390619666
0.0003310062353599 0.0018408199415995 -0.0002045225691417
0.0001737721011345 0.0004453271934814 -0.0001208156599025
-0.0017769789852818 0.0003629191941306 -0.0005001439717334
0.0004762268023112 0.0013364156509073 0.0000170394193305
-0.0021507607838741 -0.0039297664544999 0.0007448014132417
0.0006036838691441 -0.0003572413284547 0.0001248496725906
-0.0002677394250388 0.0010341482872076 0.0001166336720623
0.0007246164933826 0.0005756258301564 0.0000549935257134
0.0006207891410816 0.0002421528416547 0.0001226850997955
-0.0011699136814382 -0.0051125688680650 0.0003102079231730
0.0017007824821589 0.0041399377984117 -0.0002674865743560
0.0004551006214407 0.0009927695693245 0.0004823871599605
0.0014993030694251 0.0103308185926511 0.0002810614636443
-0.0012208553157932 -0.0008469324360906 -0.0002036423054162
-0.0012525599428967 -0.0005298438289088 0.0009138554538407
0.0025614992202603 0.0122591808131537 -0.0001244093902462
0.0001649049393533 0.0038245730519939 -0.0001446170669996
0.0020756002956332 0.0040730722141017 0.0006013470569654
-0.0003677623979569 -0.0015709081181311 -0.0000746892449355
-0.0010874893475143 -0.0008526835358807 -0.0003271038245804
0.0001493234426541 0.0012050069510795 0.0000386068951539
0.0044982243535640 0.0121325065127542 -0.0000241001498253
-15.6280463570298807 -6.6736921416625892 -5.9323804782492218
-7.5861868511550092 -42.8145316822006308 5.5355894185798471
0.0000120328634074 0.0000110502659149 0.0001486798567081
-0.0013710806002274 -0.0079488300773989 0.0002178674713994
0.0010390882185150 -0.0011166358199137 0.0001259821686098
-0.0011347660990746 0.0011743223414819 -0.0004352614046914
-0.0010328596924856 0.0034443622333882 -0.0005512915381155
0.0003360449113009 -0.0012162838534615 -0.0014524588224251
-0.0020364401585803 -0.0128989732330030 -0.0003784108668963
0.0002728858309921 0.0005277690931267 0.0000962491268347
-0.0001087206853084 0.0000890804451272 -0.0001906169930668
0.0007218320898093 0.0002786788687306 -0.0000936898642523
0.0028042108853101 0.0012398918920704 0.0005202159066633
-0.0009613557440976 -0.0003955979815980 -0.0004130269099264
0.0004291495339966 0.0004515078072109 0.0001508494986207
-0.0001796962509609 -0.0001322724698983 -0.0000205602831372
0.0000838517341910 0.0012285933683952 -0.0002724119867283
-0.0001092814591953 -0.0019982850234175 0.0003767171016826
0.0027571088240035 0.0229784357833355 -0.0004069496118449
-0.0014846164372775 0.0009715502833698 0.0007172021794670
-0.0014846166469629 0.0009715500055184 0.0007172022466587
0.0006602792830616 0.0042546265470216 0.0000064906936561
-0.0001887581237490 0.0002304186276551 0.0000155853606491
0.0005231455868315 0.0001961666388478 -0.0000649725903372
-0.0023778962450825 -0.0004746276558724 -0.0000038622870446
-0.0019252316996819 -0.0011240287040963 -0.0012416171437609
0.0003940008478008 -0.0012144020755116 0.0004791582445187
0.0074665208834881 0.0291197376649592 -0.0003183995652411
0.0004590813187384 0.0004079137063551 0.0002010467586853
0.0006231229413023 -0.0002460922382584 0.0002411222088923
0.0000739079301666 -0.0018933897297210 -0.0000609596135354
-0.0002671557532860 0.0010770830622737 -0.0000709172863283
0.0001462668032827 0.0003480377253399 -0.0001872853672993
-0.0001379729027503 0.0077278486105115 0.0001760569142361
0.0001827256558820 0.0020034367846591 0.0002791644252511
-0.0011777735519850 -0.0068340118746367 0.0002071574486800
-0.0006019353936495 -0.0055636736374656 -0.0002364310435244
-0.0056654941467513 -0.0088042868074512 0.0002408513078893
0.0005304690351111 0.0002356250636732 0.0000125799915077
0.0003765610717463 0.0013102407818264 -0.0001280494208764
-0.0020561044503764 -0.0018635874235770 0.0011477689127165
-0.0004577440877128 -0.0022977824311895 0.0000675751759625
-0.0009116364823240 -0.0003292019467815 -0.0003213138417160
-0.0006591398997294 0.0002041746789443 0.0003603450002863
-0.0006399200429393 -0.0010060298975788 0.0002123546881489
-0.0002563943680504 -0.0010135458898628 0.0000181318159249
-0.0051324117410151 -0.0025310401595144 0.0003862661443731
0.0014216703332033 0.0066704379463917 -0.0001712849659687
-0.0000240813727313 0.0009625734567867 0.0003237673332550
-0.0014560262465612 -0.0029112572624097 -0.0010802112713244
0.0036708593089362 0.0024962743842616 -0.0005971062063941
-0.0024651833926158 -0.0131652956032424 0.0001805213062560
-0.0002838931977232 -0.0030010232459815 0.0000896021340952
-0.0002638994718417 -0.0004353282435229 0.0003302526653916
0.0012194836481895 0.0052513312285150 0.0005491151977658
0.0005863502049704 0.0023132907877233 0.0003848961027069
-0.0011160218239723 -0.0095898767619020 -0.0006196040367212
0.0007708778789673 0.0023057884206775 0.0000233663859152
-0.0014316604636766 -0.0057513031436946 -0.0003544315078218
0.0031445226252473 0.0246396452093063 0.0014232288431031
0.0086517001063514 0.0057995036803227 -0.0014743239675243
0.0005912297709034 -0.0116553858556908 0.0004525529161137
0.0055678285131805 0.0024343712738948 -0.0011987161168467
0.0022820624174832 0.0096572041227983 -0.0002900898450595
-0.0062303923093746 -0.0240894850253388 -0.0014493819171274
0.0054427313654831 0.0015741338572302 0.0000108027185803
0.0031620056351678 0.0193075811863898 0.0016526903737983
0.0001748168560262 0.0017145042593835 0.0000580336745844
0.0008472225062385 -0.0113171658560675 -0.0001835257840961
-0.0000381972611916 -0.0011663476829331 0.0003428146796940
-0.0006188009288425 -0.0010044549403653 0.0015878325178172
-0.0020356011593045 -0.0029050481686948 0.0003570515482819
0.0009807683456473 0.0049386668295178 0.0001481886596310
-0.0005468894952078 -0.0005728117637833 0.0002312258356696
0.0055229376214498 0.0033154927944320 -0.0000155712228652
0.0055229380070488 0.0033154930185097 -0.0000155713411422
0.0004298727438333 0.0016353034502159 -0.0002152844835116
0.0029125097461852 0.0163747063069386 0.0000155717499212
0.0000363124907307 0.0042607291463097 -0.0000833584275791
-0.0024811941013863 -0.0140286386535518 -0.0007777246729482
0.0106482585805115 -0.0013294582785964 -0.0005726841707506
0.0072167071914861 0.0039574044048338 -0.0004722907481052
0.0005798893510003 0.0069198838656185 -0.0007405387123396
0.0013742432375252 -0.0000079502061261 0.0013960123156708
-0.0071334889754752 0.0028960912641679 -0.0000421626775618
0.0058101922056005 0.0044490573471319 0.0010123878945599
-0.0057050126495171 -0.0231003779915752 0.0018140390332519
0.0116592563987399 0.0047393217850902 -0.0017902185129061
0.0158446993361014 0.0106677055501917 -0.0027463128705444
-0.0013320704515863 -0.0042984671168181 0.0006769801457336
0.0137785269785105 0.0010873407116115 -0.0010275985785602
0.0004619171147462 0.0012356060622373 -0.0005445811439649
0.0059333003438131 0.0197838516616588 0.0003502629804149
-0.0005327530218068 0.0006746980940530 0.0002268270040932
-0.0007884289051463 -0.0003872207133730 0.0001966744696420
0.0000975816543100 -0.0003781164316826 -0.0001135266660974
0.0014146385561883 0.0028802683695481 0.0003494073313554
0.0010319286050682 0.0035471527382308 -0.0000063039418507
0.0003540133896847 0.0003615111038796 -0.0001671158448808
0.0005189849918212 -0.0023941612685160 0.0001471695340371
0.0003574881135604 0.0002263979367792 0.0003443150475895
0.0023027051538838 0.0090877616814740 -0.0000992133114601
0.0002114627717518 -0.0001735120618156 0.0002262642874703
-0.0018068514384362 -0.0011417468209492 -0.0007389807915725
-0.0031385748668785 -0.0053593420849586 -0.0004804712037621
0.0017787216859200 -0.0018124061292807 0.0005320381126420
-11.8460318246998497 -65.0757936070594667 1.2932441366756786
-19.2755906732912621 -9.0463683716092529 -3.6489924159562164
-24.4062952151092283 -11.8029626739052365 -1.4288048226259256
-9.3841100610474264 -52.4339044456910273 3.3601010703289020
0.0002830310063666 0.0006306410574434 0.0000782932178969
-0.0088460842977613 -0.0130463025968145 0.0025712761974188
-0.0015854275442429 -0.0030065012610471 0.0007302168691079
-0.0014393252479832 -0.0004585976050877 0.0000483727640774
0.0006720769979244 -0.0025008358131112 -0.0001189688023328
0.0019202883137049 0.0045667949596516 0.0015733413496456
0.0012061449852906 0.0064722747513573 0.0003584411587755
0.0001360052114863 0.0001917274245728 -0.0001105282610077
-0.0006037139649917 -0.0004777044376103 0.0005466507303031
0.0010609792244885 -0.0001156800861724 0.0004648770780842
0.0000283752979892 0.0000163815057453 -0.0000234626217858
0.0009390675846366 0.0051718059032799 -0.0000341319687463
0.0016439511902956 0.0067937340594587 -0.0013515733355854
0.0003817516997382 0.0005245044851700 -0.0002284385510251
0.0005720353958469 0.0007818943261141 0.0002526685015716
-0.0033297836973607 0.0027465323758941 -0.0004779340909532
0.0045269537806929 -0.0142612124820955 -0.0000360616248679
0.0007827212754741 0.0015734191545279 -0.0001352603165480
-0.0022938452572931 -0.0040568012566425 0.0000262560229846
0.0002985632815817 -0.0003161931421421 0.0000554702706779
0.0011468006014115 0.0014003852559029 0.0005685270265348
0.0004010490982722 0.0001243113704133 -0.0001270109807277
-0.0018104670516306 -0.0003534943155565 0.0002269927094550
0.0012254723737763 0.0005902263099486 0.0006258776764067
0.0008423843186686 0.0050438372252779 0.0001943882552645
0.0010367628016618 0.0027768083083454 -0.0001234347719336
0.0011065746488471 0.0013066165672002 -0.0001885752894898
0.0011486787183838 -0.0010474580440195 0.0002643805361612
0.0015428208816618 0.0011236277767696 0.0004427924683731
0.0004299758896245 0.0002935475081211 0.0002635331859549
-0.0012208512364755 -0.0091212839229417 0.0002517666941702
-0.0000298852929120 0.0000710561030575 0.0000346718854057
0.0021022208715378 -0.0017381378018415 0.0007514667585478
0.0008809658920852 0.0011783533656414 0.0001488455081777
0.0003038928382960 0.0015126079530412 -0.0000161703109604
0.0013289091948814 0.0020654565473618 0.0001931393607584
0.0084684814577433 0.0091897687378288 0.0030304366114183
0.0004183854945412 -0.0008650581317856 0.0001686044733279
-0.0014524228787429 -0.0095169911947932 -0.0008372251036797
0.0046385607397662 0.0022640966875709 -0.0000417560598168
0.0047397035624448 0.0111570995465485 -0.0012842695482554
-0.0001659093509336 -0.0010241115170452 -0.0002570470776295
-0.0010533853833414 -0.0052733467491076 -0.0018776374966394
-0.0035954006990738 -0.0026552502134895 -0.0004547599650747
-0.0003595317356258 -0.0002764482272117 0.0005074788956374
0.0053175296626455 0.0051943612637843 -0.0010257313843485
0.0000502751263955 -0.0000747037480376 -0.0003804853535759
0.0007564922561872 0.0008008441521930 0.0000178639527715
0.0001071664830929 0.0001178323567356 -0.0006939441877194
-0.0014553878515168 -0.0047441160279301 -0.0001632437869908
0.0000788660154834 -0.0012472285512655 -0.0002703641901841
-0.0002397504062910 -0.0040759707696359 0.0006110962299029
0.0003459179625580 -0.0011346494805621 -0.0009188081137794
-0.0001437021789307 0.0038009505416224 -0.0001337193654640
-0.0003659981679748 0.0015735590922290 -0.0008294565118225
0.0001358015949216 0.0009727379188550 0.0002873636916209
-0.0014254764872377 -0.0023633237894529 -0.0003002399024559
0.0016257613820689 -0.0001083719282964 -0.0001217416005306
0.0001700204731450 0.0003781185906223 -0.0000902481239307
0.0000557720811222 0.0002909143385838 0.0001391751159097
-0.0002923695624820 -0.0004421555668462 0.0002738014679479
-0.0002923697982818 -0.0004421557521614 0.0002738014388048
-0.0009780888553276 0.0067925474234056 0.0038171287017337
0.0023506978103667 0.0066057558525632 0.0011070362806020
0.0020827912787216 0.0035713883371719 0.0006933346805204
-0.0002995594801910 -0.0009459329806562 -0.0008885778077277
0.0011172349814667 0.0004885448862353 0.0001930404919181
0.0062283223966937 0.0130243289630194 0.0026750262989505
-0.0015746635063591 -0.0005285868457282 0.0000084103357650
0.0011965037168459 0.0232520233510964 0.0011130985672137
-0.0015044319838229 -0.0047300220398854 -0.0002934890869606
-0.0001636972232451 -0.0049959952921610 -0.0013358820516958
-0.0042245786403383 -0.0162138023896842 0.0017071615812654
-0.0014615477616231 0.0058963060424091 0.0007332942091290
-0.0000510853855392 -0.0000999263534711 0.0003341997517206
-0.0001921616038639 -0.0003434637984947 -0.0014195200318403
0.0017773358000723 0.0124155554940694 -0.0006416257632297
0.0016034003710144 0.0013459670589882 -0.0000710654163190
-0.0005327414360818 -0.0005137640861054 0.0012930592064827
-0.0000317028308849 0.0000726551396598 0.0000822044307287
-0.0002403122896276 0.0000700399105710 0.0001521708500430
0.0003064696804383 -0.0006477420932010 -0.0001691298904659
0.0005234849630981 0.0024001512196948 0.0000079073198640
0.0000079560254671 0.0027551734845149 -0.0009617364760006
0.0003530063188356 0.0014213809738935 -0.0000873636130870
-0.0009280407166678 -0.0047726948972471 0.0001514333743823
0.0010305614187989 0.0053919805511943 0.0003727226000214
-0.0007286557076681 0.0011284342015065 -0.0000853857445645
0.0003404672883708 0.0031413408187497 0.0002785764169250
0.0012117818224719 0.0010880776957530 0.0002517449274121
-0.0005022299203741 -0.0028965382973106 0.0000045251667306
0.0000096818349501 0.0054540813194731 0.0002725213074010
-0.0007847421334562 0.0072352785329770 -0.0011297948583358
0.0028305994231085 -0.0151452850900183 0.0011070829687038
0.0007767705606123 0.0088640307247658 -0.0005507883171461
0.0120326326671648 0.0066383298607839 0.0003531992816516
0.0120283507108567 0.0033635711533629 -0.0009321988984856
-0.0014329103493413 0.0077591974275755 -0.0003381329079862
0.0085558160238882 0.0046150261249676 0.0000453324330708
-0.0018721373039002 -0.0106380461590110 0.0006976748074813
0.0089629152585665 0.0070587425702395 0.0009480054888911
0.0076677264285832 0.0021056827555559 -0.0003221450785715
-0.0007320816809238 0.0005522801663024 -0.0003316326564393
0.0003187717510933 -0.0055679616568496 -0.0007106455656446
-0.0012394381189767 0.0001233789403290 0.0015819224353576
0.0007730612467957 0.0035632613510749 0.0002872808732768
0.0000094673211345 -0.0013873816575779 -0.0017983459186339
-0.0010355522842432 -0.0074596955365601 0.0004610104524631
-0.0012394383846361 0.0001233772060016 0.0015819225574715
-0.0035082396127522 -0.0019518781210283 -0.0003120390093270
-0.0016596345699259 -0.0006748204050696 0.0003046665363421
-0.0000732233432251 -0.0013876115234242 -0.0003741422261282
-0.0004171641556407 -0.0039900278504213 -0.0015819095692683
0.0013535740471679 0.0001674473613737 0.0000942168122534
-0.0011767461135041 -0.0078115394298526 0.0006968422125610
-0.0007901540368551 -0.0049624283857963 -0.0026839491934373
0.0005889100819608 0.0042764508550938 0.0000644278052428
0.0055766898233332 0.0012202861379186 -0.0011771233307401
-0.0020375083339630 -0.0173842584786821 -0.0001338067450727
-0.0006183879955890 -0.0016757497446400 -0.0005321205194733
0.0045333977120767 -0.0049563237058594 -0.0019062015716231
0.0013471139628577 0.0006633065355390 0.0004822099946784
0.0017201214722189 0.0073879226028988 -0.0000842987817065
-0.0017722778170305 -0.0113247855575773 -0.0008354988675063
0.0003372162144522 0.0050526814723249 0.0001060211403789
0.0011594090656424 0.0016108110796829 -0.0001494486618436
-0.0043083942991221 -0.0260310253030961 -0.0004956972586506
-6.8195859068725460 -2.4477954066505778 -5.5308905693654333
-9.2639243663537361 -51.7927540100143133 -3.6288243462087113
-0.0006565493219437 -0.0011205584151241 -0.0001819237140463
-7.3524031951251070 -41.6601813995736450 4.3134937144982137
-18.2506835987741773 -8.5278304657372335 3.7795481845127057
-18.2506835188775085 -8.5278290273758994 3.7795480588419399
-5.5130175118196432 -31.5860610416969756 -5.0026238087592922
-10.9516870965418391 -4.6198007710012492 5.1070337704472353
-0.0018126520967745 -0.0028739352120834 -0.0003880925348515
0.0056305540214610 0.0116389544772652 0.0021708850792653
0.0075075219446982 0.0291195160222775 -0.0042615120796774
-0.0007496253935284 -0.0003729397572535 -0.0001277858945623
0.0000185017115347 0.0028242610504295 -0.0011159311551663
0.0012750713966422 0.0005698706832872 -0.0002799589560257
-0.0017287477849637 -0.0005236944084426 0.0002464844126243
-0.0003457011804225 0.0023646828245437 -0.0001721510641088
-0.0018221427587858 -0.0125175181588808 -0.0013998850370895
-0.0011152468527205 -0.0007768509945001 -0.0003366434512518
-0.0002866483179420 -0.0004556986918343 0.0000367783892245
-0.0005621191223935 -0.0023482130219575 0.0011766379421047
0.0017298338101826 0.0002908363194458 -0.0001684616198676
-0.0014223865496612 -0.0025548876376882 -0.0002420900057817
-0.0005447578590019 0.0054641049124639 -0.0010967316702068
-0.0060569817100712 -0.0161214266069811 -0.0009883883995605
-0.0017216118059399 -0.0059180521372439 0.0006538618692321
-0.0001901314433228 -0.0009885430923716 -0.0000302839424614
0.0001360463310112 0.0005312092045089 0.0001056157122050
-0.0005836256158191 -0.0029956992342645 0.0000667973460556
0.0000728909593675 0.0001776974870656 -0.0001937538767853
0.0016233870756973 0.0105119074410966 -0.0001213563647725
-0.0010360846705944 -0.0010394263960841 -0.0004164751106293
0.0005906217465946 0.0024716601552533 -0.0001261478940238
0.0008979357410011 0.0003940242873355 0.0001134508039799
-0.0003925829242341 0.0069401630625884 -0.0009321109344440
-0.0016582277612535 0.0022551933981792 0.0017448425371493
0.0003995863216715 0.0021830250234056 -0.0001264722358421
-0.0023611970944171 -0.0038371632732810 0.0006416054435591
-0.0004926388312585 -0.0007060592003948 -0.0003595966559216
-0.0006264274669586 -0.0046961992876545 -0.0001469440262026
0.0002309587498215 -0.0004648177835862 -0.0000770865057118
0.0011354402908264 0.0015337636214881 -0.0004174542047481
0.0019817391774013 0.0023863322473619 0.0015000180938925
0.0035576606926838 0.0087824203856669 0.0020174288827625
0.0007337628276310 0.0047324597101724 -0.0008726089157353
0.0017866233725911 -0.0007591614685771 0.0017638340302798
-0.0050060905560267 -0.0203536230296392 0.0010292980043068
0.0018029572064630 0.0012936293781038 0.0002220785472454
0.0005824680009974 -0.0038265057956269 0.0005888496634896
0.0011149603972072 0.0029496431561011 -0.0003828945062456
-0.0000213571128037 -0.0001959940448001 0.0001066473764395
-0.0002452922174623 -0.0000930515345714 -0.0000754417376460
-0.0010361321246494 -0.0005957005504357 -0.0003411219014827
0.0019463920181341 0.0031088589432131 -0.0002311743361360
-0.0004563876743075 -0.0021764666928133 -0.0000289855643793
-0.0019126260096773 -0.0015479697997110 -0.0004935176693968
0.0011090199243589 -0.0006071540389008 0.0001599574988959
-0.0003227871934951 -0.0009703069734658 -0.0000096535175856
0.0005732079090608 0.0019453874445794 -0.0003330545869342
-0.0005547868815741 -0.0029791078055522 0.0002372104427648
0.0008149103642770 0.0007184417042752 -0.0000240229560684
0.0000207446197999 -0.0008313627714892 0.0000300025745073
-7.8320955075287904 -2.6587973210563423 -6.3423866278027710
-0.0000064984714724 0.0000444354639163 -0.0000069552399768
-0.0009843227435303 -0.0002932875580646 0.0001024906388953
0.0005507429626599 0.0031931247766329 0.0002006544305957
0.0008192854696589 0.0009337617261621 0.0001346418027192
0.0019905750238096 0.0062613057138838 -0.0001796905294112
-0.0003801459136930 -0.0020928120618288 -0.0005068037179591
-0.0003745785048275 0.0035047534787309 -0.0002441717611011
-0.0002361857587708 0.0005071101698100 -0.0004180346446232
-0.0012642789747336 -0.0014462773735751 -0.0002596174302285
-0.0018621397211212 -0.0008942963832751 -0.0003946040004479
-0.0012978463521278 0.0004832628688296 0.0002125361075291
-0.0001007323569979 -0.0000056647403666 -0.0000230905166535
-0.0022545680241716 -0.0047322131550467 -0.0011228508248798
-0.0000548313915476 0.0010069594372219 0.0002080316320661
-0.0003329695011966 -0.0001001121577809 -0.0000424898507030
0.0009664303421359 0.0032566410037923 0.0009817781460058
-0.0012566678209874 -0.0007019662512608 0.0002421249499149
0.0075161170003848 -0.0005768396089923 -0.0008775270838618
0.0004745382191475 0.0002952874486596 0.0003579783039409
-0.0018934757659106 -0.0018830200736130 0.0002532164415515
0.0002221600494161 0.0014378880171791 -0.0000994096297767
-0.0007707211125465 -0.0030862659933595 -0.0001935380986295
-0.0041370636169745 -0.0210028885212105 0.0012958173649842
-0.0006075578016308 -0.0007597028229966 -0.0000563798114276
-0.0008524095501861 -0.0052966576468400 -0.0000604793871619
0.0000431810168954 0.0022798159501975 0.0002339359747427
-0.0000312823977109 0.0020806318886747 -0.0002689167067976
0.0010929033126908 0.0009820909477919 0.0000147043054789
-0.0034219381403729 -0.0091800078773260 0.0014950966711072
0.0027507018287366 0.0163140134130467 -0.0023534163444914
0.0003279538432618 0.0014858248317444 0.0004417951527661
0.0007783019764419 0.0004691382147048 -0.0000635609794344
0.0002495143914815 0.0001606526234748 0.0000839726275007
-0.0012107392696942 0.0001753620870443 0.0004151941889677
0.0008763359672269 0.0073152484811275 0.0006130216669511
-0.0006137723381943 -0.0002362586294723 0.0000648701734030
0.0012655136011173 0.0067223269021896 0.0003626817055520
0.0011655061564833 0.0083498553276381 0.0007215046995096
0.0042570483067777 0.0294186921837860 0.0032572847353485
-0.0063744030082597 -0.0026364867646049 -0.0018581549635763
-0.0044921257751309 -0.0008443408454159 0.0000083089459546
-0.0047883065405130 -0.0026221324632052 -0.0009017390337242
0.0095674149515239 0.0028518160200072 -0.0032571121589673
0.0042570504599395 0.0294186970001037 0.0032572853673613
0.0042570499094946 0.0294186949146301 0.0032572852505430
-0.0018778343191343 -0.0024431499066269 0.0010531399086850
-0.0063744019130543 -0.0026364819425878 -0.0018581543664159
0.0042230139686687 0.0003808799569627 0.0008611703080799
-0.0033761110424418 0.0029641600094665 -0.0008066954319669
0.0029500760631000 -0.0023354067049088 0.0009344202933479
0.0029023449760488 0.0081172164364928 0.0004169777623300
0.0095674157011883 0.0028518168828464 -0.0032571122306425
0.0064563614303970 -0.0085748719107723 0.0014871849768091
0.0013642263994733 0.0085472425473328 -0.0001225387551451
0.0013926347239561 0.0106891644563784 -0.0005702922612382
0.0028261342763494 0.0012338895294763 0.0001225369515602
0.0003056607754386 0.0000784665215557 0.0003638509591763
0.0001551521431876 0.0063010037076404 -0.0008077601160501
-0.0049827318817754 -0.0063018216946275 -0.0009080310993623
-0.0011077150453964 -0.0019508746358469 0.0001261587362663
-0.0007537072302787 -0.0021944021414083 0.0001609231697851
-0.0017772420849049 -0.0018393576613004 -0.0003140562156668
-0.0010333781537377 -0.0049571435817381 0.0010744439517642
0.0018928171856350 0.0204960824801307 -0.0028719834196890
-0.0011077149918967 -0.0019508740123669 0.0001261587600197
0.0013926348320254 0.0106891651838976 -0.0005702922067932
-0.0033009928261424 -0.0089486854567878 -0.0009274155988372
-0.0049827315661607 -0.0063018177831986 -0.0009080309986905
0.0016072343383991 0.0054557975184437 -0.0005144050342198
-0.0054488793457611 -0.0042285867937039 0.0018276147629177
-0.0080269262693386 -0.0051782286815521 -0.0013796313381412
0.0003767295215959 0.0013214099752206 -0.0000913909371327
0.0001890909805103 -0.0006663296368291 -0.0003630217845088
-0.0012557621882195 -0.0026872469196001 -0.0003237008303612
0.0002848103925425 0.0005208907162591 0.0000856788912221
-0.0005733887772243 -0.0035880830976469 0.0001953351458743
-0.0004817767266765 -0.0000312634813494 -0.0003354913868992
0.0002108383531662 0.0004392301501324 0.0000153465463037
-0.0023152159190597 -0.0021057286490651 -0.0006086683330087
-0.0001576511955481 -0.0000092933746907 0.0001436414337819
-0.0030865630281316 -0.0208790881949355 -0.0008388461180522
-0.0021348334700142 0.0013414976817816 0.0025063474749979
-0.0034143737823013 -0.0042411787954038 0.0024921397493997
-0.0001201813726079 0.0003870164638428 0.0003247193662868
-0.0066988726991954 -0.0222679423615370 -0.0018382053442152
-0.0019779796531589 0.0060777607847441 0.0023390129298321
0.0002884167878412 0.0034244028319084 0.0017801413991594
-0.0021641103980586 0.0024156157546363 0.0030440374569447
-0.0009381439505950 -0.0071347884277452 0.0003603693516255
0.0013106612383801 0.0001017531634323 -0.0002596938939057
0.0006770743415790 -0.0003672259621697 -0.0003413926459709
0.0005690823120410 0.0076941661331862 -0.0019808207129412
0.0021266859754207 0.0017052993142663 -0.0005832976320492
-0.0011744683866731 -0.0138704773209056 0.0004517049761114
-0.0004808816805603 -0.0012632941034816 0.0004528007203011
-0.0012384841675653 -0.0095461873726792 -0.0004688316075257
0.0020939405813256 -0.0002845898155082 0.0016096410443134
-0.0009294513604653 -0.0143765086128268 0.0006261018424682
-0.0032861706489605 -0.0065624452229049 0.0019853114033273
0.0001062104121242 0.0000526250987187 -0.0002550976143371
-0.0019849769229094 -0.0117032151155454 0.0006815367750550
-0.0000851426669889 0.0003857226655583 0.0000313047450737
-0.0071172317743207 -0.0125676485394938 -0.0027019577856397
0.0010918552031013 -0.0016055953814627 -0.0004592250534992
0.0010918545067694 -0.0016055958828891 -0.0004592248945007
0.0004169345019821 0.0008024008355227 -0.0002629584444980
0.0018833015915324 0.0088178355697153 0.0000057931350180
-0.0001169877374912 0.0005682419681783 0.0002759250524785
0.0005325518104208 0.0017373454335904 0.0003372845825170
-0.0007815267998028 -0.0011919566874793 0.0001297757341516
0.0000807342464827 -0.0006692707378547 -0.0012820650367536
-0.0018251864928624 -0.0031493348083720 0.0000170697318188
-13.6153283215901340 -73.8371181875480289 -1.9403967811021192
-0.0062304932515806 -0.0123476240785700 -0.0018495507128459
0.0000761124162607 0.0019740471870039 -0.0034370899125754
0.0021202256320048 -0.0003842661442245 0.0018324482256220
0.0019996833424177 0.0136538975086808 0.0018912213993294
-0.0004252376706666 0.0003365050286471 -0.0011016611057017
0.0013773965063591 -0.0036550241978525 0.0015634114881338
0.0001377560002071 -0.0001714694393721 0.0004166600015978
0.0064710791419170 0.0080341744127641 -0.0027620694307502
-0.0007280357368459 -0.0016817643590810 0.0014954717367015
0.0009501599603304 0.0010446934161444 0.0001098444400461
-0.0088432505835600 -0.0156263306447948 -0.0020210957834858
0.0032126875719783 -0.0006829386942822 -0.0001645943784179
0.0013916576582056 -0.0006788812984246 -0.0003159964217367
0.0007801838182965 0.0015849471031350 0.0001153089385647
-0.0005112326278920 0.0127854617521917 0.0002635684078546
-0.0021700063165349 0.0028950193852822 -0.0002929459869693
-0.0002918269261592 -0.0001741522385002 0.0000650801120581
-0.0011700370001223 -0.0144508205857449 0.0003609180254536
0.0003141007604772 -0.0023169180001979 -0.0010298838500624
0.0012934032323600 0.0023695419436771 -0.0004451380425683
-0.0021859341502111 -0.0035668864373092 0.0016038671442041
-0.0024949765471300 -0.0063044134202593 0.0005861291644943
-0.0042777069886931 -0.0013044008597162 0.0021459012904403
0.0018076746591496 0.0076110974278458 -0.0008573372896073
0.0000555865955679 -0.0001172157893741 -0.0000302439219266
-0.0004651526807774 0.0015262190334777 0.0006427800775487
-0.0001481802084479 -0.0003989207164061 -0.0000661516519096
-0.0044435899524777 -0.0037304841967618 0.0004734779508567
0.0017513958791497 -0.0013422443608471 0.0000445925685974
0.0045609849681718 -0.0040805822438649 -0.0007716914376990
0.0009105716432151 0.0009543697099738 0.0006463964191965
-0.0006039282058251 0.0032779405840506 -0.0016351891915649
-0.0007411532192328 -0.0026621041774254 0.0002406203614969
-0.0001686984185762 -0.0014288148786385 -0.0006338144692993
-0.0000073916351352 -0.0028577399724830 -0.0000896641704602
0.0002827481055397 0.0016186432316293 -0.0002663033116237
0.0033528125540676 0.0018886694102264 0.0002682625541317
-0.0004959995827785 -0.0004717494449013 0.0002452328086997
0.0005040859085385 0.0006210322878958 -0.0001536363466554
0.0014394604143735 0.0048524804115816 -0.0012175817576361
-0.0001392233797871 0.0004762414170373 -0.0001718147362727
-0.0001857314266811 0.0006736477260367 -0.0002009733953217
0.0000445424850847 -0.0002469923521178 0.0000280284044059
-0.0008046425342499 -0.0054071635835096 -0.0001138947061267
0.0014889391716487 0.0005515947799732 0.0004053487489859
0.0000487199246052 -0.0003234278371251 -0.0000868165947675
-0.0000107096311098 -0.0013317236400234 -0.0000626754265459
-0.0002263717241886 -0.0001931420815013 0.0001499697961385
0.0001961153083961 -0.0001193672565012 -0.0003436522271214
0.0005754830307915 -0.0004331658166272 -0.0000957635129270
-0.0002083654003604 -0.0009066893380525 -0.0000006993245012
-0.0014496166669585 -0.0005498302945753 -0.0004482261398371
-0.0005215568109449 0.0005373428455021 0.0003701562968924
0.0023307042067654 0.0020015777277326 0.0002600656364853
-0.0000916851913406 0.0019338557404951 -0.0003392873866653
-0.0000280994684501 -0.0005790616319570 -0.0003934779563550
-0.0002585672483352 -0.0009240409189828 -0.0000838757784020
-0.0002930126824515 -0.0036809433059776 0.0002370418875043
-0.0001225529372209 0.0006828428321168 -0.0002077408148276
-0.0003362597665114 -0.0002207155047399 0.0001495903081214
-0.0005809797229684 -0.0025111208352885 -0.0007826050692588
-0.0011618937127441 -0.0017992813955959 -0.0005469294395791
0.0001902751353898 0.0027848598935509 -0.0002271267298795
-0.0010233817668772 -0.0018664145204178 -0.0000978425019132
0.0000833292814611 0.0012273210477506 -0.0001419897756572
0.0007102853774209 0.0029482293699085 0.0002889086198110
0.0000058905710488 -0.0009011337667532 -0.0002790903934664
0.0001530767150902 0.0007098178531428 0.0000331604525754
0.0019852531744942 -0.0009722808043941 0.0000290807506123
-0.0026378262999351 -0.0194791128646236 -0.0000394599684956
-0.0003165448942389 -0.0028360868308593 0.0001702443294236
0.0001110076510673 -0.0044288946520202 -0.0009799389096543
0.0001874314632918 -0.0011846353556631 0.0009561776216618
-0.0011929072281177 0.0004773479222175 0.0013051889597696
0.0002204962836871 -0.0007710341721643 -0.0000441870399987
-2.9259693690800210 0.0155303551051771 6.8695796364259376
-0.0010469480071404 -0.0005116880520909 0.0000818561004186
0.0005847850997192 0.0010807707537749 -0.0001277976052095
-0.0005742881043854 -0.0038242861761746 -0.0001192109817475
0.0013332970283068 0.0031339532000064 -0.0000071771098140
0.0008548685371995 0.0034815975696046 -0.0003504682506245
-0.0007157371194285 -0.0006170766302671 0.0001158837211268
0.0002213937989141 0.0000439198352126 0.0000790259062529
-8.0496680686938848 -2.7075781433043593 -6.5150955374773947
0.0024913075334238 0.0039414473090588 0.0011648153190688
-0.0003661120056450 0.0000927730582255 0.0000125289169154
-0.0000348210063986 0.0089294448049799 -0.0000587260601079
-25.3291842349329386 -11.9749377186932247 -3.4300190624543858
0.0032873096486999 0.0211006250686513 0.0005290770122787
0.0027808029372453 0.0068747394471564 0.0031588246817294
-0.0006138215196539 0.0020607536058748 -0.0002726538443471
-0.0004153993623069 -0.0004054382322873 0.0004830043820189
0.0000306340214640 -0.0023032349113902 0.0001193831282112
0.0020411830551161 0.0012964248914057 -0.0008148312899309
-0.0004535196031758 -0.0008835426083973 -0.0004929578792684
0.0007672593774251 0.0007393308685900 -0.0006894263624479
0.0028937204388917 0.0154667546969483 -0.0009151763112094
-0.0018697711327578 -0.0000112787727450 -0.0011018872450770
0.0004632500047069 0.0027356002056290 -0.0000909558940722
0.0055258199068799 0.0313714363621750 0.0007417367583147
0.0003184725270105 0.0054015444707594 0.0001044034095185
-0.0004995510649954 -0.0015300454305542 0.0003008478060861
0.0000844693382206 0.0033607675107631 0.0002754675140601
0.0042703551817008 0.0017130419406249 -0.0005285189760818
0.0034991409675897 0.0012682332540579 -0.0001714263472698
-0.0009573451262641 -0.0053265575456975 0.0020597233682500
0.0051514483728468 0.0114840691434186 0.0001564349451453
-0.0019978734838567 -0.0070161148697886 -0.0019334002169764
0.0004827974002223 0.0021248833793549 -0.0002140934167306
0.0013987785955919 0.0023935039113797 -0.0001486110535486
-0.0004154852222155 -0.0027630955341980 0.0003252405555303
0.0012626192667218 0.0008906961562322 0.0001714525842863
-0.0007454612794424 -0.0027280675942249 0.0004037618251473
0.0026278642354644 0.0024026952337174 0.0001804008604386
-0.0000438364980010 0.0028534375709933 -0.0000194161718347
0.0005811444435220 -0.0020266530123840 -0.0003437931302015
-0.0028934821234333 -0.0013091882248709 0.0000990154133763
-0.0030860898682410 0.0006063644990378 -0.0003274968399898
0.0012764726849494 0.0077176833996106 0.0000200388231686
0.0023483903297851 0.0058428309539407 -0.0001554172723624
0.0003653029643883 -0.0000365447176267 -0.0004561535247684
0.0060020065421612 0.0067205113792258 -0.0001009440637189
0.0000401437422372 0.0013803531676476 -0.0003566785185907
-0.0018610880864038 -0.0006198416036251 -0.0000349848033466
-0.0005839904998335 -0.0039194994231379 0.0006553545529416
-0.0020649225098107 0.0001981348698520 -0.0001403160092321
-0.0024761117592684 -0.0017494059118649 0.0003068645397825
0.0003445931092533 0.0000164746097283 0.0000230805749672
0.0002153394326222 0.0005933008812857 -0.0001369805505586
0.0008176946988358 0.0004975385521835 -0.0002017525812947
-0.0011182515168117 -0.0006649802630042 0.0004288811661234
0.0000790023244265 0.0000939007984387 -0.0003647844191342
0.0005952841297799 -0.0013066420673534 0.0003547299883963
0.0000951700886833 -0.0047143520972267 -0.0003514488690204
0.0019712284238205 0.0074510721806154 0.0001692317713391
0.0003522253437486 -0.0002866978762620 -0.0001431967867559
0.0002062382038260 0.0001258609405952 -0.0000614455982002
0.0007208678725102 0.0008283356357609 0.0000166987323854
0.0003873076586676 0.0014685228377949 0.0004040870043219
-0.0004353689203401 -0.0036989978478789 0.0002460233089062
0.0006013539745344 0.0000953788537179 -0.0003169170540897
-0.0010799287482973 -0.0011039287984115 -0.0002683154617846
-0.0007654532008798 -0.0021154172510396 -0.0002075601649370
-0.0008026354364875 0.0005262343026224 0.0000176430136362
-0.0018060123660999 -0.0056565056931523 0.0004471556204476
-0.0016591076270341 -0.0136530362605473 -0.0007892516319976
0.0051825076996010 0.0118568486885250 0.0004983102319712
0.0024586410427400 -0.0043106285687032 0.0000849819668998
0.0000375183362891 -0.0007818529557303 -0.0004313261238680
0.0012428481392945 0.0109528258984366 0.0002366538865641
0.0004185796826889 0.0051325125738492 0.0001612186986216
0.0001704228220205 -0.0004139067565120 -0.0000738960140587
0.0006104748287544 0.0042307062382697 0.0000116107602829
-0.0000909480053795 -0.0005145498814962 0.0000600692424749
-0.0001080493330860 0.0006690396511669 -0.0000327438525205
0.0003562821843084 -0.0000358465814872 -0.0000881444590476
0.0017269905190024 -0.0019677015222349 -0.0001653933341516
0.0007584276883103 0.0017936452406006 0.0001229594450918
0.0009895013057044 -0.0003519865576990 -0.0002864357682469
-0.0011789553431146 0.0017276965923613 -0.0007325580016879
0.0010638933934248 -0.0007531151945956 0.0001532936530501
-0.0011528548214821 -0.0052208745048726 -0.0002294231541586
-0.0018453591578089 0.0004083141363272 0.0003090587652616
-0.0004884506926032 -0.0010352139579474 -0.0005849141257697
0.0020740070310559 0.0119857753904551 -0.0003052760097654
-0.0021655763688916 0.0002493970687866 0.0003203143659621
-0.0005411070187047 -0.0023164637790351 0.0003248705562853
0.0095495592697398 0.0086429294813955 0.0005564423414498
-0.0032595416233153 -0.0115518444148532 -0.0045381857480130
-6.4074144526205874 -36.4452069155299867 5.4614004571255252
-0.0007347975463827 -0.0062678189988138 -0.0010317854377219
-0.0002185024907953 0.0005482385652473 -0.0003423761461531
-0.0004536478018673 0.0000106474119737 -0.0001766376538888
0.0002192412136687 0.0011410723616985 0.0000380250339763
-0.0014879402140940 -0.0009813851443175 0.0003486539554879
-0.0010547329459924 0.0019142174292285 0.0003130641529365
0.0003174783031080 -0.0003115247678644 -0.0005878611053647
0.0009767680039333 0.0004940812214006 0.0002122730243728
0.0002723599070687 0.0026938614505367 0.0001379793551496
-0.0006049493111803 -0.0022768951399744 -0.0003504227215975
-0.0036002868094563 0.0012249094694250 0.0010178000476539
-0.0001295204764932 0.0000507906754506 0.0000973091317611
-0.0047108598603862 -0.0089110582407807 0.0011244683451288
-0.0035100296796390 -0.0030089054342281 -0.0004586594688766
12.2751161689773074 80.4006346001229559 4.4461052459866020
-10.3856069432512736 -57.4401773331209284 -6.0161117963670891
0.0004580471026497 0.0032763441334433 -0.0000753580751700
0.0048330491981535 0.0010838676112407 0.0008362972290831
0.0010436991621860 0.0002162812995867 0.0002470312469655
0.0008191668355411 0.0006546248026765 -0.0000633438360097
0.0002738224923412 0.0001912259215447 0.0000233991426015
-0.0013085876466929 0.0046469965640181 -0.0000016560376878
0.0007192735287106 0.0040375801277875 -0.0000159191418106
0.0007046176916849 0.0003839796159758 0.0000320969460488
-0.0012532021458147 -0.0044552818182840 0.0000361640162807
0.0010310218336598 0.0008539714119526 -0.0000805296667051
-0.0005444710986408 -0.0008749140980906 -0.0002898257703946
0.0045321382678570 0.0101262218437734 -0.0007169911524844
0.0005584796823445 0.0013504442990245 -0.0001643238506849
-0.0044422832677336 -0.0302582402680683 -0.0015827672041348
-0.0001780655736514 -0.0001328292278987 -0.0000090232144578
0.0001109499113631 0.0005186537306939 0.0003323953528017
0.0006462237977205 0.0020291257385485 0.0004029882501673
0.0032528644024677 0.0104007078609146 -0.0016172032248109
-0.0026485463634839 -0.0048471772093738 0.0002993338432221
-0.0005036054997412 -0.0028702434314322 -0.0004220067563814
-0.0000062773689363 -0.0003824832054440 -0.0000537053312360
0.0002434710422463 0.0011020740843204 -0.0000353111168895
0.0003264017091769 0.0011062528616290 0.0012446823714337
0.0002557398634143 0.0007755250711074 -0.0001480080508522
0.0003429545184708 0.0034765427752348 0.0002833753389664
0.0006714045055234 0.0004031880022505 0.0000339907329647
-0.0006931331641560 -0.0001485822519306 -0.0001711258279087
0.0025527116257546 0.0162089862329461 0.0004445889695905
0.0000888215935852 -0.0007667909504577 0.0000404680689178
0.0011794764268210 0.0039755184089822 -0.0001877339232830
0.0056848565179800 0.0043752683803589 0.0010999143767083
-0.0034066143384576 -0.0011770628972093 0.0012496580903723
0.0007239262411587 0.0020189323156137 0.0006970316125708
-0.0000559585244880 0.0001084329880116 0.0001480830797861
0.0005404166618219 0.0004516279697225 0.0000944870306218
0.0002257235792610 0.0006895463893908 0.0000023594491579
-0.0013521675795894 -0.0002877776976775 -0.0003380000733209
-0.0015558860075165 -0.0001783103672024 0.0003374999523516
0.0005029685433368 -0.0045771918669507 -0.0002868664213024
-0.0015769033959379 -0.0054122657184342 -0.0003285763670423
-0.0001783766243082 0.0007441419208301 -0.0000274777606164
-0.0010307953058208 -0.0021342829896544 -0.0000914893781374
0.0017356991446267 0.0039425672425824 -0.0001480971923425
-0.0029177221399897 -0.0062875469129914 -0.0001117294787432
-0.0008963746330459 0.0126189115777380 -0.0014080300726091
-0.0006058669455329 -0.0018950870463554 0.0007050537508204
-0.0044657128397365 0.0026328963970251 0.0018950508318896
-0.0038195354552680 0.0065115946345766 0.0025421378420064
0.0004181653616535 0.0020478385620440 -0.0002511868765492
-0.0003744769373774 -0.0013816135304122 0.0000173200501401
0.0001900774073016 -0.0014167538790505 0.0000241148510357
-0.0001570161639622 -0.0048528187272780 0.0007074689849525
-0.0000784284070709 -0.0083681591885531 0.0009064507130724
0.0024246041847289 0.0178498549456433 0.0042351469790087
-0.0011974559802752 -0.0086576696425343 -0.0001623333413599
0.0005820150441266 -0.0003084575208684 0.0015248297567399
0.0040126787545112 0.0042493530521881 -0.0004031966247004
0.0010306251912281 0.0007395574279498 0.0002950356901583
0.0004991425898040 0.0047908513699583 0.0004837632262717
0.0010306246681349 0.0007395561586524 0.0002950355634828
0.0014771109513982 -0.0118961797193745 -0.0009351720542291
-0.0011005570423237 -0.0063042165639571 0.0005384018380245
0.0009053316301973 0.0000798175648090 0.0007272768739620
-0.0001467685453811 0.0002840942719735 -0.0004859740076193
-0.0001681019273287 -0.0000798647388696 -0.0000366336046394
-0.0006148521448102 -0.0030474245842170 0.0003270133156879
0.0015055225421372 0.0016040110664860 0.0013995204251505
-0.0002116839668423 -0.0001195487268825 -0.0000336282304661
-16.2335659463774498 -86.4756531062031684 -0.7467933062893320
0.0002895905559905 0.0015527777658652 0.0002810711565167
-15.8511708259104562 -84.6579429720716092 2.2513792380293451
0.0001351469069154 -0.0003666980179166 -0.0002468048861794
0.0013143349981772 0.0097276696509185 0.0028976319196849
-0.0016251832645533 -0.0061550128721781 0.0009743939620779
0.0042923400381290 0.0063995369727555 0.0018739209674638
-13.1307678269665082 -5.3751331732948140 -6.1190591338410583
0.0015316599270601 0.0065333635515182 -0.0010663530269129
-10.3160746402401902 -57.0642313334744671 5.9755038605215285
-0.0010533684865018 -0.0043940397223096 0.0007753467140872
-11.9765689479614483 -65.7474428470705732 0.5553649303301037
-21.9818263694049882 -10.1366577130681517 -4.5585079296262281
-0.0015809490815789 -0.0017548489149604 -0.0007753506555748
0.0051352256532770 0.0078214950713244 -0.0010307385475888
-25.0821799954113409 -11.8627458264444900 -3.3943880962458497
0.0041391802386939 0.0095223280834844 0.0003195133142471
-0.0015809489007834 -0.0017548455445020 -0.0007753507736408
0.0012306528235531 0.0066237725093380 0.0003137886748878
-25.0821799949971513 -11.8627458250697675 -3.3943880959971398
-0.0054671054734874 -0.0004109056084897 0.0003243626986098
24.1421109212545808 12.7643778669674095 -2.7681303629403424
-26.8404163736507186 -12.8748294741019347 2.0668870932809806
-11.3320394710826111 -62.4411981258418791 2.8690413406938555
0.0016247290416458 0.0060663355783773 -0.0019688166440430
13.2785441752164388 87.5354090696354206 -1.3904005031269133
0.0090714086761018 -0.0066444115247243 -0.0000101564532911
0.0027640777886746 -0.0287900145788137 -0.0022963743423046
-0.0095904645556100 -0.0369733180650452 -0.0022641896617296
-23.5376083891873442 -10.8154419866857694 4.8856413129086702
-5.3520534067456937 -30.7420212597519331 -4.8683126697885966
-10.6369226226228193 -4.5142426648878526 4.9603225175105496
12.1318675291031308 79.4089725153281734 5.2835664239012097
25.0451780323540731 12.9550396407890744 -0.4044977887934344
-22.9844642397468029 -10.5554363586955908 4.7720866764124850
26.3157306784981948 13.9832720005777453 2.9726914589949689
12.2159116562714871 79.9979349121001206 4.7825439732489041
-25.0828363831778702 -11.8661682807164848 -3.3949831836165516
-9.0842734847959346 -50.8652202905171649 -3.5659222883162345
-0.0013251331208119 -0.0025052519847898 -0.0018033871217237
0.0061022479193252 0.0140403974677967 -0.0010960453519142
23.3974339463817529 12.8877323186164041 -4.6324844439666659
0.0026188956958894 -0.0008083806241711 -0.0002930416721766
0.0015564441695487 0.0082149949074774 0.0001190840382708
0.0077502382463318 0.0110033991765853 0.0005006429225238
-11.4422357430887303 -63.0211892583641813 -2.8948713698228872
-25.0801499246564710 -11.8519028380454294 -3.3954613576758557
-32.2820182180298900 -15.3994367027005037 -2.4943323954083381
-0.0029610028835447 -0.0040333181004039 0.0012706463994547
-0.0128748081433858 -0.0075849145309003 0.0014503176666549
12.8368128980713383 84.3992334893562060 1.0930372441056593
-5.1887678644533599 -29.8149809277127673 -4.7174442996445789
-5.1972277893297836 -29.8861781635949448 -4.7300351514644090
-10.6560090557977176 -4.5157004540821566 4.9694098192536238
-0.0056508184112194 -0.0049431229713902 -0.0018571448655653
-24.9928683373456089 -12.0202691637476224 -1.9226567471056872
23.3974339461290661 12.8877323174578340 -4.6324844441399025
0.0005889184390800 0.0010760558992093 -0.0014536890266563
26.0985435582242218 13.7352751191975937 2.3892832775021842
-6.7258646969069291 -38.1501206157528259 -6.0746075328226059
0.0049031663512326 0.0255059170535012 0.0011714403340935
-0.0002388717910321 -0.0053600769780584 -0.0001165267456755
-23.1619830417435750 -11.2572086077712505 -0.5785291448841036
-12.6981232263927879 -69.3959329223273187 0.5895263905250535
-0.0003459211481968 0.0109365131769060 -0.0033873419051689
-3.8742081899655707 -22.4032875898795112 -6.2646105971229158
-17.8345262258647743 -7.8944062289372461 5.4526208336190329
0.0071920681308636 0.0103923973690942 0.0018105960897888
0.0099730015131185 0.0154309274819293 -0.0023082526322712
-28.5856123599573202 -13.8009197689396164 -0.7138406438357858
0.0021374791869178 0.0257542786159574 -0.0008104344843772
-12.6502514707208427 -69.0596341312799922 3.1895149515622192
0.0007312296732661 -0.0011831667669242 -0.0004164071151964
-0.0011393396957512 -0.0020219187987956 -0.0005306828410375
-0.0026577652095359 -0.0130078783927118 0.0007923036850329
-10.6454517537211775 -58.9031241306149695 4.1501432204570747
-11.8015255188708323 -64.8681814550376572 0.5475739912658869
-0.0008210944492869 -0.0049738674694495 -0.0004910030181639
-10.5543650252071259 -58.4420634074195320 -4.1159025038908501
-21.7680929121610625 -10.0500615632008277 4.5086495540698071
-17.6796790440861642 -7.8579196392172186 -5.4077242917598101
0.0029018647724228 0.0041559247228551 0.0006380798631383
-11.3381752928577733 -4.7854951744341179 5.2827897451083707
-0.0001172649240165 -0.0017066337437061 0.0005091095441756
0.0027930015360619 0.0068880794912999 -0.0006784438237104
-10.5543650250314798 -58.4420634071967271 -4.1159025038347572
0.0029018646579335 0.0041559247022704 0.0006380798290329
-8.6641127536694427 -48.6521772141111555 -3.4014056037909772
0.0016432055672667 0.0075427142031610 0.0005328333839498
0.0016553119996316 0.0054061139055160 0.0002943395954269
-17.5848409322690600 -8.2316606603137483 3.6350095574817081
-8.6565825462051205 -48.6250979605187297 -3.4037294832037528
-0.0000565887572524 0.0027579174732388 0.0004164104127749
0.0016432051948420 0.0075427155354038 0.0005328334190355
-21.7680929119572610 -10.0500615638056487 4.5086495540816562
-3.1664058499335614 -18.4181348165841676 5.1317160895710456
-3.8487592350316855 -22.2003467167328168 6.2082090402818491
-0.0009575015011675 -0.0093940568256419 0.0011490238388863
-0.0015703394774961 -0.0069882277092395 -0.0008918119393383
-0.0012430337306444 -0.0027754369440364 0.0018139866571399
-0.0048269106883900 -0.0066124802479785 -0.0009353472679977
-0.0024276758277196 -0.0207749361766904 -0.0004810982006186
-0.0009881174192403 0.0030113453506792 0.0006071510779530
0.0046359414476954 0.0183328008215310 -0.0020049271256220
-12.1142105992332070 -66.4391704692825584 1.7369273851653020
-0.0048269109828389 -0.0066124806175401 -0.0009353471912422
-13.2338253296920172 -71.9915100402981238 -1.8921650521798308
-14.3312246679728670 -77.3120117023164966 2.0411101867200161
-17.8365856031493983 -7.9056501844916145 5.4534492958104535
-20.4190750436587933 -9.7599051293019858 -2.7592838859168189
-13.9420375686185167 -75.4709226865819431 -0.6449271924985044
0.0065116518297971 0.0203081018005722 -0.0011585314960922
0.0015841852975644 0.0032275798054245 -0.0011161597381691
-6.3357359960036250 -36.0464273849902028 5.7286166791769970
0.0008151418005451 0.0084747617126791 -0.0002430167631232
-0.0021926860184362 -0.0026896549224498 -0.0008751289132525
-3.1362403030628361 -18.2597835641764483 -5.0869400089454979
0.0008506825403373 -0.0023182071301010 0.0002648458691583
-0.0030221935014919 -0.0156299780497969 -0.0007944499353245
-8.0521386733356248 -2.6994620651872743 6.5161089317852214
0.0035773409831934 0.0017806594775370 -0.0008852547395593
-0.0013235806855906 -0.0017365704225765 0.0004367863948981
0.0040235210317414 0.0118643261428357 0.0000122291668931
-13.1139461915238371 -5.3703422511945602 -6.1112027077379798
-23.7429445986405980 -11.4678473529678406 1.8246903389961902
-6.5721329421998842 -2.3794611717777925 5.3359874352758085
0.0004603427206119 0.0099133315624784 -0.0028727983087362
-0.0028935346410999 0.0059900337112696 -0.0002183897556436
-12.0744117308006995 -66.2363599990303840 0.5623136556930354
-8.8820344961040849 -49.7986860945141885 3.4841412501525406
-18.2276489119772407 -8.5203985234126574 -3.7695058954730740
-28.8713334151255836 -13.9331590773929097 0.7222831232427104
-28.8657516353553198 -13.9042097557382061 0.7235358424918927
0.0071682618445609 0.0044319694381192 0.0002763511398191
0.0036878522503232 0.0053493151292449 0.0000680709221596
-10.6665461060477966 -59.0089190887930286 4.1580581843380546
-0.0013732118110774 -0.0027555663614788 -0.0005456405067025
0.0020840661857886 -0.0001396272239011 -0.0001275600573369
-16.4198541956160255 -7.3427242123590073 -5.0218102770202071
-0.0017222502003490 0.0021713041558217 -0.0002756227199241
0.0014383588110155 -0.0003347027502575 0.0000598951917919
-0.0013480376139858 0.0007553917929603 0.0006810611978810
-6.3318428513433886 -36.0441112840842806 5.7294143356554441
-6.3322715131057272 -36.0356660549418493 5.7282011591413600
-14.9986460677055202 -5.9785190535767523 6.9880219880187022
0.0010363650352352 -0.0047457689052499 0.0020767814101297
-0.0054768221692347 -0.0246007237820305 -0.0008129187916389
-12.7344076239656214 -5.2507668988026941 -5.9358365961710069
0.0015214553135001 -0.0033226600642768 0.0006729668504502
-17.7305336904632611 -7.8557004400209802 5.4246865257984149
-3.2287674947277334 -18.7547698940891152 5.2270443217171323
0.0045221721483106 0.0105833816211670 0.0005857455819167
0.0038152736836897 0.0212061938590305 -0.0002763603635730
-26.7119270516909069 -12.1380586742258831 5.5455887966325959
-14.8710212698132338 -79.8907469274343356 3.7312368072338606
-8.1838907066675954 -46.0469374749891784 -4.7797768258512683
0.0016553125447934 0.0054061149795921 0.0002943397750378
-8.5796357149599949 -48.1439243095634382 5.0086742416810495
-0.0020557321133540 -0.0015894097290063 -0.0002630930004113
-0.0072686525343353 -0.0341858950052823 0.0006761085129359
-0.0148960043913002 -0.0231621285416769 0.0017947718955267
-0.0130755054077845 -0.0129644166204319 0.0009205805780977
-11.7995036107397002 -64.8349782307352740 -2.9826579999432261
-0.0014223380035104 0.0026240572870880 -0.0002914845369849
-0.0039387532292004 -0.0217469492356710 0.0002786191330666
-19.1059197079207053 -8.4289726773745972 -5.8469437916305171
-8.6542821629125015 -48.5255710340677950 -5.0485595907040786
-27.3816345625469424 -13.1376644604759392 2.1086403993236131
0.0010960225577970 0.0041865068266546 0.0034221727384690
0.0003616511416696 0.0000955877581539 -0.0000262019530727
-11.8966659709000862 -65.3150809088187998 3.0092848991699976
26.3865075383876437 14.0503158994802213 3.1399990095606656
-4.2889583791328354 -24.6578143658118201 6.9113404609422213
24.1454692972963905 12.7592213190156567 -2.7396935506279601
0.0013111334817877 0.0020233096282301 -0.0001278096428558
-0.0009741244339722 -0.0025844511294487 0.0010211004043105
0.0015635145508678 0.0064192404012060 0.0006956007126875
0.0001131649290712 -0.0016493078815139 0.0010552740877753
0.0004607098699703 -0.0045783218389128 0.0007263391646337
-13.3697397266173557 -72.6417193302006012 1.9093593794780916
0.0023312360565816 0.0029282454833908 0.0004182603345932
-0.0067277817707493 -0.0001854457136273 -0.0001285592992741
-25.2347473335857089 -11.5214768906188905 -5.2353019751382934
-0.0010143096473276 0.0021978325030898 0.0004036722172706
-29.6602302538341078 -14.1694902829549179 2.2872176667491493
0.0019925286139939 0.0021925324256498 -0.0009668291806516
-7.0372787808578421 -39.9640971354011469 4.1318210922188783
12.1546126325202550 79.5826458071706355 5.1118846374311859
26.1594636550947222 13.7952616315139505 2.5211511930145041
-27.6630974123716378 -13.2657440076839528 -2.1301579104550279
-7.0606127406683532 -40.0731830110662344 4.1385692725300220
-10.6620883755925888 -58.9783610095591655 4.1612520653670568
12.8974352397809877 84.8071379839635426 -0.7986081715686104
-26.9172696236904123 -12.9097806180111707 -2.0727319417338261
12.6963695771770464 83.3952754260364770 -1.9405881170476058
-0.0049483925601751 -0.0105903264637353 0.0031691678950797
-6.3369719908988733 -2.3348462166724699 5.1461109882293901
0.0042459869087067 0.0067078230793040 -0.0008148770492660
-0.0011393403484473 -0.0020219184585187 -0.0005306827000685
-8.4997007932896551 -2.7877362735253914 -6.8718946914579266
0.0023083981839261 0.0107160811304123 0.0007833890142639
0.0001966650924776 0.0017902634523878 0.0005559628595057
-0.0019111319553205 0.0003232584503758 0.0009871692104602
-3.1945203268903137 -18.5630194230842456 -5.1705643357017061
-3.1759785027770078 -18.4623007119157130 5.1420427133825930
-0.0124495729129736 -0.0095319897375100 0.0005866990971850
26.4342465546574736 14.1136783110476571 3.2680065991761418
-13.2397769760681925 -72.0030981583646223 -1.8913343797423448
-0.0010911846850393 -0.0062709116800013 -0.0003467057904495
-1.1936239073489618 -6.9156544070356087 -6.0479444783956522
-14.6364586502580174 -78.8116600893520314 -2.0840850700859930
-25.5350196103862856 -12.2851210401906581 1.9645021356425540
-3.6508683500169039 -21.0892382025998870 5.8886675300880595
-7.5407146783187722 -2.6216657061959769 -6.1053518471090236
0.0026188955812663 -0.0008083806815160 -0.0002930415934184
-23.2226989686938339 -11.2856384696914418 -0.5778065514781623
0.0017855951626447 -0.0059262734937823 -0.0002523009114078
-2.7449060563305423 -0.0660909098987015 6.4680968019579446
-1.3149187743371955 -7.5708563240030804 -6.6376385317602047
-8.6798741046649202 -48.6174450176769071 -5.0583366310497349
-15.3034477570481009 -82.0515399522227398 2.1752263200192576
-6.5399054697872083 -2.3813865335751281 -5.3070598266541573
12.4924594576623171 81.9176953572326028 3.1549430301003931
-13.2397769764474376 -72.0030981599235247 -1.8913343798391025
26.1493083009664637 13.7868746916334377 2.4919137854738072
0.0014770625890522 -0.0072680390953654 0.0000716809340806
-0.0029622261791295 -0.0348436013932858 -0.0042434613939355
-0.0058378527007942 -0.0240292578902246 -0.0000501079623841
-3.8777059795112088 -22.3777515513386511 -6.2590856539367774
-0.0030706907678570 -0.0024184088051315 0.0005144988878091
-4.9339009059809076 -28.4006214709955955 -4.4879746109698591
-1.5477407475002685 -8.8583756407457592 -7.8147955403981602
-8.0357717491056899 -2.7029928155737606 6.5042455661975440
-29.6634828930495367 -14.1862518357981653 2.2875332648829443
-3.1281846965382987 0.1090261648185824 7.3259433223440018
0.0100244513983773 0.0108036138362382 0.0002910836246899
-23.2198319296330062 -11.2703111937132068 -0.5775262471631890
-13.1087300057294414 -71.3837267719255237 -1.8736553749009173
0.0014770628699924 -0.0072680383992329 0.0000716811133573
-0.0026779558761574 -0.0025433166666098 0.0000057707014233
-22.2702403052237798 -10.7536528674725336 1.7109173326048057
-11.3347774851502479 -62.5191761309647376 -1.6288870018422437
-22.2033184710978766 -10.7215565746184627 1.7054561519771601
-0.0078027928106121 -0.0065105003066669 0.0005170222391570
-11.1383744386057622 -61.3762734871366149 -4.3381412791252467
-13.3740445579342353 -72.6662918521243313 1.9094611709635176
0.0077502380047807 0.0110033994115813 0.0005006430137154
-0.0014441071976854 0.0073451484037239 -0.0000716830159368
0.0019361949107808 0.0093619149353703 -0.0018799596794041
0.0081435660192871 -0.0004868525268653 0.0013803774467196
0.0065909741422706 0.0279809568714107 -0.0002910940327679
0.0000004349357688 0.0104445838788557 -0.0018107724827666
-0.0128324324667057 -0.0118359949262738 -0.0017553699040462
-0.0009881173653394 0.0030113453775962 0.0006071511687030
0.0083637370416304 0.0076872886888844 -0.0004709965584905
-13.9420375686472724 -75.4709226864429041 -0.6449271926005425
-12.0473380291965864 -5.0133597016953848 5.6134079944660700
-5.1972277893050398 -29.8861781637266546 -4.7300351514817764
-11.7215819740765301 -64.5117545440232192 -0.5451949932871439
-10.4599348854760343 -57.9546520846379707 -4.0852514989461826
-21.3419685614190549 -9.8696515413934804 4.4252136319700872
-14.9216797624846400 -5.9495902464869452 6.9509001609838670
-0.0004017861415564 -0.0046719312738300 -0.0024190215939490
0.0008968088366046 -0.0005159123043494 -0.0015301239175550
0.0001855144532174 0.0030423645988322 0.0015301348148446
-13.3699749537291481 -72.6639700808953535 1.9105543776009510
0.0017556353936546 -0.0136095139511352 0.0022482495427764
-23.2226989684747203 -11.2856384695263934 -0.5778065514355585
0.0065909740701463 0.0279809593591268 -0.0002910936649119
-23.2169649465639480 -11.2549834948738692 -0.5772459403570336
-2.9076856608915249 0.0569135848359914 6.8624867110155714
0.0042741619962556 0.0233961742668807 -0.0013408852022915
-11.2031471041421380 -61.5393381096949525 6.4715877695754411
0.0039323621325023 0.0163085060000091 -0.0000410346480018
0.0012716636392942 -0.0021076721376879 -0.0011704482247063
-13.1432512082178281 -5.4037873226674229 -6.1224335767367357
-13.1305183954959972 -5.3739144622273036 -6.1175046640687372
-12.7897939426245895 -5.2643742455440412 -5.9603171237438248
-10.6588027640672180 -58.9768151486556889 4.1602411176597505
-0.0061657483008862 0.0011792786955899 0.0001642438611926
0.0005311974477589 0.0021281994622678 0.0009165227567590
0.0010610057330484 -0.0009520978219244 -0.0005033691996725
0.0048618753921053 0.0066930850075676 -0.0010573484626504
-0.0001360000751151 0.0003956738530792 -0.0000054341165657
0.0002814907146380 -0.0004988035956942 0.0001736824064297
0.0006528666684923 -0.0059847376109594 -0.0000136115939234
0.0008037201121099 0.0015302798670040 -0.0005982629125581
-3.7664647460437051 0.4831152954903892 8.7073665108562555
12.1384494393028426 79.4757755744833361 -5.2034667276276636
-0.0066668063006224 -0.0103517357987019 0.0006227233041394
0.0071974680442805 0.0157000897399468 0.0003971120736920
-16.9475474870920415 -89.7202001105057292 -4.2353295558850066
0.0008381449201911 0.0064302891196990 -0.0010317298730764
0.0014090792793755 0.0042524770056814 -0.0011508472016623
-0.0010668596872731 -0.0002715503280116 -0.0003209890538573
0.0000846735591645 0.0001128823118009 -0.0000342427417153
-0.0003552696387694 -0.0003586439592019 0.0001822851902506
-0.0027624442707324 -0.0104762151631323 -0.0009684317756410
-0.0037624515121368 -0.0219107238742583 -0.0005920340106396
-7.3271829594315800 -41.4889201129900442 4.3431372848345910
-10.3939812338734523 -57.6516067075316556 -3.3755113350658683
-0.0011768862088875 -0.0041805139238035 -0.0001228680555519
-6.7119798287745960 -2.3844204340506581 -5.5522560536341681
-16.7538734991903979 -7.7724799129059772 3.9333587242971446
-16.7538714305166359 -7.7724752097024883 3.9333599700524977
-6.2801996647087384 -35.7971221483585538 -4.9766315527804714
-9.3433326792724092 -3.8265198223479167 5.1013287382589114
-0.0000527480208867 -0.0004168140493598 -0.0000142711316949
-0.0021481448372391 -0.0036404500677963 0.0006377048208676
26.5572533666244617 14.2536742418095006 3.6145776706081016
-0.0006002742498064 -0.0024752662714349 0.0000678258614028
0.0002240754757325 -0.0001931217244207 0.0002271629701520
0.0007824202725600 0.0007030082488616 0.0000108898371507
-0.0008019896429380 -0.0004996788077282 0.0006193993307061
0.0149643637803359 0.0185360553048338 -0.0016594751190934
-0.0014808613000430 0.0006907222114665 -0.0013639228915786
0.0001638909759054 0.0000789525784137 0.0000342218873926
-0.0117898326958663 -0.0177018358424130 -0.0014973282324397
-0.0065693533506428 -0.0307109727425375 0.0020593169561538
-0.0028840801724293 -0.0039770650003439 -0.0006458883697375
0.0139910265992043 0.0286502993122599 -0.0002126992267440
-0.0028840804194306 -0.0039770654095224 -0.0006458884026842
0.0000449895159958 -0.0001145674611679 0.0000216663085379
0.0009267553433902 0.0051330889783106 0.0003124861217741
0.0008720055684571 0.0002292547569702 0.0001710105387328
0.0003796010014936 0.0026922047438112 -0.0001709803058638
-0.0006115805622548 -0.0005462953727100 0.0003978693210364
-0.0002573012826039 0.0006964729718432 -0.0000827832086498
0.0003170077257475 0.0023888613634298 -0.0002552008166303
-0.0042506875921171 -0.0099275018223522 0.0006232358225357
0.0002169503197956 -0.0007639370484961 -0.0001411752417823
0.0008719565161992 0.0002291612481533 0.0001709792167518
-0.0015776559728895 -0.0092419572222612 0.0006645836105741
-0.0006914761584134 -0.0040401906016159 0.0001990985776675
0.0004418326401212 0.0004993433519212 -0.0005065568168583
-0.0002751373158924 -0.0013706837307122 0.0000204745298672
-0.0078488753055823 -0.0385129981176684 0.0010105369529557
-0.0014808351710968 -0.0076926913020685 0.0001146091689146
-15.5249029590422083 -83.0130763605957327 3.8890956786038045
-0.0078488751388305 -0.0385129987449793 0.0010105368490586
-0.0133540810441253 -0.0109758654657673 -0.0010105925111118
-15.5217340765346901 -83.0115759997149638 3.8876600327855555
-10.1515856747181736 -3.0195576581394379 -8.1879655838715273
-0.0065248109445370 -0.0378509763639937 0.0003912761281768
-0.0120299838927875 -0.0030283907368995 0.0002279959688198
-0.0003638697465986 0.0022989903983780 -0.0009758370574801
-17.7543474608076437 -93.5987287565720578 0.8152565125025828
-37.1252925616308715 -17.7387117088513548 -0.9331100584770914
-19.3349683743278256 -100.8540123621883140 0.8852331915136875
-0.0005431999002724 -0.0052716646401317 0.0019298832809909
-10.1546070929828876 -3.0368228687019454 -8.1883947391768039
-0.0017944926812518 -0.0007353738344514 0.0022139827807899
-0.0016079330248821 0.0042530955850958 0.0016679408512114
-38.4125128173590795 -18.3256573260755644 -0.9664030489936970
0.0061193265681133 0.0048536945837947 -0.0003163924899747
0.0018664713299201 0.0160172188970298 -0.0000542960437980
0.0008238170802493 0.0042777264606015 0.0009569315303916
0.0001377290069066 -0.0027612678916498 -0.0019598026056489
-35.4195683982909557 -16.4201225495776839 -4.8225794765253251
-0.0004130229274502 0.0048505146549761 -0.0013650814011308
-0.0015470985068693 -0.0056873294863505 -0.0007037677309660
-15.5146131090759880 -82.9707963105156665 3.8876080670682511
-3.5896818176208467 0.3526561165600979 8.3088251294022193
-0.0005631976885189 0.0061331944102666 0.0015709338070162
-0.0018231016446739 0.0000737251864776 0.0003723121248635
-0.0005431998463380 -0.0052716645449990 0.0019298832525051
-0.0016079326870985 0.0042530980706328 0.0016679410878608
-22.6617799193725808 -9.7422192165546377 -6.9422582330573306
-7.9947320975668941 -44.8930057604386903 -7.1882579282823373
0.0001029662696586 0.0018517742937047 -0.0001032637330501
-0.0031406716523518 0.0022565925520300 -0.0002080295281339
0.0053383053239668 0.0015364134248942 0.0008094856567412
-0.0029086625964776 -0.0052256671431888 0.0022960421566783
-0.0042410469251092 -0.0299043890994547 0.0004289214836033
-0.0078488751472233 -0.0385129988508167 -0.0010105368493929
-14.6437872271452374 -78.7953776995771307 -3.6747554504904638
0.0023130520168583 0.0257183023960253 -0.0009702595831765
-7.5705914430238730 -42.6155730048343102 6.8133312757427209
-33.3286333119528280 -15.8570451988248813 -2.5759287827322090
-14.6390942788316440 -78.7926933547145296 -3.6752752405235443
-26.3750134460185457 -12.0055623332038301 -5.4753941307231884
-0.0002509553089127 -0.0022715480163504 0.0042497782983225
-10.3168794330574016 -57.0680284890020175 -5.9797078071610841
-13.5149939187562502 -73.2284786533999323 5.2266465833029772
-0.0086657020487712 -0.0079067737912897 0.0002784499897765
-14.6376959492104053 -78.7594703786356121 -3.6749324684215412
-32.4623925292487030 -15.1340394090149708 4.4128910599286320
-10.3168794332771512 -57.0680284880943063 -5.9797078071361067
0.0015452768399243 0.0105442363128274 -0.0000500775478590
-21.3616180263678395 -9.2709483494319489 6.5417856421237088
0.0012124972807724 0.0021149967751246 -0.0004031301993148
12.2121280677782291 79.9712433682152408 4.7833778716199191
-0.0026341615979359 0.0003970170082806 -0.0012980830127003
-23.1676390306898092 -9.9304754384486493 7.1026033047206862
-33.3247442211702349 -15.8374814182819321 -2.5747414319314017
23.5709127546701254 12.8066111156481579 -4.1773867841278252
-0.0031576105513310 0.0229830484216095 -0.0006513718376625
-33.3281203875628833 -15.8545133378289904 -2.5751265593225869
-34.7980944640084218 -16.6741146188327711 0.8721652149401212
0.0000264448819968 -0.0067605973315502 0.0015176489821326
-0.0012255251129651 -0.0056129494746095 -0.0000799484943950
-33.3314966449868564 -15.8715447723806466 -2.5755116908619167
0.0060714701252771 0.0094578521867260 -0.0026270563319068
-4.6017766466194541 -26.3426308215343994 7.3993169525842939
0.0031408568338272 0.0006988345834648 -0.0006595307802124
-4.8074333845842547 -27.4864208357945401 7.7307414454713763
-0.0002122878535856 -0.0025128371219166 -0.0004403925629356
-0.0108100729462774 -0.0060221737096764 -0.0017469241166072
-5.2904116514358694 -30.0640777456808550 8.4789445446129559
-0.0039930444178585 -0.0073961334485287 0.0000799120226278
0.0003094363034435 0.0011018757746114 0.0006674618188997
-0.0026138219814653 0.0006999622438200 -0.0008672733780903
-0.0016641217572185 -0.0084740632154541 0.0008016533193876
0.0080694120171103 0.0034697509196220 -0.0023041913235720
-0.0004241301148666 -0.0006373166207640 0.0007581823516835
0.0012790773293744 0.0007376762876704 0.0000708847148888
0.0002852522094410 0.0023432700278447 0.0002135086824882
0.0004082862475111 0.0060421850362319 0.0000428885825511
0.0006678252712801 -0.0108127012272914 -0.0015137371174547
-7.1634385641304883 -40.4769045154116682 -6.4577374874973996
-0.0000839956845612 0.0012390512111763 -0.0003290553300049
-21.3586380350564156 -9.2547428377773429 -6.5423536383916225
-14.6376959495417704 -78.7594703773634137 3.6749324686497165
-15.6727126484963968 -6.1797265951372511 7.3019612214145937
-14.8029348965391936 -5.9206944413771447 6.8953236487211971
-1.2813136931336100 -7.3665127322112323 -6.4520004609052783
-3.3734160886260485 0.2456843089352401 7.8591630806311121
0.0001778757369676 -0.0012152639418375 -0.0004101937828200
-0.0000833163001968 -0.0007366955754605 -0.0001792577425249
0.0118233986381314 0.0041267269996445 0.0007127253235922
0.0081948454918262 0.0169378842805232 -0.0011661637026915
0.0014280271238959 0.0036187019684229 0.0003492630808702
0.0045258680059863 0.0356868157346496 -0.0000111466654834
-0.0007101411081592 -0.0020063625029519 -0.0003821964652137
-0.0010618110791821 -0.0127102672203864 -0.0010129841341641
0.0067928845891748 0.0323718146730802 -0.0006220847798144
0.0005784550311505 0.0037748360527929 0.0006079552317779
0.0108077431382368 0.0048692756270232 -0.0004998238663402
0.0006306449052858 0.0004205723500475 -0.0002842539188686
0.0006709929443697 0.0014253519544245 -0.0000740674044364
0.0015185847299562 0.0013644637623776 -0.0002570549079639
-0.0001793503878907 -0.0004865462286389 -0.0000066617549092
0.0010337323385504 -0.0005585338638407 -0.0009722892406158
-0.0023090306167314 -0.0014361734263335 -0.0001688950177582
0.0001673040485810 -0.0007577130009409 0.0001225074128871
0.0002261651860394 0.0018575249402584 0.0000901530132093
-0.0004915163142041 -0.0030230971408241 -0.0004367725070887
-0.0002284770832542 0.0014657425484913 -0.0000910718956896
0.0002610700488837 0.0007516295079696 -0.0001237373589248
0.0068629970716977 0.0094974504254660 0.0021213818535839
-0.0012125713121343 0.0015485266464596 -0.0005733920016201
-0.0000694129218885 0.0002202109567368 -0.0000399054284527
-0.0038883164885100 0.0223032641592015 0.0008760390204770
-0.0021164275857477 0.0003020065094849 -0.0003682373261639
-0.0013579782749705 -0.0117701206986355 0.0007457572864783
0.0027590262303434 0.0222890068119522 -0.0009269373967020
-0.0015487923136420 -0.0011551401928569 -0.0000681928802049
0.0004605169066980 0.0029116060114288 -0.0002594276849284
0.0014892656117913 0.0074208586153324 0.0003554613022339
-0.0001309178689867 0.0095863555535123 -0.0013801792430003
-0.0010405755398024 -0.0160737323467444 0.0007757303877762
0.0017319476630591 0.0093750779934458 -0.0010216720799272
0.0126623769559136 0.0086110115465897 0.0006527282310266
0.0084466859960580 0.0053132856302730 -0.0001194150380600
-0.0045134638035932 -0.0048913723817569 0.0006731684523645
0.0074477327759920 -0.0006831239465741 0.0005523609146676
-0.0001152034644199 -0.0001056001287517 0.0006233581058045
0.0006454328894135 0.0073711359856000 -0.0016247462299744
0.0002371854055687 -0.0004577522860432 -0.0002729915680462
0.0012119823694920 0.0047167576347789 0.0005191181634705
-0.0014420609662396 -0.0060320003130968 0.0000674518805905
-0.0043365364233406 -0.0262466370812513 -0.0006211787342041
0.0116262293054544 0.0142166398810889 -0.0024376992132546
0.0007452823126578 0.0032864753326489 0.0003466930387855
-0.0009629958469485 -0.0007274799271238 0.0000785319710897
-0.0009629959162975 -0.0007274805636664 0.0000785320380808
-0.0005444795744625 0.0082368646488785 -0.0007760079862849
-0.0005485530055761 -0.0028007200625274 -0.0000785317664136
-0.0003085516209189 -0.0004664405751091 0.0000180635202344
0.0040136284781432 0.0002584704337167 -0.0013825588729076
-0.0022295555740207 0.0011694524349421 0.0001926763099539
0.0010507476020129 -0.0004172346612700 0.0002249349429065
-0.0010161500836680 -0.0061315915337187 0.0007839444187271
-0.0008930410491685 -0.0073723555525684 -0.0008144311681510
0.0025100036519199 -0.0087670817799174 -0.0012719598734899
0.0067884114101398 -0.0022292259777601 -0.0012099546431704
-0.0002359058854578 -0.0013527732996741 0.0000283828038207
-0.0045670017753765 -0.0185987685607857 0.0000607234441986
0.0002311019165216 0.0026288413813775 -0.0001191465702169
-0.0001013274204391 0.0000857823884639 0.0000244562257033
-0.0005418508872114 -0.0050475314410407 0.0007061318200864
-0.0008055115805548 -0.0037799224321050 -0.0001043918281624
0.0002201672823473 0.0032943563144819 0.0001568850249696
0.0007336543371876 0.0011668802603945 -0.0004449239219286
-0.0047062248315908 -0.0355066325784013 -0.0016499416481676
0.0028180847924131 -0.0000550572723616 -0.0000547999776750
-0.0021264559128908 0.0026350553875112 0.0009495559010751
0.0000613473286280 -0.0000150155521785 -0.0000213865487763
-0.0014536146147621 -0.0089289731691647 0.0008312457469515
0.0020611295570581 0.0024515669931656 0.0013848440559661
-0.0027402338256521 -0.0032913588757856 -0.0006582114084516
0.0018549762342971 0.0177443047587172 -0.0005061562702062
0.0018549762699413 0.0177443052281090 -0.0005061561920956
0.0012827314288725 0.0005213993283512 0.0000757646905719
-0.0000271205598695 -0.0005554324472256 0.0001613389694815
0.0010904839152450 0.0007476354610653 -0.0003655335276720
0.0002268235457626 0.0072319747680553 0.0007044880540731
-0.0014622516492788 0.0012000772255030 0.0007330171900021
-0.0014622516284140 0.0012000773238992 0.0007330171930886
-0.0060597595146922 0.0032409053278562 0.0015043395679295
0.0002870749215692 0.0013387493478375 -0.0000229223541914
0.0040773742498275 0.0064023965243715 0.0028061693611502
-9.2262666685967005 -2.9128763365171610 7.4490902901123786
-12.8765077584647134 -70.0701517472928401 4.9962008254538262
26.1116239469205809 13.7534475987735476 2.4202945728936842
14.0024457948083469 92.7887423708668564 -5.4029998258881875
-0.0020394332935893 -0.0110586199259402 0.0017467692512250
-0.0016810409382529 -0.0024221274406482 -0.0019071073388276
-0.0035975793246899 -0.0033625469057819 -0.0012223032951208
-0.0020394324353540 -0.0110586183255526 0.0017467694361947
-0.0037564265441233 -0.0024695683957282 -0.0017467993843360
-0.0036964472859473 -0.0023884792899279 -0.0005360806032277
-0.0004318669604092 -0.0015117306910974 -0.0008000930833131
-0.0012076529694946 0.0004193746903808 -0.0012704122117178
-0.0032037953859191 -0.0009988974004888 -0.0003535770189208
0.0006307709184482 -0.0004983065103618 -0.0006744749082600
-0.0005302436179590 -0.0020445304520214 0.0006347215864960
-0.0027419560621919 -0.0044247038575250 -0.0003455183193232
0.0035533135380461 0.0067131296712648 0.0016739231723827
0.0012392448473455 -0.0024340917601275 0.0005791436923168
-0.0023140398638322 -0.0015434593369908 -0.0004294824534917
0.0002372024383978 0.0002736039487781 0.0004139362388513
-0.0013557055243459 -0.0007909855661186 -0.0003520906692079
-0.0007501980816952 -0.0009442127650988 -0.0006347230934854
0.0005558551333277 -0.0009479862075943 0.0003437347769020
0.0033152966264012 0.0234918763622562 -0.0002026614137616
-0.0037564266992056 -0.0024695685202032 -0.0017467992576255
-0.0007513473757106 -0.0034294025544683 0.0001168148939771
-0.0007066378525327 -0.0006504795861989 0.0000990589465896
0.0001884976618277 0.0014566325524838 0.0000293108668334
-0.0020394330034538 -0.0110586206800825 0.0017467691709405
-0.0002890143427627 -0.0006542569704352 0.0003656393397629
0.0052772010026864 0.0018249137935585 0.0000244033610014
0.0033152975355281 0.0234918797351070 -0.0002026611197942
-0.0006548641136740 -0.0091657149039789 0.0006959305019042
-0.0039595433638589 -0.0037752255765329 -0.0017332903304606
-0.0014445844297382 0.0126626811455898 -0.0009610492187608
0.0010313075159688 0.0054520352310908 -0.0003695187281560
0.0012392440422755 -0.0024340899685691 0.0005791434459920
-4.3969770243887867 0.8832444219177885 10.0131852674290620
-0.0029639276361234 -0.0124629233238520 -0.0004977319215535
0.0010951595048948 0.0010617212760287 0.0000929416668699
0.0005337361416821 0.0011302139192136 0.0000474034824489
-0.0021279036997487 -0.0093664152111691 0.0025736127370174
0.0051562326421617 0.0264085958988623 -0.0004097112523727
0.0003391485211236 0.0001040475587576 -0.0000596856633381
0.0098249647733764 0.0031738517944037 -0.0003850778484382
-0.0002379936208237 -0.0011541929983418 0.0008190733222043
0.0015422405020791 0.0021915848622530 0.0003107123158784
0.0023104546604282 0.0122023396620234 0.0010680538715216
-0.0004155433056552 -0.0010717325570866 -0.0000810884942328
-0.0003989193363276 -0.0009933480129103 -0.0002605713638950
-0.0011105989311693 -0.0033212883188768 -0.0000770250132751
-0.0013508575811750 -0.0009548291294108 -0.0004600001241869
-0.0060314101398425 -0.0079981455659476 0.0014595656955101
-0.0091586779363158 -0.0051003583027164 -0.0007949384830234
-0.0055100894113795 -0.0091140577864034 -0.0015177578535799
0.0016391779104517 0.0061368112697286 -0.0015997667730298
0.0018784243484555 -0.0169370808154474 -0.0029300828994055
-30.9611697608024272 -13.8952721255928093 6.4394284182171573
-0.0006127334590060 -0.0000612353832447 0.0002576056198415
-0.0002043014597568 -0.0015468860206801 0.0004211294912472
0.0007569198577508 0.0000767966505424 -0.0002148451139588
-0.0026269358619190 -0.0097021520330536 0.0001997431463606
-0.0009674368136214 -0.0012179681704237 -0.0013405989796490
-0.0008712907078819 -0.0033062014609275 -0.0003199546817695
-0.0004612477639471 -0.0002051028210074 0.0000332704973016
-0.0003827396826013 -0.0003668069202304 0.0000346928355068
0.0000006807870594 -0.0005140159158189 -0.0001051664000796
0.0036477245886875 0.0032030023407426 -0.0016771278836761
0.0006037375130460 0.0133471895709690 -0.0019155245132867
-0.0002892479685390 0.0001480217305784 -0.0000222413449750
0.0016758003145027 0.0084788211290403 0.0000727748022235
-0.0032420841299367 -0.0154672222915554 0.0010190632779189
-0.0001434289748218 0.0006069861440327 0.0005194647636152
0.0016990958208712 -0.0021690786728829 0.0005143163298947
0.0005468451524940 0.0022030323431122 -0.0000374089443457
0.0012339905386763 0.0048826550237164 0.0002091433894464
0.0000011377350403 -0.0008098936225705 -0.0003434910502651
-0.0004736976362810 -0.0148017329214842 -0.0007560759663974
0.0019896535603171 -0.0039811343177100 0.0012383453876279
-0.0004633323677089 0.0175984060614404 0.0029051235687071
-0.0043909437875049 -0.0399055135529940 -0.0024902663127330
-18.7451426109529677 -8.5365507520359802 -4.7561662898748454
0.0016943732551526 0.0034856203488515 0.0014744865215396
-18.7453892693056972 -8.5173293673674095 -4.7787673961583685
-18.7575279030068067 -8.5540481156691293 -4.7533313566294622
0.0081167239595274 0.0090089053223333 -0.0029273544397827
-0.0001237665491951 -0.0119222060432215 0.0020398319714128
0.0016264910197927 0.0206704743615386 0.0034687398389262
-18.7482444075920398 -8.5331434292549186 -4.7773021555729356
-4.7902134302902208 -27.5501985643583147 5.7392950953596191
0.0036910146996030 0.0034437992442253 -0.0017509895630878
0.0006754781940708 0.0031215921200728 0.0006390567139451
-9.8782405754288707 -3.8218964849059751 -6.0116998005870599
-0.0025571619699529 -0.0016061988921312 -0.0017423802044375
0.0028333849718427 0.0022249908786687 0.0001216222640765
-25.1588490384823515 -12.0234807464964550 2.5943994836351609
0.0046286521861504 -0.0078748157047979 -0.0029049760973324
-12.1869710108680103 -66.7789762737358927 -2.3425578622040235
-0.0000393259251927 0.0027504216450839 -0.0000329578250703
-13.2251859906745679 -71.9660307695388894 0.0383797697668148
-13.2252179281934641 -71.9660458355375283 0.0395474823306213
-0.0004633342680178 0.0175984014052427 0.0029051238581033
-12.1869710111811838 -66.7789762748228384 -2.3425578621785443
-0.0012881743497180 -0.0086442533683478 0.0000203243852195
-0.0021796762673989 -0.0043802304865977 -0.0005898692539018
0.0002800076558379 0.0008375794931489 -0.0000448190108425
0.0019087457371767 0.0011604760556292 0.0002970478946413
-27.2743024696702285 -13.2029373852392435 -0.0280348058733064
0.0028333844028735 0.0022249889998524 0.0001216221803057
0.0052598431604660 0.0129181105923793 -0.0018687146422480
-13.2236369536038030 -71.9582536263928461 0.0402120596529133
0.0006558966239921 -0.0027613109741377 -0.0004261779441832
-27.1684057289054408 -13.1388618641606776 -0.1039381899692111
-0.0005659972783461 0.0052876545633328 -0.0003804182036219
0.0006828966470274 0.0003231807874717 -0.0003277677555229
0.0002199244825117 0.0020170106908247 -0.0000434726816850
-0.0053644767542848 -0.0060595263436752 -0.0006692679217496
-0.0000393278868925 0.0027504188178374 -0.0000329579834224
0.0070373661684481 0.0156671545009697 0.0041831394408178
-0.0027085871070109 -0.0014319588187037 0.0007470467079784
0.0024774325995615 0.0019362924916514 0.0000477894095313
-25.1588490403222380 -12.0234807495589315 2.5943994836355149
-25.0204360559735370 -11.9467565348761617 -2.6759637284779236
0.0036692625226083 0.0241325558856032 -0.0004238906925084
0.0027433728926932 0.0065831305974045 -0.0003889863687188
-5.5511326907058054 -31.7611219258580739 -5.8562981515282528
-0.0000357273896334 0.0019329299614505 -0.0001841148177542
-0.0024373870416215 -0.0300076176810203 0.0023358830097208
0.0005391906779114 -0.0074050333139399 0.0001736560588504
0.0048388391669869 0.0032389462624783 -0.0006855940304438
0.0036746100531778 0.0058468685765851 -0.0013034461307955
-0.0015332709123386 0.0059393352625758 -0.0014303238617742
-0.0002771473500519 -0.0030464870516912 -0.0011385888272778
-0.0005986070910605 0.0017584992803080 -0.0001178900315132
-0.0003095512327079 0.0004243446576126 0.0001400024596985
0.0027334144642284 0.0018629779109607 0.0003464309326273
0.0004513092218509 0.0002086753019791 0.0001076988353982
-0.0026299770476383 -0.0019143884075185 0.0001935571264120
0.0013347875172772 0.0040047810131180 0.0004223681731899
-3.9866196046512323 -22.9850292682361150 -6.4308877906030322
-0.0000893770871867 -0.0000315641932233 -0.0000461747387679
0.0021397421927416 0.0015734058088400 0.0003727007797675
0.0008796463504301 0.0025713170329401 -0.0005429963187711
-0.0000276000524846 -0.0001719491646340 0.0000014417725352
-0.0004494002088763 -0.0008622091144724 0.0000902840968998
0.0000372136635306 -0.0000224595261232 -0.0000455972987083
-25.2225764077929178 -11.9171628736337265 3.4167409650241591
-0.0012190651354536 -0.0005639488582434 -0.0001366193514395
0.0010233532878571 0.0007371980643750 -0.0003199645556450
0.0005347713221026 0.0047314814798128 0.0006958113306996
-0.0001467267256790 0.0023202312319135 0.0013802416609890
0.0038186537899920 0.0157704511920530 -0.0010655237569661
0.0015792456017284 0.0098156610337844 -0.0005779530023831
0.0006659896131639 0.0001927287814030 0.0009831123585283
0.0011930655886620 0.0001293671272837 0.0004783931397626
-0.0025710903755484 -0.0180130196217492 0.0007938465226698
-0.0035760057882321 -0.0029073544499322 -0.0008001603690125
-0.0044807049663643 -0.0084969376663898 -0.0014087591266357
0.0000021849869964 0.0006914177350989 -0.0004471208964614
0.0001356250471253 0.0011261624849817 0.0000075053792804
-0.0002465488528481 -0.0014208249433684 0.0001051376985295
0.0007412007730314 0.0012897300119110 0.0002561514693545
-5.0846350665325941 -1.0344113898841563 -6.9372356537528406
0.0097928655552199 0.0234413658127058 -0.0001809994420378
0.0073598511974507 0.0088363050529267 0.0000892965353598
-11.9136880304791166 -65.3181124275128155 -3.7259859256071155
-7.6395870342944265 -43.0942044840447878 5.7735902495066496
-0.0019114019118313 -0.0069876713515412 -0.0010883804533317
-7.6436580238112102 -43.0964868445916167 5.7732288635980042
-0.0011417273759745 -0.0014514201164338 -0.0002018904097028
-16.8842353294057226 -7.2478851029385005 6.0334657653475352
-0.0011974492571033 0.0029224868101968 0.0005762544383717
-7.6404755328313732 -43.0904537394690124 5.7713054179290681
0.0012647326345903 -0.0073841993050029 0.0019373423465276
0.0001749735266826 -0.0004218526181798 -0.0001468910223428
0.0063788425365601 0.0155563993460162 -0.0018777022954835
-13.2559977712092252 -72.0931619457412864 -1.8850111177911790
0.0063788410777908 0.0155563956300412 -0.0018777020710447
0.0047849178607521 -0.0012745397237972 0.0034542964914034
-3.8380204927155752 -22.1391816176769041 6.2143123609557369
-25.0874660372497473 -11.8710037186477724 -3.4048815624934057
-25.0833304082485107 -11.8600551721420686 -3.3995652979531692
0.0006448783386437 0.0074262880295575 -0.0003430595478713
-25.0862502573421793 -11.8644694153272905 -3.4059833437618501
0.0054677935512835 -0.0034024097021420 0.0007602783191230
-10.5726856975600860 -58.5361060527968675 -4.1132975418617388
-17.6636586882201634 -7.8259162987139819 -5.4170467370655775
0.0061942194071847 0.0212091366834878 -0.0003441334729131
-0.0072425443490064 -0.0003685872225747 -0.0001521820497847
0.0004211094349754 0.0022449602067906 -0.0001158219304716
-0.0023431459179561 -0.0086504025403737 0.0007319006983046
-13.2559977711907351 -72.0931619430171082 -1.8850111180937930
0.0024137522849447 0.0055724148587490 0.0001095508664937
-10.5726856979466213 -58.5361060537513325 -4.1132975418409918
-0.0034741467473902 -0.0211358027889341 -0.0010914555664940
0.0026549361787641 0.0027173016360188 -0.0006449919990263
-27.4013536178850394 -13.1377328323633122 2.1056492090401502
-0.0011703807771059 0.0026648024741325 0.0016111466307754
0.0014722519162709 -0.0004181547130649 0.0008035190787112
0.0011504978824463 0.0014052257129645 0.0003530989660205
0.0065605734413670 0.0146472216388900 0.0018776986722190
0.0027618572154253 0.0030287802600014 0.0006369597539103
-0.0001700663433753 0.0015628049347974 -0.0002762831726553
-8.5771351728677949 -48.1144819177579564 5.0166460724146278
-3.2044993613466439 -18.5488085690644482 6.0695734528052103
-21.8066423683403947 -10.0690098311034983 4.5063808571268256
-13.2540018470531997 -72.0698739940826414 -1.8851230400335375
0.0027618568600202 0.0030287785119771 0.0006369597375624
-26.6480959547985670 -12.8310129086504272 1.7316779554271580
0.0005495538132503 0.0011877861282378 0.0004125566976912
-6.6424894792826228 -2.0964698615350055 -6.2697459908474356
-0.0011613041883261 0.0042574896821496 -0.0013941227809617
-25.0861203498030072 -11.8712381446186761 -3.4009889317529063
-5.1681622154763636 -29.5951289562491873 6.5117559652230854
0.0028950312644113 -0.0025226075136689 -0.0019909741716308
0.0002131506749010 0.0009365705376405 0.0008666793681030
-28.6044858238335280 -13.8019483933651177 -0.7227546938957466
-21.8066423695136073 -10.0690098321994412 4.5063808571112860
0.0044381284837925 0.0251538931466665 -0.0000573468761755
0.0044513972381155 0.0019864531882008 0.0021851710523666
-0.0002773096729837 0.0001000076381801 0.0000594880233873
0.0010056810515839 0.0062823834566575 -0.0000842177862443
-0.0007974765904862 -0.0031001772324736 -0.0005528463353345
-0.0003922682472682 -0.0002896126844785 0.0002612087860417
0.0001510509770338 0.0009109126783095 -0.0000884616337299
0.0006658679685184 -0.0000659069308271 -0.0005083112748021
0.0000988169645534 0.0012236749255019 0.0000990299023862
-0.0004397443498297 -0.0007716765922513 -0.0001805181071408
0.0015586236528317 0.0110058360561409 0.0010452508798433
-0.0022770253359331 -0.0177482032143567 -0.0000992179888314
0.0002322037873112 0.0019961192896651 0.0014626508443462
-0.0004244972771652 -0.0019277653429700 0.0010940932901069
0.0048523215265671 0.0277933088380141 -0.0014958611684187
-10.6566306762286036 -4.2725017112002961 -5.7647184396424827
-0.0019387033358852 -0.0234477189406976 -0.0008449813745644
0.0021203886053590 0.0057809604035960 0.0010018964921201
-0.0001292844606853 0.0002025187703911 -0.0007598014387292
0.0000684567171706 -0.0024092416980958 0.0001885263408975
-0.0002580991583089 -0.0013525841345484 -0.0006837841573604
-0.0037285264196861 -0.0037290230807719 -0.0003914137113648
0.0007765508575945 0.0011713320272985 -0.0009715519166022
0.0024359377724210 0.0117675367255070 -0.0009492607859476
-0.0001830888464642 -0.0010707235563585 0.0003311906397266
-0.0002659568700430 -0.0021918916328440 0.0007512034726359
0.0001528328516808 0.0016479036933920 -0.0001552306203788
0.0006555681855358 0.0008633521186333 -0.0005004687738867
0.0007131698639284 -0.0004404485688619 -0.0002326315730652
0.0000081830282830 -0.0004851642028301 0.0007598005269927
0.0057723249585312 0.0208083528255611 -0.0012839944612016
0.0010128877575950 0.0048958735744047 -0.0002149332280929
0.0000525093467462 0.0014246627165654 0.0011434041435037
0.0011225747189039 0.0042042880107245 -0.0006459234613136
0.0003355746508927 0.0027721648239200 -0.0025460796121695
0.0015021147557322 -0.0011349341300990 -0.0011617223463763
0.0030730084835974 0.0146129588904767 0.0002672465344628
0.0004160922891808 0.0004405641325987 -0.0001249496870644
0.0007135255883953 0.0122432086761580 0.0013756813985299
-28.7928410238971857 -13.8972936001337235 0.6893980797592654
-0.0010367084255498 0.0017495547480904 -0.0018480824387735
-0.0011680319003391 -0.0139366232911570 0.0006445465972587
-3.9209104580928864 -22.6722464348602379 -6.2377697223251607
-21.8420225138971489 -10.0654873228051205 -4.5673592878816898
-0.0036600761925291 -0.0008152024163295 0.0035602062619989
-0.0006781665083947 0.0028053169501695 0.0017692883677024
-0.0033734416558055 -0.0030536436065624 -0.0000444712468999
0.0021823277110427 0.0099393376649006 -0.0000639979967321
-13.3107155673437205 -72.3636246246530419 1.9328633181469248
-13.9044057264746552 -75.2925789563369108 -0.6132453823841022
-27.5327774687405622 -13.1962423481571935 -2.1552649389285463
-13.3107155685124550 -72.3636246275236772 1.9328633178276795
-13.3053430612421799 -72.3405562355947183 1.9329980149750583
-0.0015534648872470 -0.0113532976234569 -0.0035601315018866
0.0008591085426309 0.0008262042851177 0.0003094669163379
0.0018858484445257 0.0059503083534110 0.0000786729393919
-0.0005923703443361 0.0019716270551620 -0.0006653557323696
-0.0007718468171122 -0.0022557047788626 -0.0002884534325744
0.0010426245715890 -0.0006673256837750 0.0005634997536088
-27.2417169688772702 -13.0678624639128564 -2.0101732770805585
-0.0005318344906322 0.0042984510231842 0.0002350586986379
0.0000439889149976 -0.0013846022650612 0.0001001877749878
0.0006585170394225 0.0004881882677067 0.0007804531120694
-28.7923019650651710 -13.8945511909140524 0.6866488300690492
-0.0001480475200293 0.0021937816641724 0.0005173682324187
-0.0001480470609685 0.0021937826541491 0.0005173683262102
-0.0016438015981494 -0.0048080591940208 0.0004738902205882
-13.9044057262787124 -75.2925789556923064 -0.6132453823929016
-12.9813962362600233 -5.3038826261947927 -6.1130341147707359
-1.2305520792561824 -7.1154643078227213 6.5271780921185325
0.0021823292475537 0.0099393398416348 -0.0000639980909389
-13.2235651769341089 -5.4842653738148766 -5.9535319951293983
-2.6949749778604621 0.0218357980652605 -6.6203619528140676
-0.0008049112972495 -0.0109792119850967 -0.0025730782274122
-0.0014216228202652 -0.0034744471205568 -0.0007088299791409
-0.0036600758100397 -0.0008152017786450 0.0035602062551402
-0.0033734408162951 -0.0030536414960606 -0.0000444714991119
-0.0013706831582095 -0.0115189937914512 -0.0014030157922366
-0.0011994445840987 -0.0021408166294501 -0.0018915527708353
-0.0025817897818315 0.0149837429255494 -0.0008508992732307
-12.9813962346878355 -5.3038826245406057 -6.1130341146500546
-13.1851857885028867 -5.4540121578056215 -5.9763095052798754
-0.0015534641671078 -0.0113532953054275 -0.0035601315663116
-0.0005560924343318 -0.0032906825027283 -0.0000829843736870
-0.0001539158155139 0.0015051026842575 0.0000944785998129
0.0001297138379035 0.0005629524535273 0.0001413873079940
-0.0015324272005764 -0.0009016142698885 0.0002669071019827
0.0005384372662643 0.0033858754567346 -0.0002910452460193
-0.0002838027177153 -0.0016565308768776 -0.0003666805896050
0.0023838572520803 -0.0029104926824887 0.0006747245217350
0.0005011281598608 -0.0023297135612391 0.0001186817774820
0.0003987016397487 -0.0016233204207401 -0.0002126446999548
0.0020315456567050 0.0078549181081530 0.0005460970882396
0.0001261441371373 0.0020713465140276 -0.0001178747624345
-0.0017943746733478 0.0167478975736463 -0.0012283830252636
0.0023817465764833 0.0024386911041092 -0.0002251627271881
0.0015603541051512 0.0076193161084196 -0.0002704556858975
-0.0006899589118756 -0.0024920623795380 -0.0003088444053375
0.0009393983015108 0.0050077237177573 0.0001235434992397
-0.0006129566181703 -0.0017929103343026 -0.0003172278616436
-0.0026138643177403 -0.0000591088316128 0.0003282391084996
0.0006117495075115 0.0024756812019975 -0.0007958044389583
0.0036293410989551 0.0138097966979728 -0.0009848997927732
-0.0002588781375566 0.0000575258111229 -0.0007323492014350
-0.0002639715914258 -0.0016552042317082 0.0001067463154223
0.0012370128318172 -0.0133320744892529 0.0004484553527144
0.0003546191137744 0.0016146122771348 0.0000579214630507
-0.0025144608311379 -0.0018736686592610 0.0002046374017037
-0.0014252302990328 -0.0073309112864676 -0.0002049706459072
0.0008907818343659 -0.0016040501606903 -0.0006674308592190
-0.0092516183673691 -0.0143588656854540 -0.0003469689906396
0.0011408200730801 0.0085710381447848 0.0005771755893724
0.0005653136234026 0.0012739050467165 -0.0013073431472058
0.0008860910368283 0.0041598955838326 -0.0003754569404947
0.0074361037676101 0.0280774002800981 0.0033065389338921
0.0027648326006426 0.0247873780534383 0.0013485562499007
-0.0002262377925710 0.0000567441530066 -0.0007131376626436
0.0013197672350015 0.0092055424967942 0.0018581548231284
-0.0015103510386401 -0.0159960857970132 -0.0014422899850727
-11.6659527234523033 -64.1650156876245603 -2.8277999500047533
-0.0000069958073365 0.0004352950906782 0.0001969356637570
0.0029167196553343 0.0024789232695088 -0.0002610464604985
-0.0000014385727740 0.0000537247956638 0.0000096590586638
0.0097754864370769 -0.0008008388506602 -0.0034734840505440
0.0024041995357443 -0.0020316434840484 0.0006890528159945
0.0023392999322680 -0.0045271013649047 -0.0033981708518597
0.0034425633932097 0.0045557619852868 0.0000415516830636
0.0011443322636893 0.0008124217239462 -0.0000460175435392
-0.0011598395229858 -0.0026807620165582 0.0000015666295443
-0.0011650924968712 0.0010540823049301 -0.0001494747895963
0.0016888793589696 -0.0002493151082405 0.0000567259296845
-0.0004427178336682 -0.0122615276731982 -0.0001057872393520
-0.0026331684147361 -0.0067501000818559 -0.0016790143646522
-0.0001111831348217 -0.0014998269346478 -0.0003339220244006
0.0008890031975869 0.0013750286323979 -0.0003261161452543
-9.8323604588337670 -54.6373269117040792 -5.0092203371147059
-10.5303451683445051 -58.2752554607012883 4.7138867742140400
-0.0014081965131428 -0.0108346713846099 -0.0005569892652515
0.0011170858332007 0.0059725888853962 -0.0009598766217765
-10.5338247072875806 -58.3016909093752247 4.7138790311998360
-0.0002336978761083 0.0020401508935621 0.0004855644904984
0.0010329145895174 -0.0004362521410324 0.0002391684368975
-10.3514269663161294 -3.7620804568949220 6.7405409492096684
-10.5313939764950977 -58.2760817235478115 4.7128410863967156
-0.0101314157023752 -0.0094617738607293 0.0018577611765260
-0.0087270751764529 -0.0010325529982024 0.0009800031164181
-11.9951571444185880 -4.6254606851359341 -6.6182038191610522
0.0002462267673794 -0.0014777017389254 0.0008024281499264
0.0031550961113571 0.0201572315164771 0.0003169704525387
-0.0017378294464835 0.0043634959950568 0.0006012349432840
0.0024738061821722 0.0027147669626654 -0.0007052092890126
-0.0029872505631546 -0.0038828829326972 0.0003848573787381
0.0030984268372767 0.0073005754026997 -0.0005218580266340
0.0050932944344072 0.0088452768268181 0.0001361160451685
-0.0007764756391080 -0.0053047622254839 -0.0000493994283875
0.0021230234197954 -0.0013692210462067 -0.0018206127675332
0.0011779863724686 0.0006315335866593 0.0002027112985953
-0.0008535421406630 -0.0043538154646622 -0.0000687703784214
0.0040337571237481 0.0092397949719561 0.0047534650351428
0.0114439596186093 0.0264112593680237 -0.0030398669988605
-0.0002027995553242 -0.0008149221477949 0.0002656318033182
-0.0015631382914155 -0.0238705719366562 0.0014566787588786
0.0006250256110865 0.0028820367174557 0.0003020890457813
0.0000642039530002 -0.0002077780239018 -0.0000360414765926
-0.0008256868148573 -0.0097886783802090 -0.0007394444862415
-0.0033445298801100 -0.0013235165534018 0.0002335293981294
-0.0033445301590440 -0.0013235168125999 0.0002335294710945
0.0003249137485348 0.0000754140761288 -0.0000335990866465
-0.0017486274185499 -0.0032277853520932 -0.0004968668840187
-0.0002177403121211 -0.0016513816487822 0.0000292510065071
-0.0010473875573909 -0.0020349314603017 0.0001406837044159
-0.0005890291993145 -0.0033488431314268 0.0001821195979191
0.0008986604543127 0.0005907927647763 0.0001736011415738
0.0006071985926291 -0.0135244393512193 -0.0008200995018668
-0.0009756059353964 -0.0034704130258688 -0.0003322910741424
0.0052708088558229 -0.0000318333768739 -0.0017807719149978
0.0009096207867607 0.0042191533224879 0.0003531114686273
0.0000495141252160 0.0008782313384143 0.0000084376734929
0.0027547056255941 0.0013401167044741 0.0003030798129818
-0.0005782745783118 -0.0016389998450515 0.0003088696924527
0.0097089433723069 -0.0003766065548519 0.0008899116562472
-0.0106363573526824 -0.0069121200070870 0.0010008051739468
-0.0001609956241799 -0.0009061503294853 0.0002504026136888
0.0002479372862840 0.0003732602591273 0.0001338906930160
0.0002160731866118 0.0002417860439584 -0.0001496358564854
-0.0005918321033470 -0.0008911303238678 -0.0002406171162304
-0.0003586200481646 -0.0017660174877895 0.0002181704716720
0.0013767450295378 0.0042039494942965 0.0000713937945356
0.0013872975571788 0.0020154757205977 -0.0005192341624202
1.9108975949511764 2.2425410840058473 6.2660401963233561
0.0001008316716431 0.0012511550970805 0.0001496139938018
-0.0007256354272189 -0.0038910083065961 -0.0002842891718492
0.0000143528603744 0.0006784617589062 -0.0005058021110330
-0.0000683664158851 0.0036859373581199 0.0008254829724912
0.0017487981372878 0.0034247139294575 0.0002365710379570
-0.0003224034222522 0.0035590006774557 -0.0017825709549808
0.0025668632500329 0.0056220691530107 0.0003120785046820
-0.0103985244931345 0.0018612034478732 0.0010144770766107
0.0005209115294208 0.0022750032109888 0.0001398198549959
0.0000565190433820 0.0006724991802009 -0.0001017813087111
0.0001314567790228 -0.0003660100347543 -0.0000598732567920
0.0004499393616338 -0.0010092000095548 0.0009722764274704
-0.0012607357643372 -0.0069858351494382 0.0004614394526974
-0.0018733975524543 -0.0051931862320631 0.0000568196320964
-0.0026699038921808 -0.0025690275906108 -0.0019575274889507
-11.8091484023125410 -4.8611629114358497 -5.7311337036155026
-0.0035572762408579 -0.0115449146000577 0.0021135318980563
0.0001766248173546 0.0036771159313395 0.0004218461830428
-25.4872236847590194 -12.2528853609586417 -2.0843728018633367
-0.0021309067691814 -0.0281895952916151 -0.0011460511449909
0.0025686919407177 0.0208426189460094 0.0011767864249399
-0.0031167805638961 -0.0181858063083480 -0.0017066180445376
-0.0004066101610717 0.0038399819008482 -0.0000619831590486
0.0011858707843918 -0.0000853640007890 0.0010977521603228
-3.4603932703017768 -20.0186599483892245 -6.2079359734945161
-6.2529941041465227 -1.8701301188083450 6.3440199471992029
-15.8727858586670756 -6.9436118540590055 5.4735647837494614
-15.8704326647344587 -6.9304617457114039 5.4739767509383093
-10.7419134991375955 -59.4223155070068216 3.8199925629402705
-0.0000271729061031 -0.0005065976622403 -0.0003368971972400
-8.3234772527442438 -46.7799638329505427 -5.0684896671679986
-13.8331607705989619 -5.8262522320783550 -5.8213370935210840
-0.0014020953864527 -0.0193736364917698 -0.0020521900591135
0.0011150394261756 0.0078467445927084 0.0023024670164990
-0.0009902647295504 0.0077290117226939 -0.0029625240923708
0.0012284798695056 0.0056792719611963 0.0002259362949559
0.0022728954654586 0.0012883255537976 0.0001775091450126
0.0022728955984388 0.0012883252038700 0.0001775094087326
0.0090247118921098 -0.0049094674375893 0.0015028833060193
-0.0006891201325838 0.0016671301758398 0.0006338234551995
-0.0014430132546466 -0.0093481874875905 0.0000934591923634
0.0010895905279869 0.0052908829802952 0.0000212428027667
0.0051539538699802 0.0012657895972115 -0.0004843246422733
-0.0005468894266948 -0.0069078572457001 -0.0009033511519750
-0.0002254857219604 0.0002007097861296 -0.0012841860114052
-0.0010608119829294 -0.0067027580103491 -0.0003683735143348
0.0002398663794681 0.0022729563381945 0.0007197463364739
0.0000404838747553 -0.0008488970041630 0.0017832399838991
-0.0006919121727025 0.0014420575266889 -0.0011027245720259
-0.0001457054159885 0.0003421359938820 0.0001286059457919
0.0007744453212778 0.0052126262604280 0.0002800275112120
-0.0015231468259054 0.0002663932018391 0.0003945936745379
0.0040841754239993 -0.0027972288908662 -0.0002073952479576
-0.0007249016160849 -0.0025379306185536 -0.0002381494368696
-0.0014302605497763 -0.0058350577968003 -0.0006006492297415
-0.0000582877214284 0.0009755549240584 -0.0000641658926465
0.0002847823098547 0.0018769206394313 0.0002392020007537
-0.0039907984586065 -0.0183905468203263 0.0000999830068662
-0.0038781005048287 -0.0014378826069765 -0.0018024177942771
-0.0004901688822929 -0.0070113825841061 0.0014257271408516
0.0013711052686655 0.0006308353756248 0.0003935418766157
0.0052896753411627 0.0142995751965346 0.0004260952595296
-0.0076169093346110 0.0017443728574498 0.0000848514857971
-0.0001155998716536 0.0001716858458291 -0.0001009163225059
-0.0010980022794018 -0.0009566183576075 0.0002154064803226
0.0004575811516746 0.0005095623881460 0.0002250163067559
-10.3475322012176534 -3.8581622989264353 -6.5028682965082183
0.0001708649351735 -0.0001036733909769 -0.0000961885422858
-0.0061640700920140 0.0042010533509000 0.0030848614378442
-0.0013167885247786 0.0013018647760532 0.0007926680745225
-0.0013167888413964 0.0013018645355678 0.0007926680805769
0.0020897536055529 0.0004513860784403 0.0002537516308730
0.0020897527126431 0.0004513856009184 0.0002537515861377
-0.0008733950639287 -0.0154571292937498 -0.0011220221028510
0.0003788028548462 -0.0006462276086816 0.0002060025688918
0.0006470687195788 -0.0014692703207877 -0.0005656850491978
-0.0037535315656920 0.0059701307573449 -0.0004402980993725
0.0077136508611027 0.0053011672665440 0.0011070288242809
-0.0012460502642765 0.0097762308947384 -0.0011229843090716
0.0000412309160275 0.0024390174346276 0.0017761867967929
-0.0120770589375213 -0.0047845394008032 -0.0001398983674004
0.0006280722538742 0.0146778613656396 0.0034976222191529
-0.0023792718063934 -0.0044093218850850 -0.0015534112049336
-0.0001448016842985 -0.0050083706656209 0.0017229349410090
-0.0022763857873017 -0.0014745286812258 -0.0013695369759228
0.0013653474584940 0.0082391993659210 0.0010547903164832
0.0098499305183007 0.0383286328904890 0.0024862740453573
0.0061182416289046 0.0079990419184700 -0.0038936222890099
0.0016423053349578 0.0022654265523468 -0.0002595219255316
-0.0010016899480956 -0.0106794240493979 -0.0027622688111160
0.0014659707917903 -0.0007412301777730 -0.0005524283144745
0.0010611143256427 0.0037865450335222 -0.0000756597541122
-0.0014267721675309 -0.0017628026018641 -0.0008835758388142
-0.0030551109237966 -0.0391757879907699 -0.0010788123085738
-0.0010375488448410 -0.0005493827849370 -0.0005110130356339
0.0039063240815514 0.0236421974239527 -0.0004904032659482
0.0014181419963552 0.0020004893717409 0.0000756594833438
0.0008021374999557 0.0031501586649706 -0.0001529351680581
-0.0025712200489587 -0.0147298635861047 -0.0000011469068494
-0.0010356933080468 -0.0078493237404069 -0.0001776805900145
0.0002107275634734 0.0013360798645135 -0.0006631875344705
0.0007792729497482 0.0015234412116075 0.0002257703340039
0.0014181418500336 0.0020004894369025 0.0000756595093216
0.0010773546241396 0.0070275595757653 -0.0001447631120109
0.0001511123147592 -0.0017957092358216 -0.0006240715170337
0.0001112730101159 -0.0015723996130805 -0.0002360589561528
0.0014659706540287 -0.0007412299138473 -0.0005524282774090
-0.0004405188759976 -0.0020119706745790 -0.0002870350604698
-0.0032756572418955 0.0006959018245904 0.0027623317196042
-0.0005322378229991 0.0024212993739346 -0.0001404319965086
0.0012148643050676 0.0044037341486850 0.0002595230411063
0.0001506731295103 -0.0032603025440285 -0.0004318886642745
0.0010611142137949 0.0037865430143878 -0.0000756599536063
0.0030033414000779 0.0001123898269869 0.0005173632375508
-0.0038530186091084 -0.0058720655086567 0.0001726737256469
-0.0032756581985368 0.0006959027801771 0.0027623316353644
0.0010443950583260 0.0080786939690061 -0.0004749181631001
0.0013653473753688 0.0082391984177720 0.0010547905407700
-0.0061157051697637 -0.0031546959291563 0.0004681189920426
0.0039063241540100 0.0236421977856431 -0.0004904033372435
-0.0003923776847564 -0.0033927763908742 0.0002054432375599
0.0008921627273219 0.0008813884009818 0.0001696840143148
0.0006214839265681 0.0036106745802226 -0.0000860420285924
-0.0012967861207798 -0.0106220617549301 -0.0001301383211497
0.0014446833378192 0.0035887350540170 -0.0006325534797724
0.0000800028779438 -0.0007782632740525 -0.0000242325318695
-0.0084634720853864 -0.0097054421908068 -0.0061656058136197
-9.5728439563970191 -53.2447787057697184 -6.0808468260015225
-11.1988517952916968 -61.6999229587340068 -4.9247494665714440
0.8648755872274081 5.4437615557310783 7.1946401342126283
-0.0010935072850670 -0.0003902514059185 -0.0002486921008806
0.0000781662314877 0.0000610144508587 0.0000399053343333
0.0012662029140874 0.0024219663971690 -0.0002679938665533
-0.0061154686118034 -0.0353372758142403 -0.0010073676388952
0.0081263306194929 0.0059854746963308 0.0001505240155604
0.0041489054491504 0.0182372499356721 -0.0008365188663380
0.0021249477154572 0.0044961572458442 0.0010401640789688
-0.0014508395658096 -0.0008927096711529 0.0007076969820769
-0.0044985440726079 -0.0215669533035839 0.0002989738426408
0.0032169128485446 0.0029842538996064 0.0000910790084878
-0.0002673905642475 -0.0006551053340649 -0.0000104547650473
-0.0014623923103545 0.0002761041971288 0.0014330690825639
0.0019549860627100 0.0043089509947664 -0.0000095450032114
0.0003231331061863 0.0019456804390988 -0.0006147130097635
-0.0014623931640423 0.0002761030738640 0.0014330693614804
-0.0003933099806314 -0.0044555030867630 0.0003065233753745
0.0003107772883081 -0.0006982144439258 0.0012638991657464
0.0000912697184904 0.0006555014068383 0.0000217364912050
-0.0004682906396059 0.0002497224222007 -0.0001486249684066
-0.0000393969481001 -0.0009421730302710 -0.0006408518817627
-0.0008014987553577 -0.0001651045575053 -0.0000013005837340
0.0012044275759272 0.0057056480800168 0.0001188101146381
-0.0013477965654289 -0.0047886114068157 0.0009626263581211
-14.9572999523621242 -80.3663790193706262 -1.6812226516053250
-14.7631737217488084 -79.4798554327631734 0.4289786268263637
-13.2396113577093786 -71.9884634742631846 3.1757897141696874
-16.0594776198102487 -85.6200322874837525 2.7840663021937746
-10.9486212834704020 -3.7480890992570259 7.4991800263054609
2.7681217802745266 17.2044308444141514 -7.4693007114548795
5.2500588738781744 4.4264371114783572 7.2814354119880074
-0.0039680281425469 -0.0054037190140801 0.0000723909356254
0.0000387504036156 -0.0003001732434691 -0.0007398621565504
-12.7445494881057773 -69.3782965317856366 -5.3702741871252320
-16.3682029254948098 -87.0751978854997333 -2.8176983966736238
-0.0072791501648442 -0.0368890719104615 -0.0027094717050878
-9.0651725404930055 -50.6203739362794352 -6.3664359729103301
-0.0072791513657784 -0.0368890730365411 -0.0027094723119734
-0.0127041711328278 -0.0097528771789008 0.0027096194167442
-0.0121074060699909 -0.0061709430186213 0.0039363046447291
-0.0044655981174489 -0.0354821299869302 -0.0033408850274685
-0.0053336917672373 0.0018632040498240 0.0009277128285666
-34.5985673423055147 -16.4866518823871573 -2.0701832020128670
0.0016834636131564 0.0025727651643020 0.0027606537334749
-13.6155297694515944 -73.7498934675451352 4.3686859599157692
-13.6120120162424190 -73.7482352510792651 4.3674046792243502
0.0016834636001827 0.0025727641324495 0.0027606537327735
-24.0641822965561083 -10.7760826151214406 -5.9423876924340373
0.0019185448447778 0.0142210567581065 0.0009327784616472
-0.0013918697335055 0.0009821448420466 -0.0007261713464360
-15.7001586681770604 -83.9436590616513172 -0.7753773513878837
-32.6574282025660381 -15.6869922851541350 0.8775433126503651
0.0022942852259781 0.0132369000098513 -0.0000985594302357
-6.1878090408355639 -1.2028229852523800 -7.8230016225045764
-0.0008267682736773 -0.0020715042120678 0.0014557136332965
0.0035368288960804 -0.0036411819455422 -0.0012692600890691
0.0022715518751927 0.0080793354785576 0.0011534309521702
-6.7575334208785076 -1.5060118643317464 7.8124896566079443
0.0013439044490340 -0.0162668352634645 -0.0007666713597228
-16.9807577523415780 -90.0007873077291549 2.1880549685755999
-18.8802076035098203 -98.8000494283759991 0.5586236189533252
0.0040384538354086 0.0133020597118361 0.0000019543954154
0.0076330829544754 0.0054946604753467 0.0009807611896540
-0.0053336916911006 0.0018632030664536 0.0009277127831362
0.0034406334872364 0.0218827253312625 0.0013903792954131
-35.1443042396789380 -16.3816199286648327 -4.3954771663204832
0.0004132164212388 0.0015384383792170 0.0000389477151654
-13.6085844041509603 -73.7237387574191985 4.3664360048584054
-12.8830691462380216 -4.7237336011618112 -7.4804371961773972
-0.0011351427284772 -0.0050111124052761 -0.0005273626663473
0.0010612873515212 0.0039997946762998 0.0006634918140467
-0.0015217311868756 -0.0091829948587744 -0.0003949704697469
-15.3466012644326000 -82.2089708047647463 2.8917148714470851
-0.0023698191504928 -0.0035334349225559 -0.0005804148202352
-28.4471756379225909 -12.9533630242124929 -5.6106111632433180
-0.0008913996517589 0.0024017897474227 0.0007118577019021
-0.0031708643807796 -0.0082135615345635 -0.0009553946882921
-6.1849471172934480 -1.1861235239699022 -7.8227668581239795
0.0006605966788815 -0.0008836842368082 -0.0001377337849928
0.0050948799656716 0.0080170493802219 -0.0000019543475215
0.0281833763960358 1.9393996420691899 7.7455131605004599
-0.0024880953200394 -0.0130950646436348 0.0013972592849112
0.0054640698299678 0.0072620264600791 -0.0003171281751741
-34.2060928759310983 -16.3212012560595809 -1.8804078502982386
-16.4050520823244490 -87.2939135712692149 1.6547468331339616
0.0004648740420366 0.0011595492479836 -0.0003480510027065
-12.8837698096396203 -4.7274728024119961 -7.4819498508138853
-18.2698697445684033 -7.5941533383308153 -6.9734429647830245
-0.0030871955127981 -0.0188656507017925 -0.0010223999152689
0.0047498480509836 0.0032121956599883 0.0000732765767940
-38.1521759411209871 -18.2401227454808819 -0.8553341260064379
0.0076330833703351 0.0054946627937897 0.0009807614473632
0.0047498481949647 0.0032121960579703 0.0000732765163992
0.0035187312478521 0.0245776149037999 0.0034786076922172
0.0086935050113238 0.0065493666277743 -0.0029012071229702
-15.3537774860589398 -82.2484453699468361 2.8898056858586196
-15.3561329698527178 -82.2495594065266857 2.8911968185749797
0.0020902916800576 0.0238635562397234 0.0040559038674185
0.0072651230356746 -0.0020247316048499 -0.0040556938149347
-5.8962175239437142 -33.5678019483823320 -7.1185239611781643
0.0020902895690937 0.0238635527817220 0.0040559032412728
-0.0024076145421995 -0.0172892605642508 -0.0006256072348123
7.0013900074527413 5.4356107459873844 7.5456183077000620
-0.0048251661807331 -0.0001070542706431 0.0004067755553802
-0.0029397343581975 -0.0049079634772210 0.0023209469951811
0.0052753537426281 0.0017006031946583 0.0010881884672615
-0.0002953233971895 0.0000658201575175 0.0000429628254441
-0.0005519626994121 0.0013876838986763 0.0004000778790261
0.0136866925974750 0.0093280194152361 -0.0016373090242946
-0.0044483740388572 -0.0285646604531641 -0.0025924220272770
-0.0039083786449046 -0.0063700452187432 -0.0000658300067048
-0.0123357410093587 -0.0339162269693495 -0.0007055330017164
-0.0038352985248887 -0.0067887230809970 0.0008257665183653
-8.2787898323317588 -46.4271812795524355 6.2805175713156212
-0.0076394804104138 -0.0380790032568206 -0.0000951228790658
0.0010444289182444 0.0005601082588343 0.0019418504970501
-13.4117323097687713 -72.7843767177333092 -3.9946997582708259
-13.4147950839373209 -72.7860396888087422 -3.9947808991043017
-17.8251985855416599 -7.7133551803908622 -6.0315266962127883
0.0011527243360134 0.0108723469585114 -0.0018020391330462
-32.9315409408017459 -15.7819237535973667 1.4456940062327941
-0.0044630407028151 0.0080644871534383 -0.0015218941991082
-26.2489717394055191 -12.2880776554586504 -3.9934906314731085
0.0020491851994533 0.0071541506239365 -0.0006716951250055
-17.6522779532012244 -7.2298416468926066 7.1370263990865412
-13.7413317043432208 -74.3814811405769092 4.1796518577219040
-32.5777180713682029 -15.5757925734477478 -1.8711613373423206
-24.4675897241605540 -11.3123626054424378 4.5866801917596636
-11.8275622782633203 -64.9129677192498349 -4.1502127730301668
-32.5780897390858755 -15.5776363792170649 -1.8719439763626258
0.0005620888431089 0.0012131756641100 -0.0001942564390497
-0.0005408568549381 -0.0024338694822475 -0.0002900594848666
-0.0007163758437634 -0.0064607828107107 0.0000957923697692
-8.9619786039807181 -50.0317670682395956 -6.0703187106694099
-27.9157673532298283 -12.8922371685340931 4.8773229779975109
-0.0050025329603336 -0.0047757163217613 0.0012664267122546
-13.4129127374771357 -72.7760037851028017 -3.9940266855851032
-26.2555780496734563 -12.3227621935729346 -3.9941367400320740
-32.5021346310185422 -15.0751810415951244 4.7338172664450671
-26.2539264426895436 -12.3140912569302916 -3.9939752095765990
0.0013908185160523 0.0094633840205232 -0.0001280358162549
0.0014797226981406 0.0091836856891142 0.0004571192516949
-26.2522748550376761 -12.3054201891619570 -3.9938136813521834
-14.4725864017795818 -78.0341557928219203 -1.7005210270683664
-32.5777180713182091 -15.5757925726885436 -1.8711613371838656
-30.6751360576584524 -14.7500305017576316 -1.1615767850350360
-14.1586178779745762 -76.3913241050185121 5.1254303796251488
2.0421245199482545 12.6563957299126191 6.9663239132483668
-8.9619786046196062 -50.0317670693367234 -6.0703187105456298
-18.5226252256816899 -7.8781914990746325 6.5756121707649742
-23.5521970547439672 -10.2119728198683983 6.8080343601247799
-26.8246886891704968 -12.4130116582565435 -4.7933234725115845
-32.5777180722870909 -15.5757925766833871 -1.8711613371701268
-11.8275622786270507 -64.9129677209317606 -4.1502127729040428
-0.0002424426684906 0.0019007844126111 -0.0005329523464417
0.0047104443593149 0.0253057605815843 -0.0004991967392334
-0.0021400115768057 -0.0040268712963215 0.0034561993199620
0.0015411329580155 0.0024246020013728 0.0012133052838125
0.0047104456793528 0.0253057608691895 -0.0004991968854743
-14.4769605188982791 -78.0687621783707471 -1.6993597855018050
-14.6389230029594568 -78.7622509086484115 -3.5806475611642941
-0.0052801317239910 -0.0112433356847031 -0.0016129686235988
-0.0002543801689068 -0.0084303103387049 -0.0007520014912447
-0.0090005654617865 -0.0070183572603788 0.0020202510302649
-0.0023136032879636 0.0013212951178610 -0.0011534904401521
-3.4409327228168642 -19.8483628189665851 6.7508806539737778
3.8273473501191368 3.4661095947603324 -6.8386729469622338
0.0097539405502269 0.0095571930374327 -0.0010749428681648
-2.9539775308492233 -17.0335125944205679 7.5265881784959401
-3.4241362097436636 -19.7194126088846033 7.2713718220668540
-0.0008924946831151 0.0003375717890747 0.0002113302630023
-1.9414793718632468 -11.1158660915643068 8.0864583440985172
0.0005258260108210 -0.0006869436244171 0.0002982392246769
-0.0014314659964946 0.0001838902815269 -0.0004603715761373
-5.7940994578693958 -32.8752400597280001 8.1591313487312949
0.0023115904334009 0.0006217015757363 -0.0007762852666071
-0.0099773761736839 0.0004989243694032 -0.0030812059382231
-3.2813317682053715 -18.8406372299647096 8.0979647064573026
0.0027800290304701 -0.0009822725115995 0.0007211408866551
-6.1179903642781550 -34.7777578585489380 7.0077559525470496
-0.0033569555878391 0.0048523159520617 -0.0025728409384164
0.0007375748090185 -0.0107164660466295 0.0000576383040113
-0.0037614337586707 -0.0036615264811544 -0.0012768291452029
-0.0003242842181545 -0.0004239394278194 0.0000862732924823
-0.0001032305631940 -0.0007513587201094 -0.0000478748812085
-0.0004480735020750 -0.0002306814887865 0.0009665750840032
0.0006206277773324 -0.0015412926996518 -0.0006150604989359
-0.0022490099387300 -0.0114520783579783 -0.0001442464921069
-0.0001490285954141 -0.0000811268193008 -0.0014152519439758
0.0028969222128823 0.0157845396074174 0.0026538422919549
0.0039688327292525 0.0128783921577867 0.0010631703144768
0.0005308177818144 0.0060283149782177 0.0003132128858291
-0.0015090831296665 -0.0006901159228502 -0.0001426418697333
-0.0038504246868566 -0.0033434174984565 0.0010255358443712
-0.0029453676024735 -0.0059464289719652 -0.0009215165880393
-13.7046933757447071 -74.3091359792587269 -2.2018808739223630
0.0003525805642149 0.0044407889612987 -0.0020487152105752
0.0007604813270218 0.0007479106936023 -0.0001569675520314
-17.5109953103170923 -7.5783559974217471 5.9419978793658705
-20.7570305576124561 -9.3274081503503119 5.4191275270834938
-14.5890971944525418 -78.5659516264378937 3.1539353018566048
-0.0044773503459753 -0.0300194269823944 0.0013347164049465
-10.7068055357383454 -3.9369444029612901 6.7388451914744483
-6.8800522568161586 -38.9500719903015806 -6.4547586031669439
-22.1659458093185577 -9.8136036879774444 -6.0302500347228367
0.0005225039614760 0.0034162204802727 -0.0001051649677503
-0.0002512997055230 0.0013726212040589 -0.0002710594354673
-24.6202967872548122 -10.8430261436742885 -6.5045453000656721
-2.4431871220106700 -14.1307729295586970 -6.7992709433732266
-8.4972484444456633 -47.6548399740324413 -5.5073283691707546
0.0051678635030372 0.0161408388156377 -0.0017713089246435
-1.4516987320044230 1.0925124165385511 7.5851674995967349
2.3396898418535659 14.5454392687989067 -7.0663637941562731
-16.0379239275804082 -85.4623996802566950 3.3155255955219669
-13.3810707847637946 -5.0796093192292302 7.2161918408329582
-14.2295347260085272 -5.6443467575905846 6.8795940286455641
0.0022962493336993 0.0127143266014302 0.0007110545927428
-0.0042901453532778 0.0004597544026069 -0.0002833843836150
-0.0046510071525428 -0.0322159771344748 -0.0001358587348489
-0.0053391062160510 -0.0058374035900972 0.0002804188053776
-0.0018364260584327 -0.0010018541806347 -0.0001888921782514
-0.0003081629789975 -0.0024739497886457 0.0001768827018810
0.0001726596596094 -0.0033716556550302 -0.0003086670167577
0.0013114153116845 0.0015581656687584 0.0002784046021803
0.0030762510895855 0.0132296173920958 0.0023858732772607
0.0067469012645678 0.0071763988682594 -0.0007962903251843
-0.0027819509200169 -0.0101955755930807 -0.0035672370036895
-0.0033606972258320 -0.0101045435688245 0.0034032673418175
0.0028845309579484 0.0009853014376496 0.0009997703501247
0.0020524235325886 0.0058822710683207 -0.0018783542524585
0.0013777832799710 0.0081230605960689 0.0000246777087776
-0.0011734981221707 0.0040112061353388 0.0026946176837276
0.0016443454317282 0.0088345898589747 0.0000902557626639
-0.0002030409602892 0.0007496406624669 0.0003224298713116
-0.0016519705109413 -0.0079474900601025 0.0000329419724319
0.0019046392296811 0.0022373127544023 -0.0021313046147610
0.0012451174114363 -0.0086332765165354 -0.0000105816815431
0.0033958111032257 0.0032953004465038 0.0001795718002769
-0.0006154758662280 0.0202021827486709 -0.0010714533549025
0.0066138119139119 0.0303210313416388 0.0012626184327726
-9.9406790873328035 -3.6039477753603051 -6.6398401109867198
-27.0886881212719857 -12.8506728138361925 -3.1609690650107845
0.0005115566536940 -0.0086519978820830 0.0032454034411326
0.0003158526390870 0.0009252038074508 -0.0001562034591803
-0.0010143315050593 -0.0116483139998093 -0.0009905897088664
-2.3390088172430707 0.3449625506376143 6.9477361360600636
-0.0002831729777499 -0.0003574134325231 -0.0000130503759830
-0.0029190906370014 -0.0014427057869976 0.0002981351167198
-0.0014561193405972 -0.0087808660470948 -0.0002980708836172
0.0001108563256315 -0.0001108979540391 -0.0000755832792340
0.0012102156129538 0.0071099471970192 0.0001710923587458
0.0023923568812782 0.0012924383886593 -0.0001664416922046
-0.0002046835805679 -0.0007908920887459 -0.0001147798469847
-0.0016324448308151 0.0013535945412457 0.0003750698472033
0.0001283827866936 -0.0018698231785989 0.0001347480839399
-0.0004512685557358 -0.0021256687111293 0.0002623667033661
0.0000071537766978 -0.0123682221627206 0.0024620215209146
0.0001915031134343 0.0006236599988999 -0.0000044208218211
0.0004393050371178 0.0041935008435773 -0.0001968847265009
-0.0035736167349393 -0.0202322637408612 -0.0020614041128241
0.0016654351606874 0.0007883746109544 0.0005963382095302
0.0004369467328034 -0.0003861005395611 -0.0002085736550768
-0.0007544351428382 -0.0005996096409131 -0.0001156695993015
-0.0008146500692747 -0.0038871904519698 0.0001172085822679
-14.0720388496251552 -5.0904160670460685 8.0034226229418852
-0.0038563061955935 0.0076334389881953 0.0020211211686543
-0.0014189385422920 -0.0030165917327852 -0.0003762349880257
-0.0019189413070828 -0.0056054088194958 0.0012622011852047
-0.0019483622319417 -0.0038283932165288 0.0001561077415713
-0.0038713459692430 -0.0031377980302370 0.0003439473659138
0.0022526522583996 0.0118332773516431 0.0009781446144349
-0.0025818853086320 0.0016423049014125 0.0001189579868398
0.0010304635874659 0.0061869691546023 0.0001599031879232
0.0023176606032997 -0.0033664829142137 0.0006788665288307
0.0035583261807721 0.0015760049407783 -0.0004267397230606
-0.0013865466894084 -0.0046265580670523 0.0004890281227085
-0.0010006778148385 -0.0046210977375619 -0.0029924589948510
0.0036932578456743 0.0120262058640254 0.0004233451270548
-0.0006495959820901 0.0002057396605161 -0.0004682480814847
-0.0007767567617390 -0.0020962977242778 -0.0002041290498208
0.0007757739427325 0.0012900931308702 -0.0002620102783329
0.0012012935882133 -0.0006828509775095 0.0008978820725552
0.0015824915335245 0.0008834305937287 0.0000067532485017
0.0031159028487025 0.0080078385669847 -0.0027906214171628
-0.0036893962677030 -0.0028304328724470 -0.0000017884214001
-0.0036893961027903 -0.0028304327570336 -0.0000017883754085
0.0011117155197227 -0.0030853528602564 0.0007639461785110
0.0002473335871575 0.0002785713266796 -0.0000047588869146
-0.0108479298413244 -0.0007010946830511 0.0018105081507316
-12.4364113865450854 -4.3860192489869156 7.7568340909546105
-0.0004396648556482 -0.0009562965729734 0.0002468567181069
0.0015256809035746 0.0018168400027913 0.0002894092682314
0.0017342468723885 -0.0017711730855118 0.0008054846708141
-11.5104112512819547 -63.0787427178856532 6.5029238879451423
-6.2111136010450210 -1.8474749337184608 6.3655127621467145
-0.9260390082026312 -5.1206672110940810 -8.2431356720722562
0.0024035308969591 0.0091691308585671 -0.0026405878424950
0.0086301977483514 0.0049949970232875 -0.0013326178613534
0.0023830752618367 0.0010130714768334 0.0005912526761634
0.0009481276673252 -0.0002510875134857 0.0001532695164009
0.0016861433908697 -0.0004757662322817 0.0002068437269197
0.0021403526066473 0.0100050000491588 -0.0009798919726804
0.0006777804347593 0.0009419692797537 -0.0004912292415012
0.0027739771911021 0.0004018825684615 -0.0000949695664480
0.0012638988318394 0.0054769917522228 0.0008008084292035
-0.0041079067207272 -0.0214717720774519 -0.0004860547411214
0.0007499167851233 0.0038731378315209 -0.0003923150135098
-0.0029955605528819 -0.0165796764250737 -0.0000433180885632
-0.0001557708267740 0.0021408671722769 0.0004187981673332
0.0080406554031794 0.0021869412687830 -0.0005990320973369
-0.0006608967098065 -0.0060803072347259 -0.0018555355079370
-0.0010796439645489 -0.0048619783775201 0.0001336590316677
0.0009902225731012 0.0061291287782150 -0.0008778187971066
-0.0028722791214597 -0.0002397110468303 -0.0012603170655540
-0.0005889981065336 -0.0027307946062961 -0.0002602696579917
0.0001934036307255 0.0019615440042546 0.0000933728646916
-0.0001229953347916 0.0004200550152617 0.0002211371152346
0.0027682032795645 0.0035125716973700 0.0003473452969757
-0.0011891169186174 -0.0062671602790195 0.0001152261472022
0.0016995449430851 0.0092597467022242 -0.0011512469454737
0.0037711668875490 0.0053358206177090 0.0002605248850848
0.0042943167284081 0.0243153906481136 -0.0006102697056977
-0.0000701630465148 -0.0002056255776614 0.0000132907981315
0.0122559601900908 0.0222808460282176 0.0006723961270783
-31.8599511850416768 -14.8318254793537641 4.5176395552998621
-0.0013937964286282 -0.0005916143281334 -0.0005466583682484
-0.0022483507602944 0.0049384280898224 0.0013701927617875
0.0046178078221983 0.0155914991864575 0.0016681021080049
-0.0019691464769534 -0.0019982049327588 -0.0007962926105997
-0.0008767024223934 -0.0026658339462720 0.0003134857897671
0.0015548531418937 0.0017411468560011 0.0002412177982347
0.0011583305695013 0.0022498221314575 -0.0004623792934623
-0.0037673765357171 -0.0041787259199423 0.0018812416912177
-0.0013752009951384 -0.0016091439465043 0.0004528704438247
-0.0055946680477884 -0.0159758898060980 -0.0015334467676679
0.0000763225505251 0.0000361246786242 0.0000279520099021
0.0006788225030305 -0.0008605680896780 -0.0026400001879382
-0.0023714266610335 -0.0015051410667161 -0.0000746704172153
-0.0051288357767061 -0.0064341597478995 0.0016804827571735
0.0043949910272784 0.0148708182741220 -0.0010261478561457
0.0024900563792147 0.0005573924735562 0.0012256755987560
0.0048853836276067 -0.0097305560743967 -0.0013025416788939
0.0067311502047574 0.0013487878748045 -0.0011715554272447
0.0014691457557169 0.0044297152493737 0.0002233056507514
0.0029355853522225 0.0142283142958136 -0.0006210474466551
-0.0007582177383189 0.0001669846024775 0.0007179780748641
0.0013058493921166 -0.0006195616843426 0.0003121961956032
0.0014957588268192 0.0134212303995674 -0.0012086811023088
-0.0003189674264654 0.0007139539039246 0.0002763694740692
-0.0014441190702690 -0.0079202653030691 -0.0003865479806992
-0.0001661942933754 -0.0000204666065683 -0.0001901536416016
0.0014788875619769 0.0045498335589807 0.0008838456387239
0.0009638930805665 0.0004173365826924 -0.0003539820183693
0.0003922797831716 0.0021123455414687 -0.0001200704427459
0.0006544764041519 0.0000976186087070 0.0001896045296595
-0.0010288160529067 -0.0008520234803507 0.0000811050304146
-1.2371308532352721 -7.1659703726793502 -6.0751864910480808
-0.0011928997931659 -0.0009080958364810 0.0000035001178125
0.0007231927607196 -0.0007292200394213 -0.0002906487233027
0.0014216692258935 0.0046868586109066 -0.0005204756538238
0.0009063972292692 -0.0003424164924522 -0.0008286227074207
-25.7651030211339389 -12.1882628735939633 3.3628792305051833
0.0002817415235774 0.0012617603624301 0.0001219172846921
0.0000016652403475 0.0004485173990535 0.0002002705969576
0.0000184081085160 0.0016035194808426 -0.0000974370666222
-0.0006973564959419 -0.0001678698829435 -0.0003140751340858
-0.0029357008811515 -0.0138203595091814 0.0000316885845319
-0.0019601911772802 0.0032264180308249 -0.0014487414468506
0.0017750498405088 0.0097045014707380 -0.0003085202174389
-0.0005396047634144 -0.0024371759703191 0.0003564153107176
0.0000825010382305 -0.0000149565644342 -0.0000887465259891
-0.0005906261315962 0.0003497590580165 0.0001298035857848
-0.3454135097343432 2.5743659603843891 9.3084853362946038
0.0002716871533551 0.0011662579817590 -0.0001434388546456
0.0000597357623763 0.0003267750000161 0.0000704958122925
0.0075423495737562 0.0130987994291025 0.0006045780522246
-0.0006327465622065 0.0147035409514419 -0.0015215430039956
-0.0048399518807251 -0.0028901990748369 -0.0010905763052257
-0.0043900913638202 0.0049272417008495 0.0015639685557287
-0.0064121594468779 -0.0072106965743574 0.0011526219666812
0.0003772475890234 -0.0005225802886514 0.0006400409587968
0.0005881673428659 -0.0009786472132630 -0.0005660297422367
0.0016309714629148 -0.0010728160578085 -0.0002327590377870
0.0001166801486654 -0.0008005128486982 -0.0000228704906580
0.0041072635721688 0.0104062577909521 0.0014371266307639
0.0001943080549021 -0.0020847470931430 -0.0004797016579401
-0.0002972387578685 0.0013897372311339 0.0005316086825659
-0.0024424342198665 -0.0026662936743126 -0.0014091854885966
0.0005522389833977 0.0032800784974531 -0.0001308121062356
-0.0000403925173860 -0.0007039505272373 -0.0007170552474985
-0.0047590413408037 -0.0047812878095318 0.0004742997786711
0.0006740957111710 0.0044109870601256 -0.0002706468161037
-0.0006258647650099 0.0005703361461894 -0.0003446076233667
-0.0047590410554832 -0.0047812857630182 0.0004742994311546
-0.0047987794856645 -0.0011527636149092 -0.0020624276943869
-0.0008551365817318 0.0000760147917800 0.0004031066068978
0.0024863690117721 0.0184382295958412 0.0007370256582868
-0.0029367252564744 -0.0012086826427475 -0.0005275951683304
-0.0004717392236683 -0.0016452165637954 -0.0008563673054324
-0.0007155751386941 -0.0014764924158667 0.0006160294466746
0.0060401282655399 0.0039175653679821 -0.0004479756289608
-0.0004620728441090 0.0018911505842875 -0.0017367291939275
-0.0024336734785923 -0.0002740845024129 0.0007272084509119
-0.0011988300664995 -0.0021748442434924 0.0016039487318775
0.0029260228689213 0.0124329833756134 0.0002429246788911
0.0040869184410842 0.0240131779623862 -0.0003178526971094
-0.0006776105716820 -0.0000787229931810 0.0035781688880175
-0.0000532551723384 0.0002330375834593 -0.0000596224260007
0.0009956470695573 0.0004301443225132 0.0001208183730394
-0.0001531768291211 -0.0002247710284090 0.0000709622278431
0.0040869195383294 0.0240131813530173 -0.0003178523594880
0.0020970263977877 0.0007721653781133 -0.0000109764813516
-0.0009839058509322 -0.0016106703128243 -0.0000982330374654
0.0009413715231711 0.0034070637860101 0.0005990209908820
0.0007170419035628 0.0019891745356783 0.0001897079943200
0.0006116175524398 0.0004099478835914 0.0002909277646119
0.0011407642560878 0.0081519033796774 -0.0000726498448094
0.0010286105410487 0.0039912554258629 -0.0002401173091140
-0.0011567376789872 -0.0011715555655754 -0.0005721573829621
-0.0002679881364561 -0.0021278603564795 -0.0035781544156786
-0.0007155749378028 -0.0014764930362854 0.0006160295917332
-0.0007400750526498 -0.0032558952960181 0.0005721548850297
-0.0052308294976931 -0.0040246489728671 -0.0019239215025166
-0.0012522418202166 -0.0017448170059189 -0.0008124965315435
-0.0003491867184908 -0.0037918455846925 -0.0004235694342910
-0.0011789450315181 -0.0027370663706823 0.0005789105604903
-0.0011567376042882 -0.0011715556521154 -0.0005721573145330
0.0031173162569960 0.0025014341650070 0.0011237080247794
0.0010955410546970 0.0014452697473032 -0.0008620645125664
-0.0011749182601563 -0.0027572142124250 -0.0005789106843867
-0.0069813047199919 0.0070338326123452 0.0005588340553657
0.0017848872499401 -0.0011013996905377 -0.0036487246969786
-0.0053650085218453 -0.0048300497388725 -0.0012096467465354
-0.0037491040164730 0.0027727546455717 -0.0004648556989007
-0.0016888387977474 -0.0107041659591167 -0.0014959942583926
-0.0006776105211917 -0.0000787232079539 0.0035781686627958
-0.0052308299438471 -0.0040246495837068 -0.0019239215959408
0.0040147980135979 0.0207880132552686 0.0003788398694452
-0.0050175705773439 -0.0048411158617970 -0.0008001721216385
-0.0033405018038240 -0.0003313911295114 0.0010145747724876
-0.0002679883018036 -0.0021278601240208 -0.0035781539579722
0.0041629536805692 0.0087966142532827 -0.0030166608788566
0.0058290102317265 0.0096294361932238 -0.0016378307412821
0.0069330744550824 0.0028752241166525 0.0027839955994800
0.0025711595067069 0.0145180031917030 0.0018952248733258
0.0011810351015101 -0.0034372759002942 0.0016837113751492
0.0065368105554481 0.0292264678741148 0.0001639299732774
0.0002862116100295 -0.0000761491039052 -0.0000094367839370
-0.0000532214293168 0.0041275274954456 0.0028505377278802
-0.0012386591585541 -0.0047688061357927 0.0009733494515928
0.0011330147424547 0.0043760070143049 0.0005642970803628
-0.0000491144159148 0.0033392854350020 -0.0005731621171187
0.0013797826223519 -0.0006431002231112 -0.0018557881116318
0.0023949756374828 0.0038494505172262 0.0008673630577781
-0.0050592027434636 -0.0016325072385455 -0.0004252756789091
0.0014629494856518 0.0027693585249631 -0.0000867095782607
0.0047449708594670 0.0150526241488925 0.0016378485478352
0.0029876893667501 0.0147263153798548 0.0022399293157461
-0.0023154413434677 -0.0199100615512346 -0.0004760969631789
0.0002862113620584 -0.0000761497908639 -0.0000094367192888
0.0006620136243068 0.0060864224681947 0.0008463354020274
-0.0012069368922696 0.0003605786406049 -0.0006104129351321
-0.0001998356781570 0.0001764611873130 0.0000118811792792
-0.0014035825825508 0.0013360967184844 -0.0001581258282585
-0.0001285244117334 0.0038975388077415 -0.0002468832528419
0.0008607058452642 0.0065350404112174 -0.0000729879992265
0.0016192849623316 0.0003056834449235 0.0005037185902999
-0.0055855859403821 -0.0254707747559674 -0.0003228333785791
-0.0012069366711152 0.0003605797789595 -0.0006104129694327
0.0013950822340161 0.0015100845477909 0.0008535891461747
-0.0002488593971227 -0.0030401661569935 -0.0001596173372759
0.0000833363239927 0.0009387378041996 0.0000094367423536
-0.0036245595907256 -0.0028118897825755 0.0000181665422002
0.0011792317014647 0.0046720711829297 0.0001837439322721
-0.0011386152125885 -0.0063451453265550 -0.0004202513102715
0.0008924284636771 -0.0013708108774224 0.0005731566917336
0.0022785738851043 0.0127084327338512 -0.0016070187566659
0.0000565835354823 0.0019561301312362 0.0001462536046567
-0.0061622350974277 -0.0069869815182788 0.0003919246398820
0.0001539896531401 0.0021149746339696 0.0017310759429054
0.0000833357447582 0.0009387380218997 0.0000094365459385
-0.0013068583383973 -0.0027503747818473 0.0003540071223247
-0.0042580936994525 -0.0024163705744370 0.0005586557890742
-0.0023288901094577 -0.0053006462219620 0.0012651271613087
-0.0033538174231037 -0.0225042158335789 -0.0000684067776018
0.0027320983801243 0.0029699821919572 0.0017858938776417
-0.0001165046996859 -0.0031789377360099 0.0022579527672064
0.0057954231226781 -0.0069409631779908 -0.0009139305623762
-0.0083899531544522 -0.0052151949414830 0.0018765913103294
0.0072349354788610 0.0016998631434510 -0.0010738515317739
0.0020828320462855 0.0148652822257893 -0.0002399584385889
0.0043677212296646 0.0130125911912740 -0.0006226507069976
0.0011948893418941 0.0114262206512321 -0.0011901392546810
-0.0006224064861354 -0.0005945420256587 0.0003916633317435
0.0006846839622247 0.0048296223755183 -0.0000939805313778
-0.0011540456405166 -0.0026734193875070 -0.0001871341691241
0.0005040900874659 0.0014169342653399 -0.0000333290316770
-0.0032786538757841 -0.0132281907910978 0.0002632039114364
-0.0000237515343889 -0.0002154341489177 0.0000108656837130
0.0011933032474118 0.0050454684184607 -0.0002461949691313
-0.0009251070073722 -0.0013284555460866 0.0000710275499348
0.0018935586755791 0.0008517377711992 0.0005056566963729
-0.0030120614538372 -0.0006003307138398 -0.0004804399737768
0.0005671433113884 0.0052365413164088 -0.0000986954299858
0.0002970608283091 0.0028360457938304 -0.0000267910395741
-0.0030120620186935 -0.0006003318618001 -0.0004804399784737
-0.0019548811229405 -0.0056025899796073 0.0004231285540610
0.0040773235757266 0.0027061459378868 -0.0001502210698866
-0.0001660211112779 -0.0010425351480160 0.0001750205294177
0.0002055660353990 0.0008582469371048 0.0002681697732690
0.0008061060761637 -0.0016129750928451 0.0001851068508630
0.0011575014701419 0.0038204999287924 0.0000564625698571
0.0006042709838024 0.0035811682308739 0.0005094382554454
0.0044571640514819 0.0189572131589997 0.0003946831806107
0.0004670235095209 0.0169621711313222 0.0001434876001750
-0.0091933636193359 -0.0030969030924013 0.0007687177605494
-0.0101048300552458 -0.0085677606786088 -0.0001440116211213
0.0076471849023551 0.0157554302165191 -0.0027171124783594
0.0017790186357646 0.0058051347507463 0.0006981083636758
0.0010597064688446 0.0064108465596705 -0.0003928482408472
-21.6927862127496134 -9.3297548453512231 6.7923293448391631
-0.0002834780954252 0.0170810272322228 0.0020544146495295
0.0027985218593849 0.0050204475266598 -0.0030076018009144
0.0000102339478061 0.0006145353776343 0.0000561798641316
0.0006622546908194 -0.0045927733485695 -0.0001718634416172
-0.0006408528801977 0.0017976206440721 -0.0001406768554624
-0.0041074731002148 -0.0137153721474985 0.0002814166328654
0.0022548712193022 -0.0024873428431659 -0.0018726924992624
0.0010893618905549 -0.0068360805006783 -0.0016668414029919
0.0077465710415169 0.0063189125357408 0.0018494019853861
-0.0008920677129815 0.0042174553231017 0.0013242741156372
0.0042348833985243 0.0070978681821323 -0.0003205790893484
-0.0025847184398204 -0.0030354719362823 0.0008245432228394
0.0012058213115165 0.0008560632234768 0.0008486077194591
0.0019457307681907 0.0089842279975005 0.0019590362388888
0.0056374554612683 0.0289104718734564 0.0004640931807682
0.0001138542453850 0.0013541752924203 0.0000700023377910
-0.0051719788149428 -0.0032610094516996 0.0003320663624885
-0.0017847746393186 -0.0022567624570910 -0.0004092519745096
0.0006719165889440 0.0035269513771626 -0.0008486122457732
0.0029658322787755 -0.0005197577637628 -0.0008988957621605
0.0004105595933196 -0.0001301005884760 -0.0000700021102698
-0.0004699211802237 -0.0067608714637642 0.0000283567039262
-0.0017675415907687 -0.0071233260821885 -0.0008245364492414
0.0034662397589670 0.0138581221113797 0.0003085968822148
-0.0116286688591079 -0.0017573762854477 0.0002048834699085
-0.0023488003116615 0.0092250593433118 -0.0009647680768797
0.0001138542044243 0.0013541753907093 0.0000700023300583
0.0003570688401927 -0.0008343686053322 -0.0005612389344193
0.0009326454880466 0.0040416617064048 -0.0000839346568194
0.0016604762907308 -0.0108313312216552 0.0009647293181874
-0.0000293397051119 0.0011123377269127 0.0000860506178469
-0.0009423028938024 -0.0008989274388301 -0.0003747933958327
-0.0017847748428849 -0.0022567622270127 -0.0004092519406701
0.0001146404355546 0.0014653496044644 -0.0003230342092348
0.0009958831472242 0.0001734036342211 -0.0008349035433294
-0.0047911509055322 0.0000159290588329 0.0017155491530745
-0.0019719763484393 -0.0037225404008964 0.0001154693352694
0.0002903446597229 0.0023189479785958 0.0000415184794778
-0.0015836754137500 -0.0046469674933293 -0.0004226459978891
0.0001822561950265 0.0031759461074858 0.0005441297651853
-0.0012154906294123 -0.0089064811156120 0.0010523739556062
0.0041955137417513 0.0281895139062185 0.0002932605190381
-0.0005346977313106 0.0000912893740570 0.0001405927088624
-0.0016393672011378 -0.0021999864552418 0.0006393759224670
0.0034662398534608 0.0138581219240534 0.0003085970264985
-0.0025361308936701 -0.0251832478803629 -0.0007522926190782
0.0004105597656221 -0.0001301008561525 -0.0000700022761033
-0.0037908048301140 0.0005694084065144 -0.0006230913235877
-0.0000133775665336 0.0121183394360564 -0.0005064693275439
-0.0029849808225227 -0.0201854423240343 -0.0010069770731137
-0.0001128600778244 -0.0004033178357064 0.0000128528435242
0.0009770212917473 0.0046848855536177 0.0004887370862352
0.0013799346729425 0.0005900876369560 -0.0001730064494703
0.0016237721768756 0.0070292879685576 0.0004240050209144
-0.0059054737846218 -0.0069721083758674 -0.0016247937974093
-0.0033162075597844 -0.0039895129018063 -0.0008852800325057
0.0058773572022907 0.0334455853583792 0.0004701852761335
-0.0079603867646384 -0.0109851712232484 0.0003319203187876
-0.0048073803140676 -0.0046543884279462 -0.0019330247358418
-0.0023115226308403 -0.0168170401838762 -0.0010591455396561
0.0032633959609399 0.0117379690442719 0.0002356185890622
-0.0054252133392485 -0.0012413271269941 0.0010591783797419
0.0032454171719961 0.0038962178427985 0.0010855387454849
-0.0019724582426220 -0.0116890667805234 0.0008751782107953
0.0027492156622065 0.0211656074658025 -0.0014166263107750
0.0120705481957955 0.0114438154457828 -0.0011560473719917
-0.0000507395616241 -0.0022761727698260 -0.0008623832303817
0.0061835537269370 -0.0059035151782268 0.0009418965882333
0.0014253854376253 -0.0001430360174793 -0.0005615936956263
0.0013823952682903 0.0092698680817332 0.0003161312570677
0.0002707842093143 -0.0014246008882195 -0.0004871956991023
0.0034836556601509 0.0010604121524488 0.0004345907303454
0.0002499807282561 0.0042120994012687 -0.0000488188741665
-0.0000950498651901 0.0001551525798327 -0.0004906274512478
0.0003328710744456 -0.0000729253356778 0.0001722969766314
-0.0027951992622700 -0.0150480127508489 0.0000607583994209
0.0006252016101432 -0.0000941201181073 0.0003008870517329
-0.0015893934035362 0.0005039981433133 -0.0004599889603223
0.0030297248118373 0.0010289128171343 -0.0003161260538983
0.0036832368074288 0.0233526318533682 -0.0004337463286893
0.0030297249148911 0.0010289125688113 -0.0003161260628908
0.0004981836342994 0.0029376587284804 -0.0002482113307115
-0.0002394013197644 -0.0011405309325287 -0.0004540668450448
-0.0001096038160078 0.0003496745426153 0.0001925034433713
-0.0028981163421096 -0.0023047827423223 0.0006255161700178
0.0007262786612766 0.0040488302034357 0.0005558731406059
0.0003445178396411 -0.0006834792083578 -0.0002648186287493
0.0006396348987703 0.0218308878777369 -0.0009419485509866
-0.0006389521670976 0.0006663584577401 0.0008623883106441
0.0006288423354219 0.0013970654866445 -0.0004182689062730
-0.0021652617442217 0.0029189830704827 -0.0002549150860942
-0.0007588427106597 -0.0035830228566369 -0.0008730155407570
0.0019464262136961 0.0000366193784972 0.0008298882440305
-0.0017210256439104 -0.0115632346418955 0.0020735927795446
0.0006396346650101 0.0218308898100569 -0.0009419488253310
0.0012233362944883 0.0074936265943567 0.0009590018359240
-0.0059370021195572 -0.0035901163103849 0.0005890076208097
0.0036832368377230 0.0233526312766931 -0.0004337462401587
-0.0010133783271197 -0.0033242776253319 -0.0004274172464537
-0.0038563049018039 -0.0077546637902190 -0.0008266308495759
0.0002149665492677 0.0006489729836154 -0.0000132519508250
-0.0000760328353428 -0.0008697898939985 0.0000531890064243
0.0008890397599751 0.0010347361887279 -0.0000934418904804
0.0001786641867633 -0.0000572515147518 0.0003640342197072
0.0001297058920966 -0.0017235589441360 -0.0003992479968771
-0.0007991487731202 -0.0000790198626551 0.0001432398004129
-0.0033101819897657 0.0124630142969567 -0.0009421527783772
-0.0004399194942624 -0.0002670242545283 0.0002656175744714
-0.0025738777132117 -0.0011788354120095 0.0002414341695750
0.0000035821175420 0.0002547754753550 -0.0000778881577884
0.0000669019876487 -0.0022842538044468 -0.0004425541002933
0.0003713408872505 0.0048207350352469 0.0003546240255613
-0.0013720342182689 -0.0020607988250810 -0.0002219648511907
-0.0030376737452188 -0.0056396197530206 0.0020655582611215
-0.0008132353059680 -0.0013767751445371 -0.0002526397580215
-0.0002695728313198 0.0018865667202569 0.0001652244199017
-0.0015006923960048 -0.0052313959199572 -0.0000824799509524
-0.0008132378867594 -0.0013767764586110 -0.0002526394415876
-0.0004763661531127 -0.0028686684915772 -0.0000478697785250
-0.0009294516527408 -0.0010510173339203 0.0000492941747169
0.0046863442460780 -0.0012366452895964 0.0024513558936144
-0.0013593102995403 -0.0025793948710676 -0.0001962489953126
0.0007671219588986 0.0005232637781761 -0.0001029559108294
0.0006603583126318 0.0012110624031009 -0.0006824333160228
0.0007088997573998 0.0005755642141056 -0.0000616583688160
0.0051677136950532 0.0247393310098383 -0.0014955382438873
0.0017175980831183 0.0005820084653873 0.0001072427532322
-0.0001142782129824 0.0001344357068746 0.0002161173523667
0.0005556474797769 -0.0001873994687162 -0.0008279990235644
0.0001569687439797 0.0010545853566488 0.0001262138662555
-0.0000547571778520 -0.0001591053715388 -0.0000275131729756
-0.0003868054214631 -0.0021459771558834 0.0004415889718720
0.0001879828877406 0.0012491131113633 -0.0006538755694158
0.0097281803939699 0.0060261979250860 -0.0017820120467447
-0.0015679294171165 -0.0069909657118701 -0.0001457235244544
0.0000997807760239 -0.0017797621577543 -0.0002445010245273
-0.0031270466028540 -0.0036953759507077 -0.0008583007975839
-0.0031270463717688 -0.0036953755282386 -0.0008583007755730
0.0068476098196888 -0.0085524455431523 -0.0022958301045450
0.0001200897351343 0.0027678921724980 -0.0013632817404261
0.0028288786169163 0.0021163920730858 -0.0003825887779387
0.0016002112159281 0.0081792383405619 0.0003832750701864
0.0000633489525699 0.0005524979809079 -0.0000147667927884
-0.0000454908357810 0.0040374913352026 0.0030691234216137
0.0002700577088122 0.0011215178684430 -0.0006077545191743
-0.0003299962416222 -0.0002174116201748 -0.0000223581769530
-0.0001397594161544 0.0015653693471101 0.0000842012861392
0.0033509405631437 0.0163573669230970 -0.0015573496595547
0.0023650602044187 0.0028976201551582 0.0018015778291915
0.0004440883068245 0.0065714580380987 -0.0033074235418279
-0.0009809628367370 0.0006169598217529 0.0018719300195086
-0.0022565973647297 -0.0114071417941390 -0.0001009782299496
0.0010069589756989 0.0051918784289445 0.0007824927006423
-0.0048795685904920 -0.0208760986085394 -0.0021329772925714
0.0014912758277830 -0.0156604960841198 0.0007596572280598
-0.0070506598432262 -0.0054473216187542 0.0028728437175811
0.0039065485522940 0.0042326220267614 0.0011757553718685
0.0015331948077635 0.0057820423428084 -0.0010952414904326
0.0008081391071636 0.0022310541639535 -0.0016892984341007
0.0006885124659874 0.0003541289060212 -0.0000817076463607
-0.0000469400270057 -0.0001859524016562 0.0000245098303376
0.0000425760925257 0.0002988776145965 0.0000138602751546
0.0001755472325138 0.0008396050186345 0.0000040944885110
0.0001122008983189 0.0009386589670074 0.0002052353180908
0.0007962656959951 0.0044101892310292 -0.0000493182461618
-0.0003826871650684 -0.0023661273925511 0.0001740486889535
0.0002469003015531 -0.0005313717796322 0.0000522542246061
-0.0001067766995217 -0.0001537737878104 -0.0004176077142010
0.0000635371053845 0.0003134695885205 0.0000246784927016
-0.0002249280176515 -0.0007672870364674 0.0001840514782755
0.0002013457968313 0.0006231223528467 -0.0001668479917695
-0.0004568734662099 -0.0003026483096912 0.0000085611548013
-0.0006790714008273 -0.0004137472611448 -0.0000498868623948
0.0000000000000000 -0.0004137472611448 -0.0000498868623948
0.0000368787544879 0.0003243169457306 0.0000869922702053
0.0002405214245178 0.0000166792713115 0.0000894866128826
0.0006641831282932 0.0004312964157511 -0.0000123175494986
-4.0603037478053565 -23.3766481872426652 -6.5451771797121356
-1.9662411097875749 -11.4361433704519388 -5.8441608434826247
0.0016283677266805 0.0095209400721562 0.0003266489886298
22.7549100632424306 13.1897628666146094 -6.2025757708589628
-0.0004766085491594 -0.0010406860127171 -0.0002670783231901
-0.0029272475835183 -0.0080659102657028 -0.0051506690372125
-0.0009543075117158 0.0037266248491757 0.0008503434250941
-0.0002766828010362 -0.0005435171308490 -0.0000699916505125
0.0027566455836904 0.0009007521587021 -0.0000776945610837
0.0008584560384151 -0.0026117027002040 -0.0006134966026921
0.0019459752410618 -0.0020716867033720 -0.0001143956320063
-10.6497078082288752 -58.9015754596639312 4.1494482153276468
-10.2331543720980012 -56.8323327406873133 3.2152679718521355
-15.6520730649476079 -83.7379047171661597 -0.7226649976938280
-13.6166704835080239 -73.8794745783740154 -1.2608939144275060
-8.7943881464509595 -49.2511399437177460 -5.1234285629992291
-10.8450709135867687 -59.8574757509620738 -5.1812150014843494
0.0010277688131886 0.0004022209420712 -0.0012634358459004
0.0115475448455051 0.0082486214235853 0.0007515338541218
-0.0008256969523457 -0.0032592859450729 -0.0004541790296412
0.0005718662729044 0.0010425900449217 0.0000977184345305
0.0000646321566359 0.0012065057964893 0.0010345787341127
-0.0023410199286756 -0.0018253191970684 0.0004319003330421
-7.5369099704311804 -42.4961582957122701 6.7925521147071199
-8.7723338886374158 -48.9280175743087895 7.8676755674372769
-8.2965835214665091 -46.6626969314873321 4.7206525859419770
-11.2091784331043982 -61.7717882249531058 4.3672595669412635
-11.9029756163081846 -65.1303302667071762 5.8757126848392334
-4.8293095275829687 -27.5947104774976602 -7.7620897414978582
-1.7711118267308472 -10.2667495212268918 -6.5555583924337224
0.0000867276736220 0.0106531829584114 0.0009143729634555
-0.0045032178798487 -0.0082144033089625 -0.0006799817272623
-15.6232488016648663 -6.1485005808118460 -7.2810779577280309
-25.3031013040787442 -11.9651379695872127 3.4252235846702006
-20.8945580640316422 -9.8416395567862054 3.5674524039538325
-9.1000331943096739 -2.9024336433459639 7.3496577009551212
-3.1178263831178605 -0.3744702290370142 6.1393228606427472
-0.0050021240042468 -0.0208700550595422 0.0044354101516277
0.0041103400032477 0.0021032900839409 -0.0024351101309100
0.0031456171428393 0.0032631390677961 -0.0019592470811543
-0.0024430792807378 -0.0045316776748583 -0.0003109839969274
0.0001489674695809 0.0001701189593850 -0.0000062427458835
0.0002951298983184 0.0003937500027125 -0.0001951497145701
-12.6594596795290482 -69.1474504924572813 1.8135277290359917
-12.1348784881829133 -66.5135001317237311 1.9139550988490910
-12.2674138684676901 -67.1556219938945560 -3.0963051429959796
-11.8162359939719135 -64.9100395523895770 -2.5889566900136431
-0.0001329009768207 0.0141123431291047 -0.0019176113326200
0.0015283410751908 0.0097922921810083 -0.0024984652016063
0.0006522998729816 0.0006969046544396 0.0000882146575071
0.0000182713109202 0.0041497385520847 0.0015000949217918
-28.8383440138609757 -13.9180480261418165 0.7217069590770380
-25.0057953543404032 -12.0918622301851517 1.2955393953393783
0.0022885663724059 -0.0065370569691647 -0.0020091559230915
0.0047643513658858 0.0106106594057194 0.0013429543396587
0.0128291304605838 0.0060301039761064 0.0018045782429419
0.0000949219132994 -0.0020816099635952 0.0011027398705631
-8.5329704672461784 -47.6216749567764239 7.6461522017999499
-8.8706358146500381 -49.6353203967876269 5.2759389343555565
-12.7689481661015805 -69.6638043157892639 -1.8240793043122536
-11.9497066021381411 -65.5955068370064680 -1.9851854012617267
-6.2132503991076309 -35.3548803189706504 -5.6161228580133757
-6.5466084944886624 -37.2866201352007991 -4.8042908025766442
0.0036208058634753 -0.0093645886305228 0.0035008875631343
-0.0075512371228972 -0.0247857590179134 0.0002600626075491
0.0045041793269675 0.0056850247790789 -0.0008015080933444
0.0074364839483887 0.0268053254999816 0.0007608157322848
0.0017095777683816 0.0064561359142298 0.0005030557439696
-14.5762482255659371 -7.0487847665045518 -1.9628005345061237
-7.5788405002726034 -2.5980800345402475 6.1394800865717150
-24.4674218095908316 -11.7925650835243800 1.7801031410626871
0.0003208932888321 0.0010247819598533 -0.0000836247096558
0.0001058958904078 0.0012148495896789 0.0000008782292359
0.0004325255859924 0.0020351407509939 -0.0000189531572579
-27.1449863000526683 -12.7922327303381849 3.6788180052078063
-23.4634808170439300 -11.0306502564308815 3.7775081904033940
-8.5121802823025998 -2.7644960164827954 6.8867632177031952
-5.9883203119732862 -1.7100517909396662 6.3993539352072668
0.0005329056823941 0.0002239265861821 -0.0000729755627658
-0.0003138638446709 -0.0002173760233158 0.0000896795984690
-0.0001470133869654 -0.0008216423188199 0.0000824662627900
-0.0003683410480286 0.0003222074294989 0.0000601166610375
-0.0005628871483160 -0.0009362679577176 -0.0000519295476179
-0.0018545105263778 -0.0018739783307393 -0.0003138014621513
0.0006128785078919 0.0008128234949517 -0.0001182297914580
-0.0004392442340884 -0.0002938350170305 -0.0000247400472157
0.0005452476402756 0.0004297560173550 -0.0002128378942216
-0.0000109900102958 -0.0000601197624283 0.0004274038000663
-0.0020213740436244 -0.0010833203962017 -0.0003325027388935
-0.0012626316563799 -0.0000801140962036 0.0004919459679620
0.0005045067525901 -0.0001170736988489 -0.0001934502791860
0.0002196645663875 -0.0052922577924773 0.0012613733209598
-0.0009776398694377 -0.0005284876657927 -0.0010640778162285
-0.0018806388547401 0.0001901062668858 0.0001467369946349
-0.0000281007480623 -0.0008169792946158 -0.0000177568682843
-0.0003205081677586 -0.0019760037181800 -0.0012047768152420
0.0001804264753087 0.0006960422488264 0.0002939735104819
-0.0028527232645676 -0.0016679047677946 0.0006325886625820
-0.0002011805587016 -0.0014391345659922 -0.0000763559000903
0.0019835237454231 0.0000876800479799 -0.0004367644565302
0.0000292635085841 0.0005785643312286 0.0001938064273265
-0.0005646330803018 -0.0025386749391354 -0.0002461717574426
0.0011213445451988 0.0001546410820911 0.0001220005358700
0.0005370793382495 0.0002334452489765 0.0001200332000833
0.0010769639176654 -0.0002203883720117 0.0000088190292908
-0.0001179129209841 0.0006985107003754 0.0003175542710711
0.0000156372265539 -0.0008303900809250 -0.0000395237983651

SCALARS f:fiber_f double 3
LOOKUP_TABLE default
0.0000000000000000 1.0000000000000000 0.0000000000000000
0.0000000000000000 1.0000000000000000 0.0000000000000000
0.0000000000000000 1.0000000000000000 0.0000000000000000
0.0000000000000000 1.0000000000000000 0.0000000000000000
0.0000000000000000 1.0000000000000000 0.0000000000000000
0.0000000000000000 1.0000000000000000 0.0000000000000000
0.0000000000000000 1.0000000000000000 0.0000000000000000
0.0000000000000000 1.0000000000000000 0.0000000000000000
0.0000000000000000 1.0000000000000000 0.0000000000000000
0.0000000000000000 1.0000000000000000 0.0000000000000000
0.0000000000000000 1.0000000000000000 0.0000000000000000
0.0000000000000000 1.0000000000000000 0.0000000000000000
0.0000000000000000 1.0000000000000000 0.0000000000000000
0.0000000000000000 1.0000000000000000 0.0000000000000000
0.0000000000000000 1.0000000000000000 0.0000000000000000
0.0000000000000000 1.0000000000000000 0.0000000000000000
0.0000000000000000 1.0000000000000000 0.0000000000000000
0.0000000000000000 1.0000000000000000 0.0000000000000000
0.0000000000000000 1.0000000000000000 0.0000000000000000
0.0000000000000000 1.0000000000000000 0.0000000000000000
0.0000000000000000 1.0000000000000000 0.0000000000000000
0.0000000000000000 1.0000000000000000 0.0000000000000000
0.0000000000000000 1.0000000000000000 0.0000000000000000
0.0000000000000000 1.0000000000000000 0.0000000000000000
0.0000000000000000 1.0000000000000000 0.0000000000000000
0.0000000000000000 1.0000000000000000 0.0000000000000000
0.0000000000000000 1.0000000000000000 0.0000000000000000
0.0000000000000000 1.0000000000000000 0.0000000000000000
0.0000000000000000 1.0000000000000000 0.0000000000000000
0.0000000000000000 1.0000000000000000 0.0000000000000000
0.0000000000000000 1.0000000000000000 0.0000000000000000
0.0000000000000000 1.0000000000000000 0.0000000000000000
0.0000000000000000 1.0000000000000000 0.0000000000000000
0.0000000000000000 1.0000000000000000 0.0000000000000000
0.0000000000000000 1.0000000000000000 0.0000000000000000
0.0000000000000000 1.0000000000000000 0.0000000000000000
0.0000000000000000 1.0000000000000000 0.0000000000000000
0.0000000000000000 1.0000000000000000 0.0000000000000000
0.0000000000000000 1.0000000000000000 0.0000000000000000
0.0000000000000000 1.0000000000000000 0.0000000000000000
0.0000000000000000 1.0000000000000000 0.0000000000000000
0.0000000000000000 1.0000000000000000 0.0000000000000000
0.0000000000000000 1.0000000000000000 0.0000000000000000
0.0000000000000000 1.0000000000000000 0.0000000000000000
0.0000000000000000 1.0000000000000000 0.0000000000000000
0.0000000000000000 1.0000000000000000 0.0000000000000000
0.0000000000000000 1.0000000000000000 0.0000000000000000
0.0000000000000000 1.0000000000000000 0.0000000000000000
0.0000000000000000 1.0000000000000000 0.0000000000000000
0.0000000000000000 1.0000000000000000 0.0000000000000000
0.0000000000000000 1.0000000000000000 0.0000000000000000
0.0000000000000000 1.0000000000000000 0.0000000000000000
0.0000000000000000 1.0000000000000000 0.0000000000000000
0.0000000000000000 1.0000000000000000 0.0000000000000000
0.0000000000000000 1.0000000000000000 0.0000000000000000
0.0000000000000000 1.0000000000000000 0.0000000000000000
0.0000000000000000 1.0000000000000000 0.0000000000000000
0.0000000000000000 1.0000000000000000 0.0000000000000000
0.0000000000000000 1.0000000000000000 0.0000000000000000
0.0000000000000000 1.0000000000000000 0.0000000000000000
0.0000000000000000 1.0000000000000000 0.0000000000000000
0.0000000000000000 1.0000000000000000 0.0000000000000000
0.0000000000000000 1.0000000000000000 0.0000000000000000
0.0000000000000000 1.0000000000000000 0.0000000000000000
0.0000000000000000 1.0000000000000000 0.0000000000000000
0.0000000000000000 1.0000000000000000 0.0000000000000000
0.0000000000000000 1.0000000000000000 0.0000000000000000
0.0000000000000000 1.0000000000000000 0.0000000000000000
0.0000000000000000 1.0000000000000000 0.0000000000000000
0.0000000000000000 1.0000000000000000 0.0000000000000000
0.0000000000000000 1.0000000000000000 0.0000000000000000
0.0000000000000000 1.0000000000000000 0.0000000000000000
0.0000000000000000 1.0000000000000000 0.0000000000000000
0.0000000000000000 1.0000000000000000 0.0000000000000000
0.0000000000000000 1.0000000000000000 0.0000000000000000
0.0000000000000000 1.0000000000000000 0.0000000000000000
0.0000000000000000 1.0000000000000000 0.0000000000000000
0.0000000000000000 1.0000000000000000 0.0000000000000000
0.0000000000000000 1.0000000000000000 0.0000000000000000
0.0000000000000000 1.0000000000000000 0.0000000000000000
0.0000000000000000 1.0000000000000000 0.0000000000000000
0.0000000000000000 1.0000000000000000 0.0000000000000000
0.0000000000000000 1.0000000000000000 0.0000000000000000
0.0000000000000000 1.0000000000000000 0.0000000000000000
0.0000000000000000 1.0000000000000000 0.0000000000000000
0.0000000000000000 1.0000000000000000 0.0000000000000000
0.0000000000000000 1.0000000000000000 0.0000000000000000
0.0000000000000000 1.0000000000000000 0.0000000000000000
0.0000000000000000 1.0000000000000000 0.0000000000000000
0.0000000000000000 1.0000000000000000 0.0000000000000000
0.0000000000000000 1.0000000000000000 0.0000000000000000
0.0000000000000000 1.0000000000000000 0.0000000000000000
0.0000000000000000 1.0000000000000000 0.0000000000000000
0.0000000000000000 1.0000000000000000 0.0000000000000000
0.0000000000000000 1.0000000000000000 0.0000000000000000
0.0000000000000000 1.0000000000000000 0.0000000000000000
0.0000000000000000 1.0000000000000000 0.0000000000000000
0.0000000000000000 1.0000000000000000 0.0000000000000000
0.0000000000000000 1.0000000000000000 0.0000000000000000
0.0000000000000000 1.0000000000000000 0.0000000000000000
0.0000000000000000 1.0000000000000000 0.0000000000000000
0.0000000000000000 1.0000000000000000 0.0000000000000000
0.0000000000000000 1.0000000000000000 0.0000000000000000
0.0000000000000000 1.0000000000000000 0.0000000000000000
0.0000000000000000 1.0000000000000000 0.0000000000000000
0.0000000000000000 1.0000000000000000 0.0000000000000000
0.0000000000000000 1.0000000000000000 0.0000000000000000
0.0000000000000000 1.0000000000000000 0.0000000000000000
0.0000000000000000 1.0000000000000000 0.0000000000000000
0.0000000000000000 1.0000000000000000 0.0000000000000000
0.0000000000000000 1.0000000000000000 0.0000000000000000
0.0000000000000000 1.0000000000000000 0.0000000000000000
0.0000000000000000 1.0000000000000000 0.0000000000000000
0.0000000000000000 1.0000000000000000 0.0000000000000000
0.0000000000000000 1.0000000000000000 0.0000000000000000
0.0000000000000000 1.0000000000000000 0.0000000000000000
0.0000000000000000 1.0000000000000000 0.0000000000000000
0.0000000000000000 1.0000000000000000 0.0000000000000000
0.0000000000000000 1.0000000000000000 0.0000000000000000
0.0000000000000000 1.0000000000000000 0.0000000000000000
0.0000000000000000 1.0000000000000000 0.0000000000000000
0.0000000000000000 1.0000000000000000 0.0000000000000000
0.0000000000000000 1.0000000000000000 0.0000000000000000
0.0000000000000000 1.0000000000000000 0.0000000000000000
0.0000000000000000 1.0000000000000000 0.0000000000000000
0.0000000000000000 1.0000000000000000 0.0000000000000000
0.0000000000000000 1.0000000000000000 0.0000000000000000
0.0000000000000000 1.0000000000000000 0.0000000000000000
0.0000000000000000 1.0000000000000000 0.0000000000000000
0.0000000000000000 1.0000000000000000 0.0000000000000000
0.0000000000000000 1.0000000000000000 0.0000000000000000
0.0000000000000000 1.0000000000000000 0.0000000000000000
0.0000000000000000 1.0000000000000000 0.0000000000000000
0.0000000000000000 1.0000000000000000 0.0000000000000000
0.0000000000000000 1.0000000000000000 0.0000000000000000
0.0000000000000000 1.0000000000000000 0.0000000000000000
0.0000000000000000 1.0000000000000000 0.0000000000000000
0.0000000000000000 1.0000000000000000 0.0000000000000000
0.0000000000000000 1.0000000000000000 0.0000000000000000
0.0000000000000000 1.0000000000000000 0.0000000000000000
0.0000000000000000 1.0000000000000000 0.0000000000000000
0.0000000000000000 1.0000000000000000 0.0000000000000000
0.0000000000000000 1.0000000000000000 0.0000000000000000
0.0000000000000000 1.0000000000000000 0.0000000000000000
0.0000000000000000 1.0000000000000000 0.0000000000000000
0.0000000000000000 1.0000000000000000 0.0000000000000000
0.0000000000000000 1.0000000000000000 0.0000000000000000
0.0000000000000000 1.0000000000000000 0.0000000000000000
0.0000000000000000 1.0000000000000000 0.0000000000000000
0.0000000000000000 1.0000000000000000 0.0000000000000000
0.0000000000000000 1.0000000000000000 0.0000000000000000
0.0000000000000000 1.0000000000000000 0.0000000000000000
0.0000000000000000 1.0000000000000000 0.0000000000000000
0.0000000000000000 1.0000000000000000 0.0000000000000000
0.0000000000000000 1.0000000000000000 0.0000000000000000
0.0000000000000000 1.0000000000000000 0.0000000000000000
0.0000000000000000 1.0000000000000000 0.0000000000000000
0.0000000000000000 1.0000000000000000 0.0000000000000000
0.0000000000000000 1.0000000000000000 0.0000000000000000
0.0000000000000000 1.0000000000000000 0.0000000000000000
0.0000000000000000 1.0000000000000000 0.0000000000000000
0.0000000000000000 1.0000000000000000 0.0000000000000000
0.0000000000000000 1.0000000000000000 0.0000000000000000
0.0000000000000000 1.0000000000000000 0.0000000000000000
0.0000000000000000 1.0000000000000000 0.0000000000000000
0.0000000000000000 1.0000000000000000 0.0000000000000000
0.0000000000000000 1.0000000000000000 0.0000000000000000
0.0000000000000000 1.0000000000000000 0.0000000000000000
0.0000000000000000 1.0000000000000000 0.0000000000000000
0.0000000000000000 1.0000000000000000 0.0000000000000000
0.0000000000000000 1.0000000000000000 0.0000000000000000
0.0000000000000000 1.0000000000000000 0.0000000000000000
0.0000000000000000 1.0000000000000000 0.0000000000000000
0.0000000000000000 1.0000000000000000 0.0000000000000000
0.0000000000000000 1.0000000000000000 0.0000000000000000
0.0000000000000000 1.0000000000000000 0.0000000000000000
0.0000000000000000 1.0000000000000000 0.0000000000000000
0.0000000000000000 1.0000000000000000 0.0000000000000000
0.0000000000000000 1.0000000000000000 0.0000000000000000
0.0000000000000000 1.0000000000000000 0.0000000000000000
0.0000000000000000 1.0000000000000000 0.0000000000000000
0.0000000000000000 1.0000000000000000 0.0000000000000000
0.0000000000000000 1.0000000000000000 0.0000000000000000
0.0000000000000000 1.0000000000000000 0.0000000000000000
0.0000000000000000 1.0000000000000000 0.0000000000000000
0.0000000000000000 1.0000000000000000 0.0000000000000000
0.0000000000000000 1.0000000000000000 0.0000000000000000
0.0000000000000000 1.0000000000000000 0.0000000000000000
0.0000000000000000 1.0000000000000000 0.0000000000000000
0.0000000000000000 1.0000000000000000 0.0000000000000000
0.0000000000000000 1.0000000000000000 0.0000000000000000
0.0000000000000000 1.0000000000000000 0.0000000000000000
0.0000000000000000 1.0000000000000000 0.0000000000000000
0.0000000000000000 1.0000000000000000 0.0000000000000000
0.0000000000000000 1.0000000000000000 0.0000000000000000
0.0000000000000000 1.0000000000000000 0.0000000000000000
0.0000000000000000 1.0000000000000000 0.0000000000000000
0.0000000000000000 1.0000000000000000 0.0000000000000000
0.0000000000000000 1.0000000000000000 0.0000000000000000
0.0000000000000000 1.0000000000000000 0.0000000000000000
0.0000000000000000 1.0000000000000000 0.0000000000000000
0.0000000000000000 1.0000000000000000 0.0000000000000000
0.0000000000000000 1.0000000000000000 0.0000000000000000
0.0000000000000000 1.0000000000000000 0.0000000000000000
0.0000000000000000 1.0000000000000000 0.0000000000000000
0.0000000000000000 1.0000000000000000 0.0000000000000000
0.0000000000000000 1.0000000000000000 0.0000000000000000
0.0000000000000000 1.0000000000000000 0.0000000000000000
0.0000000000000000 1.0000000000000000 0.0000000000000000
0.0000000000000000 1.0000000000000000 0.0000000000000000
0.0000000000000000 1.0000000000000000 0.0000000000000000
0.0000000000000000 1.0000000000000000 0.0000000000000000
0.0000000000000000 1.0000000000000000 0.0000000000000000
0.0000000000000000 1.0000000000000000 0.0000000000000000
0.0000000000000000 1.0000000000000000 0.0000000000000000
0.0000000000000000 1.0000000000000000 0.0000000000000000
0.0000000000000000 1.0000000000000000 0.0000000000000000
0.0000000000000000 1.0000000000000000 0.0000000000000000
0.0000000000000000 1.0000000000000000 0.0000000000000000
0.0000000000000000 1.0000000000000000 0.0000000000000000
0.0000000000000000 1.0000000000000000 0.0000000000000000
0.0000000000000000 1.0000000000000000 0.0000000000000000
0.0000000000000000 1.0000000000000000 0.0000000000000000
0.0000000000000000 1.0000000000000000 0.0000000000000000
0.0000000000000000 1.0000000000000000 0.0000000000000000
0.0000000000000000 1.0000000000000000 0.0000000000000000
0.0000000000000000 1.0000000000000000 0.0000000000000000
0.0000000000000000 1.0000000000000000 0.0000000000000000
0.0000000000000000 1.0000000000000000 0.0000000000000000
0.0000000000000000 1.0000000000000000 0.0000000000000000
0.0000000000000000 1.0000000000000000 0.0000000000000000
0.0000000000000000 1.0000000000000000 0.0000000000000000
0.0000000000000000 1.0000000000000000 0.0000000000000000
0.0000000000000000 1.0000000000000000 0.0000000000000000
0.0000000000000000 1.0000000000000000 0.0000000000000000
0.0000000000000000 1.0000000000000000 0.0000000000000000
0.0000000000000000 1.0000000000000000 0.0000000000000000
0.0000000000000000 1.0000000000000000 0.0000000000000000
0.0000000000000000 1.0000000000000000 0.0000000000000000
0.0000000000000000 1.0000000000000000 0.0000000000000000
0.0000000000000000 1.0000000000000000 0.0000000000000000
0.0000000000000000 1.0000000000000000 0.0000000000000000
0.0000000000000000 1.0000000000000000 0.0000000000000000
0.0000000000000000 1.0000000000000000 0.0000000000000000
0.0000000000000000 1.0000000000000000 0.0000000000000000
0.0000000000000000 1.0000000000000000 0.0000000000000000
0.0000000000000000 1.0000000000000000 0.0000000000000000
0.0000000000000000 1.0000000000000000 0.0000000000000000
0.0000000000000000 1.0000000000000000 0.0000000000000000
0.0000000000000000 1.0000000000000000 0.0000000000000000
0.0000000000000000 1.0000000000000000 0.0000000000000000
0.0000000000000000 1.0000000000000000 0.0000000000000000
0.0000000000000000 1.0000000000000000 0.0000000000000000
0.0000000000000000 1.0000000000000000 0.0000000000000000
0.0000000000000000 1.0000000000000000 0.0000000000000000
0.0000000000000000 1.0000000000000000 0.0000000000000000
0.0000000000000000 1.0000000000000000 0.0000000000000000
0.0000000000000000 1.0000000000000000 0.0000000000000000
0.0000000000000000 1.0000000000000000 0.0000000000000000
0.0000000000000000 1.0000000000000000 0.0000000000000000
0.0000000000000000 1.0000000000000000 0.0000000000000000
0.0000000000000000 1.0000000000000000 0.0000000000000000
0.0000000000000000 1.0000000000000000 0.0000000000000000
0.0000000000000000 1.0000000000000000 0.0000000000000000
0.0000000000000000 1.0000000000000000 0.0000000000000000
0.0000000000000000 1.0000000000000000 0.0000000000000000
0.0000000000000000 1.0000000000000000 0.0000000000000000
0.0000000000000000 1.0000000000000000 0.0000000000000000
0.0000000000000000 1.0000000000000000 0.0000000000000000
0.0000000000000000 1.0000000000000000 0.0000000000000000
0.0000000000000000 1.0000000000000000 0.0000000000000000
0.0000000000000000 1.0000000000000000 0.0000000000000000
0.0000000000000000 1.0000000000000000 0.0000000000000000
0.0000000000000000 1.0000000000000000 0.0000000000000000
0.0000000000000000 1.0000000000000000 0.0000000000000000
0.0000000000000000 1.0000000000000000 0.0000000000000000
0.0000000000000000 1.0000000000000000 0.0000000000000000
0.0000000000000000 1.0000000000000000 0.0000000000000000
0.0000000000000000 1.0000000000000000 0.0000000000000000
0.0000000000000000 1.0000000000000000 0.0000000000000000
0.0000000000000000 1.0000000000000000 0.0000000000000000
0.0000000000000000 1.0000000000000000 0.0000000000000000
0.0000000000000000 1.0000000000000000 0.0000000000000000
0.0000000000000000 1.0000000000000000 0.0000000000000000
0.0000000000000000 1.0000000000000000 0.0000000000000000
0.0000000000000000 1.0000000000000000 0.0000000000000000
0.0000000000000000 1.0000000000000000 0.0000000000000000
0.0000000000000000 1.0000000000000000 0.0000000000000000
0.0000000000000000 1.0000000000000000 0.0000000000000000
0.0000000000000000 1.0000000000000000 0.0000000000000000
0.0000000000000000 1.0000000000000000 0.0000000000000000
0.0000000000000000 1.0000000000000000 0.0000000000000000
0.0000000000000000 1.0000000000000000 0.0000000000000000
0.0000000000000000 1.0000000000000000 0.0000000000000000
0.0000000000000000 1.0000000000000000 0.0000000000000000
0.0000000000000000 1.0000000000000000 0.0000000000000000
0.0000000000000000 1.0000000000000000 0.0000000000000000
0.0000000000000000 1.0000000000000000 0.0000000000000000
0.0000000000000000 1.0000000000000000 0.0000000000000000
0.0000000000000000 1.0000000000000000 0.0000000000000000
0.0000000000000000 1.0000000000000000 0.0000000000000000
0.0000000000000000 1.0000000000000000 0.0000000000000000
0.0000000000000000 1.0000000000000000 0.0000000000000000
0.0000000000000000 1.0000000000000000 0.0000000000000000
0.0000000000000000 1.0000000000000000 0.0000000000000000
0.0000000000000000 1.0000000000000000 0.0000000000000000
0.0000000000000000 1.0000000000000000 0.0000000000000000
0.0000000000000000 1.0000000000000000 0.0000000000000000
0.0000000000000000 1.0000000000000000 0.0000000000000000
0.0000000000000000 1.0000000000000000 0.0000000000000000
0.0000000000000000 1.0000000000000000 0.0000000000000000
0.0000000000000000 1.0000000000000000 0.0000000000000000
0.0000000000000000 1.0000000000000000 0.0000000000000000
0.0000000000000000 1.0000000000000000 0.0000000000000000
0.0000000000000000 1.0000000000000000 0.0000000000000000
0.0000000000000000 1.0000000000000000 0.0000000000000000
0.0000000000000000 1.0000000000000000 0.0000000000000000
0.0000000000000000 1.0000000000000000 0.0000000000000000
0.0000000000000000 1.0000000000000000 0.0000000000000000
0.0000000000000000 1.0000000000000000 0.0000000000000000
0.0000000000000000 1.0000000000000000 0.0000000000000000
0.0000000000000000 1.0000000000000000 0.0000000000000000
0.0000000000000000 1.0000000000000000 0.0000000000000000
0.0000000000000000 1.0000000000000000 0.0000000000000000
0.0000000000000000 1.0000000000000000 0.0000000000000000
0.0000000000000000 1.0000000000000000 0.0000000000000000
0.0000000000000000 1.0000000000000000 0.0000000000000000
0.0000000000000000 1.0000000000000000 0.0000000000000000
0.0000000000000000 1.0000000000000000 0.0000000000000000
0.0000000000000000 1.0000000000000000 0.0000000000000000
0.0000000000000000 1.0000000000000000 0.0000000000000000
0.0000000000000000 1.0000000000000000 0.0000000000000000
0.0000000000000000 1.0000000000000000 0.0000000000000000
0.0000000000000000 1.0000000000000000 0.0000000000000000
0.0000000000000000 1.0000000000000000 0.0000000000000000
0.0000000000000000 1.0000000000000000 0.0000000000000000
0.0000000000000000 1.0000000000000000 0.0000000000000000
0.0000000000000000 1.0000000000000000 0.0000000000000000
0.0000000000000000 1.0000000000000000 0.0000000000000000
0.0000000000000000 1.0000000000000000 0.0000000000000000
0.0000000000000000 1.0000000000000000 0.0000000000000000
0.0000000000000000 1.0000000000000000 0.0000000000000000
0.0000000000000000 1.0000000000000000 0.0000000000000000
0.0000000000000000 1.0000000000000000 0.0000000000000000
0.0000000000000000 1.0000000000000000 0.0000000000000000
0.0000000000000000 1.0000000000000000 0.0000000000000000
0.0000000000000000 1.0000000000000000 0.0000000000000000
0.0000000000000000 1.0000000000000000 0.0000000000000000
0.0000000000000000 1.0000000000000000 0.0000000000000000
0.0000000000000000 1.0000000000000000 0.0000000000000000
0.0000000000000000 1.0000000000000000 0.0000000000000000
0.0000000000000000 1.0000000000000000 0.0000000000000000
0.0000000000000000 1.0000000000000000 0.0000000000000000
0.0000000000000000 1.0000000000000000 0.0000000000000000
0.0000000000000000 1.0000000000000000 0.0000000000000000
0.0000000000000000 1.0000000000000000 0.0000000000000000
0.0000000000000000 1.0000000000000000 0.0000000000000000
0.0000000000000000 1.0000000000000000 0.0000000000000000
0.0000000000000000 1.0000000000000000 0.0000000000000000
0.0000000000000000 1.0000000000000000 0.0000000000000000
0.0000000000000000 1.0000000000000000 0.0000000000000000
0.0000000000000000 1.0000000000000000 0.0000000000000000
0.0000000000000000 1.0000000000000000 0.0000000000000000
0.0000000000000000 1.0000000000000000 0.0000000000000000
0.0000000000000000 1.0000000000000000 0.0000000000000000
0.0000000000000000 1.0000000000000000 0.0000000000000000
0.0000000000000000 1.0000000000000000 0.0000000000000000
0.0000000000000000 1.0000000000000000 0.0000000000000000
0.0000000000000000 1.0000000000000000 0.0000000000000000
0.0000000000000000 1.0000000000000000 0.0000000000000000
0.0000000000000000 1.0000000000000000 0.0000000000000000
0.0000000000000000 1.0000000000000000 0.0000000000000000
0.0000000000000000 1.0000000000000000 0.0000000000000000
0.0000000000000000 1.0000000000000000 0.0000000000000000
0.0000000000000000 1.0000000000000000 0.0000000000000000
0.0000000000000000 1.0000000000000000 0.0000000000000000
0.0000000000000000 1.0000000000000000 0.0000000000000000
0.0000000000000000 1.0000000000000000 0.0000000000000000
0.0000000000000000 1.0000000000000000 0.0000000000000000
0.0000000000000000 1.0000000000000000 0.0000000000000000
0.0000000000000000 1.0000000000000000 0.0000000000000000
0.0000000000000000 1.0000000000000000 0.0000000000000000
0.0000000000000000 1.0000000000000000 0.0000000000000000
0.0000000000000000 1.0000000000000000 0.0000000000000000
0.0000000000000000 1.0000000000000000 0.0000000000000000
0.0000000000000000 1.0000000000000000 0.0000000000000000
0.0000000000000000 1.0000000000000000 0.0000000000000000
0.0000000000000000 1.0000000000000000 0.0000000000000000
0.0000000000000000 1.0000000000000000 0.0000000000000000
0.0000000000000000 1.0000000000000000 0.0000000000000000
0.0000000000000000 1.0000000000000000 0.0000000000000000
0.0000000000000000 1.0000000000000000 0.0000000000000000
0.0000000000000000 1.0000000000000000 0.0000000000000000
0.0000000000000000 1.0000000000000000 0.0000000000000000
0.0000000000000000 1.0000000000000000 0.0000000000000000
0.0000000000000000 1.0000000000000000 0.0000000000000000
0.0000000000000000 1.0000000000000000 0.0000000000000000
0.0000000000000000 1.0000000000000000 0.0000000000000000
0.0000000000000000 1.0000000000000000 0.0000000000000000
0.0000000000000000 1.0000000000000000 0.0000000000000000
0.0000000000000000 1.0000000000000000 0.0000000000000000
0.0000000000000000 1.0000000000000000 0.0000000000000000
0.0000000000000000 1.0000000000000000 0.0000000000000000
0.0000000000000000 1.0000000000000000 0.0000000000000000
0.0000000000000000 1.0000000000000000 0.0000000000000000
0.0000000000000000 1.0000000000000000 0.0000000000000000
0.0000000000000000 1.0000000000000000 0.0000000000000000
0.0000000000000000 1.0000000000000000 0.0000000000000000
0.0000000000000000 1.0000000000000000 0.0000000000000000
0.0000000000000000 1.0000000000000000 0.0000000000000000
0.0000000000000000 1.0000000000000000 0.0000000000000000
0.0000000000000000 1.0000000000000000 0.0000000000000000
0.0000000000000000 1.0000000000000000 0.0000000000000000
0.0000000000000000 1.0000000000000000 0.0000000000000000
0.0000000000000000 1.0000000000000000 0.0000000000000000
0.0000000000000000 1.0000000000000000 0.0000000000000000
0.0000000000000000 1.0000000000000000 0.0000000000000000
0.0000000000000000 1.0000000000000000 0.0000000000000000
0.0000000000000000 1.0000000000000000 0.0000000000000000
0.0000000000000000 1.0000000000000000 0.0000000000000000
0.0000000000000000 1.0000000000000000 0.0000000000000000
0.0000000000000000 1.0000000000000000 0.0000000000000000
0.0000000000000000 1.0000000000000000 0.0000000000000000
0.0000000000000000 1.0000000000000000 0.0000000000000000
0.0000000000000000 1.0000000000000000 0.0000000000000000
0.0000000000000000 1.0000000000000000 0.0000000000000000
0.0000000000000000 1.0000000000000000 0.0000000000000000
0.0000000000000000 1.0000000000000000 0.0000000000000000
0.0000000000000000 1.0000000000000000 0.0000000000000000
0.0000000000000000 1.0000000000000000 0.0000000000000000
0.0000000000000000 1.0000000000000000 0.0000000000000000
0.0000000000000000 1.0000000000000000 0.0000000000000000
0.0000000000000000 1.0000000000000000 0.0000000000000000
0.0000000000000000 1.0000000000000000 0.0000000000000000
0.0000000000000000 1.0000000000000000 0.0000000000000000
0.0000000000000000 1.0000000000000000 0.0000000000000000
0.0000000000000000 1.0000000000000000 0.0000000000000000
0.0000000000000000 1.0000000000000000 0.0000000000000000
0.0000000000000000 1.0000000000000000 0.0000000000000000
0.0000000000000000 1.0000000000000000 0.0000000000000000
0.0000000000000000 1.0000000000000000 0.0000000000000000
0.0000000000000000 1.0000000000000000 0.0000000000000000
0.0000000000000000 1.0000000000000000 0.0000000000000000
0.0000000000000000 1.0000000000000000 0.0000000000000000
0.0000000000000000 1.0000000000000000 0.0000000000000000
0.0000000000000000 1.0000000000000000 0.0000000000000000
0.0000000000000000 1.0000000000000000 0.0000000000000000
0.0000000000000000 1.0000000000000000 0.0000000000000000
0.0000000000000000 1.0000000000000000 0.0000000000000000
0.0000000000000000 1.0000000000000000 0.0000000000000000
0.0000000000000000 1.0000000000000000 0.0000000000000000
0.0000000000000000 1.0000000000000000 0.0000000000000000
0.0000000000000000 1.0000000000000000 0.0000000000000000
0.0000000000000000 1.0000000000000000 0.0000000000000000
0.0000000000000000 1.0000000000000000 0.0000000000000000
0.0000000000000000 1.0000000000000000 0.0000000000000000
0.0000000000000000 1.0000000000000000 0.0000000000000000
0.0000000000000000 1.0000000000000000 0.0000000000000000
0.0000000000000000 1.0000000000000000 0.0000000000000000
0.0000000000000000 1.0000000000000000 0.0000000000000000
0.0000000000000000 1.0000000000000000 0.0000000000000000
0.0000000000000000 1.0000000000000000 0.0000000000000000
0.0000000000000000 1.0000000000000000 0.0000000000000000
0.0000000000000000 1.0000000000000000 0.0000000000000000
0.0000000000000000 1.0000000000000000 0.0000000000000000
0.0000000000000000 1.0000000000000000 0.0000000000000000
0.0000000000000000 1.0000000000000000 0.0000000000000000
0.0000000000000000 1.0000000000000000 0.0000000000000000
0.0000000000000000 1.0000000000000000 0.0000000000000000
0.0000000000000000 1.0000000000000000 0.0000000000000000
0.0000000000000000 1.0000000000000000 0.0000000000000000
0.0000000000000000 1.0000000000000000 0.0000000000000000
0.0000000000000000 1.0000000000000000 0.0000000000000000
0.0000000000000000 1.0000000000000000 0.0000000000000000
0.0000000000000000 1.0000000000000000 0.0000000000000000
0.0000000000000000 1.0000000000000000 0.0000000000000000
0.0000000000000000 1.0000000000000000 0.0000000000000000
0.0000000000000000 1.0000000000000000 0.0000000000000000
0.0000000000000000 1.0000000000000000 0.0000000000000000
0.0000000000000000 1.0000000000000000 0.0000000000000000
0.0000000000000000 1.0000000000000000 0.0000000000000000
0.0000000000000000 1.0000000000000000 0.0000000000000000
0.0000000000000000 1.0000000000000000 0.0000000000000000
0.0000000000000000 1.0000000000000000 0.0000000000000000
0.0000000000000000 1.0000000000000000 0.0000000000000000
0.0000000000000000 1.0000000000000000 0.0000000000000000
0.0000000000000000 1.0000000000000000 0.0000000000000000
0.0000000000000000 1.0000000000000000 0.0000000000000000
0.0000000000000000 1.0000000000000000 0.0000000000000000
0.0000000000000000 1.0000000000000000 0.0000000000000000
0.0000000000000000 1.0000000000000000 0.0000000000000000
0.0000000000000000 1.0000000000000000 0.0000000000000000
0.0000000000000000 1.0000000000000000 0.0000000000000000
0.0000000000000000 1.0000000000000000 0.0000000000000000
0.0000000000000000 1.0000000000000000 0.0000000000000000
0.0000000000000000 1.0000000000000000 0.0000000000000000
0.0000000000000000 1.0000000000000000 0.0000000000000000
0.0000000000000000 1.0000000000000000 0.0000000000000000
0.0000000000000000 1.0000000000000000 0.0000000000000000
0.0000000000000000 1.0000000000000000 0.0000000000000000
0.0000000000000000 1.0000000000000000 0.0000000000000000
0.0000000000000000 1.0000000000000000 0.0000000000000000
0.0000000000000000 1.0000000000000000 0.0000000000000000
0.0000000000000000 1.0000000000000000 0.0000000000000000
0.0000000000000000 1.0000000000000000 0.0000000000000000
0.0000000000000000 1.0000000000000000 0.0000000000000000
0.0000000000000000 1.0000000000000000 0.0000000000000000
0.0000000000000000 1.0000000000000000 0.0000000000000000
0.0000000000000000 1.0000000000000000 0.0000000000000000
0.0000000000000000 1.0000000000000000 0.0000000000000000
0.0000000000000000 1.0000000000000000 0.0000000000000000
0.0000000000000000 1.0000000000000000 0.0000000000000000
0.0000000000000000 1.0000000000000000 0.0000000000000000
0.0000000000000000 1.0000000000000000 0.0000000000000000
0.0000000000000000 1.0000000000000000 0.0000000000000000
0.0000000000000000 1.0000000000000000 0.0000000000000000
0.0000000000000000 1.0000000000000000 0.0000000000000000
0.0000000000000000 1.0000000000000000 0.0000000000000000
0.0000000000000000 1.0000000000000000 0.0000000000000000
0.0000000000000000 1.0000000000000000 0.0000000000000000
0.0000000000000000 1.0000000000000000 0.0000000000000000
0.0000000000000000 1.0000000000000000 0.0000000000000000
0.0000000000000000 1.0000000000000000 0.0000000000000000
0.0000000000000000 1.0000000000000000 0.0000000000000000
0.0000000000000000 1.0000000000000000 0.0000000000000000
0.0000000000000000 1.0000000000000000 0.0000000000000000
0.0000000000000000 1.0000000000000000 0.0000000000000000
0.0000000000000000 1.0000000000000000 0.0000000000000000
0.0000000000000000 1.0000000000000000 0.0000000000000000
0.0000000000000000 1.0000000000000000 0.0000000000000000
0.0000000000000000 1.0000000000000000 0.0000000000000000
0.0000000000000000 1.0000000000000000 0.0000000000000000
0.0000000000000000 1.0000000000000000 0.0000000000000000
0.0000000000000000 1.0000000000000000 0.0000000000000000
0.0000000000000000 1.0000000000000000 0.0000000000000000
0.0000000000000000 1.0000000000000000 0.0000000000000000
0.0000000000000000 1.0000000000000000 0.0000000000000000
0.0000000000000000 1.0000000000000000 0.0000000000000000
0.0000000000000000 1.0000000000000000 0.0000000000000000
0.0000000000000000 1.0000000000000000 0.0000000000000000
0.0000000000000000 1.0000000000000000 0.0000000000000000
0.0000000000000000 1.0000000000000000 0.0000000000000000
0.0000000000000000 1.0000000000000000 0.0000000000000000
0.0000000000000000 1.0000000000000000 0.0000000000000000
0.0000000000000000 1.0000000000000000 0.0000000000000000
0.0000000000000000 1.0000000000000000 0.0000000000000000
0.0000000000000000 1.0000000000000000 0.0000000000000000
0.0000000000000000 1.0000000000000000 0.0000000000000000
0.0000000000000000 1.0000000000000000 0.0000000000000000
0.0000000000000000 1.0000000000000000 0.0000000000000000
0.0000000000000000 1.0000000000000000 0.0000000000000000
0.0000000000000000 1.0000000000000000 0.0000000000000000
0.0000000000000000 1.0000000000000000 0.0000000000000000
0.0000000000000000 1.0000000000000000 0.0000000000000000
0.0000000000000000 1.0000000000000000 0.0000000000000000
0.0000000000000000 1.0000000000000000 0.0000000000000000
0.0000000000000000 1.0000000000000000 0.0000000000000000
0.0000000000000000 1.0000000000000000 0.0000000000000000
0.0000000000000000 1.0000000000000000 0.0000000000000000
0.0000000000000000 1.0000000000000000 0.0000000000000000
0.0000000000000000 1.0000000000000000 0.0000000000000000
0.0000000000000000 1.0000000000000000 0.0000000000000000
0.0000000000000000 1.0000000000000000 0.0000000000000000
0.0000000000000000 1.0000000000000000 0.0000000000000000
0.0000000000000000 1.0000000000000000 0.0000000000000000
0.0000000000000000 1.0000000000000000 0.0000000000000000
0.0000000000000000 1.0000000000000000 0.0000000000000000
0.0000000000000000 1.0000000000000000 0.0000000000000000
0.0000000000000000 1.0000000000000000 0.0000000000000000
0.0000000000000000 1.0000000000000000 0.0000000000000000
0.0000000000000000 1.0000000000000000 0.0000000000000000
0.0000000000000000 1.0000000000000000 0.0000000000000000
0.0000000000000000 1.0000000000000000 0.0000000000000000
0.0000000000000000 1.0000000000000000 0.0000000000000000
0.0000000000000000 1.0000000000000000 0.0000000000000000
0.0000000000000000 1.0000000000000000 0.0000000000000000
0.0000000000000000 1.0000000000000000 0.0000000000000000
0.0000000000000000 1.0000000000000000 0.0000000000000000
0.0000000000000000 1.0000000000000000 0.0000000000000000
0.0000000000000000 1.0000000000000000 0.0000000000000000
0.0000000000000000 1.0000000000000000 0.0000000000000000
0.0000000000000000 1.0000000000000000 0.0000000000000000
0.0000000000000000 1.0000000000000000 0.0000000000000000
0.0000000000000000 1.0000000000000000 0.0000000000000000
0.0000000000000000 1.0000000000000000 0.0000000000000000
0.0000000000000000 1.0000000000000000 0.0000000000000000
0.0000000000000000 1.0000000000000000 0.0000000000000000
0.0000000000000000 1.0000000000000000 0.0000000000000000
0.0000000000000000 1.0000000000000000 0.0000000000000000
0.0000000000000000 1.0000000000000000 0.0000000000000000
0.0000000000000000 1.0000000000000000 0.0000000000000000
0.0000000000000000 1.0000000000000000 0.0000000000000000
0.0000000000000000 1.0000000000000000 0.0000000000000000
0.0000000000000000 1.0000000000000000 0.0000000000000000
0.0000000000000000 1.0000000000000000 0.0000000000000000
0.0000000000000000 1.0000000000000000 0.0000000000000000
0.0000000000000000 1.0000000000000000 0.0000000000000000
0.0000000000000000 1.0000000000000000 0.0000000000000000
0.0000000000000000 1.0000000000000000 0.0000000000000000
0.0000000000000000 1.0000000000000000 0.0000000000000000
0.0000000000000000 1.0000000000000000 0.0000000000000000
0.0000000000000000 1.0000000000000000 0.0000000000000000
0.0000000000000000 1.0000000000000000 0.0000000000000000
0.0000000000000000 1.0000000000000000 0.0000000000000000
0.0000000000000000 1.0000000000000000 0.0000000000000000
0.0000000000000000 1.0000000000000000 0.0000000000000000
0.0000000000000000 1.0000000000000000 0.0000000000000000
0.0000000000000000 1.0000000000000000 0.0000000000000000
0.0000000000000000 1.0000000000000000 0.0000000000000000
0.0000000000000000 1.0000000000000000 0.0000000000000000
0.0000000000000000 1.0000000000000000 0.0000000000000000
0.0000000000000000 1.0000000000000000 0.0000000000000000
0.0000000000000000 1.0000000000000000 0.0000000000000000
0.0000000000000000 1.0000000000000000 0.0000000000000000
0.0000000000000000 1.0000000000000000 0.0000000000000000
0.0000000000000000 1.0000000000000000 0.0000000000000000
0.0000000000000000 1.0000000000000000 0.0000000000000000
0.0000000000000000 1.0000000000000000 0.0000000000000000
0.0000000000000000 1.0000000000000000 0.0000000000000000
0.0000000000000000 1.0000000000000000 0.0000000000000000
0.0000000000000000 1.0000000000000000 0.0000000000000000
0.0000000000000000 1.0000000000000000 0.0000000000000000
0.0000000000000000 1.0000000000000000 0.0000000000000000
0.0000000000000000 1.0000000000000000 0.0000000000000000
0.0000000000000000 1.0000000000000000 0.0000000000000000
0.0000000000000000 1.0000000000000000 0.0000000000000000
0.0000000000000000 1.0000000000000000 0.0000000000000000
0.0000000000000000 1.0000000000000000 0.0000000000000000
0.0000000000000000 1.0000000000000000 0.0000000000000000
0.0000000000000000 1.0000000000000000 0.0000000000000000
0.0000000000000000 1.0000000000000000 0.0000000000000000
0.0000000000000000 1.0000000000000000 0.0000000000000000
0.0000000000000000 1.0000000000000000 0.0000000000000000
0.0000000000000000 1.0000000000000000 0.0000000000000000
0.0000000000000000 1.0000000000000000 0.0000000000000000
0.0000000000000000 1.0000000000000000 0.0000000000000000
0.0000000000000000 1.0000000000000000 0.0000000000000000
0.0000000000000000 1.0000000000000000 0.0000000000000000
0.0000000000000000 1.0000000000000000 0.0000000000000000
0.0000000000000000 1.0000000000000000 0.0000000000000000
0.0000000000000000 1.0000000000000000 0.0000000000000000
0.0000000000000000 1.0000000000000000 0.0000000000000000
0.0000000000000000 1.0000000000000000 0.0000000000000000
0.0000000000000000 1.0000000000000000 0.0000000000000000
0.0000000000000000 1.0000000000000000 0.0000000000000000
0.0000000000000000 1.0000000000000000 0.0000000000000000
0.0000000000000000 1.0000000000000000 0.0000000000000000
0.0000000000000000 1.0000000000000000 0.0000000000000000
0.0000000000000000 1.0000000000000000 0.0000000000000000
0.0000000000000000 1.0000000000000000 0.0000000000000000
0.0000000000000000 1.0000000000000000 0.0000000000000000
0.0000000000000000 1.0000000000000000 0.0000000000000000
0.0000000000000000 1.0000000000000000 0.0000000000000000
0.0000000000000000 1.0000000000000000 0.0000000000000000
0.0000000000000000 1.0000000000000000 0.0000000000000000
0.0000000000000000 1.0000000000000000 0.0000000000000000
0.0000000000000000 1.0000000000000000 0.0000000000000000
0.0000000000000000 1.0000000000000000 0.0000000000000000
0.0000000000000000 1.0000000000000000 0.0000000000000000
0.0000000000000000 1.0000000000000000 0.0000000000000000
0.0000000000000000 1.0000000000000000 0.0000000000000000
0.0000000000000000 1.0000000000000000 0.0000000000000000
0.0000000000000000 1.0000000000000000 0.0000000000000000
0.0000000000000000 1.0000000000000000 0.0000000000000000
0.0000000000000000 1.0000000000000000 0.0000000000000000
0.0000000000000000 1.0000000000000000 0.0000000000000000
0.0000000000000000 1.0000000000000000 0.0000000000000000
0.0000000000000000 1.0000000000000000 0.0000000000000000
0.0000000000000000 1.0000000000000000 0.0000000000000000
0.0000000000000000 1.0000000000000000 0.0000000000000000
0.0000000000000000 1.0000000000000000 0.0000000000000000
0.0000000000000000 1.0000000000000000 0.0000000000000000
0.0000000000000000 1.0000000000000000 0.0000000000000000
0.0000000000000000 1.0000000000000000 0.0000000000000000
0.0000000000000000 1.0000000000000000 0.0000000000000000
0.0000000000000000 1.0000000000000000 0.0000000000000000
0.0000000000000000 1.0000000000000000 0.0000000000000000
0.0000000000000000 1.0000000000000000 0.0000000000000000
0.0000000000000000 1.0000000000000000 0.0000000000000000
0.0000000000000000 1.0000000000000000 0.0000000000000000
0.0000000000000000 1.0000000000000000 0.0000000000000000
0.0000000000000000 1.0000000000000000 0.0000000000000000
0.0000000000000000 1.0000000000000000 0.0000000000000000
0.0000000000000000 1.0000000000000000 0.0000000000000000
0.0000000000000000 1.0000000000000000 0.0000000000000000
0.0000000000000000 1.0000000000000000 0.0000000000000000
0.0000000000000000 1.0000000000000000 0.0000000000000000
0.0000000000000000 1.0000000000000000 0.0000000000000000
0.0000000000000000 1.0000000000000000 0.0000000000000000
0.0000000000000000 1.0000000000000000 0.0000000000000000
0.0000000000000000 1.0000000000000000 0.0000000000000000
0.0000000000000000 1.0000000000000000 0.0000000000000000
0.0000000000000000 1.0000000000000000 0.0000000000000000
0.0000000000000000 1.0000000000000000 0.0000000000000000
0.0000000000000000 1.0000000000000000 0.0000000000000000
0.0000000000000000 1.0000000000000000 0.0000000000000000
0.0000000000000000 1.0000000000000000 0.0000000000000000
0.0000000000000000 1.0000000000000000 0.0000000000000000
0.0000000000000000 1.0000000000000000 0.0000000000000000
0.0000000000000000 1.0000000000000000 0.0000000000000000
0.0000000000000000 1.0000000000000000 0.0000000000000000
0.0000000000000000 1.0000000000000000 0.0000000000000000
0.0000000000000000 1.0000000000000000 0.0000000000000000
0.0000000000000000 1.0000000000000000 0.0000000000000000
0.0000000000000000 1.0000000000000000 0.0000000000000000
0.0000000000000000 1.0000000000000000 0.0000000000000000
0.0000000000000000 1.0000000000000000 0.0000000000000000
0.0000000000000000 1.0000000000000000 0.0000000000000000
0.0000000000000000 1.0000000000000000 0.0000000000000000
0.0000000000000000 1.0000000000000000 0.0000000000000000
0.0000000000000000 1.0000000000000000 0.0000000000000000
0.0000000000000000 1.0000000000000000 0.0000000000000000
0.0000000000000000 1.0000000000000000 0.0000000000000000
0.0000000000000000 1.0000000000000000 0.0000000000000000
0.0000000000000000 1.0000000000000000 0.0000000000000000
0.0000000000000000 1.0000000000000000 0.0000000000000000
0.0000000000000000 1.0000000000000000 0.0000000000000000
0.0000000000000000 1.0000000000000000 0.0000000000000000
0.0000000000000000 1.0000000000000000 0.0000000000000000
0.0000000000000000 1.0000000000000000 0.0000000000000000
0.0000000000000000 1.0000000000000000 0.0000000000000000
0.0000000000000000 1.0000000000000000 0.0000000000000000
0.0000000000000000 1.0000000000000000 0.0000000000000000
0.0000000000000000 1.0000000000000000 0.0000000000000000
0.0000000000000000 1.0000000000000000 0.0000000000000000
0.0000000000000000 1.0000000000000000 0.0000000000000000
0.0000000000000000 1.0000000000000000 0.0000000000000000
0.0000000000000000 1.0000000000000000 0.0000000000000000
0.0000000000000000 1.0000000000000000 0.0000000000000000
0.0000000000000000 1.0000000000000000 0.0000000000000000
0.0000000000000000 1.0000000000000000 0.0000000000000000
0.0000000000000000 1.0000000000000000 0.0000000000000000
0.0000000000000000 1.0000000000000000 0.0000000000000000
0.0000000000000000 1.0000000000000000 0.0000000000000000
0.0000000000000000 1.0000000000000000 0.0000000000000000
0.0000000000000000 1.0000000000000000 0.0000000000000000
0.0000000000000000 1.0000000000000000 0.0000000000000000
0.0000000000000000 1.0000000000000000 0.0000000000000000
0.0000000000000000 1.0000000000000000 0.0000000000000000
0.0000000000000000 1.0000000000000000 0.0000000000000000
0.0000000000000000 1.0000000000000000 0.0000000000000000
0.0000000000000000 1.0000000000000000 0.0000000000000000
0.0000000000000000 1.0000000000000000 0.0000000000000000
0.0000000000000000 1.0000000000000000 0.0000000000000000
0.0000000000000000 1.0000000000000000 0.0000000000000000
0.0000000000000000 1.0000000000000000 0.0000000000000000
0.0000000000000000 1.0000000000000000 0.0000000000000000
0.0000000000000000 1.0000000000000000 0.0000000000000000
0.0000000000000000 1.0000000000000000 0.0000000000000000
0.0000000000000000 1.0000000000000000 0.0000000000000000
0.0000000000000000 1.0000000000000000 0.0000000000000000
0.0000000000000000 1.0000000000000000 0.0000000000000000
0.0000000000000000 1.0000000000000000 0.0000000000000000
0.0000000000000000 1.0000000000000000 0.0000000000000000
0.0000000000000000 1.0000000000000000 0.0000000000000000
0.0000000000000000 1.0000000000000000 0.0000000000000000
0.0000000000000000 1.0000000000000000 0.0000000000000000
0.0000000000000000 1.0000000000000000 0.0000000000000000
0.0000000000000000 1.0000000000000000 0.0000000000000000
0.0000000000000000 1.0000000000000000 0.0000000000000000
0.0000000000000000 1.0000000000000000 0.0000000000000000
0.0000000000000000 1.0000000000000000 0.0000000000000000
0.0000000000000000 1.0000000000000000 0.0000000000000000
0.0000000000000000 1.0000000000000000 0.0000000000000000
0.0000000000000000 1.0000000000000000 0.0000000000000000
0.0000000000000000 1.0000000000000000 0.0000000000000000
0.0000000000000000 1.0000000000000000 0.0000000000000000
0.0000000000000000 1.0000000000000000 0.0000000000000000
0.0000000000000000 1.0000000000000000 0.0000000000000000
0.0000000000000000 1.0000000000000000 0.0000000000000000
0.0000000000000000 1.0000000000000000 0.0000000000000000
0.0000000000000000 1.0000000000000000 0.0000000000000000
0.0000000000000000 1.0000000000000000 0.0000000000000000
0.0000000000000000 1.0000000000000000 0.0000000000000000
0.0000000000000000 1.0000000000000000 0.0000000000000000
0.0000000000000000 1.0000000000000000 0.0000000000000000
0.0000000000000000 1.0000000000000000 0.0000000000000000
0.0000000000000000 1.0000000000000000 0.0000000000000000
0.0000000000000000 1.0000000000000000 0.0000000000000000
0.0000000000000000 1.0000000000000000 0.0000000000000000
0.0000000000000000 1.0000000000000000 0.0000000000000000
0.0000000000000000 1.0000000000000000 0.0000000000000000
0.0000000000000000 1.0000000000000000 0.0000000000000000
0.0000000000000000 1.0000000000000000 0.0000000000000000
0.0000000000000000 1.0000000000000000 0.0000000000000000
0.0000000000000000 1.0000000000000000 0.0000000000000000
0.0000000000000000 1.0000000000000000 0.0000000000000000
0.0000000000000000 1.0000000000000000 0.0000000000000000
0.0000000000000000 1.0000000000000000 0.0000000000000000
0.0000000000000000 1.0000000000000000 0.0000000000000000
0.0000000000000000 1.0000000000000000 0.0000000000000000
0.0000000000000000 1.0000000000000000 0.0000000000000000
0.0000000000000000 1.0000000000000000 0.0000000000000000
0.0000000000000000 1.0000000000000000 0.0000000000000000
0.0000000000000000 1.0000000000000000 0.0000000000000000
0.0000000000000000 1.0000000000000000 0.0000000000000000
0.0000000000000000 1.0000000000000000 0.0000000000000000
0.0000000000000000 1.0000000000000000 0.0000000000000000
0.0000000000000000 1.0000000000000000 0.0000000000000000
0.0000000000000000 1.0000000000000000 0.0000000000000000
0.0000000000000000 1.0000000000000000 0.0000000000000000
0.0000000000000000 1.0000000000000000 0.0000000000000000
0.0000000000000000 1.0000000000000000 0.0000000000000000
0.0000000000000000 1.0000000000000000 0.0000000000000000
0.0000000000000000 1.0000000000000000 0.0000000000000000
0.0000000000000000 1.0000000000000000 0.0000000000000000
0.0000000000000000 1.0000000000000000 0.0000000000000000
0.0000000000000000 1.0000000000000000 0.0000000000000000
0.0000000000000000 1.0000000000000000 0.0000000000000000
0.0000000000000000 1.0000000000000000 0.0000000000000000
0.0000000000000000 1.0000000000000000 0.0000000000000000
0.0000000000000000 1.0000000000000000 0.0000000000000000
0.0000000000000000 1.0000000000000000 0.0000000000000000
0.0000000000000000 1.0000000000000000 0.0000000000000000
0.0000000000000000 1.0000000000000000 0.0000000000000000
0.0000000000000000 1.0000000000000000 0.0000000000000000
0.0000000000000000 1.0000000000000000 0.0000000000000000
0.0000000000000000 1.0000000000000000 0.0000000000000000
0.0000000000000000 1.0000000000000000 0.0000000000000000
0.0000000000000000 1.0000000000000000 0.0000000000000000
0.0000000000000000 1.0000000000000000 0.0000000000000000
0.0000000000000000 1.0000000000000000 0.0000000000000000
0.0000000000000000 1.0000000000000000 0.0000000000000000
0.0000000000000000 1.0000000000000000 0.0000000000000000
0.0000000000000000 1.0000000000000000 0.0000000000000000
0.0000000000000000 1.0000000000000000 0.0000000000000000
0.0000000000000000 1.0000000000000000 0.0000000000000000
0.0000000000000000 1.0000000000000000 0.0000000000000000
0.0000000000000000 1.0000000000000000 0.0000000000000000
0.0000000000000000 1.0000000000000000 0.0000000000000000
0.0000000000000000 1.0000000000000000 0.0000000000000000
0.0000000000000000 1.0000000000000000 0.0000000000000000
0.0000000000000000 1.0000000000000000 0.0000000000000000
0.0000000000000000 1.0000000000000000 0.0000000000000000
0.0000000000000000 1.0000000000000000 0.0000000000000000
0.0000000000000000 1.0000000000000000 0.0000000000000000
0.0000000000000000 1.0000000000000000 0.0000000000000000
0.0000000000000000 1.0000000000000000 0.0000000000000000
0.0000000000000000 1.0000000000000000 0.0000000000000000
0.0000000000000000 1.0000000000000000 0.0000000000000000
0.0000000000000000 1.0000000000000000 0.0000000000000000
0.0000000000000000 1.0000000000000000 0.0000000000000000
0.0000000000000000 1.0000000000000000 0.0000000000000000
0.0000000000000000 1.0000000000000000 0.0000000000000000
0.0000000000000000 1.0000000000000000 0.0000000000000000
0.0000000000000000 1.0000000000000000 0.0000000000000000
0.0000000000000000 1.0000000000000000 0.0000000000000000
0.0000000000000000 1.0000000000000000 0.0000000000000000
0.0000000000000000 1.0000000000000000 0.0000000000000000
0.0000000000000000 1.0000000000000000 0.0000000000000000
0.0000000000000000 1.0000000000000000 0.0000000000000000
0.0000000000000000 1.0000000000000000 0.0000000000000000
0.0000000000000000 1.0000000000000000 0.0000000000000000
0.0000000000000000 1.0000000000000000 0.0000000000000000
0.0000000000000000 1.0000000000000000 0.0000000000000000
0.0000000000000000 1.0000000000000000 0.0000000000000000
0.0000000000000000 1.0000000000000000 0.0000000000000000
0.0000000000000000 1.0000000000000000 0.0000000000000000
0.0000000000000000 1.0000000000000000 0.0000000000000000
0.0000000000000000 1.0000000000000000 0.0000000000000000
0.0000000000000000 1.0000000000000000 0.0000000000000000
0.0000000000000000 1.0000000000000000 0.0000000000000000
0.0000000000000000 1.0000000000000000 0.0000000000000000
0.0000000000000000 1.0000000000000000 0.0000000000000000
0.0000000000000000 1.0000000000000000 0.0000000000000000
0.0000000000000000 1.0000000000000000 0.0000000000000000
0.0000000000000000 1.0000000000000000 0.0000000000000000
0.0000000000000000 1.0000000000000000 0.0000000000000000
0.0000000000000000 1.0000000000000000 0.0000000000000000
0.0000000000000000 1.0000000000000000 0.0000000000000000
0.0000000000000000 1.0000000000000000 0.0000000000000000
0.0000000000000000 1.0000000000000000 0.0000000000000000
0.0000000000000000 1.0000000000000000 0.0000000000000000
0.0000000000000000 1.0000000000000000 0.0000000000000000
0.0000000000000000 1.0000000000000000 0.0000000000000000
0.0000000000000000 1.0000000000000000 0.0000000000000000
0.0000000000000000 1.0000000000000000 0.0000000000000000
0.0000000000000000 1.0000000000000000 0.0000000000000000
0.0000000000000000 1.0000000000000000 0.0000000000000000
0.0000000000000000 1.0000000000000000 0.0000000000000000
0.0000000000000000 1.0000000000000000 0.0000000000000000
0.0000000000000000 1.0000000000000000 0.0000000000000000
0.0000000000000000 1.0000000000000000 0.0000000000000000
0.0000000000000000 1.0000000000000000 0.0000000000000000
0.0000000000000000 1.0000000000000000 0.0000000000000000
0.0000000000000000 1.0000000000000000 0.0000000000000000
0.0000000000000000 1.0000000000000000 0.0000000000000000
0.0000000000000000 1.0000000000000000 0.0000000000000000
0.0000000000000000 1.0000000000000000 0.0000000000000000
0.0000000000000000 1.0000000000000000 0.0000000000000000
0.0000000000000000 1.0000000000000000 0.0000000000000000
0.0000000000000000 1.0000000000000000 0.0000000000000000
0.0000000000000000 1.0000000000000000 0.0000000000000000
0.0000000000000000 1.0000000000000000 0.0000000000000000
0.0000000000000000 1.0000000000000000 0.0000000000000000
0.0000000000000000 1.0000000000000000 0.0000000000000000
0.0000000000000000 1.0000000000000000 0.0000000000000000
0.0000000000000000 1.0000000000000000 0.0000000000000000
0.0000000000000000 1.0000000000000000 0.0000000000000000
0.0000000000000000 1.0000000000000000 0.0000000000000000
0.0000000000000000 1.0000000000000000 0.0000000000000000
0.0000000000000000 1.0000000000000000 0.0000000000000000
0.0000000000000000 1.0000000000000000 0.0000000000000000
0.0000000000000000 1.0000000000000000 0.0000000000000000
0.0000000000000000 1.0000000000000000 0.0000000000000000
0.0000000000000000 1.0000000000000000 0.0000000000000000
0.0000000000000000 1.0000000000000000 0.0000000000000000
0.0000000000000000 1.0000000000000000 0.0000000000000000
0.0000000000000000 1.0000000000000000 0.0000000000000000
0.0000000000000000 1.0000000000000000 0.0000000000000000
0.0000000000000000 1.0000000000000000 0.0000000000000000
0.0000000000000000 1.0000000000000000 0.0000000000000000
0.0000000000000000 1.0000000000000000 0.0000000000000000
0.0000000000000000 1.0000000000000000 0.0000000000000000
0.0000000000000000 1.0000000000000000 0.0000000000000000
0.0000000000000000 1.0000000000000000 0.0000000000000000
0.0000000000000000 1.0000000000000000 0.0000000000000000
0.0000000000000000 1.0000000000000000 0.0000000000000000
0.0000000000000000 1.0000000000000000 0.0000000000000000
0.0000000000000000 1.0000000000000000 0.0000000000000000
0.0000000000000000 1.0000000000000000 0.0000000000000000
0.0000000000000000 1.0000000000000000 0.0000000000000000
0.0000000000000000 1.0000000000000000 0.0000000000000000
0.0000000000000000 1.0000000000000000 0.0000000000000000
0.0000000000000000 1.0000000000000000 0.0000000000000000
0.0000000000000000 1.0000000000000000 0.0000000000000000
0.0000000000000000 1.0000000000000000 0.0000000000000000
0.0000000000000000 1.0000000000000000 0.0000000000000000
0.0000000000000000 1.0000000000000000 0.0000000000000000
0.0000000000000000 1.0000000000000000 0.0000000000000000
0.0000000000000000 1.0000000000000000 0.0000000000000000
0.0000000000000000 1.0000000000000000 0.0000000000000000
0.0000000000000000 1.0000000000000000 0.0000000000000000
0.0000000000000000 1.0000000000000000 0.0000000000000000
0.0000000000000000 1.0000000000000000 0.0000000000000000
0.0000000000000000 1.0000000000000000 0.0000000000000000
0.0000000000000000 1.0000000000000000 0.0000000000000000
0.0000000000000000 1.0000000000000000 0.0000000000000000
0.0000000000000000 1.0000000000000000 0.0000000000000000
0.0000000000000000 1.0000000000000000 0.0000000000000000
0.0000000000000000 1.0000000000000000 0.0000000000000000
0.0000000000000000 1.0000000000000000 0.0000000000000000
0.0000000000000000 1.0000000000000000 0.0000000000000000
0.0000000000000000 1.0000000000000000 0.0000000000000000
0.0000000000000000 1.0000000000000000 0.0000000000000000
0.0000000000000000 1.0000000000000000 0.0000000000000000
0.0000000000000000 1.0000000000000000 0.0000000000000000
0.0000000000000000 1.0000000000000000 0.0000000000000000
0.0000000000000000 1.0000000000000000 0.0000000000000000
0.0000000000000000 1.0000000000000000 0.0000000000000000
0.0000000000000000 1.0000000000000000 0.0000000000000000
0.0000000000000000 1.0000000000000000 0.0000000000000000
0.0000000000000000 1.0000000000000000 0.0000000000000000
0.0000000000000000 1.0000000000000000 0.0000000000000000
0.0000000000000000 1.0000000000000000 0.0000000000000000
0.0000000000000000 1.0000000000000000 0.0000000000000000
0.0000000000000000 1.0000000000000000 0.0000000000000000
0.0000000000000000 1.0000000000000000 0.0000000000000000
0.0000000000000000 1.0000000000000000 0.0000000000000000
0.0000000000000000 1.0000000000000000 0.0000000000000000
0.0000000000000000 1.0000000000000000 0.0000000000000000
0.0000000000000000 1.0000000000000000 0.0000000000000000
0.0000000000000000 1.0000000000000000 0.0000000000000000
0.0000000000000000 1.0000000000000000 0.0000000000000000
0.0000000000000000 1.0000000000000000 0.0000000000000000
0.0000000000000000 1.0000000000000000 0.0000000000000000
0.0000000000000000 1.0000000000000000 0.0000000000000000
0.0000000000000000 1.0000000000000000 0.0000000000000000
0.0000000000000000 1.0000000000000000 0.0000000000000000
0.0000000000000000 1.0000000000000000 0.0000000000000000
0.0000000000000000 1.0000000000000000 0.0000000000000000
0.0000000000000000 1.0000000000000000 0.0000000000000000
0.0000000000000000 1.0000000000000000 0.0000000000000000
0.0000000000000000 1.0000000000000000 0.0000000000000000
0.0000000000000000 1.0000000000000000 0.0000000000000000
0.0000000000000000 1.0000000000000000 0.0000000000000000
0.0000000000000000 1.0000000000000000 0.0000000000000000
0.0000000000000000 1.0000000000000000 0.0000000000000000
0.0000000000000000 1.0000000000000000 0.0000000000000000
0.0000000000000000 1.0000000000000000 0.0000000000000000
0.0000000000000000 1.0000000000000000 0.0000000000000000
0.0000000000000000 1.0000000000000000 0.0000000000000000
0.0000000000000000 1.0000000000000000 0.0000000000000000
0.0000000000000000 1.0000000000000000 0.0000000000000000
0.0000000000000000 1.0000000000000000 0.0000000000000000
0.0000000000000000 1.0000000000000000 0.0000000000000000
0.0000000000000000 1.0000000000000000 0.0000000000000000
0.0000000000000000 1.0000000000000000 0.0000000000000000
0.0000000000000000 1.0000000000000000 0.0000000000000000
0.0000000000000000 1.0000000000000000 0.0000000000000000
0.0000000000000000 1.0000000000000000 0.0000000000000000
0.0000000000000000 1.0000000000000000 0.0000000000000000
0.0000000000000000 1.0000000000000000 0.0000000000000000
0.0000000000000000 1.0000000000000000 0.0000000000000000
0.0000000000000000 1.0000000000000000 0.0000000000000000
0.0000000000000000 1.0000000000000000 0.0000000000000000
0.0000000000000000 1.0000000000000000 0.0000000000000000
0.0000000000000000 1.0000000000000000 0.0000000000000000
0.0000000000000000 1.0000000000000000 0.0000000000000000
0.0000000000000000 1.0000000000000000 0.0000000000000000
0.0000000000000000 1.0000000000000000 0.0000000000000000
0.0000000000000000 1.0000000000000000 0.0000000000000000
0.0000000000000000 1.0000000000000000 0.0000000000000000
0.0000000000000000 1.0000000000000000 0.0000000000000000
0.0000000000000000 1.0000000000000000 0.0000000000000000
0.0000000000000000 1.0000000000000000 0.0000000000000000
0.0000000000000000 1.0000000000000000 0.0000000000000000
0.0000000000000000 1.0000000000000000 0.0000000000000000
0.0000000000000000 1.0000000000000000 0.0000000000000000
0.0000000000000000 1.0000000000000000 0.0000000000000000
0.0000000000000000 1.0000000000000000 0.0000000000000000
0.0000000000000000 1.0000000000000000 0.0000000000000000
0.0000000000000000 1.0000000000000000 0.0000000000000000
0.0000000000000000 1.0000000000000000 0.0000000000000000
0.0000000000000000 1.0000000000000000 0.0000000000000000
0.0000000000000000 1.0000000000000000 0.0000000000000000
0.0000000000000000 1.0000000000000000 0.0000000000000000
0.0000000000000000 1.0000000000000000 0.0000000000000000
0.0000000000000000 1.0000000000000000 0.0000000000000000
0.0000000000000000 1.0000000000000000 0.0000000000000000
0.0000000000000000 1.0000000000000000 0.0000000000000000
0.0000000000000000 1.0000000000000000 0.0000000000000000
0.0000000000000000 1.0000000000000000 0.0000000000000000
0.0000000000000000 1.0000000000000000 0.0000000000000000
0.0000000000000000 1.0000000000000000 0.0000000000000000
0.0000000000000000 1.0000000000000000 0.0000000000000000
0.0000000000000000 1.0000000000000000 0.0000000000000000
0.0000000000000000 1.0000000000000000 0.0000000000000000
0.0000000000000000 1.0000000000000000 0.0000000000000000
0.0000000000000000 1.0000000000000000 0.0000000000000000
0.0000000000000000 1.0000000000000000 0.0000000000000000
0.0000000000000000 1.0000000000000000 0.0000000000000000
0.0000000000000000 1.0000000000000000 0.0000000000000000
0.0000000000000000 1.0000000000000000 0.0000000000000000
0.0000000000000000 1.0000000000000000 0.0000000000000000
0.0000000000000000 1.0000000000000000 0.0000000000000000
0.0000000000000000 1.0000000000000000 0.0000000000000000
0.0000000000000000 1.0000000000000000 0.0000000000000000
0.0000000000000000 1.0000000000000000 0.0000000000000000
0.0000000000000000 1.0000000000000000 0.0000000000000000
0.0000000000000000 1.0000000000000000 0.0000000000000000
0.0000000000000000 1.0000000000000000 0.0000000000000000
0.0000000000000000 1.0000000000000000 0.0000000000000000
0.0000000000000000 1.0000000000000000 0.0000000000000000
0.0000000000000000 1.0000000000000000 0.0000000000000000
0.0000000000000000 1.0000000000000000 0.0000000000000000
0.0000000000000000 1.0000000000000000 0.0000000000000000
0.0000000000000000 1.0000000000000000 0.0000000000000000
0.0000000000000000 1.0000000000000000 0.0000000000000000
0.0000000000000000 1.0000000000000000 0.0000000000000000
0.0000000000000000 1.0000000000000000 0.0000000000000000
0.0000000000000000 1.0000000000000000 0.0000000000000000
0.0000000000000000 1.0000000000000000 0.0000000000000000
0.0000000000000000 1.0000000000000000 0.0000000000000000
0.0000000000000000 1.0000000000000000 0.0000000000000000
0.0000000000000000 1.0000000000000000 0.0000000000000000
0.0000000000000000 1.0000000000000000 0.0000000000000000
0.0000000000000000 1.0000000000000000 0.0000000000000000
0.0000000000000000 1.0000000000000000 0.0000000000000000
0.0000000000000000 1.0000000000000000 0.0000000000000000
0.0000000000000000 1.0000000000000000 0.0000000000000000
0.0000000000000000 1.0000000000000000 0.0000000000000000
0.0000000000000000 1.0000000000000000 0.0000000000000000
0.0000000000000000 1.0000000000000000 0.0000000000000000
0.0000000000000000 1.0000000000000000 0.0000000000000000
0.0000000000000000 1.0000000000000000 0.0000000000000000
0.0000000000000000 1.0000000000000000 0.0000000000000000
0.0000000000000000 1.0000000000000000 0.0000000000000000
0.0000000000000000 1.0000000000000000 0.0000000000000000
0.0000000000000000 1.0000000000000000 0.0000000000000000
0.0000000000000000 1.0000000000000000 0.0000000000000000
0.0000000000000000 1.0000000000000000 0.0000000000000000
0.0000000000000000 1.0000000000000000 0.0000000000000000
0.0000000000000000 1.0000000000000000 0.0000000000000000
0.0000000000000000 1.0000000000000000 0.0000000000000000
0.0000000000000000 1.0000000000000000 0.0000000000000000
0.0000000000000000 1.0000000000000000 0.0000000000000000
0.0000000000000000 1.0000000000000000 0.0000000000000000
0.0000000000000000 1.0000000000000000 0.0000000000000000
0.0000000000000000 1.0000000000000000 0.0000000000000000
0.0000000000000000 1.0000000000000000 0.0000000000000000
0.0000000000000000 1.0000000000000000 0.0000000000000000
0.0000000000000000 1.0000000000000000 0.0000000000000000
0.0000000000000000 1.0000000000000000 0.0000000000000000
0.0000000000000000 1.0000000000000000 0.0000000000000000
0.0000000000000000 1.0000000000000000 0.0000000000000000
0.0000000000000000 1.0000000000000000 0.0000000000000000
0.0000000000000000 1.0000000000000000 0.0000000000000000
0.0000000000000000 1.0000000000000000 0.0000000000000000
0.0000000000000000 1.0000000000000000 0.0000000000000000
0.0000000000000000 1.0000000000000000 0.0000000000000000
0.0000000000000000 1.0000000000000000 0.0000000000000000
0.0000000000000000 1.0000000000000000 0.0000000000000000
0.0000000000000000 1.0000000000000000 0.0000000000000000
0.0000000000000000 1.0000000000000000 0.0000000000000000
0.0000000000000000 1.0000000000000000 0.0000000000000000
0.0000000000000000 1.0000000000000000 0.0000000000000000
0.0000000000000000 1.0000000000000000 0.0000000000000000
0.0000000000000000 1.0000000000000000 0.0000000000000000
0.0000000000000000 1.0000000000000000 0.0000000000000000
0.0000000000000000 1.0000000000000000 0.0000000000000000
0.0000000000000000 1.0000000000000000 0.0000000000000000
0.0000000000000000 1.0000000000000000 0.0000000000000000
0.0000000000000000 1.0000000000000000 0.0000000000000000
0.0000000000000000 1.0000000000000000 0.0000000000000000
0.0000000000000000 1.0000000000000000 0.0000000000000000
0.0000000000000000 1.0000000000000000 0.0000000000000000
0.0000000000000000 1.0000000000000000 0.0000000000000000
0.0000000000000000 1.0000000000000000 0.0000000000000000
0.0000000000000000 1.0000000000000000 0.0000000000000000
0.0000000000000000 1.0000000000000000 0.0000000000000000
0.0000000000000000 1.0000000000000000 0.0000000000000000
0.0000000000000000 1.0000000000000000 0.0000000000000000
0.0000000000000000 1.0000000000000000 0.0000000000000000
0.0000000000000000 1.0000000000000000 0.0000000000000000
0.0000000000000000 1.0000000000000000 0.0000000000000000
0.0000000000000000 1.0000000000000000 0.0000000000000000
0.0000000000000000 1.0000000000000000 0.0000000000000000
0.0000000000000000 1.0000000000000000 0.0000000000000000
0.0000000000000000 1.0000000000000000 0.0000000000000000
0.0000000000000000 1.0000000000000000 0.0000000000000000
0.0000000000000000 1.0000000000000000 0.0000000000000000
0.0000000000000000 1.0000000000000000 0.0000000000000000
0.0000000000000000 1.0000000000000000 0.0000000000000000
0.0000000000000000 1.0000000000000000 0.0000000000000000
0.0000000000000000 1.0000000000000000 0.0000000000000000
0.0000000000000000 1.0000000000000000 0.0000000000000000
0.0000000000000000 1.0000000000000000 0.0000000000000000
0.0000000000000000 1.0000000000000000 0.0000000000000000
0.0000000000000000 1.0000000000000000 0.0000000000000000
0.0000000000000000 1.0000000000000000 0.0000000000000000
0.0000000000000000 1.0000000000000000 0.0000000000000000
0.0000000000000000 1.0000000000000000 0.0000000000000000
0.0000000000000000 1.0000000000000000 0.0000000000000000
0.0000000000000000 1.0000000000000000 0.0000000000000000
0.0000000000000000 1.0000000000000000 0.0000000000000000
0.0000000000000000 1.0000000000000000 0.0000000000000000
0.0000000000000000 1.0000000000000000 0.0000000000000000
0.0000000000000000 1.0000000000000000 0.0000000000000000
0.0000000000000000 1.0000000000000000 0.0000000000000000
0.0000000000000000 1.0000000000000000 0.0000000000000000
0.0000000000000000 1.0000000000000000 0.0000000000000000
0.0000000000000000 1.0000000000000000 0.0000000000000000
0.0000000000000000 1.0000000000000000 0.0000000000000000
0.0000000000000000 1.0000000000000000 0.0000000000000000
0.0000000000000000 1.0000000000000000 0.0000000000000000
0.0000000000000000 1.0000000000000000 0.0000000000000000
0.0000000000000000 1.0000000000000000 0.0000000000000000
0.0000000000000000 1.0000000000000000 0.0000000000000000
0.0000000000000000 1.0000000000000000 0.0000000000000000
0.0000000000000000 1.0000000000000000 0.0000000000000000
0.0000000000000000 1.0000000000000000 0.0000000000000000
0.0000000000000000 1.0000000000000000 0.0000000000000000
0.0000000000000000 1.0000000000000000 0.0000000000000000
0.0000000000000000 1.0000000000000000 0.0000000000000000
0.0000000000000000 1.0000000000000000 0.0000000000000000
0.0000000000000000 1.0000000000000000 0.0000000000000000
0.0000000000000000 1.0000000000000000 0.0000000000000000
0.0000000000000000 1.0000000000000000 0.0000000000000000
0.0000000000000000 1.0000000000000000 0.0000000000000000
0.0000000000000000 1.0000000000000000 0.0000000000000000
0.0000000000000000 1.0000000000000000 0.0000000000000000
0.0000000000000000 1.0000000000000000 0.0000000000000000
0.0000000000000000 1.0000000000000000 0.0000000000000000
0.0000000000000000 1.0000000000000000 0.0000000000000000
0.0000000000000000 1.0000000000000000 0.0000000000000000
0.0000000000000000 1.0000000000000000 0.0000000000000000
0.0000000000000000 1.0000000000000000 0.0000000000000000
0.0000000000000000 1.0000000000000000 0.0000000000000000
0.0000000000000000 1.0000000000000000 0.0000000000000000
0.0000000000000000 1.0000000000000000 0.0000000000000000
0.0000000000000000 1.0000000000000000 0.0000000000000000
0.0000000000000000 1.0000000000000000 0.0000000000000000
0.0000000000000000 1.0000000000000000 0.0000000000000000
0.0000000000000000 1.0000000000000000 0.0000000000000000
0.0000000000000000 1.0000000000000000 0.0000000000000000
0.0000000000000000 1.0000000000000000 0.0000000000000000
0.0000000000000000 1.0000000000000000 0.0000000000000000
0.0000000000000000 1.0000000000000000 0.0000000000000000
0.0000000000000000 1.0000000000000000 0.0000000000000000
0.0000000000000000 1.0000000000000000 0.0000000000000000
0.0000000000000000 1.0000000000000000 0.0000000000000000
0.0000000000000000 1.0000000000000000 0.0000000000000000
0.0000000000000000 1.0000000000000000 0.0000000000000000
0.0000000000000000 1.0000000000000000 0.0000000000000000
0.0000000000000000 1.0000000000000000 0.0000000000000000
0.0000000000000000 1.0000000000000000 0.0000000000000000
0.0000000000000000 1.0000000000000000 0.0000000000000000
0.0000000000000000 1.0000000000000000 0.0000000000000000
0.0000000000000000 1.0000000000000000 0.0000000000000000
0.0000000000000000 1.0000000000000000 0.0000000000000000
0.0000000000000000 1.0000000000000000 0.0000000000000000
0.0000000000000000 1.0000000000000000 0.0000000000000000
0.0000000000000000 1.0000000000000000 0.0000000000000000
0.0000000000000000 1.0000000000000000 0.0000000000000000
0.0000000000000000 1.0000000000000000 0.0000000000000000
0.0000000000000000 1.0000000000000000 0.0000000000000000
0.0000000000000000 1.0000000000000000 0.0000000000000000
0.0000000000000000 1.0000000000000000 0.0000000000000000
0.0000000000000000 1.0000000000000000 0.0000000000000000
0.0000000000000000 1.0000000000000000 0.0000000000000000
0.0000000000000000 1.0000000000000000 0.0000000000000000
0.0000000000000000 1.0000000000000000 0.0000000000000000
0.0000000000000000 1.0000000000000000 0.0000000000000000
0.0000000000000000 1.0000000000000000 0.0000000000000000
0.0000000000000000 1.0000000000000000 0.0000000000000000
0.0000000000000000 1.0000000000000000 0.0000000000000000
0.0000000000000000 1.0000000000000000 0.0000000000000000
0.0000000000000000 1.0000000000000000 0.0000000000000000
0.0000000000000000 1.0000000000000000 0.0000000000000000
0.0000000000000000 1.0000000000000000 0.0000000000000000
0.0000000000000000 1.0000000000000000 0.0000000000000000
0.0000000000000000 1.0000000000000000 0.0000000000000000
0.0000000000000000 1.0000000000000000 0.0000000000000000
0.0000000000000000 1.0000000000000000 0.0000000000000000
0.0000000000000000 1.0000000000000000 0.0000000000000000
0.0000000000000000 1.0000000000000000 0.0000000000000000
0.0000000000000000 1.0000000000000000 0.0000000000000000
0.0000000000000000 1.0000000000000000 0.0000000000000000
0.0000000000000000 1.0000000000000000 0.0000000000000000
0.0000000000000000 1.0000000000000000 0.0000000000000000
0.0000000000000000 1.0000000000000000 0.0000000000000000
0.0000000000000000 1.0000000000000000 0.0000000000000000
0.0000000000000000 1.0000000000000000 0.0000000000000000
0.0000000000000000 1.0000000000000000 0.0000000000000000
0.0000000000000000 1.0000000000000000 0.0000000000000000
0.0000000000000000 1.0000000000000000 0.0000000000000000
0.0000000000000000 1.0000000000000000 0.0000000000000000
0.0000000000000000 1.0000000000000000 0.0000000000000000
0.0000000000000000 1.0000000000000000 0.0000000000000000
0.0000000000000000 1.0000000000000000 0.0000000000000000
0.0000000000000000 1.0000000000000000 0.0000000000000000
0.0000000000000000 1.0000000000000000 0.0000000000000000
0.0000000000000000 1.0000000000000000 0.0000000000000000
0.0000000000000000 1.0000000000000000 0.0000000000000000
0.0000000000000000 1.0000000000000000 0.0000000000000000
0.0000000000000000 1.0000000000000000 0.0000000000000000
0.0000000000000000 1.0000000000000000 0.0000000000000000
0.0000000000000000 1.0000000000000000 0.0000000000000000
0.0000000000000000 1.0000000000000000 0.0000000000000000
0.0000000000000000 1.0000000000000000 0.0000000000000000
0.0000000000000000 1.0000000000000000 0.0000000000000000
0.0000000000000000 1.0000000000000000 0.0000000000000000
0.0000000000000000 1.0000000000000000 0.0000000000000000
0.0000000000000000 1.0000000000000000 0.0000000000000000
0.0000000000000000 1.0000000000000000 0.0000000000000000
0.0000000000000000 1.0000000000000000 0.0000000000000000
0.0000000000000000 1.0000000000000000 0.0000000000000000
0.0000000000000000 1.0000000000000000 0.0000000000000000
0.0000000000000000 1.0000000000000000 0.0000000000000000
0.0000000000000000 1.0000000000000000 0.0000000000000000
0.0000000000000000 1.0000000000000000 0.0000000000000000
0.0000000000000000 1.0000000000000000 0.0000000000000000
0.0000000000000000 1.0000000000000000 0.0000000000000000
0.0000000000000000 1.0000000000000000 0.0000000000000000
0.0000000000000000 1.0000000000000000 0.0000000000000000
0.0000000000000000 1.0000000000000000 0.0000000000000000
0.0000000000000000 1.0000000000000000 0.0000000000000000
0.0000000000000000 1.0000000000000000 0.0000000000000000
0.0000000000000000 1.0000000000000000 0.0000000000000000
0.0000000000000000 1.0000000000000000 0.0000000000000000
0.0000000000000000 1.0000000000000000 0.0000000000000000
0.0000000000000000 1.0000000000000000 0.0000000000000000
0.0000000000000000 1.0000000000000000 0.0000000000000000
0.0000000000000000 1.0000000000000000 0.0000000000000000
0.0000000000000000 1.0000000000000000 0.0000000000000000
0.0000000000000000 1.0000000000000000 0.0000000000000000
0.0000000000000000 1.0000000000000000 0.0000000000000000
0.0000000000000000 1.0000000000000000 0.0000000000000000
0.0000000000000000 1.0000000000000000 0.0000000000000000
0.0000000000000000 1.0000000000000000 0.0000000000000000
0.0000000000000000 1.0000000000000000 0.0000000000000000
0.0000000000000000 1.0000000000000000 0.0000000000000000
0.0000000000000000 1.0000000000000000 0.0000000000000000
0.0000000000000000 1.0000000000000000 0.0000000000000000
0.0000000000000000 1.0000000000000000 0.0000000000000000
0.0000000000000000 1.0000000000000000 0.0000000000000000
0.0000000000000000 1.0000000000000000 0.0000000000000000
0.0000000000000000 1.0000000000000000 0.0000000000000000
0.0000000000000000 1.0000000000000000 0.0000000000000000
0.0000000000000000 1.0000000000000000 0.0000000000000000
0.0000000000000000 1.0000000000000000 0.0000000000000000
0.0000000000000000 1.0000000000000000 0.0000000000000000
0.0000000000000000 1.0000000000000000 0.0000000000000000
0.0000000000000000 1.0000000000000000 0.0000000000000000
0.0000000000000000 1.0000000000000000 0.0000000000000000
0.0000000000000000 1.0000000000000000 0.0000000000000000
0.0000000000000000 1.0000000000000000 0.0000000000000000
0.0000000000000000 1.0000000000000000 0.0000000000000000
0.0000000000000000 1.0000000000000000 0.0000000000000000
0.0000000000000000 1.0000000000000000 0.0000000000000000
0.0000000000000000 1.0000000000000000 0.0000000000000000
0.0000000000000000 1.0000000000000000 0.0000000000000000
0.0000000000000000 1.0000000000000000 0.0000000000000000
0.0000000000000000 1.0000000000000000 0.0000000000000000
0.0000000000000000 1.0000000000000000 0.0000000000000000
0.0000000000000000 1.0000000000000000 0.0000000000000000
0.0000000000000000 1.0000000000000000 0.0000000000000000
0.0000000000000000 1.0000000000000000 0.0000000000000000
0.0000000000000000 1.0000000000000000 0.0000000000000000
0.0000000000000000 1.0000000000000000 0.0000000000000000
0.0000000000000000 1.0000000000000000 0.0000000000000000
0.0000000000000000 1.0000000000000000 0.0000000000000000
0.0000000000000000 1.0000000000000000 0.0000000000000000
0.0000000000000000 1.0000000000000000 0.0000000000000000
0.0000000000000000 1.0000000000000000 0.0000000000000000
0.0000000000000000 1.0000000000000000 0.0000000000000000
0.0000000000000000 1.0000000000000000 0.0000000000000000
0.0000000000000000 1.0000000000000000 0.0000000000000000
0.0000000000000000 1.0000000000000000 0.0000000000000000
0.0000000000000000 1.0000000000000000 0.0000000000000000
0.0000000000000000 1.0000000000000000 0.0000000000000000
0.0000000000000000 1.0000000000000000 0.0000000000000000
0.0000000000000000 1.0000000000000000 0.0000000000000000
0.0000000000000000 1.0000000000000000 0.0000000000000000
0.0000000000000000 1.0000000000000000 0.0000000000000000
0.0000000000000000 1.0000000000000000 0.0000000000000000
0.0000000000000000 1.0000000000000000 0.0000000000000000
0.0000000000000000 1.0000000000000000 0.0000000000000000
0.0000000000000000 1.0000000000000000 0.0000000000000000
0.0000000000000000 1.0000000000000000 0.0000000000000000
0.0000000000000000 1.0000000000000000 0.0000000000000000
0.0000000000000000 1.0000000000000000 0.0000000000000000
0.0000000000000000 1.0000000000000000 0.0000000000000000
0.0000000000000000 1.0000000000000000 0.0000000000000000
0.0000000000000000 1.0000000000000000 0.0000000000000000
0.0000000000000000 1.0000000000000000 0.0000000000000000
0.0000000000000000 1.0000000000000000 0.0000000000000000
0.0000000000000000 1.0000000000000000 0.0000000000000000
0.0000000000000000 1.0000000000000000 0.0000000000000000
0.0000000000000000 1.0000000000000000 0.0000000000000000
0.0000000000000000 1.0000000000000000 0.0000000000000000
0.0000000000000000 1.0000000000000000 0.0000000000000000
0.0000000000000000 1.0000000000000000 0.0000000000000000
0.0000000000000000 1.0000000000000000 0.0000000000000000
0.0000000000000000 1.0000000000000000 0.0000000000000000
0.0000000000000000 1.0000000000000000 0.0000000000000000
0.0000000000000000 1.0000000000000000 0.0000000000000000
0.0000000000000000 1.0000000000000000 0.0000000000000000
0.0000000000000000 1.0000000000000000 0.0000000000000000
0.0000000000000000 1.0000000000000000 0.0000000000000000
0.0000000000000000 1.0000000000000000 0.0000000000000000
0.0000000000000000 1.0000000000000000 0.0000000000000000
0.0000000000000000 1.0000000000000000 0.0000000000000000
0.0000000000000000 1.0000000000000000 0.0000000000000000
0.0000000000000000 1.0000000000000000 0.0000000000000000
0.0000000000000000 1.0000000000000000 0.0000000000000000
0.0000000000000000 1.0000000000000000 0.0000000000000000
0.0000000000000000 1.0000000000000000 0.0000000000000000
0.0000000000000000 1.0000000000000000 0.0000000000000000
0.0000000000000000 1.0000000000000000 0.0000000000000000
0.0000000000000000 1.0000000000000000 0.0000000000000000
0.0000000000000000 1.0000000000000000 0.0000000000000000
0.0000000000000000 1.0000000000000000 0.0000000000000000
0.0000000000000000 1.0000000000000000 0.0000000000000000
0.0000000000000000 1.0000000000000000 0.0000000000000000
0.0000000000000000 1.0000000000000000 0.0000000000000000
0.0000000000000000 1.0000000000000000 0.0000000000000000
0.0000000000000000 1.0000000000000000 0.0000000000000000
0.0000000000000000 1.0000000000000000 0.0000000000000000
0.0000000000000000 1.0000000000000000 0.0000000000000000
0.0000000000000000 1.0000000000000000 0.0000000000000000
0.0000000000000000 1.0000000000000000 0.0000000000000000
0.0000000000000000 1.0000000000000000 0.0000000000000000
0.0000000000000000 1.0000000000000000 0.0000000000000000
0.0000000000000000 1.0000000000000000 0.0000000000000000
0.0000000000000000 1.0000000000000000 0.0000000000000000
0.0000000000000000 1.0000000000000000 0.0000000000000000
0.0000000000000000 1.0000000000000000 0.0000000000000000
0.0000000000000000 1.0000000000000000 0.0000000000000000
0.0000000000000000 1.0000000000000000 0.0000000000000000
0.0000000000000000 1.0000000000000000 0.0000000000000000
0.0000000000000000 1.0000000000000000 0.0000000000000000
0.0000000000000000 1.0000000000000000 0.0000000000000000
0.0000000000000000 1.0000000000000000 0.0000000000000000
0.0000000000000000 1.0000000000000000 0.0000000000000000
0.0000000000000000 1.0000000000000000 0.0000000000000000
0.0000000000000000 1.0000000000000000 0.0000000000000000
0.0000000000000000 1.0000000000000000 0.0000000000000000
0.0000000000000000 1.0000000000000000 0.0000000000000000
0.0000000000000000 1.0000000000000000 0.0000000000000000
0.0000000000000000 1.0000000000000000 0.0000000000000000
0.0000000000000000 1.0000000000000000 0.0000000000000000
0.0000000000000000 1.0000000000000000 0.0000000000000000
0.0000000000000000 1.0000000000000000 0.0000000000000000
0.0000000000000000 1.0000000000000000 0.0000000000000000
0.0000000000000000 1.0000000000000000 0.0000000000000000
0.0000000000000000 1.0000000000000000 0.0000000000000000
0.0000000000000000 1.0000000000000000 0.0000000000000000
0.0000000000000000 1.0000000000000000 0.0000000000000000
0.0000000000000000 1.0000000000000000 0.0000000000000000
0.0000000000000000 1.0000000000000000 0.0000000000000000
0.0000000000000000 1.0000000000000000 0.0000000000000000
0.0000000000000000 1.0000000000000000 0.0000000000000000
0.0000000000000000 1.0000000000000000 0.0000000000000000
0.0000000000000000 1.0000000000000000 0.0000000000000000
0.0000000000000000 1.0000000000000000 0.0000000000000000
0.0000000000000000 1.0000000000000000 0.0000000000000000
0.0000000000000000 1.0000000000000000 0.0000000000000000
0.0000000000000000 1.0000000000000000 0.0000000000000000
0.0000000000000000 1.0000000000000000 0.0000000000000000
0.0000000000000000 1.0000000000000000 0.0000000000000000
0.0000000000000000 1.0000000000000000 0.0000000000000000
0.0000000000000000 1.0000000000000000 0.0000000000000000
0.0000000000000000 1.0000000000000000 0.0000000000000000
0.0000000000000000 1.0000000000000000 0.0000000000000000
0.0000000000000000 1.0000000000000000 0.0000000000000000
0.0000000000000000 1.0000000000000000 0.0000000000000000
0.0000000000000000 1.0000000000000000 0.0000000000000000
0.0000000000000000 1.0000000000000000 0.0000000000000000
0.0000000000000000 1.0000000000000000 0.0000000000000000
0.0000000000000000 1.0000000000000000 0.0000000000000000
0.0000000000000000 1.0000000000000000 0.0000000000000000
0.0000000000000000 1.0000000000000000 0.0000000000000000
0.0000000000000000 1.0000000000000000 0.0000000000000000
0.0000000000000000 1.0000000000000000 0.0000000000000000
0.0000000000000000 1.0000000000000000 0.0000000000000000
0.0000000000000000 1.0000000000000000 0.0000000000000000
0.0000000000000000 1.0000000000000000 0.0000000000000000
0.0000000000000000 1.0000000000000000 0.0000000000000000
0.0000000000000000 1.0000000000000000 0.0000000000000000
0.0000000000000000 1.0000000000000000 0.0000000000000000
0.0000000000000000 1.0000000000000000 0.0000000000000000
0.0000000000000000 1.0000000000000000 0.0000000000000000
0.0000000000000000 1.0000000000000000 0.0000000000000000
0.0000000000000000 1.0000000000000000 0.0000000000000000
0.0000000000000000 1.0000000000000000 0.0000000000000000
0.0000000000000000 1.0000000000000000 0.0000000000000000
0.0000000000000000 1.0000000000000000 0.0000000000000000
0.0000000000000000 1.0000000000000000 0.0000000000000000
0.0000000000000000 1.0000000000000000 0.0000000000000000
0.0000000000000000 1.0000000000000000 0.0000000000000000
0.0000000000000000 1.0000000000000000 0.0000000000000000
0.0000000000000000 1.0000000000000000 0.0000000000000000
0.0000000000000000 1.0000000000000000 0.0000000000000000
0.0000000000000000 1.0000000000000000 0.0000000000000000
0.0000000000000000 1.0000000000000000 0.0000000000000000
0.0000000000000000 1.0000000000000000 0.0000000000000000
0.0000000000000000 1.0000000000000000 0.0000000000000000
0.0000000000000000 1.0000000000000000 0.0000000000000000
0.0000000000000000 1.0000000000000000 0.0000000000000000
0.0000000000000000 1.0000000000000000 0.0000000000000000
0.0000000000000000 1.0000000000000000 0.0000000000000000
0.0000000000000000 1.0000000000000000 0.0000000000000000
0.0000000000000000 1.0000000000000000 0.0000000000000000
0.0000000000000000 1.0000000000000000 0.0000000000000000
0.0000000000000000 1.0000000000000000 0.0000000000000000
0.0000000000000000 1.0000000000000000 0.0000000000000000
0.0000000000000000 1.0000000000000000 0.0000000000000000
0.0000000000000000 1.0000000000000000 0.0000000000000000
0.0000000000000000 1.0000000000000000 0.0000000000000000
0.0000000000000000 1.0000000000000000 0.0000000000000000
0.0000000000000000 1.0000000000000000 0.0000000000000000
0.0000000000000000 1.0000000000000000 0.0000000000000000
0.0000000000000000 1.0000000000000000 0.0000000000000000
0.0000000000000000 1.0000000000000000 0.0000000000000000
0.0000000000000000 1.0000000000000000 0.0000000000000000
0.0000000000000000 1.0000000000000000 0.0000000000000000
0.0000000000000000 1.0000000000000000 0.0000000000000000
0.0000000000000000 1.0000000000000000 0.0000000000000000
0.0000000000000000 1.0000000000000000 0.0000000000000000
0.0000000000000000 1.0000000000000000 0.0000000000000000
0.0000000000000000 1.0000000000000000 0.0000000000000000
0.0000000000000000 1.0000000000000000 0.0000000000000000
0.0000000000000000 1.0000000000000000 0.0000000000000000
0.0000000000000000 1.0000000000000000 0.0000000000000000
0.0000000000000000 1.0000000000000000 0.0000000000000000
0.0000000000000000 1.0000000000000000 0.0000000000000000
0.0000000000000000 1.0000000000000000 0.0000000000000000
0.0000000000000000 1.0000000000000000 0.0000000000000000
0.0000000000000000 1.0000000000000000 0.0000000000000000
0.0000000000000000 1.0000000000000000 0.0000000000000000
0.0000000000000000 1.0000000000000000 0.0000000000000000
0.0000000000000000 1.0000000000000000 0.0000000000000000
0.0000000000000000 1.0000000000000000 0.0000000000000000
0.0000000000000000 1.0000000000000000 0.0000000000000000
0.0000000000000000 1.0000000000000000 0.0000000000000000
0.0000000000000000 1.0000000000000000 0.0000000000000000
0.0000000000000000 1.0000000000000000 0.0000000000000000
0.0000000000000000 1.0000000000000000 0.0000000000000000
0.0000000000000000 1.0000000000000000 0.0000000000000000
0.0000000000000000 1.0000000000000000 0.0000000000000000
0.0000000000000000 1.0000000000000000 0.0000000000000000
0.0000000000000000 1.0000000000000000 0.0000000000000000
0.0000000000000000 1.0000000000000000 0.0000000000000000
0.0000000000000000 1.0000000000000000 0.0000000000000000
0.0000000000000000 1.0000000000000000 0.0000000000000000
0.0000000000000000 1.0000000000000000 0.0000000000000000
0.0000000000000000 1.0000000000000000 0.0000000000000000
0.0000000000000000 1.0000000000000000 0.0000000000000000
0.0000000000000000 1.0000000000000000 0.0000000000000000
0.0000000000000000 1.0000000000000000 0.0000000000000000
0.0000000000000000 1.0000000000000000 0.0000000000000000
0.0000000000000000 1.0000000000000000 0.0000000000000000
0.0000000000000000 1.0000000000000000 0.0000000000000000
0.0000000000000000 1.0000000000000000 0.0000000000000000
0.0000000000000000 1.0000000000000000 0.0000000000000000
0.0000000000000000 1.0000000000000000 0.0000000000000000
0.0000000000000000 1.0000000000000000 0.0000000000000000
0.0000000000000000 1.0000000000000000 0.0000000000000000
0.0000000000000000 1.0000000000000000 0.0000000000000000
0.0000000000000000 1.0000000000000000 0.0000000000000000
0.0000000000000000 1.0000000000000000 0.0000000000000000
0.0000000000000000 1.0000000000000000 0.0000000000000000
0.0000000000000000 1.0000000000000000 0.0000000000000000
0.0000000000000000 1.0000000000000000 0.0000000000000000
0.0000000000000000 1.0000000000000000 0.0000000000000000
0.0000000000000000 1.0000000000000000 0.0000000000000000
0.0000000000000000 1.0000000000000000 0.0000000000000000
0.0000000000000000 1.0000000000000000 0.0000000000000000
0.0000000000000000 1.0000000000000000 0.0000000000000000
0.0000000000000000 1.0000000000000000 0.0000000000000000
0.0000000000000000 1.0000000000000000 0.0000000000000000
0.0000000000000000 1.0000000000000000 0.0000000000000000
0.0000000000000000 1.0000000000000000 0.0000000000000000
0.0000000000000000 1.0000000000000000 0.0000000000000000
0.0000000000000000 1.0000000000000000 0.0000000000000000
0.0000000000000000 1.0000000000000000 0.0000000000000000
0.0000000000000000 1.0000000000000000 0.0000000000000000
0.0000000000000000 1.0000000000000000 0.0000000000000000
0.0000000000000000 1.0000000000000000 0.0000000000000000
0.0000000000000000 1.0000000000000000 0.0000000000000000
0.0000000000000000 1.0000000000000000 0.0000000000000000
0.0000000000000000 1.0000000000000000 0.0000000000000000
0.0000000000000000 1.0000000000000000 0.0000000000000000
0.0000000000000000 1.0000000000000000 0.0000000000000000
0.0000000000000000 1.0000000000000000 0.0000000000000000
0.0000000000000000 1.0000000000000000 0.0000000000000000
0.0000000000000000 1.0000000000000000 0.0000000000000000
0.0000000000000000 1.0000000000000000 0.0000000000000000
0.0000000000000000 1.0000000000000000 0.0000000000000000
0.0000000000000000 1.0000000000000000 0.0000000000000000
0.0000000000000000 1.0000000000000000 0.0000000000000000
0.0000000000000000 1.0000000000000000 0.0000000000000000
0.0000000000000000 1.0000000000000000 0.0000000000000000
0.0000000000000000 1.0000000000000000 0.0000000000000000
0.0000000000000000 1.0000000000000000 0.0000000000000000
0.0000000000000000 1.0000000000000000 0.0000000000000000
0.0000000000000000 1.0000000000000000 0.0000000000000000
0.0000000000000000 1.0000000000000000 0.0000000000000000
0.0000000000000000 1.0000000000000000 0.0000000000000000
0.0000000000000000 1.0000000000000000 0.0000000000000000
0.0000000000000000 1.0000000000000000 0.0000000000000000
0.0000000000000000 1.0000000000000000 0.0000000000000000
0.0000000000000000 1.0000000000000000 0.0000000000000000
0.0000000000000000 1.0000000000000000 0.0000000000000000
0.0000000000000000 1.0000000000000000 0.0000000000000000
0.0000000000000000 1.0000000000000000 0.0000000000000000
0.0000000000000000 1.0000000000000000 0.0000000000000000
0.0000000000000000 1.0000000000000000 0.0000000000000000
0.0000000000000000 1.0000000000000000 0.0000000000000000
0.0000000000000000 1.0000000000000000 0.0000000000000000
0.0000000000000000 1.0000000000000000 0.0000000000000000
0.0000000000000000 1.0000000000000000 0.0000000000000000
0.0000000000000000 1.0000000000000000 0.0000000000000000
0.0000000000000000 1.0000000000000000 0.0000000000000000
0.0000000000000000 1.0000000000000000 0.0000000000000000
0.0000000000000000 1.0000000000000000 0.0000000000000000
0.0000000000000000 1.0000000000000000 0.0000000000000000
0.0000000000000000 1.0000000000000000 0.0000000000000000
0.0000000000000000 1.0000000000000000 0.0000000000000000
0.0000000000000000 1.0000000000000000 0.0000000000000000
0.0000000000000000 1.0000000000000000 0.0000000000000000
0.0000000000000000 1.0000000000000000 0.0000000000000000
0.0000000000000000 1.0000000000000000 0.0000000000000000
0.0000000000000000 1.0000000000000000 0.0000000000000000
0.0000000000000000 1.0000000000000000 0.0000000000000000
0.0000000000000000 1.0000000000000000 0.0000000000000000
0.0000000000000000 1.0000000000000000 0.0000000000000000
0.0000000000000000 1.0000000000000000 0.0000000000000000
0.0000000000000000 1.0000000000000000 0.0000000000000000
0.0000000000000000 1.0000000000000000 0.0000000000000000
0.0000000000000000 1.0000000000000000 0.0000000000000000
0.0000000000000000 1.0000000000000000 0.0000000000000000
0.0000000000000000 1.0000000000000000 0.0000000000000000
0.0000000000000000 1.0000000000000000 0.0000000000000000
0.0000000000000000 1.0000000000000000 0.0000000000000000
0.0000000000000000 1.0000000000000000 0.0000000000000000
0.0000000000000000 1.0000000000000000 0.0000000000000000
0.0000000000000000 1.0000000000000000 0.0000000000000000
0.0000000000000000 1.0000000000000000 0.0000000000000000
0.0000000000000000 1.0000000000000000 0.0000000000000000
0.0000000000000000 1.0000000000000000 0.0000000000000000
0.0000000000000000 1.0000000000000000 0.0000000000000000
0.0000000000000000 1.0000000000000000 0.0000000000000000
0.0000000000000000 1.0000000000000000 0.0000000000000000
0.0000000000000000 1.0000000000000000 0.0000000000000000
0.0000000000000000 1.0000000000000000 0.0000000000000000
0.0000000000000000 1.0000000000000000 0.0000000000000000
0.0000000000000000 1.0000000000000000 0.0000000000000000
0.0000000000000000 1.0000000000000000 0.0000000000000000
0.0000000000000000 1.0000000000000000 0.0000000000000000
0.0000000000000000 1.0000000000000000 0.0000000000000000
0.0000000000000000 1.0000000000000000 0.0000000000000000
0.0000000000000000 1.0000000000000000 0.0000000000000000
0.0000000000000000 1.0000000000000000 0.0000000000000000
0.0000000000000000 1.0000000000000000 0.0000000000000000
0.0000000000000000 1.0000000000000000 0.0000000000000000
0.0000000000000000 1.0000000000000000 0.0000000000000000
0.0000000000000000 1.0000000000000000 0.0000000000000000
0.0000000000000000 1.0000000000000000 0.0000000000000000
0.0000000000000000 1.0000000000000000 0.0000000000000000
0.0000000000000000 1.0000000000000000 0.0000000000000000
0.0000000000000000 1.0000000000000000 0.0000000000000000
0.0000000000000000 1.0000000000000000 0.0000000000000000
0.0000000000000000 1.0000000000000000 0.0000000000000000
0.0000000000000000 1.0000000000000000 0.0000000000000000
0.0000000000000000 1.0000000000000000 0.0000000000000000
0.0000000000000000 1.0000000000000000 0.0000000000000000
0.0000000000000000 1.0000000000000000 0.0000000000000000
0.0000000000000000 1.0000000000000000 0.0000000000000000
0.0000000000000000 1.0000000000000000 0.0000000000000000
0.0000000000000000 1.0000000000000000 0.0000000000000000
0.0000000000000000 1.0000000000000000 0.0000000000000000
0.0000000000000000 1.0000000000000000 0.0000000000000000
0.0000000000000000 1.0000000000000000 0.0000000000000000
0.0000000000000000 1.0000000000000000 0.0000000000000000
0.0000000000000000 1.0000000000000000 0.0000000000000000
0.0000000000000000 1.0000000000000000 0.0000000000000000
0.0000000000000000 1.0000000000000000 0.0000000000000000
0.0000000000000000 1.0000000000000000 0.0000000000000000
0.0000000000000000 1.0000000000000000 0.0000000000000000
0.0000000000000000 1.0000000000000000 0.0000000000000000
0.0000000000000000 1.0000000000000000 0.0000000000000000
0.0000000000000000 1.0000000000000000 0.0000000000000000
0.0000000000000000 1.0000000000000000 0.0000000000000000
0.0000000000000000 1.0000000000000000 0.0000000000000000
0.0000000000000000 1.0000000000000000 0.0000000000000000
0.0000000000000000 1.0000000000000000 0.0000000000000000
0.0000000000000000 1.0000000000000000 0.0000000000000000
0.0000000000000000 1.0000000000000000 0.0000000000000000
0.0000000000000000 1.0000000000000000 0.0000000000000000
0.0000000000000000 1.0000000000000000 0.0000000000000000
0.0000000000000000 1.0000000000000000 0.0000000000000000
0.0000000000000000 1.0000000000000000 0.0000000000000000
0.0000000000000000 1.0000000000000000 0.0000000000000000
0.0000000000000000 1.0000000000000000 0.0000000000000000
0.0000000000000000 1.0000000000000000 0.0000000000000000
0.0000000000000000 1.0000000000000000 0.0000000000000000
0.0000000000000000 1.0000000000000000 0.0000000000000000
0.0000000000000000 1.0000000000000000 0.0000000000000000
0.0000000000000000 1.0000000000000000 0.0000000000000000
0.0000000000000000 1.0000000000000000 0.0000000000000000
0.0000000000000000 1.0000000000000000 0.0000000000000000
0.0000000000000000 1.0000000000000000 0.0000000000000000
0.0000000000000000 1.0000000000000000 0.0000000000000000
0.0000000000000000 1.0000000000000000 0.0000000000000000
0.0000000000000000 1.0000000000000000 0.0000000000000000
0.0000000000000000 1.0000000000000000 0.0000000000000000
0.0000000000000000 1.0000000000000000 0.0000000000000000
0.0000000000000000 1.0000000000000000 0.0000000000000000
0.0000000000000000 1.0000000000000000 0.0000000000000000
0.0000000000000000 1.0000000000000000 0.0000000000000000
0.0000000000000000 1.0000000000000000 0.0000000000000000
0.0000000000000000 1.0000000000000000 0.0000000000000000
0.0000000000000000 1.0000000000000000 0.0000000000000000
0.0000000000000000 1.0000000000000000 0.0000000000000000
0.0000000000000000 1.0000000000000000 0.0000000000000000
0.0000000000000000 1.0000000000000000 0.0000000000000000
0.0000000000000000 1.0000000000000000 0.0000000000000000
0.0000000000000000 1.0000000000000000 0.0000000000000000
0.0000000000000000 1.0000000000000000 0.0000000000000000
0.0000000000000000 1.0000000000000000 0.0000000000000000
0.0000000000000000 1.0000000000000000 0.0000000000000000
0.0000000000000000 1.0000000000000000 0.0000000000000000
0.0000000000000000 1.0000000000000000 0.0000000000000000
0.0000000000000000 1.0000000000000000 0.0000000000000000
0.0000000000000000 1.0000000000000000 0.0000000000000000
0.0000000000000000 1.0000000000000000 0.0000000000000000
0.0000000000000000 1.0000000000000000 0.0000000000000000
0.0000000000000000 1.0000000000000000 0.0000000000000000
0.0000000000000000 1.0000000000000000 0.0000000000000000
0.0000000000000000 1.0000000000000000 0.0000000000000000
0.0000000000000000 1.0000000000000000 0.0000000000000000
0.0000000000000000 1.0000000000000000 0.0000000000000000
0.0000000000000000 1.0000000000000000 0.0000000000000000
0.0000000000000000 1.0000000000000000 0.0000000000000000
0.0000000000000000 1.0000000000000000 0.0000000000000000
0.0000000000000000 1.0000000000000000 0.0000000000000000
0.0000000000000000 1.0000000000000000 0.0000000000000000
0.0000000000000000 1.0000000000000000 0.0000000000000000
0.0000000000000000 1.0000000000000000 0.0000000000000000
0.0000000000000000 1.0000000000000000 0.0000000000000000
0.0000000000000000 1.0000000000000000 0.0000000000000000
0.0000000000000000 1.0000000000000000 0.0000000000000000
0.0000000000000000 1.0000000000000000 0.0000000000000000
0.0000000000000000 1.0000000000000000 0.0000000000000000
0.0000000000000000 1.0000000000000000 0.0000000000000000
0.0000000000000000 1.0000000000000000 0.0000000000000000
0.0000000000000000 1.0000000000000000 0.0000000000000000
0.0000000000000000 1.0000000000000000 0.0000000000000000
0.0000000000000000 1.0000000000000000 0.0000000000000000
0.0000000000000000 1.0000000000000000 0.0000000000000000
0.0000000000000000 1.0000000000000000 0.0000000000000000
0.0000000000000000 1.0000000000000000 0.0000000000000000
0.0000000000000000 1.0000000000000000 0.0000000000000000
0.0000000000000000 1.0000000000000000 0.0000000000000000
0.0000000000000000 1.0000000000000000 0.0000000000000000
0.0000000000000000 1.0000000000000000 0.0000000000000000
0.0000000000000000 1.0000000000000000 0.0000000000000000
0.0000000000000000 1.0000000000000000 0.0000000000000000
0.0000000000000000 1.0000000000000000 0.0000000000000000
0.0000000000000000 1.0000000000000000 0.0000000000000000
0.0000000000000000 1.0000000000000000 0.0000000000000000
0.0000000000000000 1.0000000000000000 0.0000000000000000
0.0000000000000000 1.0000000000000000 0.0000000000000000
0.0000000000000000 1.0000000000000000 0.0000000000000000
0.0000000000000000 1.0000000000000000 0.0000000000000000
0.0000000000000000 1.0000000000000000 0.0000000000000000
0.0000000000000000 1.0000000000000000 0.0000000000000000
0.0000000000000000 1.0000000000000000 0.0000000000000000
0.0000000000000000 1.0000000000000000 0.0000000000000000
0.0000000000000000 1.0000000000000000 0.0000000000000000
0.0000000000000000 1.0000000000000000 0.0000000000000000
0.0000000000000000 1.0000000000000000 0.0000000000000000
0.0000000000000000 1.0000000000000000 0.0000000000000000
0.0000000000000000 1.0000000000000000 0.0000000000000000
0.0000000000000000 1.0000000000000000 0.0000000000000000
0.0000000000000000 1.0000000000000000 0.0000000000000000
0.0000000000000000 1.0000000000000000 0.0000000000000000
0.0000000000000000 1.0000000000000000 0.0000000000000000
0.0000000000000000 1.0000000000000000 0.0000000000000000
0.0000000000000000 1.0000000000000000 0.0000000000000000
0.0000000000000000 1.0000000000000000 0.0000000000000000
0.0000000000000000 1.0000000000000000 0.0000000000000000
0.0000000000000000 1.0000000000000000 0.0000000000000000
0.0000000000000000 1.0000000000000000 0.0000000000000000
0.0000000000000000 1.0000000000000000 0.0000000000000000
0.0000000000000000 1.0000000000000000 0.0000000000000000
0.0000000000000000 1.0000000000000000 0.0000000000000000
0.0000000000000000 1.0000000000000000 0.0000000000000000
0.0000000000000000 1.0000000000000000 0.0000000000000000
0.0000000000000000 1.0000000000000000 0.0000000000000000
0.0000000000000000 1.0000000000000000 0.0000000000000000
0.0000000000000000 1.0000000000000000 0.0000000000000000
0.0000000000000000 1.0000000000000000 0.0000000000000000
0.0000000000000000 1.0000000000000000 0.0000000000000000
0.0000000000000000 1.0000000000000000 0.0000000000000000
0.0000000000000000 1.0000000000000000 0.0000000000000000
0.0000000000000000 1.0000000000000000 0.0000000000000000
0.0000000000000000 1.0000000000000000 0.0000000000000000
0.0000000000000000 1.0000000000000000 0.0000000000000000
0.0000000000000000 1.0000000000000000 0.0000000000000000
0.0000000000000000 1.0000000000000000 0.0000000000000000
0.0000000000000000 1.0000000000000000 0.0000000000000000
0.0000000000000000 1.0000000000000000 0.0000000000000000
0.0000000000000000 1.0000000000000000 0.0000000000000000
0.0000000000000000 1.0000000000000000 0.0000000000000000
0.0000000000000000 1.0000000000000000 0.0000000000000000
0.0000000000000000 1.0000000000000000 0.0000000000000000
0.0000000000000000 1.0000000000000000 0.0000000000000000
0.0000000000000000 1.0000000000000000 0.0000000000000000
0.0000000000000000 1.0000000000000000 0.0000000000000000
0.0000000000000000 1.0000000000000000 0.0000000000000000
0.0000000000000000 1.0000000000000000 0.0000000000000000
0.0000000000000000 1.0000000000000000 0.0000000000000000
0.0000000000000000 1.0000000000000000 0.0000000000000000
0.0000000000000000 1.0000000000000000 0.0000000000000000
0.0000000000000000 1.0000000000000000 0.0000000000000000
0.0000000000000000 1.0000000000000000 0.0000000000000000
0.0000000000000000 1.0000000000000000 0.0000000000000000
0.0000000000000000 1.0000000000000000 0.0000000000000000
0.0000000000000000 1.0000000000000000 0.0000000000000000
0.0000000000000000 1.0000000000000000 0.0000000000000000
0.0000000000000000 1.0000000000000000 0.0000000000000000
0.0000000000000000 1.0000000000000000 0.0000000000000000
0.0000000000000000 1.0000000000000000 0.0000000000000000
0.0000000000000000 1.0000000000000000 0.0000000000000000
0.0000000000000000 1.0000000000000000 0.0000000000000000
0.0000000000000000 1.0000000000000000 0.0000000000000000
0.0000000000000000 1.0000000000000000 0.0000000000000000
0.0000000000000000 1.0000000000000000 0.0000000000000000
0.0000000000000000 1.0000000000000000 0.0000000000000000
0.0000000000000000 1.0000000000000000 0.0000000000000000
0.0000000000000000 1.0000000000000000 0.0000000000000000
0.0000000000000000 1.0000000000000000 0.0000000000000000
0.0000000000000000 1.0000000000000000 0.0000000000000000
0.0000000000000000 1.0000000000000000 0.0000000000000000
0.0000000000000000 1.0000000000000000 0.0000000000000000
0.0000000000000000 1.0000000000000000 0.0000000000000000
0.0000000000000000 1.0000000000000000 0.0000000000000000
0.0000000000000000 1.0000000000000000 0.0000000000000000
0.0000000000000000 1.0000000000000000 0.0000000000000000
0.0000000000000000 1.0000000000000000 0.0000000000000000
0.0000000000000000 1.0000000000000000 0.0000000000000000
0.0000000000000000 1.0000000000000000 0.0000000000000000
0.0000000000000000 1.0000000000000000 0.0000000000000000
0.0000000000000000 1.0000000000000000 0.0000000000000000
0.0000000000000000 1.0000000000000000 0.0000000000000000
0.0000000000000000 1.0000000000000000 0.0000000000000000
0.0000000000000000 1.0000000000000000 0.0000000000000000
0.0000000000000000 1.0000000000000000 0.0000000000000000
0.0000000000000000 1.0000000000000000 0.0000000000000000
0.0000000000000000 1.0000000000000000 0.0000000000000000
0.0000000000000000 1.0000000000000000 0.0000000000000000
0.0000000000000000 1.0000000000000000 0.0000000000000000
0.0000000000000000 1.0000000000000000 0.0000000000000000
0.0000000000000000 1.0000000000000000 0.0000000000000000
0.0000000000000000 1.0000000000000000 0.0000000000000000
0.0000000000000000 1.0000000000000000 0.0000000000000000
0.0000000000000000 1.0000000000000000 0.0000000000000000
0.0000000000000000 1.0000000000000000 0.0000000000000000
0.0000000000000000 1.0000000000000000 0.0000000000000000
0.0000000000000000 1.0000000000000000 0.0000000000000000
0.0000000000000000 1.0000000000000000 0.0000000000000000
0.0000000000000000 1.0000000000000000 0.0000000000000000
0.0000000000000000 1.0000000000000000 0.0000000000000000
0.0000000000000000 1.0000000000000000 0.0000000000000000
0.0000000000000000 1.0000000000000000 0.0000000000000000
0.0000000000000000 1.0000000000000000 0.0000000000000000
0.0000000000000000 1.0000000000000000 0.0000000000000000
0.0000000000000000 1.0000000000000000 0.0000000000000000
0.0000000000000000 1.0000000000000000 0.0000000000000000
0.0000000000000000 1.0000000000000000 0.0000000000000000
0.0000000000000000 1.0000000000000000 0.0000000000000000
0.0000000000000000 1.0000000000000000 0.0000000000000000
0.0000000000000000 1.0000000000000000 0.0000000000000000
0.0000000000000000 1.0000000000000000 0.0000000000000000
0.0000000000000000 1.0000000000000000 0.0000000000000000
0.0000000000000000 1.0000000000000000 0.0000000000000000
0.0000000000000000 1.0000000000000000 0.0000000000000000
0.0000000000000000 1.0000000000000000 0.0000000000000000
0.0000000000000000 1.0000000000000000 0.0000000000000000
0.0000000000000000 1.0000000000000000 0.0000000000000000
0.0000000000000000 1.0000000000000000 0.0000000000000000
0.0000000000000000 1.0000000000000000 0.0000000000000000
0.0000000000000000 1.0000000000000000 0.0000000000000000
0.0000000000000000 1.0000000000000000 0.0000000000000000
0.0000000000000000 1.0000000000000000 0.0000000000000000
0.0000000000000000 1.0000000000000000 0.0000000000000000
0.0000000000000000 1.0000000000000000 0.0000000000000000
0.0000000000000000 1.0000000000000000 0.0000000000000000
0.0000000000000000 1.0000000000000000 0.0000000000000000
0.0000000000000000 1.0000000000000000 0.0000000000000000
0.0000000000000000 1.0000000000000000 0.0000000000000000
0.0000000000000000 1.0000000000000000 0.0000000000000000
0.0000000000000000 1.0000000000000000 0.0000000000000000
0.0000000000000000 1.0000000000000000 0.0000000000000000
0.0000000000000000 1.0000000000000000 0.0000000000000000
0.0000000000000000 1.0000000000000000 0.0000000000000000
0.0000000000000000 1.0000000000000000 0.0000000000000000
0.0000000000000000 1.0000000000000000 0.0000000000000000
0.0000000000000000 1.0000000000000000 0.0000000000000000
0.0000000000000000 1.0000000000000000 0.0000000000000000
0.0000000000000000 1.0000000000000000 0.0000000000000000
0.0000000000000000 1.0000000000000000 0.0000000000000000
0.0000000000000000 1.0000000000000000 0.0000000000000000
0.0000000000000000 1.0000000000000000 0.0000000000000000
0.0000000000000000 1.0000000000000000 0.0000000000000000
0.0000000000000000 1.0000000000000000 0.0000000000000000
0.0000000000000000 1.0000000000000000 0.0000000000000000
0.0000000000000000 1.0000000000000000 0.0000000000000000
0.0000000000000000 1.0000000000000000 0.0000000000000000
0.0000000000000000 1.0000000000000000 0.0000000000000000
0.0000000000000000 1.0000000000000000 0.0000000000000000
0.0000000000000000 1.0000000000000000 0.0000000000000000
0.0000000000000000 1.0000000000000000 0.0000000000000000
0.0000000000000000 1.0000000000000000 0.0000000000000000
0.0000000000000000 1.0000000000000000 0.0000000000000000
0.0000000000000000 1.0000000000000000 0.0000000000000000
0.0000000000000000 1.0000000000000000 0.0000000000000000
0.0000000000000000 1.0000000000000000 0.0000000000000000
0.0000000000000000 1.0000000000000000 0.0000000000000000
0.0000000000000000 1.0000000000000000 0.0000000000000000
0.0000000000000000 1.0000000000000000 0.0000000000000000
0.0000000000000000 1.0000000000000000 0.0000000000000000
0.0000000000000000 1.0000000000000000 0.0000000000000000
0.0000000000000000 1.0000000000000000 0.0000000000000000
0.0000000000000000 1.0000000000000000 0.0000000000000000
0.0000000000000000 1.0000000000000000 0.0000000000000000
0.0000000000000000 1.0000000000000000 0.0000000000000000
0.0000000000000000 1.0000000000000000 0.0000000000000000
0.0000000000000000 1.0000000000000000 0.0000000000000000
0.0000000000000000 1.0000000000000000 0.0000000000000000
0.0000000000000000 1.0000000000000000 0.0000000000000000
0.0000000000000000 1.0000000000000000 0.0000000000000000
0.0000000000000000 1.0000000000000000 0.0000000000000000
0.0000000000000000 1.0000000000000000 0.0000000000000000
0.0000000000000000 1.0000000000000000 0.0000000000000000
0.0000000000000000 1.0000000000000000 0.0000000000000000
0.0000000000000000 1.0000000000000000 0.0000000000000000
0.0000000000000000 1.0000000000000000 0.0000000000000000
0.0000000000000000 1.0000000000000000 0.0000000000000000
0.0000000000000000 1.0000000000000000 0.0000000000000000
0.0000000000000000 1.0000000000000000 0.0000000000000000
0.0000000000000000 1.0000000000000000 0.0000000000000000
0.0000000000000000 1.0000000000000000 0.0000000000000000
0.0000000000000000 1.0000000000000000 0.0000000000000000
0.0000000000000000 1.0000000000000000 0.0000000000000000
0.0000000000000000 1.0000000000000000 0.0000000000000000
0.0000000000000000 1.0000000000000000 0.0000000000000000
0.0000000000000000 1.0000000000000000 0.0000000000000000
0.0000000000000000 1.0000000000000000 0.0000000000000000
0.0000000000000000 1.0000000000000000 0.0000000000000000
0.0000000000000000 1.0000000000000000 0.0000000000000000
0.0000000000000000 1.0000000000000000 0.0000000000000000
0.0000000000000000 1.0000000000000000 0.0000000000000000
0.0000000000000000 1.0000000000000000 0.0000000000000000
0.0000000000000000 1.0000000000000000 0.0000000000000000
0.0000000000000000 1.0000000000000000 0.0000000000000000
0.0000000000000000 1.0000000000000000 0.0000000000000000
0.0000000000000000 1.0000000000000000 0.0000000000000000
0.0000000000000000 1.0000000000000000 0.0000000000000000
0.0000000000000000 1.0000000000000000 0.0000000000000000
0.0000000000000000 1.0000000000000000 0.0000000000000000
0.0000000000000000 1.0000000000000000 0.0000000000000000
0.0000000000000000 1.0000000000000000 0.0000000000000000
0.0000000000000000 1.0000000000000000 0.0000000000000000
0.0000000000000000 1.0000000000000000 0.0000000000000000
0.0000000000000000 1.0000000000000000 0.0000000000000000
0.0000000000000000 1.0000000000000000 0.0000000000000000
0.0000000000000000 1.0000000000000000 0.0000000000000000
0.0000000000000000 1.0000000000000000 0.0000000000000000
0.0000000000000000 1.0000000000000000 0.0000000000000000
0.0000000000000000 1.0000000000000000 0.0000000000000000
0.0000000000000000 1.0000000000000000 0.0000000000000000
0.0000000000000000 1.0000000000000000 0.0000000000000000
0.0000000000000000 1.0000000000000000 0.0000000000000000
0.0000000000000000 1.0000000000000000 0.0000000000000000
0.0000000000000000 1.0000000000000000 0.0000000000000000
0.0000000000000000 1.0000000000000000 0.0000000000000000
0.0000000000000000 1.0000000000000000 0.0000000000000000
0.0000000000000000 1.0000000000000000 0.0000000000000000
0.0000000000000000 1.0000000000000000 0.0000000000000000
0.0000000000000000 1.0000000000000000 0.0000000000000000
0.0000000000000000 1.0000000000000000 0.0000000000000000
0.0000000000000000 1.0000000000000000 0.0000000000000000
0.0000000000000000 1.0000000000000000 0.0000000000000000
0.0000000000000000 1.0000000000000000 0.0000000000000000
0.0000000000000000 1.0000000000000000 0.0000000000000000
0.0000000000000000 1.0000000000000000 0.0000000000000000
0.0000000000000000 1.0000000000000000 0.0000000000000000
0.0000000000000000 1.0000000000000000 0.0000000000000000
0.0000000000000000 1.0000000000000000 0.0000000000000000
0.0000000000000000 1.0000000000000000 0.0000000000000000
0.0000000000000000 1.0000000000000000 0.0000000000000000
0.0000000000000000 1.0000000000000000 0.0000000000000000
0.0000000000000000 1.0000000000000000 0.0000000000000000
0.0000000000000000 1.0000000000000000 0.0000000000000000
0.0000000000000000 1.0000000000000000 0.0000000000000000
0.0000000000000000 1.0000000000000000 0.0000000000000000
0.0000000000000000 1.0000000000000000 0.0000000000000000
0.0000000000000000 1.0000000000000000 0.0000000000000000
0.0000000000000000 1.0000000000000000 0.0000000000000000
0.0000000000000000 1.0000000000000000 0.0000000000000000
0.0000000000000000 1.0000000000000000 0.0000000000000000
0.0000000000000000 1.0000000000000000 0.0000000000000000
0.0000000000000000 1.0000000000000000 0.0000000000000000
0.0000000000000000 1.0000000000000000 0.0000000000000000
0.0000000000000000 1.0000000000000000 0.0000000000000000
0.0000000000000000 1.0000000000000000 0.0000000000000000
0.0000000000000000 1.0000000000000000 0.0000000000000000
0.0000000000000000 1.0000000000000000 0.0000000000000000
0.0000000000000000 1.0000000000000000 0.0000000000000000
0.0000000000000000 1.0000000000000000 0.0000000000000000
0.0000000000000000 1.0000000000000000 0.0000000000000000
0.0000000000000000 1.0000000000000000 0.0000000000000000
0.0000000000000000 1.0000000000000000 0.0000000000000000
0.0000000000000000 1.0000000000000000 0.0000000000000000
0.0000000000000000 1.0000000000000000 0.0000000000000000
0.0000000000000000 1.0000000000000000 0.0000000000000000
0.0000000000000000 1.0000000000000000 0.0000000000000000
0.0000000000000000 1.0000000000000000 0.0000000000000000
0.0000000000000000 1.0000000000000000 0.0000000000000000
0.0000000000000000 1.0000000000000000 0.0000000000000000
0.0000000000000000 1.0000000000000000 0.0000000000000000
0.0000000000000000 1.0000000000000000 0.0000000000000000
0.0000000000000000 1.0000000000000000 0.0000000000000000
0.0000000000000000 1.0000000000000000 0.0000000000000000
0.0000000000000000 1.0000000000000000 0.0000000000000000
0.0000000000000000 1.0000000000000000 0.0000000000000000
0.0000000000000000 1.0000000000000000 0.0000000000000000
0.0000000000000000 1.0000000000000000 0.0000000000000000
0.0000000000000000 1.0000000000000000 0.0000000000000000
0.0000000000000000 1.0000000000000000 0.0000000000000000
0.0000000000000000 1.0000000000000000 0.0000000000000000
0.0000000000000000 1.0000000000000000 0.0000000000000000
0.0000000000000000 1.0000000000000000 0.0000000000000000
0.0000000000000000 1.0000000000000000 0.0000000000000000
0.0000000000000000 1.0000000000000000 0.0000000000000000
0.0000000000000000 1.0000000000000000 0.0000000000000000
0.0000000000000000 1.0000000000000000 0.0000000000000000
0.0000000000000000 1.0000000000000000 0.0000000000000000
0.0000000000000000 1.0000000000000000 0.0000000000000000
0.0000000000000000 1.0000000000000000 0.0000000000000000
0.0000000000000000 1.0000000000000000 0.0000000000000000
0.0000000000000000 1.0000000000000000 0.0000000000000000
0.0000000000000000 1.0000000000000000 0.0000000000000000
0.0000000000000000 1.0000000000000000 0.0000000000000000
0.0000000000000000 1.0000000000000000 0.0000000000000000
0.0000000000000000 1.0000000000000000 0.0000000000000000
0.0000000000000000 1.0000000000000000 0.0000000000000000
0.0000000000000000 1.0000000000000000 0.0000000000000000
0.0000000000000000 1.0000000000000000 0.0000000000000000
0.0000000000000000 1.0000000000000000 0.0000000000000000
0.0000000000000000 1.0000000000000000 0.0000000000000000
0.0000000000000000 1.0000000000000000 0.0000000000000000
0.0000000000000000 1.0000000000000000 0.0000000000000000
0.0000000000000000 1.0000000000000000 0.0000000000000000
0.0000000000000000 1.0000000000000000 0.0000000000000000
0.0000000000000000 1.0000000000000000 0.0000000000000000
0.0000000000000000 1.0000000000000000 0.0000000000000000
0.0000000000000000 1.0000000000000000 0.0000000000000000
0.0000000000000000 1.0000000000000000 0.0000000000000000
0.0000000000000000 1.0000000000000000 0.0000000000000000
0.0000000000000000 1.0000000000000000 0.0000000000000000
0.0000000000000000 1.0000000000000000 0.0000000000000000
0.0000000000000000 1.0000000000000000 0.0000000000000000
0.0000000000000000 1.0000000000000000 0.0000000000000000
0.0000000000000000 1.0000000000000000 0.0000000000000000
0.0000000000000000 1.0000000000000000 0.0000000000000000
0.0000000000000000 1.0000000000000000 0.0000000000000000
0.0000000000000000 1.0000000000000000 0.0000000000000000
0.0000000000000000 1.0000000000000000 0.0000000000000000
0.0000000000000000 1.0000000000000000 0.0000000000000000
0.0000000000000000 1.0000000000000000 0.0000000000000000
0.0000000000000000 1.0000000000000000 0.0000000000000000
0.0000000000000000 1.0000000000000000 0.0000000000000000
0.0000000000000000 1.0000000000000000 0.0000000000000000
0.0000000000000000 1.0000000000000000 0.0000000000000000
0.0000000000000000 1.0000000000000000 0.0000000000000000
0.0000000000000000 1.0000000000000000 0.0000000000000000
0.0000000000000000 1.0000000000000000 0.0000000000000000
0.0000000000000000 1.0000000000000000 0.0000000000000000
0.0000000000000000 1.0000000000000000 0.0000000000000000
0.0000000000000000 1.0000000000000000 0.0000000000000000
0.0000000000000000 1.0000000000000000 0.0000000000000000
0.0000000000000000 1.0000000000000000 0.0000000000000000
0.0000000000000000 1.0000000000000000 0.0000000000000000
0.0000000000000000 1.0000000000000000 0.0000000000000000
0.0000000000000000 1.0000000000000000 0.0000000000000000
0.0000000000000000 1.0000000000000000 0.0000000000000000
0.0000000000000000 1.0000000000000000 0.0000000000000000
0.0000000000000000 1.0000000000000000 0.0000000000000000
0.0000000000000000 1.0000000000000000 0.0000000000000000
0.0000000000000000 1.0000000000000000 0.0000000000000000
0.0000000000000000 1.0000000000000000 0.0000000000000000
0.0000000000000000 1.0000000000000000 0.0000000000000000
0.0000000000000000 1.0000000000000000 0.0000000000000000
0.0000000000000000 1.0000000000000000 0.0000000000000000
0.0000000000000000 1.0000000000000000 0.0000000000000000
0.0000000000000000 1.0000000000000000 0.0000000000000000
0.0000000000000000 1.0000000000000000 0.0000000000000000
0.0000000000000000 1.0000000000000000 0.0000000000000000
0.0000000000000000 1.0000000000000000 0.0000000000000000
0.0000000000000000 1.0000000000000000 0.0000000000000000
0.0000000000000000 1.0000000000000000 0.0000000000000000
0.0000000000000000 1.0000000000000000 0.0000000000000000
0.0000000000000000 1.0000000000000000 0.0000000000000000
0.0000000000000000 1.0000000000000000 0.0000000000000000
0.0000000000000000 1.0000000000000000 0.0000000000000000
0.0000000000000000 1.0000000000000000 0.0000000000000000
0.0000000000000000 1.0000000000000000 0.0000000000000000
0.0000000000000000 1.0000000000000000 0.0000000000000000
0.0000000000000000 1.0000000000000000 0.0000000000000000
0.0000000000000000 1.0000000000000000 0.0000000000000000
0.0000000000000000 1.0000000000000000 0.0000000000000000
0.0000000000000000 1.0000000000000000 0.0000000000000000
0.0000000000000000 1.0000000000000000 0.0000000000000000
0.0000000000000000 1.0000000000000000 0.0000000000000000
0.0000000000000000 1.0000000000000000 0.0000000000000000
0.0000000000000000 1.0000000000000000 0.0000000000000000
0.0000000000000000 1.0000000000000000 0.0000000000000000
0.0000000000000000 1.0000000000000000 0.0000000000000000
0.0000000000000000 1.0000000000000000 0.0000000000000000
0.0000000000000000 1.0000000000000000 0.0000000000000000
0.0000000000000000 1.0000000000000000 0.0000000000000000
0.0000000000000000 1.0000000000000000 0.0000000000000000
0.0000000000000000 1.0000000000000000 0.0000000000000000
0.0000000000000000 1.0000000000000000 0.0000000000000000
0.0000000000000000 1.0000000000000000 0.0000000000000000
0.0000000000000000 1.0000000000000000 0.0000000000000000
0.0000000000000000 1.0000000000000000 0.0000000000000000
0.0000000000000000 1.0000000000000000 0.0000000000000000
0.0000000000000000 1.0000000000000000 0.0000000000000000
0.0000000000000000 1.0000000000000000 0.0000000000000000
0.0000000000000000 1.0000000000000000 0.0000000000000000
0.0000000000000000 1.0000000000000000 0.0000000000000000
0.0000000000000000 1.0000000000000000 0.0000000000000000
0.0000000000000000 1.0000000000000000 0.0000000000000000
0.0000000000000000 1.0000000000000000 0.0000000000000000
0.0000000000000000 1.0000000000000000 0.0000000000000000
0.0000000000000000 1.0000000000000000 0.0000000000000000
0.0000000000000000 1.0000000000000000 0.0000000000000000
0.0000000000000000 1.0000000000000000 0.0000000000000000
0.0000000000000000 1.0000000000000000 0.0000000000000000
0.0000000000000000 1.0000000000000000 0.0000000000000000
0.0000000000000000 1.0000000000000000 0.0000000000000000
0.0000000000000000 1.0000000000000000 0.0000000000000000
0.0000000000000000 1.0000000000000000 0.0000000000000000
0.0000000000000000 1.0000000000000000 0.0000000000000000
0.0000000000000000 1.0000000000000000 0.0000000000000000
0.0000000000000000 1.0000000000000000 0.0000000000000000
0.0000000000000000 1.0000000000000000 0.0000000000000000
0.0000000000000000 1.0000000000000000 0.0000000000000000
0.0000000000000000 1.0000000000000000 0.0000000000000000
0.0000000000000000 1.0000000000000000 0.0000000000000000
0.0000000000000000 1.0000000000000000 0.0000000000000000
0.0000000000000000 1.0000000000000000 0.0000000000000000
0.0000000000000000 1.0000000000000000 0.0000000000000000
0.0000000000000000 1.0000000000000000 0.0000000000000000
0.0000000000000000 1.0000000000000000 0.0000000000000000
0.0000000000000000 1.0000000000000000 0.0000000000000000
0.0000000000000000 1.0000000000000000 0.0000000000000000
0.0000000000000000 1.0000000000000000 0.0000000000000000
0.0000000000000000 1.0000000000000000 0.0000000000000000
0.0000000000000000 1.0000000000000000 0.0000000000000000
0.0000000000000000 1.0000000000000000 0.0000000000000000
0.0000000000000000 1.0000000000000000 0.0000000000000000
0.0000000000000000 1.0000000000000000 0.0000000000000000
0.0000000000000000 1.0000000000000000 0.0000000000000000
0.0000000000000000 1.0000000000000000 0.0000000000000000
0.0000000000000000 1.0000000000000000 0.0000000000000000
0.0000000000000000 1.0000000000000000 0.0000000000000000
0.0000000000000000 1.0000000000000000 0.0000000000000000
0.0000000000000000 1.0000000000000000 0.0000000000000000
0.0000000000000000 1.0000000000000000 0.0000000000000000
0.0000000000000000 1.0000000000000000 0.0000000000000000
0.0000000000000000 1.0000000000000000 0.0000000000000000
0.0000000000000000 1.0000000000000000 0.0000000000000000
0.0000000000000000 1.0000000000000000 0.0000000000000000
0.0000000000000000 1.0000000000000000 0.0000000000000000
0.0000000000000000 1.0000000000000000 0.0000000000000000
0.0000000000000000 1.0000000000000000 0.0000000000000000
0.0000000000000000 1.0000000000000000 0.0000000000000000
0.0000000000000000 1.0000000000000000 0.0000000000000000
0.0000000000000000 1.0000000000000000 0.0000000000000000
0.0000000000000000 1.0000000000000000 0.0000000000000000
0.0000000000000000 1.0000000000000000 0.0000000000000000
0.0000000000000000 1.0000000000000000 0.0000000000000000
0.0000000000000000 1.0000000000000000 0.0000000000000000
0.0000000000000000 1.0000000000000000 0.0000000000000000
0.0000000000000000 1.0000000000000000 0.0000000000000000
0.0000000000000000 1.0000000000000000 0.0000000000000000
0.0000000000000000 1.0000000000000000 0.0000000000000000
0.0000000000000000 1.0000000000000000 0.0000000000000000
0.0000000000000000 1.0000000000000000 0.0000000000000000
0.0000000000000000 1.0000000000000000 0.0000000000000000
0.0000000000000000 1.0000000000000000 0.0000000000000000
0.0000000000000000 1.0000000000000000 0.0000000000000000
0.0000000000000000 1.0000000000000000 0.0000000000000000
0.0000000000000000 1.0000000000000000 0.0000000000000000
0.0000000000000000 1.0000000000000000 0.0000000000000000
0.0000000000000000 1.0000000000000000 0.0000000000000000
0.0000000000000000 1.0000000000000000 0.0000000000000000
0.0000000000000000 1.0000000000000000 0.0000000000000000
0.0000000000000000 1.0000000000000000 0.0000000000000000
0.0000000000000000 1.0000000000000000 0.0000000000000000
0.0000000000000000 1.0000000000000000 0.0000000000000000
0.0000000000000000 1.0000000000000000 0.0000000000000000
0.0000000000000000 1.0000000000000000 0.0000000000000000
0.0000000000000000 1.0000000000000000 0.0000000000000000
0.0000000000000000 1.0000000000000000 0.0000000000000000
0.0000000000000000 1.0000000000000000 0.0000000000000000
0.0000000000000000 1.0000000000000000 0.0000000000000000
0.0000000000000000 1.0000000000000000 0.0000000000000000
0.0000000000000000 1.0000000000000000 0.0000000000000000
0.0000000000000000 1.0000000000000000 0.0000000000000000
0.0000000000000000 1.0000000000000000 0.0000000000000000
0.0000000000000000 1.0000000000000000 0.0000000000000000
0.0000000000000000 1.0000000000000000 0.0000000000000000
0.0000000000000000 1.0000000000000000 0.0000000000000000
0.0000000000000000 1.0000000000000000 0.0000000000000000
0.0000000000000000 1.0000000000000000 0.0000000000000000
0.0000000000000000 1.0000000000000000 0.0000000000000000
0.0000000000000000 1.0000000000000000 0.0000000000000000
0.0000000000000000 1.0000000000000000 0.0000000000000000
0.0000000000000000 1.0000000000000000 0.0000000000000000
0.0000000000000000 1.0000000000000000 0.0000000000000000
0.0000000000000000 1.0000000000000000 0.0000000000000000
0.0000000000000000 1.0000000000000000 0.0000000000000000
0.0000000000000000 1.0000000000000000 0.0000000000000000
0.0000000000000000 1.0000000000000000 0.0000000000000000
0.0000000000000000 1.0000000000000000 0.0000000000000000
0.0000000000000000 1.0000000000000000 0.0000000000000000
0.0000000000000000 1.0000000000000000 0.0000000000000000
0.0000000000000000 1.0000000000000000 0.0000000000000000
0.0000000000000000 1.0000000000000000 0.0000000000000000
0.0000000000000000 1.0000000000000000 0.0000000000000000
0.0000000000000000 1.0000000000000000 0.0000000000000000
0.0000000000000000 1.0000000000000000 0.0000000000000000
0.0000000000000000 1.0000000000000000 0.0000000000000000
0.0000000000000000 1.0000000000000000 0.0000000000000000
0.0000000000000000 1.0000000000000000 0.0000000000000000
0.0000000000000000 1.0000000000000000 0.0000000000000000
0.0000000000000000 1.0000000000000000 0.0000000000000000
0.0000000000000000 1.0000000000000000 0.0000000000000000
0.0000000000000000 1.0000000000000000 0.0000000000000000
0.0000000000000000 1.0000000000000000 0.0000000000000000
0.0000000000000000 1.0000000000000000 0.0000000000000000
0.0000000000000000 1.0000000000000000 0.0000000000000000
0.0000000000000000 1.0000000000000000 0.0000000000000000
0.0000000000000000 1.0000000000000000 0.0000000000000000
0.0000000000000000 1.0000000000000000 0.0000000000000000
0.0000000000000000 1.0000000000000000 0.0000000000000000
0.0000000000000000 1.0000000000000000 0.0000000000000000
0.0000000000000000 1.0000000000000000 0.0000000000000000
0.0000000000000000 1.0000000000000000 0.0000000000000000
0.0000000000000000 1.0000000000000000 0.0000000000000000
0.0000000000000000 1.0000000000000000 0.0000000000000000
0.0000000000000000 1.0000000000000000 0.0000000000000000
0.0000000000000000 1.0000000000000000 0.0000000000000000
0.0000000000000000 1.0000000000000000 0.0000000000000000
0.0000000000000000 1.0000000000000000 0.0000000000000000
0.0000000000000000 1.0000000000000000 0.0000000000000000
0.0000000000000000 1.0000000000000000 0.0000000000000000
0.0000000000000000 1.0000000000000000 0.0000000000000000
0.0000000000000000 1.0000000000000000 0.0000000000000000
0.0000000000000000 1.0000000000000000 0.0000000000000000
0.0000000000000000 1.0000000000000000 0.0000000000000000
0.0000000000000000 1.0000000000000000 0.0000000000000000
0.0000000000000000 1.0000000000000000 0.0000000000000000
0.0000000000000000 1.0000000000000000 0.0000000000000000
0.0000000000000000 1.0000000000000000 0.0000000000000000
0.0000000000000000 1.0000000000000000 0.0000000000000000
0.0000000000000000 1.0000000000000000 0.0000000000000000
0.0000000000000000 1.0000000000000000 0.0000000000000000
0.0000000000000000 1.0000000000000000 0.0000000000000000
0.0000000000000000 1.0000000000000000 0.0000000000000000
0.0000000000000000 1.0000000000000000 0.0000000000000000
0.0000000000000000 1.0000000000000000 0.0000000000000000
0.0000000000000000 1.0000000000000000 0.0000000000000000
0.0000000000000000 1.0000000000000000 0.0000000000000000
0.0000000000000000 1.0000000000000000 0.0000000000000000
0.0000000000000000 1.0000000000000000 0.0000000000000000
0.0000000000000000 1.0000000000000000 0.0000000000000000
0.0000000000000000 1.0000000000000000 0.0000000000000000
0.0000000000000000 1.0000000000000000 0.0000000000000000
0.0000000000000000 1.0000000000000000 0.0000000000000000
0.0000000000000000 1.0000000000000000 0.0000000000000000
0.0000000000000000 1.0000000000000000 0.0000000000000000
0.0000000000000000 1.0000000000000000 0.0000000000000000
0.0000000000000000 1.0000000000000000 0.0000000000000000
0.0000000000000000 1.0000000000000000 0.0000000000000000
0.0000000000000000 1.0000000000000000 0.0000000000000000
0.0000000000000000 1.0000000000000000 0.0000000000000000
0.0000000000000000 1.0000000000000000 0.0000000000000000
0.0000000000000000 1.0000000000000000 0.0000000000000000
0.0000000000000000 1.0000000000000000 0.0000000000000000
0.0000000000000000 1.0000000000000000 0.0000000000000000
0.0000000000000000 1.0000000000000000 0.0000000000000000
0.0000000000000000 1.0000000000000000 0.0000000000000000
0.0000000000000000 1.0000000000000000 0.0000000000000000
0.0000000000000000 1.0000000000000000 0.0000000000000000
0.0000000000000000 1.0000000000000000 0.0000000000000000
0.0000000000000000 1.0000000000000000 0.0000000000000000
0.0000000000000000 1.0000000000000000 0.0000000000000000
0.0000000000000000 1.0000000000000000 0.0000000000000000
0.0000000000000000 1.0000000000000000 0.0000000000000000
0.0000000000000000 1.0000000000000000 0.0000000000000000
0.0000000000000000 1.0000000000000000 0.0000000000000000
0.0000000000000000 1.0000000000000000 0.0000000000000000
0.0000000000000000 1.0000000000000000 0.0000000000000000
0.0000000000000000 1.0000000000000000 0.0000000000000000
0.0000000000000000 1.0000000000000000 0.0000000000000000
0.0000000000000000 1.0000000000000000 0.0000000000000000
0.0000000000000000 1.0000000000000000 0.0000000000000000
0.0000000000000000 1.0000000000000000 0.0000000000000000
0.0000000000000000 1.0000000000000000 0.0000000000000000
0.0000000000000000 1.0000000000000000 0.0000000000000000
0.0000000000000000 1.0000000000000000 0.0000000000000000
0.0000000000000000 1.0000000000000000 0.0000000000000000
0.0000000000000000 1.0000000000000000 0.0000000000000000
0.0000000000000000 1.0000000000000000 0.0000000000000000
0.0000000000000000 1.0000000000000000 0.0000000000000000
0.0000000000000000 1.0000000000000000 0.0000000000000000
0.0000000000000000 1.0000000000000000 0.0000000000000000
0.0000000000000000 1.0000000000000000 0.0000000000000000
0.0000000000000000 1.0000000000000000 0.0000000000000000
0.0000000000000000 1.0000000000000000 0.0000000000000000
0.0000000000000000 1.0000000000000000 0.0000000000000000
0.0000000000000000 1.0000000000000000 0.0000000000000000
0.0000000000000000 1.0000000000000000 0.0000000000000000
0.0000000000000000 1.0000000000000000 0.0000000000000000
0.0000000000000000 1.0000000000000000 0.0000000000000000
0.0000000000000000 1.0000000000000000 0.0000000000000000
0.0000000000000000 1.0000000000000000 0.0000000000000000
0.0000000000000000 1.0000000000000000 0.0000000000000000
0.0000000000000000 1.0000000000000000 0.0000000000000000
0.0000000000000000 1.0000000000000000 0.0000000000000000
0.0000000000000000 1.0000000000000000 0.0000000000000000
0.0000000000000000 1.0000000000000000 0.0000000000000000
0.0000000000000000 1.0000000000000000 0.0000000000000000
0.0000000000000000 1.0000000000000000 0.0000000000000000
0.0000000000000000 1.0000000000000000 0.0000000000000000
0.0000000000000000 1.0000000000000000 0.0000000000000000
0.0000000000000000 1.0000000000000000 0.0000000000000000
0.0000000000000000 1.0000000000000000 0.0000000000000000
0.0000000000000000 1.0000000000000000 0.0000000000000000
0.0000000000000000 1.0000000000000000 0.0000000000000000
0.0000000000000000 1.0000000000000000 0.0000000000000000
0.0000000000000000 1.0000000000000000 0.0000000000000000
0.0000000000000000 1.0000000000000000 0.0000000000000000
0.0000000000000000 1.0000000000000000 0.0000000000000000
0.0000000000000000 1.0000000000000000 0.0000000000000000
0.0000000000000000 1.0000000000000000 0.0000000000000000
0.0000000000000000 1.0000000000000000 0.0000000000000000
0.0000000000000000 1.0000000000000000 0.0000000000000000
0.0000000000000000 1.0000000000000000 0.0000000000000000
0.0000000000000000 1.0000000000000000 0.0000000000000000
0.0000000000000000 1.0000000000000000 0.0000000000000000
0.0000000000000000 1.0000000000000000 0.0000000000000000
0.0000000000000000 1.0000000000000000 0.0000000000000000
0.0000000000000000 1.0000000000000000 0.0000000000000000
0.0000000000000000 1.0000000000000000 0.0000000000000000
0.0000000000000000 1.0000000000000000 0.0000000000000000
0.0000000000000000 1.0000000000000000 0.0000000000000000
0.0000000000000000 1.0000000000000000 0.0000000000000000
0.0000000000000000 1.0000000000000000 0.0000000000000000
0.0000000000000000 1.0000000000000000 0.0000000000000000
0.0000000000000000 1.0000000000000000 0.0000000000000000
0.0000000000000000 1.0000000000000000 0.0000000000000000
0.0000000000000000 1.0000000000000000 0.0000000000000000
0.0000000000000000 1.0000000000000000 0.0000000000000000
0.0000000000000000 1.0000000000000000 0.0000000000000000
0.0000000000000000 1.0000000000000000 0.0000000000000000
0.0000000000000000 1.0000000000000000 0.0000000000000000
0.0000000000000000 1.0000000000000000 0.0000000000000000
0.0000000000000000 1.0000000000000000 0.0000000000000000
0.0000000000000000 1.0000000000000000 0.0000000000000000
0.0000000000000000 1.0000000000000000 0.0000000000000000
0.0000000000000000 1.0000000000000000 0.0000000000000000
0.0000000000000000 1.0000000000000000 0.0000000000000000
0.0000000000000000 1.0000000000000000 0.0000000000000000
0.0000000000000000 1.0000000000000000 0.0000000000000000
0.0000000000000000 1.0000000000000000 0.0000000000000000
0.0000000000000000 1.0000000000000000 0.0000000000000000
0.0000000000000000 1.0000000000000000 0.0000000000000000
0.0000000000000000 1.0000000000000000 0.0000000000000000
0.0000000000000000 1.0000000000000000 0.0000000000000000
0.0000000000000000 1.0000000000000000 0.0000000000000000
0.0000000000000000 1.0000000000000000 0.0000000000000000
0.0000000000000000 1.0000000000000000 0.0000000000000000
0.0000000000000000 1.0000000000000000 0.0000000000000000
0.0000000000000000 1.0000000000000000 0.0000000000000000
0.0000000000000000 1.0000000000000000 0.0000000000000000
0.0000000000000000 1.0000000000000000 0.0000000000000000
0.0000000000000000 1.0000000000000000 0.0000000000000000
0.0000000000000000 1.0000000000000000 0.0000000000000000
0.0000000000000000 1.0000000000000000 0.0000000000000000
0.0000000000000000 1.0000000000000000 0.0000000000000000
0.0000000000000000 1.0000000000000000 0.0000000000000000
0.0000000000000000 1.0000000000000000 0.0000000000000000
0.0000000000000000 1.0000000000000000 0.0000000000000000
0.0000000000000000 1.0000000000000000 0.0000000000000000
0.0000000000000000 1.0000000000000000 0.0000000000000000
0.0000000000000000 1.0000000000000000 0.0000000000000000
0.0000000000000000 1.0000000000000000 0.0000000000000000
0.0000000000000000 1.0000000000000000 0.0000000000000000
0.0000000000000000 1.0000000000000000 0.0000000000000000
0.0000000000000000 1.0000000000000000 0.0000000000000000
0.0000000000000000 1.0000000000000000 0.0000000000000000
0.0000000000000000 1.0000000000000000 0.0000000000000000
0.0000000000000000 1.0000000000000000 0.0000000000000000
0.0000000000000000 1.0000000000000000 0.0000000000000000
0.0000000000000000 1.0000000000000000 0.0000000000000000
0.0000000000000000 1.0000000000000000 0.0000000000000000
0.0000000000000000 1.0000000000000000 0.0000000000000000
0.0000000000000000 1.0000000000000000 0.0000000000000000
0.0000000000000000 1.0000000000000000 0.0000000000000000
0.0000000000000000 1.0000000000000000 0.0000000000000000
0.0000000000000000 1.0000000000000000 0.0000000000000000
0.0000000000000000 1.0000000000000000 0.0000000000000000
0.0000000000000000 1.0000000000000000 0.0000000000000000
0.0000000000000000 1.0000000000000000 0.0000000000000000
0.0000000000000000 1.0000000000000000 0.0000000000000000
0.0000000000000000 1.0000000000000000 0.0000000000000000
0.0000000000000000 1.0000000000000000 0.0000000000000000
0.0000000000000000 1.0000000000000000 0.0000000000000000
0.0000000000000000 1.0000000000000000 0.0000000000000000
0.0000000000000000 1.0000000000000000 0.0000000000000000
0.0000000000000000 1.0000000000000000 0.0000000000000000
0.0000000000000000 1.0000000000000000 0.0000000000000000
0.0000000000000000 1.0000000000000000 0.0000000000000000
0.0000000000000000 1.0000000000000000 0.0000000000000000
0.0000000000000000 1.0000000000000000 0.0000000000000000
0.0000000000000000 1.0000000000000000 0.0000000000000000
0.0000000000000000 1.0000000000000000 0.0000000000000000
0.0000000000000000 1.0000000000000000 0.0000000000000000
0.0000000000000000 1.0000000000000000 0.0000000000000000
0.0000000000000000 1.0000000000000000 0.0000000000000000
0.0000000000000000 1.0000000000000000 0.0000000000000000
0.0000000000000000 1.0000000000000000 0.0000000000000000
0.0000000000000000 1.0000000000000000 0.0000000000000000
0.0000000000000000 1.0000000000000000 0.0000000000000000
0.0000000000000000 1.0000000000000000 0.0000000000000000
0.0000000000000000 1.0000000000000000 0.0000000000000000
0.0000000000000000 1.0000000000000000 0.0000000000000000
0.0000000000000000 1.0000000000000000 0.0000000000000000
0.0000000000000000 1.0000000000000000 0.0000000000000000
0.0000000000000000 1.0000000000000000 0.0000000000000000
0.0000000000000000 1.0000000000000000 0.0000000000000000
0.0000000000000000 1.0000000000000000 0.0000000000000000
0.0000000000000000 1.0000000000000000 0.0000000000000000
0.0000000000000000 1.0000000000000000 0.0000000000000000
0.0000000000000000 1.0000000000000000 0.0000000000000000
0.0000000000000000 1.0000000000000000 0.0000000000000000
0.0000000000000000 1.0000000000000000 0.0000000000000000
0.0000000000000000 1.0000000000000000 0.0000000000000000
0.0000000000000000 1.0000000000000000 0.0000000000000000
0.0000000000000000 1.0000000000000000 0.0000000000000000
0.0000000000000000 1.0000000000000000 0.0000000000000000
0.0000000000000000 1.0000000000000000 0.0000000000000000
0.0000000000000000 1.0000000000000000 0.0000000000000000
0.0000000000000000 1.0000000000000000 0.0000000000000000
0.0000000000000000 1.0000000000000000 0.0000000000000000
0.0000000000000000 1.0000000000000000 0.0000000000000000
0.0000000000000000 1.0000000000000000 0.0000000000000000
0.0000000000000000 1.0000000000000000 0.0000000000000000
0.0000000000000000 1.0000000000000000 0.0000000000000000
0.0000000000000000 1.0000000000000000 0.0000000000000000
0.0000000000000000 1.0000000000000000 0.0000000000000000
0.0000000000000000 1.0000000000000000 0.0000000000000000
0.0000000000000000 1.0000000000000000 0.0000000000000000
0.0000000000000000 1.0000000000000000 0.0000000000000000
0.0000000000000000 1.0000000000000000 0.0000000000000000
0.0000000000000000 1.0000000000000000 0.0000000000000000
0.0000000000000000 1.0000000000000000 0.0000000000000000
0.0000000000000000 1.0000000000000000 0.0000000000000000
0.0000000000000000 1.0000000000000000 0.0000000000000000
0.0000000000000000 1.0000000000000000 0.0000000000000000
0.0000000000000000 1.0000000000000000 0.0000000000000000
0.0000000000000000 1.0000000000000000 0.0000000000000000
0.0000000000000000 1.0000000000000000 0.0000000000000000
0.0000000000000000 1.0000000000000000 0.0000000000000000
0.0000000000000000 1.0000000000000000 0.0000000000000000
0.0000000000000000 1.0000000000000000 0.0000000000000000
0.0000000000000000 1.0000000000000000 0.0000000000000000
0.0000000000000000 1.0000000000000000 0.0000000000000000
0.0000000000000000 1.0000000000000000 0.0000000000000000
0.0000000000000000 1.0000000000000000 0.0000000000000000
0.0000000000000000 1.0000000000000000 0.0000000000000000
0.0000000000000000 1.0000000000000000 0.0000000000000000
0.0000000000000000 1.0000000000000000 0.0000000000000000
0.0000000000000000 1.0000000000000000 0.0000000000000000
0.0000000000000000 1.0000000000000000 0.0000000000000000
0.0000000000000000 1.0000000000000000 0.0000000000000000
0.0000000000000000 1.0000000000000000 0.0000000000000000
0.0000000000000000 1.0000000000000000 0.0000000000000000
0.0000000000000000 1.0000000000000000 0.0000000000000000
0.0000000000000000 1.0000000000000000 0.0000000000000000
0.0000000000000000 1.0000000000000000 0.0000000000000000
0.0000000000000000 1.0000000000000000 0.0000000000000000
0.0000000000000000 1.0000000000000000 0.0000000000000000
0.0000000000000000 1.0000000000000000 0.0000000000000000
0.0000000000000000 1.0000000000000000 0.0000000000000000
0.0000000000000000 1.0000000000000000 0.0000000000000000
0.0000000000000000 1.0000000000000000 0.0000000000000000
0.0000000000000000 1.0000000000000000 0.0000000000000000
0.0000000000000000 1.0000000000000000 0.0000000000000000
0.0000000000000000 1.0000000000000000 0.0000000000000000
0.0000000000000000 1.0000000000000000 0.0000000000000000
0.0000000000000000 1.0000000000000000 0.0000000000000000
0.0000000000000000 1.0000000000000000 0.0000000000000000
0.0000000000000000 1.0000000000000000 0.0000000000000000
0.0000000000000000 1.0000000000000000 0.0000000000000000
0.0000000000000000 1.0000000000000000 0.0000000000000000
0.0000000000000000 1.0000000000000000 0.0000000000000000
0.0000000000000000 1.0000000000000000 0.0000000000000000
0.0000000000000000 1.0000000000000000 0.0000000000000000
0.0000000000000000 1.0000000000000000 0.0000000000000000
0.0000000000000000 1.0000000000000000 0.0000000000000000
0.0000000000000000 1.0000000000000000 0.0000000000000000
0.0000000000000000 1.0000000000000000 0.0000000000000000
0.0000000000000000 1.0000000000000000 0.0000000000000000
0.0000000000000000 1.0000000000000000 0.0000000000000000
0.0000000000000000 1.0000000000000000 0.0000000000000000
0.0000000000000000 1.0000000000000000 0.0000000000000000
0.0000000000000000 1.0000000000000000 0.0000000000000000
0.0000000000000000 1.0000000000000000 0.0000000000000000
0.0000000000000000 1.0000000000000000 0.0000000000000000
0.0000000000000000 1.0000000000000000 0.0000000000000000
0.0000000000000000 1.0000000000000000 0.0000000000000000
0.0000000000000000 1.0000000000000000 0.0000000000000000
0.0000000000000000 1.0000000000000000 0.0000000000000000
0.0000000000000000 1.0000000000000000 0.0000000000000000
0.0000000000000000 1.0000000000000000 0.0000000000000000
0.0000000000000000 1.0000000000000000 0.0000000000000000
0.0000000000000000 1.0000000000000000 0.0000000000000000
0.0000000000000000 1.0000000000000000 0.0000000000000000
0.0000000000000000 1.0000000000000000 0.0000000000000000
0.0000000000000000 1.0000000000000000 0.0000000000000000
0.0000000000000000 1.0000000000000000 0.0000000000000000
0.0000000000000000 1.0000000000000000 0.0000000000000000
0.0000000000000000 1.0000000000000000 0.0000000000000000
0.0000000000000000 1.0000000000000000 0.0000000000000000
0.0000000000000000 1.0000000000000000 0.0000000000000000
0.0000000000000000 1.0000000000000000 0.0000000000000000
0.0000000000000000 1.0000000000000000 0.0000000000000000
0.0000000000000000 1.0000000000000000 0.0000000000000000
0.0000000000000000 1.0000000000000000 0.0000000000000000
0.0000000000000000 1.0000000000000000 0.0000000000000000
0.0000000000000000 1.0000000000000000 0.0000000000000000
0.0000000000000000 1.0000000000000000 0.0000000000000000
0.0000000000000000 1.0000000000000000 0.0000000000000000
0.0000000000000000 1.0000000000000000 0.0000000000000000
0.0000000000000000 1.0000000000000000 0.0000000000000000
0.0000000000000000 1.0000000000000000 0.0000000000000000
0.0000000000000000 1.0000000000000000 0.0000000000000000
0.0000000000000000 1.0000000000000000 0.0000000000000000
0.0000000000000000 1.0000000000000000 0.0000000000000000
0.0000000000000000 1.0000000000000000 0.0000000000000000
0.0000000000000000 1.0000000000000000 0.0000000000000000
0.0000000000000000 1.0000000000000000 0.0000000000000000
0.0000000000000000 1.0000000000000000 0.0000000000000000
0.0000000000000000 1.0000000000000000 0.0000000000000000
0.0000000000000000 1.0000000000000000 0.0000000000000000
0.0000000000000000 1.0000000000000000 0.0000000000000000
0.0000000000000000 1.0000000000000000 0.0000000000000000
0.0000000000000000 1.0000000000000000 0.0000000000000000
0.0000000000000000 1.0000000000000000 0.0000000000000000
0.0000000000000000 1.0000000000000000 0.0000000000000000
0.0000000000000000 1.0000000000000000 0.0000000000000000
0.0000000000000000 1.0000000000000000 0.0000000000000000
0.0000000000000000 1.0000000000000000 0.0000000000000000
0.0000000000000000 1.0000000000000000 0.0000000000000000
0.0000000000000000 1.0000000000000000 0.0000000000000000
0.0000000000000000 1.0000000000000000 0.0000000000000000
0.0000000000000000 1.0000000000000000 0.0000000000000000
0.0000000000000000 1.0000000000000000 0.0000000000000000
0.0000000000000000 1.0000000000000000 0.0000000000000000
0.0000000000000000 1.0000000000000000 0.0000000000000000
0.0000000000000000 1.0000000000000000 0.0000000000000000
0.0000000000000000 1.0000000000000000 0.0000000000000000
0.0000000000000000 1.0000000000000000 0.0000000000000000
0.0000000000000000 1.0000000000000000 0.0000000000000000
0.0000000000000000 1.0000000000000000 0.0000000000000000
0.0000000000000000 1.0000000000000000 0.0000000000000000
0.0000000000000000 1.0000000000000000 0.0000000000000000
0.0000000000000000 1.0000000000000000 0.0000000000000000
0.0000000000000000 1.0000000000000000 0.0000000000000000
0.0000000000000000 1.0000000000000000 0.0000000000000000
0.0000000000000000 1.0000000000000000 0.0000000000000000
0.0000000000000000 1.0000000000000000 0.0000000000000000
0.0000000000000000 1.0000000000000000 0.0000000000000000
0.0000000000000000 1.0000000000000000 0.0000000000000000
0.0000000000000000 1.0000000000000000 0.0000000000000000
0.0000000000000000 1.0000000000000000 0.0000000000000000
0.0000000000000000 1.0000000000000000 0.0000000000000000
0.0000000000000000 1.0000000000000000 0.0000000000000000
0.0000000000000000 1.0000000000000000 0.0000000000000000
0.0000000000000000 1.0000000000000000 0.0000000000000000
0.0000000000000000 1.0000000000000000 0.0000000000000000
0.0000000000000000 1.0000000000000000 0.0000000000000000
0.0000000000000000 1.0000000000000000 0.0000000000000000
0.0000000000000000 1.0000000000000000 0.0000000000000000
0.0000000000000000 1.0000000000000000 0.0000000000000000
0.0000000000000000 1.0000000000000000 0.0000000000000000
0.0000000000000000 1.0000000000000000 0.0000000000000000
0.0000000000000000 1.0000000000000000 0.0000000000000000
0.0000000000000000 1.0000000000000000 0.0000000000000000
0.0000000000000000 1.0000000000000000 0.0000000000000000
0.0000000000000000 1.0000000000000000 0.0000000000000000
0.0000000000000000 1.0000000000000000 0.0000000000000000
0.0000000000000000 1.0000000000000000 0.0000000000000000
0.0000000000000000 1.0000000000000000 0.0000000000000000
0.0000000000000000 1.0000000000000000 0.0000000000000000
0.0000000000000000 1.0000000000000000 0.0000000000000000
0.0000000000000000 1.0000000000000000 0.0000000000000000
0.0000000000000000 1.0000000000000000 0.0000000000000000
0.0000000000000000 1.0000000000000000 0.0000000000000000
0.0000000000000000 1.0000000000000000 0.0000000000000000
0.0000000000000000 1.0000000000000000 0.0000000000000000
0.0000000000000000 1.0000000000000000 0.0000000000000000
0.0000000000000000 1.0000000000000000 0.0000000000000000
0.0000000000000000 1.0000000000000000 0.0000000000000000
0.0000000000000000 1.0000000000000000 0.0000000000000000
0.0000000000000000 1.0000000000000000 0.0000000000000000
0.0000000000000000 1.0000000000000000 0.0000000000000000
0.0000000000000000 1.0000000000000000 0.0000000000000000
0.0000000000000000 1.0000000000000000 0.0000000000000000
0.0000000000000000 1.0000000000000000 0.0000000000000000
0.0000000000000000 1.0000000000000000 0.0000000000000000
0.0000000000000000 1.0000000000000000 0.0000000000000000
0.0000000000000000 1.0000000000000000 0.0000000000000000
0.0000000000000000 1.0000000000000000 0.0000000000000000
0.0000000000000000 1.0000000000000000 0.0000000000000000
0.0000000000000000 1.0000000000000000 0.0000000000000000
0.0000000000000000 1.0000000000000000 0.0000000000000000
0.0000000000000000 1.0000000000000000 0.0000000000000000
0.0000000000000000 1.0000000000000000 0.0000000000000000
0.0000000000000000 1.0000000000000000 0.0000000000000000
0.0000000000000000 1.0000000000000000 0.0000000000000000
0.0000000000000000 1.0000000000000000 0.0000000000000000
0.0000000000000000 1.0000000000000000 0.0000000000000000
0.0000000000000000 1.0000000000000000 0.0000000000000000
0.0000000000000000 1.0000000000000000 0.0000000000000000
0.0000000000000000 1.0000000000000000 0.0000000000000000
0.0000000000000000 1.0000000000000000 0.0000000000000000
0.0000000000000000 1.0000000000000000 0.0000000000000000
0.0000000000000000 1.0000000000000000 0.0000000000000000
0.0000000000000000 1.0000000000000000 0.0000000000000000
0.0000000000000000 1.0000000000000000 0.0000000000000000
0.0000000000000000 1.0000000000000000 0.0000000000000000
0.0000000000000000 1.0000000000000000 0.0000000000000000
0.0000000000000000 1.0000000000000000 0.0000000000000000
0.0000000000000000 1.0000000000000000 0.0000000000000000
0.0000000000000000 1.0000000000000000 0.0000000000000000
0.0000000000000000 1.0000000000000000 0.0000000000000000
0.0000000000000000 1.0000000000000000 0.0000000000000000
0.0000000000000000 1.0000000000000000 0.0000000000000000
0.0000000000000000 1.0000000000000000 0.0000000000000000
0.0000000000000000 1.0000000000000000 0.0000000000000000
0.0000000000000000 1.0000000000000000 0.0000000000000000
0.0000000000000000 1.0000000000000000 0.0000000000000000
0.0000000000000000 1.0000000000000000 0.0000000000000000
0.0000000000000000 1.0000000000000000 0.0000000000000000
0.0000000000000000 1.0000000000000000 0.0000000000000000
0.0000000000000000 1.0000000000000000 0.0000000000000000
0.0000000000000000 1.0000000000000000 0.0000000000000000
0.0000000000000000 1.0000000000000000 0.0000000000000000
0.0000000000000000 1.0000000000000000 0.0000000000000000
0.0000000000000000 1.0000000000000000 0.0000000000000000
0.0000000000000000 1.0000000000000000 0.0000000000000000
0.0000000000000000 1.0000000000000000 0.0000000000000000
0.0000000000000000 1.0000000000000000 0.0000000000000000
0.0000000000000000 1.0000000000000000 0.0000000000000000
0.0000000000000000 1.0000000000000000 0.0000000000000000
0.0000000000000000 1.0000000000000000 0.0000000000000000
0.0000000000000000 1.0000000000000000 0.0000000000000000
0.0000000000000000 1.0000000000000000 0.0000000000000000
0.0000000000000000 1.0000000000000000 0.0000000000000000
0.0000000000000000 1.0000000000000000 0.0000000000000000
0.0000000000000000 1.0000000000000000 0.0000000000000000
0.0000000000000000 1.0000000000000000 0.0000000000000000
0.0000000000000000 1.0000000000000000 0.0000000000000000
0.0000000000000000 1.0000000000000000 0.0000000000000000
0.0000000000000000 1.0000000000000000 0.0000000000000000
0.0000000000000000 1.0000000000000000 0.0000000000000000
0.0000000000000000 1.0000000000000000 0.0000000000000000
0.0000000000000000 1.0000000000000000 0.0000000000000000
0.0000000000000000 1.0000000000000000 0.0000000000000000
0.0000000000000000 1.0000000000000000 0.0000000000000000
0.0000000000000000 1.0000000000000000 0.0000000000000000
0.0000000000000000 1.0000000000000000 0.0000000000000000
0.0000000000000000 1.0000000000000000 0.0000000000000000
0.0000000000000000 1.0000000000000000 0.0000000000000000
0.0000000000000000 1.0000000000000000 0.0000000000000000
0.0000000000000000 1.0000000000000000 0.0000000000000000
0.0000000000000000 1.0000000000000000 0.0000000000000000
0.0000000000000000 1.0000000000000000 0.0000000000000000
0.0000000000000000 1.0000000000000000 0.0000000000000000
0.0000000000000000 1.0000000000000000 0.0000000000000000
0.0000000000000000 1.0000000000000000 0.0000000000000000
0.0000000000000000 1.0000000000000000 0.0000000000000000
0.0000000000000000 1.0000000000000000 0.0000000000000000
0.0000000000000000 1.0000000000000000 0.0000000000000000
0.0000000000000000 1.0000000000000000 0.0000000000000000
0.0000000000000000 1.0000000000000000 0.0000000000000000
0.0000000000000000 1.0000000000000000 0.0000000000000000
0.0000000000000000 1.0000000000000000 0.0000000000000000
0.0000000000000000 1.0000000000000000 0.0000000000000000
0.0000000000000000 1.0000000000000000 0.0000000000000000
0.0000000000000000 1.0000000000000000 0.0000000000000000
0.0000000000000000 1.0000000000000000 0.0000000000000000
0.0000000000000000 1.0000000000000000 0.0000000000000000
0.0000000000000000 1.0000000000000000 0.0000000000000000
0.0000000000000000 1.0000000000000000 0.0000000000000000
0.0000000000000000 1.0000000000000000 0.0000000000000000
0.0000000000000000 1.0000000000000000 0.0000000000000000
0.0000000000000000 1.0000000000000000 0.0000000000000000
0.0000000000000000 1.0000000000000000 0.0000000000000000
0.0000000000000000 1.0000000000000000 0.0000000000000000
0.0000000000000000 1.0000000000000000 0.0000000000000000
0.0000000000000000 1.0000000000000000 0.0000000000000000
0.0000000000000000 1.0000000000000000 0.0000000000000000
0.0000000000000000 1.0000000000000000 0.0000000000000000
0.0000000000000000 1.0000000000000000 0.0000000000000000
0.0000000000000000 1.0000000000000000 0.0000000000000000
0.0000000000000000 1.0000000000000000 0.0000000000000000
0.0000000000000000 1.0000000000000000 0.0000000000000000
0.0000000000000000 1.0000000000000000 0.0000000000000000
0.0000000000000000 1.0000000000000000 0.0000000000000000
0.0000000000000000 1.0000000000000000 0.0000000000000000
0.0000000000000000 1.0000000000000000 0.0000000000000000
0.0000000000000000 1.0000000000000000 0.0000000000000000
0.0000000000000000 1.0000000000000000 0.0000000000000000
0.0000000000000000 1.0000000000000000 0.0000000000000000
0.0000000000000000 1.0000000000000000 0.0000000000000000
0.0000000000000000 1.0000000000000000 0.0000000000000000
0.0000000000000000 1.0000000000000000 0.0000000000000000
0.0000000000000000 1.0000000000000000 0.0000000000000000
0.0000000000000000 1.0000000000000000 0.0000000000000000
0.0000000000000000 1.0000000000000000 0.0000000000000000
0.0000000000000000 1.0000000000000000 0.0000000000000000
0.0000000000000000 1.0000000000000000 0.0000000000000000
0.0000000000000000 1.0000000000000000 0.0000000000000000
0.0000000000000000 1.0000000000000000 0.0000000000000000
0.0000000000000000 1.0000000000000000 0.0000000000000000
0.0000000000000000 1.0000000000000000 0.0000000000000000
0.0000000000000000 1.0000000000000000 0.0000000000000000
0.0000000000000000 1.0000000000000000 0.0000000000000000
0.0000000000000000 1.0000000000000000 0.0000000000000000
0.0000000000000000 1.0000000000000000 0.0000000000000000
0.0000000000000000 1.0000000000000000 0.0000000000000000
0.0000000000000000 1.0000000000000000 0.0000000000000000
0.0000000000000000 1.0000000000000000 0.0000000000000000
0.0000000000000000 1.0000000000000000 0.0000000000000000
0.0000000000000000 1.0000000000000000 0.0000000000000000
0.0000000000000000 1.0000000000000000 0.0000000000000000
0.0000000000000000 1.0000000000000000 0.0000000000000000
0.0000000000000000 1.0000000000000000 0.0000000000000000
0.0000000000000000 1.0000000000000000 0.0000000000000000
0.0000000000000000 1.0000000000000000 0.0000000000000000
0.0000000000000000 1.0000000000000000 0.0000000000000000
0.0000000000000000 1.0000000000000000 0.0000000000000000
0.0000000000000000 1.0000000000000000 0.0000000000000000
0.0000000000000000 1.0000000000000000 0.0000000000000000
0.0000000000000000 1.0000000000000000 0.0000000000000000
0.0000000000000000 1.0000000000000000 0.0000000000000000
0.0000000000000000 1.0000000000000000 0.0000000000000000
0.0000000000000000 1.0000000000000000 0.0000000000000000
0.0000000000000000 1.0000000000000000 0.0000000000000000
0.0000000000000000 1.0000000000000000 0.0000000000000000
0.0000000000000000 1.0000000000000000 0.0000000000000000
0.0000000000000000 1.0000000000000000 0.0000000000000000
0.0000000000000000 1.0000000000000000 0.0000000000000000
0.0000000000000000 1.0000000000000000 0.0000000000000000
0.0000000000000000 1.0000000000000000 0.0000000000000000
0.0000000000000000 1.0000000000000000 0.0000000000000000
0.0000000000000000 1.0000000000000000 0.0000000000000000
0.0000000000000000 1.0000000000000000 0.0000000000000000
0.0000000000000000 1.0000000000000000 0.0000000000000000
0.0000000000000000 1.0000000000000000 0.0000000000000000
0.0000000000000000 1.0000000000000000 0.0000000000000000
0.0000000000000000 1.0000000000000000 0.0000000000000000
0.0000000000000000 1.0000000000000000 0.0000000000000000
0.0000000000000000 1.0000000000000000 0.0000000000000000
0.0000000000000000 1.0000000000000000 0.0000000000000000
0.0000000000000000 1.0000000000000000 0.0000000000000000
0.0000000000000000 1.0000000000000000 0.0000000000000000
0.0000000000000000 1.0000000000000000 0.0000000000000000
0.0000000000000000 1.0000000000000000 0.0000000000000000
0.0000000000000000 1.0000000000000000 0.0000000000000000
0.0000000000000000 1.0000000000000000 0.0000000000000000
0.0000000000000000 1.0000000000000000 0.0000000000000000
0.0000000000000000 1.0000000000000000 0.0000000000000000
0.0000000000000000 1.0000000000000000 0.0000000000000000
0.0000000000000000 1.0000000000000000 0.0000000000000000
0.0000000000000000 1.0000000000000000 0.0000000000000000
0.0000000000000000 1.0000000000000000 0.0000000000000000
0.0000000000000000 1.0000000000000000 0.0000000000000000
0.0000000000000000 1.0000000000000000 0.0000000000000000
0.0000000000000000 1.0000000000000000 0.0000000000000000
0.0000000000000000 1.0000000000000000 0.0000000000000000
0.0000000000000000 1.0000000000000000 0.0000000000000000
0.0000000000000000 1.0000000000000000 0.0000000000000000
0.0000000000000000 1.0000000000000000 0.0000000000000000
0.0000000000000000 1.0000000000000000 0.0000000000000000
0.0000000000000000 1.0000000000000000 0.0000000000000000
0.0000000000000000 1.0000000000000000 0.0000000000000000
0.0000000000000000 1.0000000000000000 0.0000000000000000
0.0000000000000000 1.0000000000000000 0.0000000000000000
0.0000000000000000 1.0000000000000000 0.0000000000000000
0.0000000000000000 1.0000000000000000 0.0000000000000000
0.0000000000000000 1.0000000000000000 0.0000000000000000
0.0000000000000000 1.0000000000000000 0.0000000000000000
0.0000000000000000 1.0000000000000000 0.0000000000000000
0.0000000000000000 1.0000000000000000 0.0000000000000000
0.0000000000000000 1.0000000000000000 0.0000000000000000
0.0000000000000000 1.0000000000000000 0.0000000000000000
0.0000000000000000 1.0000000000000000 0.0000000000000000
0.0000000000000000 1.0000000000000000 0.0000000000000000
0.0000000000000000 1.0000000000000000 0.0000000000000000
0.0000000000000000 1.0000000000000000 0.0000000000000000
0.0000000000000000 1.0000000000000000 0.0000000000000000
0.0000000000000000 1.0000000000000000 0.0000000000000000
0.0000000000000000 1.0000000000000000 0.0000000000000000
0.0000000000000000 1.0000000000000000 0.0000000000000000
0.0000000000000000 1.0000000000000000 0.0000000000000000
0.0000000000000000 1.0000000000000000 0.0000000000000000
0.0000000000000000 1.0000000000000000 0.0000000000000000
0.0000000000000000 1.0000000000000000 0.0000000000000000
0.0000000000000000 1.0000000000000000 0.0000000000000000
0.0000000000000000 1.0000000000000000 0.0000000000000000
0.0000000000000000 1.0000000000000000 0.0000000000000000
0.0000000000000000 1.0000000000000000 0.0000000000000000
0.0000000000000000 1.0000000000000000 0.0000000000000000
0.0000000000000000 1.0000000000000000 0.0000000000000000
0.0000000000000000 1.0000000000000000 0.0000000000000000
0.0000000000000000 1.0000000000000000 0.0000000000000000
0.0000000000000000 1.0000000000000000 0.0000000000000000
0.0000000000000000 1.0000000000000000 0.0000000000000000
0.0000000000000000 1.0000000000000000 0.0000000000000000
0.0000000000000000 1.0000000000000000 0.0000000000000000
0.0000000000000000 1.0000000000000000 0.0000000000000000
0.0000000000000000 1.0000000000000000 0.0000000000000000
0.0000000000000000 1.0000000000000000 0.0000000000000000
0.0000000000000000 1.0000000000000000 0.0000000000000000
0.0000000000000000 1.0000000000000000 0.0000000000000000
0.0000000000000000 1.0000000000000000 0.0000000000000000
0.0000000000000000 1.0000000000000000 0.0000000000000000
0.0000000000000000 1.0000000000000000 0.0000000000000000
0.0000000000000000 1.0000000000000000 0.0000000000000000
0.0000000000000000 1.0000000000000000 0.0000000000000000
0.0000000000000000 1.0000000000000000 0.0000000000000000
0.0000000000000000 1.0000000000000000 0.0000000000000000
0.0000000000000000 1.0000000000000000 0.0000000000000000
0.0000000000000000 1.0000000000000000 0.0000000000000000
0.0000000000000000 1.0000000000000000 0.0000000000000000
0.0000000000000000 1.0000000000000000 0.0000000000000000
0.0000000000000000 1.0000000000000000 0.0000000000000000
0.0000000000000000 1.0000000000000000 0.0000000000000000
0.0000000000000000 1.0000000000000000 0.0000000000000000
0.0000000000000000 1.0000000000000000 0.0000000000000000
0.0000000000000000 1.0000000000000000 0.0000000000000000
0.0000000000000000 1.0000000000000000 0.0000000000000000
0.0000000000000000 1.0000000000000000 0.0000000000000000
0.0000000000000000 1.0000000000000000 0.0000000000000000
0.0000000000000000 1.0000000000000000 0.0000000000000000
0.0000000000000000 1.0000000000000000 0.0000000000000000
0.0000000000000000 1.0000000000000000 0.0000000000000000
0.0000000000000000 1.0000000000000000 0.0000000000000000
0.0000000000000000 1.0000000000000000 0.0000000000000000
0.0000000000000000 1.0000000000000000 0.0000000000000000
0.0000000000000000 1.0000000000000000 0.0000000000000000
0.0000000000000000 1.0000000000000000 0.0000000000000000
0.0000000000000000 1.0000000000000000 0.0000000000000000
0.0000000000000000 1.0000000000000000 0.0000000000000000
0.0000000000000000 1.0000000000000000 0.0000000000000000
0.0000000000000000 1.0000000000000000 0.0000000000000000
0.0000000000000000 1.0000000000000000 0.0000000000000000
0.0000000000000000 1.0000000000000000 0.0000000000000000
0.0000000000000000 1.0000000000000000 0.0000000000000000
0.0000000000000000 1.0000000000000000 0.0000000000000000
0.0000000000000000 1.0000000000000000 0.0000000000000000
0.0000000000000000 1.0000000000000000 0.0000000000000000
0.0000000000000000 1.0000000000000000 0.0000000000000000
0.0000000000000000 1.0000000000000000 0.0000000000000000
0.0000000000000000 1.0000000000000000 0.0000000000000000
0.0000000000000000 1.0000000000000000 0.0000000000000000
0.0000000000000000 1.0000000000000000 0.0000000000000000
0.0000000000000000 1.0000000000000000 0.0000000000000000
0.0000000000000000 1.0000000000000000 0.0000000000000000
0.0000000000000000 1.0000000000000000 0.0000000000000000
0.0000000000000000 1.0000000000000000 0.0000000000000000
0.0000000000000000 1.0000000000000000 0.0000000000000000
0.0000000000000000 1.0000000000000000 0.0000000000000000
0.0000000000000000 1.0000000000000000 0.0000000000000000
0.0000000000000000 1.0000000000000000 0.0000000000000000
0.0000000000000000 1.0000000000000000 0.0000000000000000
0.0000000000000000 1.0000000000000000 0.0000000000000000
0.0000000000000000 1.0000000000000000 0.0000000000000000
0.0000000000000000 1.0000000000000000 0.0000000000000000
0.0000000000000000 1.0000000000000000 0.0000000000000000
0.0000000000000000 1.0000000000000000 0.0000000000000000
0.0000000000000000 1.0000000000000000 0.0000000000000000
0.0000000000000000 1.0000000000000000 0.0000000000000000
0.0000000000000000 1.0000000000000000 0.0000000000000000
0.0000000000000000 1.0000000000000000 0.0000000000000000
0.0000000000000000 1.0000000000000000 0.0000000000000000
0.0000000000000000 1.0000000000000000 0.0000000000000000
0.0000000000000000 1.0000000000000000 0.0000000000000000
0.0000000000000000 1.0000000000000000 0.0000000000000000
0.0000000000000000 1.0000000000000000 0.0000000000000000
0.0000000000000000 1.0000000000000000 0.0000000000000000
0.0000000000000000 1.0000000000000000 0.0000000000000000
0.0000000000000000 1.0000000000000000 0.0000000000000000
0.0000000000000000 1.0000000000000000 0.0000000000000000
0.0000000000000000 1.0000000000000000 0.0000000000000000
0.0000000000000000 1.0000000000000000 0.0000000000000000
0.0000000000000000 1.0000000000000000 0.0000000000000000
0.0000000000000000 1.0000000000000000 0.0000000000000000
0.0000000000000000 1.0000000000000000 0.0000000000000000
0.0000000000000000 1.0000000000000000 0.0000000000000000
0.0000000000000000 1.0000000000000000 0.0000000000000000
0.0000000000000000 1.0000000000000000 0.0000000000000000
0.0000000000000000 1.0000000000000000 0.0000000000000000
0.0000000000000000 1.0000000000000000 0.0000000000000000
0.0000000000000000 1.0000000000000000 0.0000000000000000
0.0000000000000000 1.0000000000000000 0.0000000000000000
0.0000000000000000 1.0000000000000000 0.0000000000000000
0.0000000000000000 1.0000000000000000 0.0000000000000000
0.0000000000000000 1.0000000000000000 0.0000000000000000
0.0000000000000000 1.0000000000000000 0.0000000000000000
0.0000000000000000 1.0000000000000000 0.0000000000000000
0.0000000000000000 1.0000000000000000 0.0000000000000000
0.0000000000000000 1.0000000000000000 0.0000000000000000
0.0000000000000000 1.0000000000000000 0.0000000000000000
0.0000000000000000 1.0000000000000000 0.0000000000000000
0.0000000000000000 1.0000000000000000 0.0000000000000000
0.0000000000000000 1.0000000000000000 0.0000000000000000
0.0000000000000000 1.0000000000000000 0.0000000000000000
0.0000000000000000 1.0000000000000000 0.0000000000000000
0.0000000000000000 1.0000000000000000 0.0000000000000000
0.0000000000000000 1.0000000000000000 0.0000000000000000
0.0000000000000000 1.0000000000000000 0.0000000000000000
0.0000000000000000 1.0000000000000000 0.0000000000000000
0.0000000000000000 1.0000000000000000 0.0000000000000000
0.0000000000000000 1.0000000000000000 0.0000000000000000
0.0000000000000000 1.0000000000000000 0.0000000000000000
0.0000000000000000 1.0000000000000000 0.0000000000000000
0.0000000000000000 1.0000000000000000 0.0000000000000000
0.0000000000000000 1.0000000000000000 0.0000000000000000
0.0000000000000000 1.0000000000000000 0.0000000000000000
0.0000000000000000 1.0000000000000000 0.0000000000000000
0.0000000000000000 1.0000000000000000 0.0000000000000000
0.0000000000000000 1.0000000000000000 0.0000000000000000
0.0000000000000000 1.0000000000000000 0.0000000000000000
0.0000000000000000 1.0000000000000000 0.0000000000000000
0.0000000000000000 1.0000000000000000 0.0000000000000000
0.0000000000000000 1.0000000000000000 0.0000000000000000
0.0000000000000000 1.0000000000000000 0.0000000000000000
0.0000000000000000 1.0000000000000000 0.0000000000000000
0.0000000000000000 1.0000000000000000 0.0000000000000000
0.0000000000000000 1.0000000000000000 0.0000000000000000
0.0000000000000000 1.0000000000000000 0.0000000000000000
0.0000000000000000 1.0000000000000000 0.0000000000000000
0.0000000000000000 1.0000000000000000 0.0000000000000000
0.0000000000000000 1.0000000000000000 0.0000000000000000
0.0000000000000000 1.0000000000000000 0.0000000000000000
0.0000000000000000 1.0000000000000000 0.0000000000000000
0.0000000000000000 1.0000000000000000 0.0000000000000000
0.0000000000000000 1.0000000000000000 0.0000000000000000
0.0000000000000000 1.0000000000000000 0.0000000000000000
0.0000000000000000 1.0000000000000000 0.0000000000000000
0.0000000000000000 1.0000000000000000 0.0000000000000000
0.0000000000000000 1.0000000000000000 0.0000000000000000
0.0000000000000000 1.0000000000000000 0.0000000000000000
0.0000000000000000 1.0000000000000000 0.0000000000000000
0.0000000000000000 1.0000000000000000 0.0000000000000000
0.0000000000000000 1.0000000000000000 0.0000000000000000
0.0000000000000000 1.0000000000000000 0.0000000000000000
0.0000000000000000 1.0000000000000000 0.0000000000000000
0.0000000000000000 1.0000000000000000 0.0000000000000000
0.0000000000000000 1.0000000000000000 0.0000000000000000
0.0000000000000000 1.0000000000000000 0.0000000000000000
0.0000000000000000 1.0000000000000000 0.0000000000000000
0.0000000000000000 1.0000000000000000 0.0000000000000000
0.0000000000000000 1.0000000000000000 0.0000000000000000
0.0000000000000000 1.0000000000000000 0.0000000000000000
0.0000000000000000 1.0000000000000000 0.0000000000000000
0.0000000000000000 1.0000000000000000 0.0000000000000000
0.0000000000000000 1.0000000000000000 0.0000000000000000
0.0000000000000000 1.0000000000000000 0.0000000000000000
0.0000000000000000 1.0000000000000000 0.0000000000000000
0.0000000000000000 1.0000000000000000 0.0000000000000000
0.0000000000000000 1.0000000000000000 0.0000000000000000
0.0000000000000000 1.0000000000000000 0.0000000000000000
0.0000000000000000 1.0000000000000000 0.0000000000000000
0.0000000000000000 1.0000000000000000 0.0000000000000000
0.0000000000000000 1.0000000000000000 0.0000000000000000
0.0000000000000000 1.0000000000000000 0.0000000000000000
0.0000000000000000 1.0000000000000000 0.0000000000000000
0.0000000000000000 1.0000000000000000 0.0000000000000000
0.0000000000000000 1.0000000000000000 0.0000000000000000
0.0000000000000000 1.0000000000000000 0.0000000000000000
0.0000000000000000 1.0000000000000000 0.0000000000000000
0.0000000000000000 1.0000000000000000 0.0000000000000000
0.0000000000000000 1.0000000000000000 0.0000000000000000
0.0000000000000000 1.0000000000000000 0.0000000000000000
0.0000000000000000 1.0000000000000000 0.0000000000000000
0.0000000000000000 1.0000000000000000 0.0000000000000000
0.0000000000000000 1.0000000000000000 0.0000000000000000
0.0000000000000000 1.0000000000000000 0.0000000000000000
0.0000000000000000 1.0000000000000000 0.0000000000000000
0.0000000000000000 1.0000000000000000 0.0000000000000000
0.0000000000000000 1.0000000000000000 0.0000000000000000
0.0000000000000000 1.0000000000000000 0.0000000000000000
0.0000000000000000 1.0000000000000000 0.0000000000000000
0.0000000000000000 1.0000000000000000 0.0000000000000000
0.0000000000000000 1.0000000000000000 0.0000000000000000
0.0000000000000000 1.0000000000000000 0.0000000000000000
0.0000000000000000 1.0000000000000000 0.0000000000000000
0.0000000000000000 1.0000000000000000 0.0000000000000000
0.0000000000000000 1.0000000000000000 0.0000000000000000
0.0000000000000000 1.0000000000000000 0.0000000000000000
0.0000000000000000 1.0000000000000000 0.0000000000000000
0.0000000000000000 1.0000000000000000 0.0000000000000000
0.0000000000000000 1.0000000000000000 0.0000000000000000
0.0000000000000000 1.0000000000000000 0.0000000000000000
0.0000000000000000 1.0000000000000000 0.0000000000000000
0.0000000000000000 1.0000000000000000 0.0000000000000000
0.0000000000000000 1.0000000000000000 0.0000000000000000
0.0000000000000000 1.0000000000000000 0.0000000000000000
0.0000000000000000 1.0000000000000000 0.0000000000000000
0.0000000000000000 1.0000000000000000 0.0000000000000000
0.0000000000000000 1.0000000000000000 0.0000000000000000
0.0000000000000000 1.0000000000000000 0.0000000000000000
0.0000000000000000 1.0000000000000000 0.0000000000000000
0.0000000000000000 1.0000000000000000 0.0000000000000000
0.0000000000000000 1.0000000000000000 0.0000000000000000
0.0000000000000000 1.0000000000000000 0.0000000000000000
0.0000000000000000 1.0000000000000000 0.0000000000000000
0.0000000000000000 1.0000000000000000 0.0000000000000000
0.0000000000000000 1.0000000000000000 0.0000000000000000
0.0000000000000000 1.0000000000000000 0.0000000000000000
0.0000000000000000 1.0000000000000000 0.0000000000000000
0.0000000000000000 1.0000000000000000 0.0000000000000000
0.0000000000000000 1.0000000000000000 0.0000000000000000
0.0000000000000000 1.0000000000000000 0.0000000000000000
0.0000000000000000 1.0000000000000000 0.0000000000000000
0.0000000000000000 1.0000000000000000 0.0000000000000000
0.0000000000000000 1.0000000000000000 0.0000000000000000
0.0000000000000000 1.0000000000000000 0.0000000000000000
0.0000000000000000 1.0000000000000000 0.0000000000000000
0.0000000000000000 1.0000000000000000 0.0000000000000000
0.0000000000000000 1.0000000000000000 0.0000000000000000
0.0000000000000000 1.0000000000000000 0.0000000000000000
0.0000000000000000 1.0000000000000000 0.0000000000000000
0.0000000000000000 1.0000000000000000 0.0000000000000000
0.0000000000000000 1.0000000000000000 0.0000000000000000
0.0000000000000000 1.0000000000000000 0.0000000000000000
0.0000000000000000 1.0000000000000000 0.0000000000000000
0.0000000000000000 1.0000000000000000 0.0000000000000000
0.0000000000000000 1.0000000000000000 0.0000000000000000
0.0000000000000000 1.0000000000000000 0.0000000000000000
0.0000000000000000 1.0000000000000000 0.0000000000000000
0.0000000000000000 1.0000000000000000 0.0000000000000000
0.0000000000000000 1.0000000000000000 0.0000000000000000
0.0000000000000000 1.0000000000000000 0.0000000000000000
0.0000000000000000 1.0000000000000000 0.0000000000000000
0.0000000000000000 1.0000000000000000 0.0000000000000000
0.0000000000000000 1.0000000000000000 0.0000000000000000
0.0000000000000000 1.0000000000000000 0.0000000000000000
0.0000000000000000 1.0000000000000000 0.0000000000000000
0.0000000000000000 1.0000000000000000 0.0000000000000000
0.0000000000000000 1.0000000000000000 0.0000000000000000
0.0000000000000000 1.0000000000000000 0.0000000000000000
0.0000000000000000 1.0000000000000000 0.0000000000000000
0.0000000000000000 1.0000000000000000 0.0000000000000000
0.0000000000000000 1.0000000000000000 0.0000000000000000
0.0000000000000000 1.0000000000000000 0.0000000000000000
0.0000000000000000 1.0000000000000000 0.0000000000000000
0.0000000000000000 1.0000000000000000 0.0000000000000000
0.0000000000000000 1.0000000000000000 0.0000000000000000
0.0000000000000000 1.0000000000000000 0.0000000000000000
0.0000000000000000 1.0000000000000000 0.0000000000000000
0.0000000000000000 1.0000000000000000 0.0000000000000000
0.0000000000000000 1.0000000000000000 0.0000000000000000
0.0000000000000000 1.0000000000000000 0.0000000000000000
0.0000000000000000 1.0000000000000000 0.0000000000000000
0.0000000000000000 1.0000000000000000 0.0000000000000000
0.0000000000000000 1.0000000000000000 0.0000000000000000
0.0000000000000000 1.0000000000000000 0.0000000000000000
0.0000000000000000 1.0000000000000000 0.0000000000000000
0.0000000000000000 1.0000000000000000 0.0000000000000000
0.0000000000000000 1.0000000000000000 0.0000000000000000
0.0000000000000000 1.0000000000000000 0.0000000000000000
0.0000000000000000 1.0000000000000000 0.0000000000000000
0.0000000000000000 1.0000000000000000 0.0000000000000000
0.0000000000000000 1.0000000000000000 0.0000000000000000
0.0000000000000000 1.0000000000000000 0.0000000000000000
0.0000000000000000 1.0000000000000000 0.0000000000000000
0.0000000000000000 1.0000000000000000 0.0000000000000000
0.0000000000000000 1.0000000000000000 0.0000000000000000
0.0000000000000000 1.0000000000000000 0.0000000000000000
0.0000000000000000 1.0000000000000000 0.0000000000000000
0.0000000000000000 1.0000000000000000 0.0000000000000000
0.0000000000000000 1.0000000000000000 0.0000000000000000
0.0000000000000000 1.0000000000000000 0.0000000000000000
0.0000000000000000 1.0000000000000000 0.0000000000000000
0.0000000000000000 1.0000000000000000 0.0000000000000000
0.0000000000000000 1.0000000000000000 0.0000000000000000
0.0000000000000000 1.0000000000000000 0.0000000000000000
0.0000000000000000 1.0000000000000000 0.0000000000000000
0.0000000000000000 1.0000000000000000 0.0000000000000000
0.0000000000000000 1.0000000000000000 0.0000000000000000
0.0000000000000000 1.0000000000000000 0.0000000000000000
0.0000000000000000 1.0000000000000000 0.0000000000000000
0.0000000000000000 1.0000000000000000 0.0000000000000000
0.0000000000000000 1.0000000000000000 0.0000000000000000
0.0000000000000000 1.0000000000000000 0.0000000000000000
0.0000000000000000 1.0000000000000000 0.0000000000000000
0.0000000000000000 1.0000000000000000 0.0000000000000000
0.0000000000000000 1.0000000000000000 0.0000000000000000
0.0000000000000000 1.0000000000000000 0.0000000000000000
0.0000000000000000 1.0000000000000000 0.0000000000000000
0.0000000000000000 1.0000000000000000 0.0000000000000000
0.0000000000000000 1.0000000000000000 0.0000000000000000
0.0000000000000000 1.0000000000000000 0.0000000000000000
0.0000000000000000 1.0000000000000000 0.0000000000000000
0.0000000000000000 1.0000000000000000 0.0000000000000000
0.0000000000000000 1.0000000000000000 0.0000000000000000
0.0000000000000000 1.0000000000000000 0.0000000000000000
0.0000000000000000 1.0000000000000000 0.0000000000000000
0.0000000000000000 1.0000000000000000 0.0000000000000000
0.0000000000000000 1.0000000000000000 0.0000000000000000
0.0000000000000000 1.0000000000000000 0.0000000000000000
0.0000000000000000 1.0000000000000000 0.0000000000000000
0.0000000000000000 1.0000000000000000 0.0000000000000000
0.0000000000000000 1.0000000000000000 0.0000000000000000
0.0000000000000000 1.0000000000000000 0.0000000000000000
0.0000000000000000 1.0000000000000000 0.0000000000000000
0.0000000000000000 1.0000000000000000 0.0000000000000000
0.0000000000000000 1.0000000000000000 0.0000000000000000
0.0000000000000000 1.0000000000000000 0.0000000000000000
0.0000000000000000 1.0000000000000000 0.0000000000000000
0.0000000000000000 1.0000000000000000 0.0000000000000000
0.0000000000000000 1.0000000000000000 0.0000000000000000
0.0000000000000000 1.0000000000000000 0.0000000000000000
0.0000000000000000 1.0000000000000000 0.0000000000000000
0.0000000000000000 1.0000000000000000 0.0000000000000000
0.0000000000000000 1.0000000000000000 0.0000000000000000
0.0000000000000000 1.0000000000000000 0.0000000000000000
0.0000000000000000 1.0000000000000000 0.0000000000000000
0.0000000000000000 1.0000000000000000 0.0000000000000000
0.0000000000000000 1.0000000000000000 0.0000000000000000
0.0000000000000000 1.0000000000000000 0.0000000000000000
0.0000000000000000 1.0000000000000000 0.0000000000000000
0.0000000000000000 1.0000000000000000 0.0000000000000000
0.0000000000000000 1.0000000000000000 0.0000000000000000
0.0000000000000000 1.0000000000000000 0.0000000000000000
0.0000000000000000 1.0000000000000000 0.0000000000000000
0.0000000000000000 1.0000000000000000 0.0000000000000000
0.0000000000000000 1.0000000000000000 0.0000000000000000
0.0000000000000000 1.0000000000000000 0.0000000000000000
0.0000000000000000 1.0000000000000000 0.0000000000000000
0.0000000000000000 1.0000000000000000 0.0000000000000000
0.0000000000000000 1.0000000000000000 0.0000000000000000
0.0000000000000000 1.0000000000000000 0.0000000000000000
0.0000000000000000 1.0000000000000000 0.0000000000000000
0.0000000000000000 1.0000000000000000 0.0000000000000000
0.0000000000000000 1.0000000000000000 0.0000000000000000
0.0000000000000000 1.0000000000000000 0.0000000000000000
0.0000000000000000 1.0000000000000000 0.0000000000000000
0.0000000000000000 1.0000000000000000 0.0000000000000000
0.0000000000000000 1.0000000000000000 0.0000000000000000
0.0000000000000000 1.0000000000000000 0.0000000000000000
0.0000000000000000 1.0000000000000000 0.0000000000000000
0.0000000000000000 1.0000000000000000 0.0000000000000000
0.0000000000000000 1.0000000000000000 0.0000000000000000
0.0000000000000000 1.0000000000000000 0.0000000000000000
0.0000000000000000 1.0000000000000000 0.0000000000000000
0.0000000000000000 1.0000000000000000 0.0000000000000000
0.0000000000000000 1.0000000000000000 0.0000000000000000
0.0000000000000000 1.0000000000000000 0.0000000000000000
0.0000000000000000 1.0000000000000000 0.0000000000000000
0.0000000000000000 1.0000000000000000 0.0000000000000000
0.0000000000000000 1.0000000000000000 0.0000000000000000
0.0000000000000000 1.0000000000000000 0.0000000000000000
0.0000000000000000 1.0000000000000000 0.0000000000000000
0.0000000000000000 1.0000000000000000 0.0000000000000000
0.0000000000000000 1.0000000000000000 0.0000000000000000
0.0000000000000000 1.0000000000000000 0.0000000000000000
0.0000000000000000 1.0000000000000000 0.0000000000000000
0.0000000000000000 1.0000000000000000 0.0000000000000000
0.0000000000000000 1.0000000000000000 0.0000000000000000
0.0000000000000000 1.0000000000000000 0.0000000000000000
0.0000000000000000 1.0000000000000000 0.0000000000000000
0.0000000000000000 1.0000000000000000 0.0000000000000000
0.0000000000000000 1.0000000000000000 0.0000000000000000
0.0000000000000000 1.0000000000000000 0.0000000000000000
0.0000000000000000 1.0000000000000000 0.0000000000000000
0.0000000000000000 1.0000000000000000 0.0000000000000000
0.0000000000000000 1.0000000000000000 0.0000000000000000
0.0000000000000000 1.0000000000000000 0.0000000000000000
0.0000000000000000 1.0000000000000000 0.0000000000000000
0.0000000000000000 1.0000000000000000 0.0000000000000000
0.0000000000000000 1.0000000000000000 0.0000000000000000
0.0000000000000000 1.0000000000000000 0.0000000000000000
0.0000000000000000 1.0000000000000000 0.0000000000000000
0.0000000000000000 1.0000000000000000 0.0000000000000000
0.0000000000000000 1.0000000000000000 0.0000000000000000
0.0000000000000000 1.0000000000000000 0.0000000000000000
0.0000000000000000 1.0000000000000000 0.0000000000000000
0.0000000000000000 1.0000000000000000 0.0000000000000000
0.0000000000000000 1.0000000000000000 0.0000000000000000
0.0000000000000000 1.0000000000000000 0.0000000000000000
0.0000000000000000 1.0000000000000000 0.0000000000000000
0.0000000000000000 1.0000000000000000 0.0000000000000000
0.0000000000000000 1.0000000000000000 0.0000000000000000
0.0000000000000000 1.0000000000000000 0.0000000000000000
0.0000000000000000 1.0000000000000000 0.0000000000000000
0.0000000000000000 1.0000000000000000 0.0000000000000000
0.0000000000000000 1.0000000000000000 0.0000000000000000
0.0000000000000000 1.0000000000000000 0.0000000000000000
0.0000000000000000 1.0000000000000000 0.0000000000000000
0.0000000000000000 1.0000000000000000 0.0000000000000000
0.0000000000000000 1.0000000000000000 0.0000000000000000
0.0000000000000000 1.0000000000000000 0.0000000000000000
0.0000000000000000 1.0000000000000000 0.0000000000000000
0.0000000000000000 1.0000000000000000 0.0000000000000000
0.0000000000000000 1.0000000000000000 0.0000000000000000
0.0000000000000000 1.0000000000000000 0.0000000000000000
0.0000000000000000 1.0000000000000000 0.0000000000000000
0.0000000000000000 1.0000000000000000 0.0000000000000000
0.0000000000000000 1.0000000000000000 0.0000000000000000
0.0000000000000000 1.0000000000000000 0.0000000000000000
0.0000000000000000 1.0000000000000000 0.0000000000000000
0.0000000000000000 1.0000000000000000 0.0000000000000000
0.0000000000000000 1.0000000000000000 0.0000000000000000
0.0000000000000000 1.0000000000000000 0.0000000000000000
0.0000000000000000 1.0000000000000000 0.0000000000000000
0.0000000000000000 1.0000000000000000 0.0000000000000000
0.0000000000000000 1.0000000000000000 0.0000000000000000
0.0000000000000000 1.0000000000000000 0.0000000000000000
0.0000000000000000 1.0000000000000000 0.0000000000000000
0.0000000000000000 1.0000000000000000 0.0000000000000000
0.0000000000000000 1.0000000000000000 0.0000000000000000
0.0000000000000000 1.0000000000000000 0.0000000000000000
0.0000000000000000 1.0000000000000000 0.0000000000000000
0.0000000000000000 1.0000000000000000 0.0000000000000000
0.0000000000000000 1.0000000000000000 0.0000000000000000
0.0000000000000000 1.0000000000000000 0.0000000000000000
0.0000000000000000 1.0000000000000000 0.0000000000000000
0.0000000000000000 1.0000000000000000 0.0000000000000000
0.0000000000000000 1.0000000000000000 0.0000000000000000
0.0000000000000000 1.0000000000000000 0.0000000000000000
0.0000000000000000 1.0000000000000000 0.0000000000000000
0.0000000000000000 1.0000000000000000 0.0000000000000000
0.0000000000000000 1.0000000000000000 0.0000000000000000
0.0000000000000000 1.0000000000000000 0.0000000000000000
0.0000000000000000 1.0000000000000000 0.0000000000000000
0.0000000000000000 1.0000000000000000 0.0000000000000000
0.0000000000000000 1.0000000000000000 0.0000000000000000
0.0000000000000000 1.0000000000000000 0.0000000000000000
0.0000000000000000 1.0000000000000000 0.0000000000000000
0.0000000000000000 1.0000000000000000 0.0000000000000000
0.0000000000000000 1.0000000000000000 0.0000000000000000
0.0000000000000000 1.0000000000000000 0.0000000000000000
0.0000000000000000 1.0000000000000000 0.0000000000000000
0.0000000000000000 1.0000000000000000 0.0000000000000000
0.0000000000000000 1.0000000000000000 0.0000000000000000
0.0000000000000000 1.0000000000000000 0.0000000000000000
0.0000000000000000 1.0000000000000000 0.0000000000000000
0.0000000000000000 1.0000000000000000 0.0000000000000000
0.0000000000000000 1.0000000000000000 0.0000000000000000
0.0000000000000000 1.0000000000000000 0.0000000000000000
0.0000000000000000 1.0000000000000000 0.0000000000000000
0.0000000000000000 1.0000000000000000 0.0000000000000000
0.0000000000000000 1.0000000000000000 0.0000000000000000
0.0000000000000000 1.0000000000000000 0.0000000000000000
0.0000000000000000 1.0000000000000000 0.0000000000000000
0.0000000000000000 1.0000000000000000 0.0000000000000000
0.0000000000000000 1.0000000000000000 0.0000000000000000
0.0000000000000000 1.0000000000000000 0.0000000000000000
0.0000000000000000 1.0000000000000000 0.0000000000000000
0.0000000000000000 1.0000000000000000 0.0000000000000000
0.0000000000000000 1.0000000000000000 0.0000000000000000
0.0000000000000000 1.0000000000000000 0.0000000000000000
0.0000000000000000 1.0000000000000000 0.0000000000000000
0.0000000000000000 1.0000000000000000 0.0000000000000000
0.0000000000000000 1.0000000000000000 0.0000000000000000
0.0000000000000000 1.0000000000000000 0.0000000000000000
0.0000000000000000 1.0000000000000000 0.0000000000000000
0.0000000000000000 1.0000000000000000 0.0000000000000000
0.0000000000000000 1.0000000000000000 0.0000000000000000
0.0000000000000000 1.0000000000000000 0.0000000000000000
0.0000000000000000 1.0000000000000000 0.0000000000000000
0.0000000000000000 1.0000000000000000 0.0000000000000000
0.0000000000000000 1.0000000000000000 0.0000000000000000
0.0000000000000000 1.0000000000000000 0.0000000000000000
0.0000000000000000 1.0000000000000000 0.0000000000000000
0.0000000000000000 1.0000000000000000 0.0000000000000000
0.0000000000000000 1.0000000000000000 0.0000000000000000
0.0000000000000000 1.0000000000000000 0.0000000000000000
0.0000000000000000 1.0000000000000000 0.0000000000000000
0.0000000000000000 1.0000000000000000 0.0000000000000000
0.0000000000000000 1.0000000000000000 0.0000000000000000
0.0000000000000000 1.0000000000000000 0.0000000000000000
0.0000000000000000 1.0000000000000000 0.0000000000000000
0.0000000000000000 1.0000000000000000 0.0000000000000000
0.0000000000000000 1.0000000000000000 0.0000000000000000
0.0000000000000000 1.0000000000000000 0.0000000000000000
0.0000000000000000 1.0000000000000000 0.0000000000000000
0.0000000000000000 1.0000000000000000 0.0000000000000000
0.0000000000000000 1.0000000000000000 0.0000000000000000
0.0000000000000000 1.0000000000000000 0.0000000000000000
0.0000000000000000 1.0000000000000000 0.0000000000000000
0.0000000000000000 1.0000000000000000 0.0000000000000000
0.0000000000000000 1.0000000000000000 0.0000000000000000
0.0000000000000000 1.0000000000000000 0.0000000000000000
0.0000000000000000 1.0000000000000000 0.0000000000000000
0.0000000000000000 1.0000000000000000 0.0000000000000000
0.0000000000000000 1.0000000000000000 0.0000000000000000
0.0000000000000000 1.0000000000000000 0.0000000000000000
0.0000000000000000 1.0000000000000000 0.0000000000000000
0.0000000000000000 1.0000000000000000 0.0000000000000000
0.0000000000000000 1.0000000000000000 0.0000000000000000
0.0000000000000000 1.0000000000000000 0.0000000000000000
0.0000000000000000 1.0000000000000000 0.0000000000000000
0.0000000000000000 1.0000000000000000 0.0000000000000000
0.0000000000000000 1.0000000000000000 0.0000000000000000
0.0000000000000000 1.0000000000000000 0.0000000000000000
0.0000000000000000 1.0000000000000000 0.0000000000000000
0.0000000000000000 1.0000000000000000 0.0000000000000000
0.0000000000000000 1.0000000000000000 0.0000000000000000
0.0000000000000000 1.0000000000000000 0.0000000000000000
0.0000000000000000 1.0000000000000000 0.0000000000000000
0.0000000000000000 1.0000000000000000 0.0000000000000000
0.0000000000000000 1.0000000000000000 0.0000000000000000
0.0000000000000000 1.0000000000000000 0.0000000000000000
0.0000000000000000 1.0000000000000000 0.0000000000000000
0.0000000000000000 1.0000000000000000 0.0000000000000000
0.0000000000000000 1.0000000000000000 0.0000000000000000
0.0000000000000000 1.0000000000000000 0.0000000000000000
0.0000000000000000 1.0000000000000000 0.0000000000000000
0.0000000000000000 1.0000000000000000 0.0000000000000000
0.0000000000000000 1.0000000000000000 0.0000000000000000
0.0000000000000000 1.0000000000000000 0.0000000000000000
0.0000000000000000 1.0000000000000000 0.0000000000000000
0.0000000000000000 1.0000000000000000 0.0000000000000000
0.0000000000000000 1.0000000000000000 0.0000000000000000
0.0000000000000000 1.0000000000000000 0.0000000000000000
0.0000000000000000 1.0000000000000000 0.0000000000000000
0.0000000000000000 1.0000000000000000 0.0000000000000000
0.0000000000000000 1.0000000000000000 0.0000000000000000
0.0000000000000000 1.0000000000000000 0.0000000000000000
0.0000000000000000 1.0000000000000000 0.0000000000000000
0.0000000000000000 1.0000000000000000 0.0000000000000000
0.0000000000000000 1.0000000000000000 0.0000000000000000
0.0000000000000000 1.0000000000000000 0.0000000000000000
0.0000000000000000 1.0000000000000000 0.0000000000000000
0.0000000000000000 1.0000000000000000 0.0000000000000000
0.0000000000000000 1.0000000000000000 0.0000000000000000
0.0000000000000000 1.0000000000000000 0.0000000000000000
0.0000000000000000 1.0000000000000000 0.0000000000000000
0.0000000000000000 1.0000000000000000 0.0000000000000000
0.0000000000000000 1.0000000000000000 0.0000000000000000
0.0000000000000000 1.0000000000000000 0.0000000000000000
0.0000000000000000 1.0000000000000000 0.0000000000000000
0.0000000000000000 1.0000000000000000 0.0000000000000000
0.0000000000000000 1.0000000000000000 0.0000000000000000
0.0000000000000000 1.0000000000000000 0.0000000000000000
0.0000000000000000 1.0000000000000000 0.0000000000000000
0.0000000000000000 1.0000000000000000 0.0000000000000000
0.0000000000000000 1.0000000000000000 0.0000000000000000
0.0000000000000000 1.0000000000000000 0.0000000000000000
0.0000000000000000 1.0000000000000000 0.0000000000000000
0.0000000000000000 1.0000000000000000 0.0000000000000000
0.0000000000000000 1.0000000000000000 0.0000000000000000
0.0000000000000000 1.0000000000000000 0.0000000000000000
0.0000000000000000 1.0000000000000000 0.0000000000000000
0.0000000000000000 1.0000000000000000 0.0000000000000000
0.0000000000000000 1.0000000000000000 0.0000000000000000
0.0000000000000000 1.0000000000000000 0.0000000000000000
0.0000000000000000 1.0000000000000000 0.0000000000000000
0.0000000000000000 1.0000000000000000 0.0000000000000000
0.0000000000000000 1.0000000000000000 0.0000000000000000
0.0000000000000000 1.0000000000000000 0.0000000000000000
0.0000000000000000 1.0000000000000000 0.0000000000000000
0.0000000000000000 1.0000000000000000 0.0000000000000000
0.0000000000000000 1.0000000000000000 0.0000000000000000
0.0000000000000000 1.0000000000000000 0.0000000000000000
0.0000000000000000 1.0000000000000000 0.0000000000000000
0.0000000000000000 1.0000000000000000 0.0000000000000000
0.0000000000000000 1.0000000000000000 0.0000000000000000
0.0000000000000000 1.0000000000000000 0.0000000000000000
0.0000000000000000 1.0000000000000000 0.0000000000000000
0.0000000000000000 1.0000000000000000 0.0000000000000000
0.0000000000000000 1.0000000000000000 0.0000000000000000
0.0000000000000000 1.0000000000000000 0.0000000000000000
0.0000000000000000 1.0000000000000000 0.0000000000000000
0.0000000000000000 1.0000000000000000 0.0000000000000000
0.0000000000000000 1.0000000000000000 0.0000000000000000
0.0000000000000000 1.0000000000000000 0.0000000000000000
0.0000000000000000 1.0000000000000000 0.0000000000000000
0.0000000000000000 1.0000000000000000 0.0000000000000000
0.0000000000000000 1.0000000000000000 0.0000000000000000
0.0000000000000000 1.0000000000000000 0.0000000000000000
0.0000000000000000 1.0000000000000000 0.0000000000000000
0.0000000000000000 1.0000000000000000 0.0000000000000000
0.0000000000000000 1.0000000000000000 0.0000000000000000
0.0000000000000000 1.0000000000000000 0.0000000000000000
0.0000000000000000 1.0000000000000000 0.0000000000000000
0.0000000000000000 1.0000000000000000 0.0000000000000000
0.0000000000000000 1.0000000000000000 0.0000000000000000
0.0000000000000000 1.0000000000000000 0.0000000000000000
0.0000000000000000 1.0000000000000000 0.0000000000000000
0.0000000000000000 1.0000000000000000 0.0000000000000000
0.0000000000000000 1.0000000000000000 0.0000000000000000
0.0000000000000000 1.0000000000000000 0.0000000000000000
0.0000000000000000 1.0000000000000000 0.0000000000000000
0.0000000000000000 1.0000000000000000 0.0000000000000000
0.0000000000000000 1.0000000000000000 0.0000000000000000
0.0000000000000000 1.0000000000000000 0.0000000000000000
0.0000000000000000 1.0000000000000000 0.0000000000000000
0.0000000000000000 1.0000000000000000 0.0000000000000000
0.0000000000000000 1.0000000000000000 0.0000000000000000
0.0000000000000000 1.0000000000000000 0.0000000000000000
0.0000000000000000 1.0000000000000000 0.0000000000000000
0.0000000000000000 1.0000000000000000 0.0000000000000000
0.0000000000000000 1.0000000000000000 0.0000000000000000
0.0000000000000000 1.0000000000000000 0.0000000000000000
0.0000000000000000 1.0000000000000000 0.0000000000000000
0.0000000000000000 1.0000000000000000 0.0000000000000000
0.0000000000000000 1.0000000000000000 0.0000000000000000
0.0000000000000000 1.0000000000000000 0.0000000000000000
0.0000000000000000 1.0000000000000000 0.0000000000000000
0.0000000000000000 1.0000000000000000 0.0000000000000000
0.0000000000000000 1.0000000000000000 0.0000000000000000
0.0000000000000000 1.0000000000000000 0.0000000000000000
0.0000000000000000 1.0000000000000000 0.0000000000000000
0.0000000000000000 1.0000000000000000 0.0000000000000000
0.0000000000000000 1.0000000000000000 0.0000000000000000
0.0000000000000000 1.0000000000000000 0.0000000000000000
0.0000000000000000 1.0000000000000000 0.0000000000000000
0.0000000000000000 1.0000000000000000 0.0000000000000000
0.0000000000000000 1.0000000000000000 0.0000000000000000
0.0000000000000000 1.0000000000000000 0.0000000000000000
0.0000000000000000 1.0000000000000000 0.0000000000000000
0.0000000000000000 1.0000000000000000 0.0000000000000000
0.0000000000000000 1.0000000000000000 0.0000000000000000
0.0000000000000000 1.0000000000000000 0.0000000000000000
0.0000000000000000 1.0000000000000000 0.0000000000000000
0.0000000000000000 1.0000000000000000 0.0000000000000000
0.0000000000000000 1.0000000000000000 0.0000000000000000
0.0000000000000000 1.0000000000000000 0.0000000000000000
0.0000000000000000 1.0000000000000000 0.0000000000000000
0.0000000000000000 1.0000000000000000 0.0000000000000000
0.0000000000000000 1.0000000000000000 0.0000000000000000
0.0000000000000000 1.0000000000000000 0.0000000000000000
0.0000000000000000 1.0000000000000000 0.0000000000000000
0.0000000000000000 1.0000000000000000 0.0000000000000000
0.0000000000000000 1.0000000000000000 0.0000000000000000
0.0000000000000000 1.0000000000000000 0.0000000000000000
0.0000000000000000 1.0000000000000000 0.0000000000000000
0.0000000000000000 1.0000000000000000 0.0000000000000000
0.0000000000000000 1.0000000000000000 0.0000000000000000
0.0000000000000000 1.0000000000000000 0.0000000000000000
0.0000000000000000 1.0000000000000000 0.0000000000000000
0.0000000000000000 1.0000000000000000 0.0000000000000000
0.0000000000000000 1.0000000000000000 0.0000000000000000
0.0000000000000000 1.0000000000000000 0.0000000000000000
0.0000000000000000 1.0000000000000000 0.0000000000000000
0.0000000000000000 1.0000000000000000 0.0000000000000000
0.0000000000000000 1.0000000000000000 0.0000000000000000
0.0000000000000000 1.0000000000000000 0.0000000000000000
0.0000000000000000 1.0000000000000000 0.0000000000000000
0.0000000000000000 1.0000000000000000 0.0000000000000000
0.0000000000000000 1.0000000000000000 0.0000000000000000
0.0000000000000000 1.0000000000000000 0.0000000000000000
0.0000000000000000 1.0000000000000000 0.0000000000000000
0.0000000000000000 1.0000000000000000 0.0000000000000000
0.0000000000000000 1.0000000000000000 0.0000000000000000
0.0000000000000000 1.0000000000000000 0.0000000000000000
0.0000000000000000 1.0000000000000000 0.0000000000000000
0.0000000000000000 1.0000000000000000 0.0000000000000000
0.0000000000000000 1.0000000000000000 0.0000000000000000
0.0000000000000000 1.0000000000000000 0.0000000000000000
0.0000000000000000 1.0000000000000000 0.0000000000000000
0.0000000000000000 1.0000000000000000 0.0000000000000000
0.0000000000000000 1.0000000000000000 0.0000000000000000
0.0000000000000000 1.0000000000000000 0.0000000000000000
0.0000000000000000 1.0000000000000000 0.0000000000000000
0.0000000000000000 1.0000000000000000 0.0000000000000000
0.0000000000000000 1.0000000000000000 0.0000000000000000
0.0000000000000000 1.0000000000000000 0.0000000000000000
0.0000000000000000 1.0000000000000000 0.0000000000000000
0.0000000000000000 1.0000000000000000 0.0000000000000000
0.0000000000000000 1.0000000000000000 0.0000000000000000
0.0000000000000000 1.0000000000000000 0.0000000000000000
0.0000000000000000 1.0000000000000000 0.0000000000000000
0.0000000000000000 1.0000000000000000 0.0000000000000000
0.0000000000000000 1.0000000000000000 0.0000000000000000
0.0000000000000000 1.0000000000000000 0.0000000000000000
0.0000000000000000 1.0000000000000000 0.0000000000000000
0.0000000000000000 1.0000000000000000 0.0000000000000000
0.0000000000000000 1.0000000000000000 0.0000000000000000
0.0000000000000000 1.0000000000000000 0.0000000000000000
0.0000000000000000 1.0000000000000000 0.0000000000000000
0.0000000000000000 1.0000000000000000 0.0000000000000000
0.0000000000000000 1.0000000000000000 0.0000000000000000
0.0000000000000000 1.0000000000000000 0.0000000000000000
0.0000000000000000 1.0000000000000000 0.0000000000000000
0.0000000000000000 1.0000000000000000 0.0000000000000000
0.0000000000000000 1.0000000000000000 0.0000000000000000
0.0000000000000000 1.0000000000000000 0.0000000000000000
0.0000000000000000 1.0000000000000000 0.0000000000000000
0.0000000000000000 1.0000000000000000 0.0000000000000000
0.0000000000000000 1.0000000000000000 0.0000000000000000
0.0000000000000000 1.0000000000000000 0.0000000000000000
0.0000000000000000 1.0000000000000000 0.0000000000000000
0.0000000000000000 1.0000000000000000 0.0000000000000000
0.0000000000000000 1.0000000000000000 0.0000000000000000
0.0000000000000000 1.0000000000000000 0.0000000000000000
0.0000000000000000 1.0000000000000000 0.0000000000000000
0.0000000000000000 1.0000000000000000 0.0000000000000000
0.0000000000000000 1.0000000000000000 0.0000000000000000
0.0000000000000000 1.0000000000000000 0.0000000000000000
0.0000000000000000 1.0000000000000000 0.0000000000000000
0.0000000000000000 1.0000000000000000 0.0000000000000000
0.0000000000000000 1.0000000000000000 0.0000000000000000
0.0000000000000000 1.0000000000000000 0.0000000000000000
0.0000000000000000 1.0000000000000000 0.0000000000000000
0.0000000000000000 1.0000000000000000 0.0000000000000000
0.0000000000000000 1.0000000000000000 0.0000000000000000
0.0000000000000000 1.0000000000000000 0.0000000000000000
0.0000000000000000 1.0000000000000000 0.0000000000000000
0.0000000000000000 1.0000000000000000 0.0000000000000000
0.0000000000000000 1.0000000000000000 0.0000000000000000
0.0000000000000000 1.0000000000000000 0.0000000000000000
0.0000000000000000 1.0000000000000000 0.0000000000000000
0.0000000000000000 1.0000000000000000 0.0000000000000000
0.0000000000000000 1.0000000000000000 0.0000000000000000
0.0000000000000000 1.0000000000000000 0.0000000000000000
0.0000000000000000 1.0000000000000000 0.0000000000000000
0.0000000000000000 1.0000000000000000 0.0000000000000000
0.0000000000000000 1.0000000000000000 0.0000000000000000
0.0000000000000000 1.0000000000000000 0.0000000000000000
0.0000000000000000 1.0000000000000000 0.0000000000000000
0.0000000000000000 1.0000000000000000 0.0000000000000000
0.0000000000000000 1.0000000000000000 0.0000000000000000
0.0000000000000000 1.0000000000000000 0.0000000000000000
0.0000000000000000 1.0000000000000000 0.0000000000000000
0.0000000000000000 1.0000000000000000 0.0000000000000000
0.0000000000000000 1.0000000000000000 0.0000000000000000
0.0000000000000000 1.0000000000000000 0.0000000000000000
0.0000000000000000 1.0000000000000000 0.0000000000000000
0.0000000000000000 1.0000000000000000 0.0000000000000000
0.0000000000000000 1.0000000000000000 0.0000000000000000
0.0000000000000000 1.0000000000000000 0.0000000000000000
0.0000000000000000 1.0000000000000000 0.0000000000000000
0.0000000000000000 1.0000000000000000 0.0000000000000000
0.0000000000000000 1.0000000000000000 0.0000000000000000
0.0000000000000000 1.0000000000000000 0.0000000000000000
0.0000000000000000 1.0000000000000000 0.0000000000000000
0.0000000000000000 1.0000000000000000 0.0000000000000000
0.0000000000000000 1.0000000000000000 0.0000000000000000
0.0000000000000000 1.0000000000000000 0.0000000000000000
0.0000000000000000 1.0000000000000000 0.0000000000000000
0.0000000000000000 1.0000000000000000 0.0000000000000000
0.0000000000000000 1.0000000000000000 0.0000000000000000
0.0000000000000000 1.0000000000000000 0.0000000000000000
0.0000000000000000 1.0000000000000000 0.0000000000000000
0.0000000000000000 1.0000000000000000 0.0000000000000000
0.0000000000000000 1.0000000000000000 0.0000000000000000
0.0000000000000000 1.0000000000000000 0.0000000000000000
0.0000000000000000 1.0000000000000000 0.0000000000000000
0.0000000000000000 1.0000000000000000 0.0000000000000000
0.0000000000000000 1.0000000000000000 0.0000000000000000
0.0000000000000000 1.0000000000000000 0.0000000000000000
0.0000000000000000 1.0000000000000000 0.0000000000000000
0.0000000000000000 1.0000000000000000 0.0000000000000000
0.0000000000000000 1.0000000000000000 0.0000000000000000
0.0000000000000000 1.0000000000000000 0.0000000000000000
0.0000000000000000 1.0000000000000000 0.0000000000000000
0.0000000000000000 1.0000000000000000 0.0000000000000000
0.0000000000000000 1.0000000000000000 0.0000000000000000
0.0000000000000000 1.0000000000000000 0.0000000000000000
0.0000000000000000 1.0000000000000000 0.0000000000000000
0.0000000000000000 1.0000000000000000 0.0000000000000000
0.0000000000000000 1.0000000000000000 0.0000000000000000
0.0000000000000000 1.0000000000000000 0.0000000000000000
0.0000000000000000 1.0000000000000000 0.0000000000000000
0.0000000000000000 1.0000000000000000 0.0000000000000000
0.0000000000000000 1.0000000000000000 0.0000000000000000
0.0000000000000000 1.0000000000000000 0.0000000000000000
0.0000000000000000 1.0000000000000000 0.0000000000000000
0.0000000000000000 1.0000000000000000 0.0000000000000000
0.0000000000000000 1.0000000000000000 0.0000000000000000
0.0000000000000000 1.0000000000000000 0.0000000000000000
0.0000000000000000 1.0000000000000000 0.0000000000000000
0.0000000000000000 1.0000000000000000 0.0000000000000000
0.0000000000000000 1.0000000000000000 0.0000000000000000
0.0000000000000000 1.0000000000000000 0.0000000000000000
0.0000000000000000 1.0000000000000000 0.0000000000000000
0.0000000000000000 1.0000000000000000 0.0000000000000000
0.0000000000000000 1.0000000000000000 0.0000000000000000
0.0000000000000000 1.0000000000000000 0.0000000000000000
0.0000000000000000 1.0000000000000000 0.0000000000000000
0.0000000000000000 1.0000000000000000 0.0000000000000000
0.0000000000000000 1.0000000000000000 0.0000000000000000
0.0000000000000000 1.0000000000000000 0.0000000000000000
0.0000000000000000 1.0000000000000000 0.0000000000000000
0.0000000000000000 1.0000000000000000 0.0000000000000000
0.0000000000000000 1.0000000000000000 0.0000000000000000
0.0000000000000000 1.0000000000000000 0.0000000000000000
0.0000000000000000 1.0000000000000000 0.0000000000000000
0.0000000000000000 1.0000000000000000 0.0000000000000000
0.0000000000000000 1.0000000000000000 0.0000000000000000
0.0000000000000000 1.0000000000000000 0.0000000000000000
0.0000000000000000 1.0000000000000000 0.0000000000000000
0.0000000000000000 1.0000000000000000 0.0000000000000000
0.0000000000000000 1.0000000000000000 0.0000000000000000
0.0000000000000000 1.0000000000000000 0.0000000000000000
0.0000000000000000 1.0000000000000000 0.0000000000000000
0.0000000000000000 1.0000000000000000 0.0000000000000000
0.0000000000000000 1.0000000000000000 0.0000000000000000
0.0000000000000000 1.0000000000000000 0.0000000000000000
0.0000000000000000 1.0000000000000000 0.0000000000000000
0.0000000000000000 1.0000000000000000 0.0000000000000000
0.0000000000000000 1.0000000000000000 0.0000000000000000
0.0000000000000000 1.0000000000000000 0.0000000000000000
0.0000000000000000 1.0000000000000000 0.0000000000000000
0.0000000000000000 1.0000000000000000 0.0000000000000000
0.0000000000000000 1.0000000000000000 0.0000000000000000
0.0000000000000000 1.0000000000000000 0.0000000000000000
0.0000000000000000 1.0000000000000000 0.0000000000000000
0.0000000000000000 1.0000000000000000 0.0000000000000000
0.0000000000000000 1.0000000000000000 0.0000000000000000
0.0000000000000000 1.0000000000000000 0.0000000000000000
0.0000000000000000 1.0000000000000000 0.0000000000000000
0.0000000000000000 1.0000000000000000 0.0000000000000000
0.0000000000000000 1.0000000000000000 0.0000000000000000
0.0000000000000000 1.0000000000000000 0.0000000000000000
0.0000000000000000 1.0000000000000000 0.0000000000000000
0.0000000000000000 1.0000000000000000 0.0000000000000000
0.0000000000000000 1.0000000000000000 0.0000000000000000
0.0000000000000000 1.0000000000000000 0.0000000000000000
0.0000000000000000 1.0000000000000000 0.0000000000000000
0.0000000000000000 1.0000000000000000 0.0000000000000000
0.0000000000000000 1.0000000000000000 0.0000000000000000
0.0000000000000000 1.0000000000000000 0.0000000000000000
0.0000000000000000 1.0000000000000000 0.0000000000000000
0.0000000000000000 1.0000000000000000 0.0000000000000000
0.0000000000000000 1.0000000000000000 0.0000000000000000
0.0000000000000000 1.0000000000000000 0.0000000000000000
0.0000000000000000 1.0000000000000000 0.0000000000000000
0.0000000000000000 1.0000000000000000 0.0000000000000000
0.0000000000000000 1.0000000000000000 0.0000000000000000
0.0000000000000000 1.0000000000000000 0.0000000000000000
0.0000000000000000 1.0000000000000000 0.0000000000000000
0.0000000000000000 1.0000000000000000 0.0000000000000000
0.0000000000000000 1.0000000000000000 0.0000000000000000
0.0000000000000000 1.0000000000000000 0.0000000000000000
0.0000000000000000 1.0000000000000000 0.0000000000000000
0.0000000000000000 1.0000000000000000 0.0000000000000000
0.0000000000000000 1.0000000000000000 0.0000000000000000
0.0000000000000000 1.0000000000000000 0.0000000000000000
0.0000000000000000 1.0000000000000000 0.0000000000000000
0.0000000000000000 1.0000000000000000 0.0000000000000000
0.0000000000000000 1.0000000000000000 0.0000000000000000
0.0000000000000000 1.0000000000000000 0.0000000000000000
0.0000000000000000 1.0000000000000000 0.0000000000000000
0.0000000000000000 1.0000000000000000 0.0000000000000000
0.0000000000000000 1.0000000000000000 0.0000000000000000
0.0000000000000000 1.0000000000000000 0.0000000000000000
0.0000000000000000 1.0000000000000000 0.0000000000000000
0.0000000000000000 1.0000000000000000 0.0000000000000000
0.0000000000000000 1.0000000000000000 0.0000000000000000
0.0000000000000000 1.0000000000000000 0.0000000000000000
0.0000000000000000 1.0000000000000000 0.0000000000000000
0.0000000000000000 1.0000000000000000 0.0000000000000000
0.0000000000000000 1.0000000000000000 0.0000000000000000
0.0000000000000000 1.0000000000000000 0.0000000000000000
0.0000000000000000 1.0000000000000000 0.0000000000000000
0.0000000000000000 1.0000000000000000 0.0000000000000000
0.0000000000000000 1.0000000000000000 0.0000000000000000
0.0000000000000000 1.0000000000000000 0.0000000000000000
0.0000000000000000 1.0000000000000000 0.0000000000000000
0.0000000000000000 1.0000000000000000 0.0000000000000000
0.0000000000000000 1.0000000000000000 0.0000000000000000
0.0000000000000000 1.0000000000000000 0.0000000000000000
0.0000000000000000 1.0000000000000000 0.0000000000000000
0.0000000000000000 1.0000000000000000 0.0000000000000000
0.0000000000000000 1.0000000000000000 0.0000000000000000
0.0000000000000000 1.0000000000000000 0.0000000000000000
0.0000000000000000 1.0000000000000000 0.0000000000000000
0.0000000000000000 1.0000000000000000 0.0000000000000000
0.0000000000000000 1.0000000000000000 0.0000000000000000
0.0000000000000000 1.0000000000000000 0.0000000000000000
0.0000000000000000 1.0000000000000000 0.0000000000000000
0.0000000000000000 1.0000000000000000 0.0000000000000000
0.0000000000000000 1.0000000000000000 0.0000000000000000
0.0000000000000000 1.0000000000000000 0.0000000000000000
0.0000000000000000 1.0000000000000000 0.0000000000000000
0.0000000000000000 1.0000000000000000 0.0000000000000000
0.0000000000000000 1.0000000000000000 0.0000000000000000
0.0000000000000000 1.0000000000000000 0.0000000000000000
0.0000000000000000 1.0000000000000000 0.0000000000000000
0.0000000000000000 1.0000000000000000 0.0000000000000000
0.0000000000000000 1.0000000000000000 0.0000000000000000
0.0000000000000000 1.0000000000000000 0.0000000000000000
0.0000000000000000 1.0000000000000000 0.0000000000000000
0.0000000000000000 1.0000000000000000 0.0000000000000000
0.0000000000000000 1.0000000000000000 0.0000000000000000
0.0000000000000000 1.0000000000000000 0.0000000000000000
0.0000000000000000 1.0000000000000000 0.0000000000000000
0.0000000000000000 1.0000000000000000 0.0000000000000000
0.0000000000000000 1.0000000000000000 0.0000000000000000
0.0000000000000000 1.0000000000000000 0.0000000000000000
0.0000000000000000 1.0000000000000000 0.0000000000000000
0.0000000000000000 1.0000000000000000 0.0000000000000000
0.0000000000000000 1.0000000000000000 0.0000000000000000
0.0000000000000000 1.0000000000000000 0.0000000000000000
0.0000000000000000 1.0000000000000000 0.0000000000000000
0.0000000000000000 1.0000000000000000 0.0000000000000000
0.0000000000000000 1.0000000000000000 0.0000000000000000
0.0000000000000000 1.0000000000000000 0.0000000000000000
0.0000000000000000 1.0000000000000000 0.0000000000000000
0.0000000000000000 1.0000000000000000 0.0000000000000000
0.0000000000000000 1.0000000000000000 0.0000000000000000
0.0000000000000000 1.0000000000000000 0.0000000000000000
0.0000000000000000 1.0000000000000000 0.0000000000000000
0.0000000000000000 1.0000000000000000 0.0000000000000000
0.0000000000000000 1.0000000000000000 0.0000000000000000
0.0000000000000000 1.0000000000000000 0.0000000000000000
0.0000000000000000 1.0000000000000000 0.0000000000000000
0.0000000000000000 1.0000000000000000 0.0000000000000000
0.0000000000000000 1.0000000000000000 0.0000000000000000
0.0000000000000000 1.0000000000000000 0.0000000000000000
0.0000000000000000 1.0000000000000000 0.0000000000000000
0.0000000000000000 1.0000000000000000 0.0000000000000000
0.0000000000000000 1.0000000000000000 0.0000000000000000
0.0000000000000000 1.0000000000000000 0.0000000000000000
0.0000000000000000 1.0000000000000000 0.0000000000000000
0.0000000000000000 1.0000000000000000 0.0000000000000000
0.0000000000000000 1.0000000000000000 0.0000000000000000
0.0000000000000000 1.0000000000000000 0.0000000000000000
0.0000000000000000 1.0000000000000000 0.0000000000000000
0.0000000000000000 1.0000000000000000 0.0000000000000000
0.0000000000000000 1.0000000000000000 0.0000000000000000
0.0000000000000000 1.0000000000000000 0.0000000000000000
0.0000000000000000 1.0000000000000000 0.0000000000000000
0.0000000000000000 1.0000000000000000 0.0000000000000000
0.0000000000000000 1.0000000000000000 0.0000000000000000
0.0000000000000000 1.0000000000000000 0.0000000000000000
0.0000000000000000 1.0000000000000000 0.0000000000000000
0.0000000000000000 1.0000000000000000 0.0000000000000000
0.0000000000000000 1.0000000000000000 0.0000000000000000
0.0000000000000000 1.0000000000000000 0.0000000000000000
0.0000000000000000 1.0000000000000000 0.0000000000000000
0.0000000000000000 1.0000000000000000 0.0000000000000000
0.0000000000000000 1.0000000000000000 0.0000000000000000
0.0000000000000000 1.0000000000000000 0.0000000000000000
0.0000000000000000 1.0000000000000000 0.0000000000000000
0.0000000000000000 1.0000000000000000 0.0000000000000000
0.0000000000000000 1.0000000000000000 0.0000000000000000
0.0000000000000000 1.0000000000000000 0.0000000000000000
0.0000000000000000 1.0000000000000000 0.0000000000000000
0.0000000000000000 1.0000000000000000 0.0000000000000000
0.0000000000000000 1.0000000000000000 0.0000000000000000
0.0000000000000000 1.0000000000000000 0.0000000000000000
0.0000000000000000 1.0000000000000000 0.0000000000000000
0.0000000000000000 1.0000000000000000 0.0000000000000000
0.0000000000000000 1.0000000000000000 0.0000000000000000
0.0000000000000000 1.0000000000000000 0.0000000000000000
0.0000000000000000 1.0000000000000000 0.0000000000000000
0.0000000000000000 1.0000000000000000 0.0000000000000000
0.0000000000000000 1.0000000000000000 0.0000000000000000
0.0000000000000000 1.0000000000000000 0.0000000000000000
0.0000000000000000 1.0000000000000000 0.0000000000000000
0.0000000000000000 1.0000000000000000 0.0000000000000000
0.0000000000000000 1.0000000000000000 0.0000000000000000
0.0000000000000000 1.0000000000000000 0.0000000000000000
0.0000000000000000 1.0000000000000000 0.0000000000000000
0.0000000000000000 1.0000000000000000 0.0000000000000000
0.0000000000000000 1.0000000000000000 0.0000000000000000
0.0000000000000000 1.0000000000000000 0.0000000000000000
0.0000000000000000 1.0000000000000000 0.0000000000000000
0.0000000000000000 1.0000000000000000 0.0000000000000000
0.0000000000000000 1.0000000000000000 0.0000000000000000
0.0000000000000000 1.0000000000000000 0.0000000000000000
0.0000000000000000 1.0000000000000000 0.0000000000000000
0.0000000000000000 1.0000000000000000 0.0000000000000000
0.0000000000000000 1.0000000000000000 0.0000000000000000
0.0000000000000000 1.0000000000000000 0.0000000000000000
0.0000000000000000 1.0000000000000000 0.0000000000000000
0.0000000000000000 1.0000000000000000 0.0000000000000000
0.0000000000000000 1.0000000000000000 0.0000000000000000
0.0000000000000000 1.0000000000000000 0.0000000000000000
0.0000000000000000 1.0000000000000000 0.0000000000000000
0.0000000000000000 1.0000000000000000 0.0000000000000000
0.0000000000000000 1.0000000000000000 0.0000000000000000
0.0000000000000000 1.0000000000000000 0.0000000000000000
0.0000000000000000 1.0000000000000000 0.0000000000000000
0.0000000000000000 1.0000000000000000 0.0000000000000000
0.0000000000000000 1.0000000000000000 0.0000000000000000
0.0000000000000000 1.0000000000000000 0.0000000000000000
0.0000000000000000 1.0000000000000000 0.0000000000000000
0.0000000000000000 1.0000000000000000 0.0000000000000000
0.0000000000000000 1.0000000000000000 0.0000000000000000
0.0000000000000000 1.0000000000000000 0.0000000000000000
0.0000000000000000 1.0000000000000000 0.0000000000000000
0.0000000000000000 1.0000000000000000 0.0000000000000000
0.0000000000000000 1.0000000000000000 0.0000000000000000
0.0000000000000000 1.0000000000000000 0.0000000000000000
0.0000000000000000 1.0000000000000000 0.0000000000000000
0.0000000000000000 1.0000000000000000 0.0000000000000000
0.0000000000000000 1.0000000000000000 0.0000000000000000
0.0000000000000000 1.0000000000000000 0.0000000000000000
0.0000000000000000 1.0000000000000000 0.0000000000000000
0.0000000000000000 1.0000000000000000 0.0000000000000000
0.0000000000000000 1.0000000000000000 0.0000000000000000
0.0000000000000000 1.0000000000000000 0.0000000000000000
0.0000000000000000 1.0000000000000000 0.0000000000000000
0.0000000000000000 1.0000000000000000 0.0000000000000000
0.0000000000000000 1.0000000000000000 0.0000000000000000
0.0000000000000000 1.0000000000000000 0.0000000000000000
0.0000000000000000 1.0000000000000000 0.0000000000000000
0.0000000000000000 1.0000000000000000 0.0000000000000000
0.0000000000000000 1.0000000000000000 0.0000000000000000
0.0000000000000000 1.0000000000000000 0.0000000000000000
0.0000000000000000 1.0000000000000000 0.0000000000000000
0.0000000000000000 1.0000000000000000 0.0000000000000000
0.0000000000000000 1.0000000000000000 0.0000000000000000
0.0000000000000000 1.0000000000000000 0.0000000000000000
0.0000000000000000 1.0000000000000000 0.0000000000000000
0.0000000000000000 1.0000000000000000 0.0000000000000000
0.0000000000000000 1.0000000000000000 0.0000000000000000
0.0000000000000000 1.0000000000000000 0.0000000000000000
0.0000000000000000 1.0000000000000000 0.0000000000000000
0.0000000000000000 1.0000000000000000 0.0000000000000000
0.0000000000000000 1.0000000000000000 0.0000000000000000
0.0000000000000000 1.0000000000000000 0.0000000000000000
0.0000000000000000 1.0000000000000000 0.0000000000000000
0.0000000000000000 1.0000000000000000 0.0000000000000000
0.0000000000000000 1.0000000000000000 0.0000000000000000
0.0000000000000000 1.0000000000000000 0.0000000000000000
0.0000000000000000 1.0000000000000000 0.0000000000000000
0.0000000000000000 1.0000000000000000 0.0000000000000000
0.0000000000000000 1.0000000000000000 0.0000000000000000
0.0000000000000000 1.0000000000000000 0.0000000000000000
0.0000000000000000 1.0000000000000000 0.0000000000000000
0.0000000000000000 1.0000000000000000 0.0000000000000000
0.0000000000000000 1.0000000000000000 0.0000000000000000
0.0000000000000000 1.0000000000000000 0.0000000000000000
0.0000000000000000 1.0000000000000000 0.0000000000000000
0.0000000000000000 1.0000000000000000 0.0000000000000000
0.0000000000000000 1.0000000000000000 0.0000000000000000
0.0000000000000000 1.0000000000000000 0.0000000000000000
0.0000000000000000 1.0000000000000000 0.0000000000000000
0.0000000000000000 1.0000000000000000 0.0000000000000000
0.0000000000000000 1.0000000000000000 0.0000000000000000
0.0000000000000000 1.0000000000000000 0.0000000000000000
0.0000000000000000 1.0000000000000000 0.0000000000000000
0.0000000000000000 1.0000000000000000 0.0000000000000000
0.0000000000000000 1.0000000000000000 0.0000000000000000
0.0000000000000000 1.0000000000000000 0.0000000000000000
0.0000000000000000 1.0000000000000000 0.0000000000000000
0.0000000000000000 1.0000000000000000 0.0000000000000000
0.0000000000000000 1.0000000000000000 0.0000000000000000
0.0000000000000000 1.0000000000000000 0.0000000000000000
0.0000000000000000 1.0000000000000000 0.0000000000000000
0.0000000000000000 1.0000000000000000 0.0000000000000000
0.0000000000000000 1.0000000000000000 0.0000000000000000
0.0000000000000000 1.0000000000000000 0.0000000000000000
0.0000000000000000 1.0000000000000000 0.0000000000000000
0.0000000000000000 1.0000000000000000 0.0000000000000000
0.0000000000000000 1.0000000000000000 0.0000000000000000
0.0000000000000000 1.0000000000000000 0.0000000000000000
0.0000000000000000 1.0000000000000000 0.0000000000000000
0.0000000000000000 1.0000000000000000 0.0000000000000000
0.0000000000000000 1.0000000000000000 0.0000000000000000
0.0000000000000000 1.0000000000000000 0.0000000000000000
0.0000000000000000 1.0000000000000000 0.0000000000000000
0.0000000000000000 1.0000000000000000 0.0000000000000000
0.0000000000000000 1.0000000000000000 0.0000000000000000
0.0000000000000000 1.0000000000000000 0.0000000000000000
0.0000000000000000 1.0000000000000000 0.0000000000000000
0.0000000000000000 1.0000000000000000 0.0000000000000000
0.0000000000000000 1.0000000000000000 0.0000000000000000
0.0000000000000000 1.0000000000000000 0.0000000000000000
0.0000000000000000 1.0000000000000000 0.0000000000000000
0.0000000000000000 1.0000000000000000 0.0000000000000000
0.0000000000000000 1.0000000000000000 0.0000000000000000
0.0000000000000000 1.0000000000000000 0.0000000000000000
0.0000000000000000 1.0000000000000000 0.0000000000000000
0.0000000000000000 1.0000000000000000 0.0000000000000000
0.0000000000000000 1.0000000000000000 0.0000000000000000
0.0000000000000000 1.0000000000000000 0.0000000000000000
0.0000000000000000 1.0000000000000000 0.0000000000000000
0.0000000000000000 1.0000000000000000 0.0000000000000000
0.0000000000000000 1.0000000000000000 0.0000000000000000
0.0000000000000000 1.0000000000000000 0.0000000000000000
0.0000000000000000 1.0000000000000000 0.0000000000000000
0.0000000000000000 1.0000000000000000 0.0000000000000000
0.0000000000000000 1.0000000000000000 0.0000000000000000
0.0000000000000000 1.0000000000000000 0.0000000000000000
0.0000000000000000 1.0000000000000000 0.0000000000000000
0.0000000000000000 1.0000000000000000 0.0000000000000000
0.0000000000000000 1.0000000000000000 0.0000000000000000
0.0000000000000000 1.0000000000000000 0.0000000000000000
0.0000000000000000 1.0000000000000000 0.0000000000000000
0.0000000000000000 1.0000000000000000 0.0000000000000000
0.0000000000000000 1.0000000000000000 0.0000000000000000
0.0000000000000000 1.0000000000000000 0.0000000000000000
0.0000000000000000 1.0000000000000000 0.0000000000000000
0.0000000000000000 1.0000000000000000 0.0000000000000000
0.0000000000000000 1.0000000000000000 0.0000000000000000
0.0000000000000000 1.0000000000000000 0.0000000000000000
0.0000000000000000 1.0000000000000000 0.0000000000000000
0.0000000000000000 1.0000000000000000 0.0000000000000000
0.0000000000000000 1.0000000000000000 0.0000000000000000
0.0000000000000000 1.0000000000000000 0.0000000000000000
0.0000000000000000 1.0000000000000000 0.0000000000000000
0.0000000000000000 1.0000000000000000 0.0000000000000000
0.0000000000000000 1.0000000000000000 0.0000000000000000
0.0000000000000000 1.0000000000000000 0.0000000000000000
0.0000000000000000 1.0000000000000000 0.0000000000000000
0.0000000000000000 1.0000000000000000 0.0000000000000000
0.0000000000000000 1.0000000000000000 0.0000000000000000
0.0000000000000000 1.0000000000000000 0.0000000000000000
0.0000000000000000 1.0000000000000000 0.0000000000000000
0.0000000000000000 1.0000000000000000 0.0000000000000000
0.0000000000000000 1.0000000000000000 0.0000000000000000
0.0000000000000000 1.0000000000000000 0.0000000000000000
0.0000000000000000 1.0000000000000000 0.0000000000000000
0.0000000000000000 1.0000000000000000 0.0000000000000000
0.0000000000000000 1.0000000000000000 0.0000000000000000
0.0000000000000000 1.0000000000000000 0.0000000000000000
0.0000000000000000 1.0000000000000000 0.0000000000000000
0.0000000000000000 1.0000000000000000 0.0000000000000000
0.0000000000000000 1.0000000000000000 0.0000000000000000
0.0000000000000000 1.0000000000000000 0.0000000000000000
0.0000000000000000 1.0000000000000000 0.0000000000000000
0.0000000000000000 1.0000000000000000 0.0000000000000000
0.0000000000000000 1.0000000000000000 0.0000000000000000
0.0000000000000000 1.0000000000000000 0.0000000000000000
0.0000000000000000 1.0000000000000000 0.0000000000000000
0.0000000000000000 1.0000000000000000 0.0000000000000000
0.0000000000000000 1.0000000000000000 0.0000000000000000
0.0000000000000000 1.0000000000000000 0.0000000000000000
0.0000000000000000 1.0000000000000000 0.0000000000000000
0.0000000000000000 1.0000000000000000 0.0000000000000000
0.0000000000000000 1.0000000000000000 0.0000000000000000
0.0000000000000000 1.0000000000000000 0.0000000000000000
0.0000000000000000 1.0000000000000000 0.0000000000000000
0.0000000000000000 1.0000000000000000 0.0000000000000000
0.0000000000000000 1.0000000000000000 0.0000000000000000
0.0000000000000000 1.0000000000000000 0.0000000000000000
0.0000000000000000 1.0000000000000000 0.0000000000000000
0.0000000000000000 1.0000000000000000 0.0000000000000000
0.0000000000000000 1.0000000000000000 0.0000000000000000
0.0000000000000000 1.0000000000000000 0.0000000000000000
0.0000000000000000 1.0000000000000000 0.0000000000000000
0.0000000000000000 1.0000000000000000 0.0000000000000000
0.0000000000000000 1.0000000000000000 0.0000000000000000
0.0000000000000000 1.0000000000000000 0.0000000000000000
0.0000000000000000 1.0000000000000000 0.0000000000000000
0.0000000000000000 1.0000000000000000 0.0000000000000000
0.0000000000000000 1.0000000000000000 0.0000000000000000
0.0000000000000000 1.0000000000000000 0.0000000000000000
0.0000000000000000 1.0000000000000000 0.0000000000000000
0.0000000000000000 1.0000000000000000 0.0000000000000000
0.0000000000000000 1.0000000000000000 0.0000000000000000
0.0000000000000000 1.0000000000000000 0.0000000000000000
0.0000000000000000 1.0000000000000000 0.0000000000000000
0.0000000000000000 1.0000000000000000 0.0000000000000000
0.0000000000000000 1.0000000000000000 0.0000000000000000
0.0000000000000000 1.0000000000000000 0.0000000000000000
0.0000000000000000 1.0000000000000000 0.0000000000000000
0.0000000000000000 1.0000000000000000 0.0000000000000000
0.0000000000000000 1.0000000000000000 0.0000000000000000
0.0000000000000000 1.0000000000000000 0.0000000000000000
0.0000000000000000 1.0000000000000000 0.0000000000000000
0.0000000000000000 1.0000000000000000 0.0000000000000000
0.0000000000000000 1.0000000000000000 0.0000000000000000
0.0000000000000000 1.0000000000000000 0.0000000000000000
0.0000000000000000 1.0000000000000000 0.0000000000000000
0.0000000000000000 1.0000000000000000 0.0000000000000000
0.0000000000000000 1.0000000000000000 0.0000000000000000
0.0000000000000000 1.0000000000000000 0.0000000000000000
0.0000000000000000 1.0000000000000000 0.0000000000000000
0.0000000000000000 1.0000000000000000 0.0000000000000000
0.0000000000000000 1.0000000000000000 0.0000000000000000
0.0000000000000000 1.0000000000000000 0.0000000000000000
0.0000000000000000 1.0000000000000000 0.0000000000000000
0.0000000000000000 1.0000000000000000 0.0000000000000000
0.0000000000000000 1.0000000000000000 0.0000000000000000
0.0000000000000000 1.0000000000000000 0.0000000000000000
0.0000000000000000 1.0000000000000000 0.0000000000000000
0.0000000000000000 1.0000000000000000 0.0000000000000000
0.0000000000000000 1.0000000000000000 0.0000000000000000
0.0000000000000000 1.0000000000000000 0.0000000000000000
0.0000000000000000 1.0000000000000000 0.0000000000000000
0.0000000000000000 1.0000000000000000 0.0000000000000000
0.0000000000000000 1.0000000000000000 0.0000000000000000
0.0000000000000000 1.0000000000000000 0.0000000000000000
0.0000000000000000 1.0000000000000000 0.0000000000000000
0.0000000000000000 1.0000000000000000 0.0000000000000000
0.0000000000000000 1.0000000000000000 0.0000000000000000
0.0000000000000000 1.0000000000000000 0.0000000000000000
0.0000000000000000 1.0000000000000000 0.0000000000000000
0.0000000000000000 1.0000000000000000 0.0000000000000000
0.0000000000000000 1.0000000000000000 0.0000000000000000
0.0000000000000000 1.0000000000000000 0.0000000000000000
0.0000000000000000 1.0000000000000000 0.0000000000000000
0.0000000000000000 1.0000000000000000 0.0000000000000000
0.0000000000000000 1.0000000000000000 0.0000000000000000
0.0000000000000000 1.0000000000000000 0.0000000000000000
0.0000000000000000 1.0000000000000000 0.0000000000000000
0.0000000000000000 1.0000000000000000 0.0000000000000000
0.0000000000000000 1.0000000000000000 0.0000000000000000
0.0000000000000000 1.0000000000000000 0.0000000000000000
0.0000000000000000 1.0000000000000000 0.0000000000000000
0.0000000000000000 1.0000000000000000 0.0000000000000000
0.0000000000000000 1.0000000000000000 0.0000000000000000
0.0000000000000000 1.0000000000000000 0.0000000000000000
0.0000000000000000 1.0000000000000000 0.0000000000000000
0.0000000000000000 1.0000000000000000 0.0000000000000000
0.0000000000000000 1.0000000000000000 0.0000000000000000
0.0000000000000000 1.0000000000000000 0.0000000000000000
0.0000000000000000 1.0000000000000000 0.0000000000000000
0.0000000000000000 1.0000000000000000 0.0000000000000000
0.0000000000000000 1.0000000000000000 0.0000000000000000
0.0000000000000000 1.0000000000000000 0.0000000000000000
0.0000000000000000 1.0000000000000000 0.0000000000000000
0.0000000000000000 1.0000000000000000 0.0000000000000000
0.0000000000000000 1.0000000000000000 0.0000000000000000
0.0000000000000000 1.0000000000000000 0.0000000000000000
0.0000000000000000 1.0000000000000000 0.0000000000000000
0.0000000000000000 1.0000000000000000 0.0000000000000000
0.0000000000000000 1.0000000000000000 0.0000000000000000
0.0000000000000000 1.0000000000000000 0.0000000000000000
0.0000000000000000 1.0000000000000000 0.0000000000000000
0.0000000000000000 1.0000000000000000 0.0000000000000000
0.0000000000000000 1.0000000000000000 0.0000000000000000
0.0000000000000000 1.0000000000000000 0.0000000000000000
0.0000000000000000 1.0000000000000000 0.0000000000000000
0.0000000000000000 1.0000000000000000 0.0000000000000000
0.0000000000000000 1.0000000000000000 0.0000000000000000
0.0000000000000000 1.0000000000000000 0.0000000000000000
0.0000000000000000 1.0000000000000000 0.0000000000000000
0.0000000000000000 1.0000000000000000 0.0000000000000000
0.0000000000000000 1.0000000000000000 0.0000000000000000
0.0000000000000000 1.0000000000000000 0.0000000000000000
0.0000000000000000 1.0000000000000000 0.0000000000000000
0.0000000000000000 1.0000000000000000 0.0000000000000000
0.0000000000000000 1.0000000000000000 0.0000000000000000
0.0000000000000000 1.0000000000000000 0.0000000000000000
0.0000000000000000 1.0000000000000000 0.0000000000000000
0.0000000000000000 1.0000000000000000 0.0000000000000000
0.0000000000000000 1.0000000000000000 0.0000000000000000
0.0000000000000000 1.0000000000000000 0.0000000000000000
0.0000000000000000 1.0000000000000000 0.0000000000000000
0.0000000000000000 1.0000000000000000 0.0000000000000000
0.0000000000000000 1.0000000000000000 0.0000000000000000
0.0000000000000000 1.0000000000000000 0.0000000000000000
0.0000000000000000 1.0000000000000000 0.0000000000000000
0.0000000000000000 1.0000000000000000 0.0000000000000000
0.0000000000000000 1.0000000000000000 0.0000000000000000
0.0000000000000000 1.0000000000000000 0.0000000000000000
0.0000000000000000 1.0000000000000000 0.0000000000000000
0.0000000000000000 1.0000000000000000 0.0000000000000000
0.0000000000000000 1.0000000000000000 0.0000000000000000
0.0000000000000000 1.0000000000000000 0.0000000000000000
0.0000000000000000 1.0000000000000000 0.0000000000000000
0.0000000000000000 1.0000000000000000 0.0000000000000000
0.0000000000000000 1.0000000000000000 0.0000000000000000
0.0000000000000000 1.0000000000000000 0.0000000000000000
0.0000000000000000 1.0000000000000000 0.0000000000000000
0.0000000000000000 1.0000000000000000 0.0000000000000000
0.0000000000000000 1.0000000000000000 0.0000000000000000
0.0000000000000000 1.0000000000000000 0.0000000000000000
0.0000000000000000 1.0000000000000000 0.0000000000000000
0.0000000000000000 1.0000000000000000 0.0000000000000000
0.0000000000000000 1.0000000000000000 0.0000000000000000
0.0000000000000000 1.0000000000000000 0.0000000000000000
0.0000000000000000 1.0000000000000000 0.0000000000000000
0.0000000000000000 1.0000000000000000 0.0000000000000000
0.0000000000000000 1.0000000000000000 0.0000000000000000
0.0000000000000000 1.0000000000000000 0.0000000000000000
0.0000000000000000 1.0000000000000000 0.0000000000000000
0.0000000000000000 1.0000000000000000 0.0000000000000000
0.0000000000000000 1.0000000000000000 0.0000000000000000
0.0000000000000000 1.0000000000000000 0.0000000000000000
0.0000000000000000 1.0000000000000000 0.0000000000000000
0.0000000000000000 1.0000000000000000 0.0000000000000000
0.0000000000000000 1.0000000000000000 0.0000000000000000
0.0000000000000000 1.0000000000000000 0.0000000000000000
0.0000000000000000 1.0000000000000000 0.0000000000000000
0.0000000000000000 1.0000000000000000 0.0000000000000000
0.0000000000000000 1.0000000000000000 0.0000000000000000
0.0000000000000000 1.0000000000000000 0.0000000000000000
0.0000000000000000 1.0000000000000000 0.0000000000000000
0.0000000000000000 1.0000000000000000 0.0000000000000000
0.0000000000000000 1.0000000000000000 0.0000000000000000
0.0000000000000000 1.0000000000000000 0.0000000000000000
0.0000000000000000 1.0000000000000000 0.0000000000000000
0.0000000000000000 1.0000000000000000 0.0000000000000000
0.0000000000000000 1.0000000000000000 0.0000000000000000
0.0000000000000000 1.0000000000000000 0.0000000000000000
0.0000000000000000 1.0000000000000000 0.0000000000000000
0.0000000000000000 1.0000000000000000 0.0000000000000000
0.0000000000000000 1.0000000000000000 0.0000000000000000
0.0000000000000000 1.0000000000000000 0.0000000000000000
0.0000000000000000 1.0000000000000000 0.0000000000000000
0.0000000000000000 1.0000000000000000 0.0000000000000000
0.0000000000000000 1.0000000000000000 0.0000000000000000
0.0000000000000000 1.0000000000000000 0.0000000000000000
0.0000000000000000 1.0000000000000000 0.0000000000000000
0.0000000000000000 1.0000000000000000 0.0000000000000000
0.0000000000000000 1.0000000000000000 0.0000000000000000
0.0000000000000000 1.0000000000000000 0.0000000000000000
0.0000000000000000 1.0000000000000000 0.0000000000000000
0.0000000000000000 1.0000000000000000 0.0000000000000000
0.0000000000000000 1.0000000000000000 0.0000000000000000
0.0000000000000000 1.0000000000000000 0.0000000000000000
0.0000000000000000 1.0000000000000000 0.0000000000000000
0.0000000000000000 1.0000000000000000 0.0000000000000000
0.0000000000000000 1.0000000000000000 0.0000000000000000
0.0000000000000000 1.0000000000000000 0.0000000000000000
0.0000000000000000 1.0000000000000000 0.0000000000000000
0.0000000000000000 1.0000000000000000 0.0000000000000000
0.0000000000000000 1.0000000000000000 0.0000000000000000
0.0000000000000000 1.0000000000000000 0.0000000000000000
0.0000000000000000 1.0000000000000000 0.0000000000000000
0.0000000000000000 1.0000000000000000 0.0000000000000000
0.0000000000000000 1.0000000000000000 0.0000000000000000
0.0000000000000000 1.0000000000000000 0.0000000000000000
0.0000000000000000 1.0000000000000000 0.0000000000000000
0.0000000000000000 1.0000000000000000 0.0000000000000000
0.0000000000000000 1.0000000000000000 0.0000000000000000
0.0000000000000000 1.0000000000000000 0.0000000000000000
0.0000000000000000 1.0000000000000000 0.0000000000000000
0.0000000000000000 1.0000000000000000 0.0000000000000000
0.0000000000000000 1.0000000000000000 0.0000000000000000
0.0000000000000000 1.0000000000000000 0.0000000000000000
0.0000000000000000 1.0000000000000000 0.0000000000000000
0.0000000000000000 1.0000000000000000 0.0000000000000000
0.0000000000000000 1.0000000000000000 0.0000000000000000
0.0000000000000000 1.0000000000000000 0.0000000000000000
0.0000000000000000 1.0000000000000000 0.0000000000000000
0.0000000000000000 1.0000000000000000 0.0000000000000000
0.0000000000000000 1.0000000000000000 0.0000000000000000
0.0000000000000000 1.0000000000000000 0.0000000000000000
0.0000000000000000 1.0000000000000000 0.0000000000000000
0.0000000000000000 1.0000000000000000 0.0000000000000000
0.0000000000000000 1.0000000000000000 0.0000000000000000
0.0000000000000000 1.0000000000000000 0.0000000000000000
0.0000000000000000 1.0000000000000000 0.0000000000000000
0.0000000000000000 1.0000000000000000 0.0000000000000000
0.0000000000000000 1.0000000000000000 0.0000000000000000
0.0000000000000000 1.0000000000000000 0.0000000000000000
0.0000000000000000 1.0000000000000000 0.0000000000000000
0.0000000000000000 1.0000000000000000 0.0000000000000000
0.0000000000000000 1.0000000000000000 0.0000000000000000
0.0000000000000000 1.0000000000000000 0.0000000000000000
0.0000000000000000 1.0000000000000000 0.0000000000000000
0.0000000000000000 1.0000000000000000 0.0000000000000000
0.0000000000000000 1.0000000000000000 0.0000000000000000
0.0000000000000000 1.0000000000000000 0.0000000000000000
0.0000000000000000 1.0000000000000000 0.0000000000000000
0.0000000000000000 1.0000000000000000 0.0000000000000000
0.0000000000000000 1.0000000000000000 0.0000000000000000
0.0000000000000000 1.0000000000000000 0.0000000000000000
0.0000000000000000 1.0000000000000000 0.0000000000000000
0.0000000000000000 1.0000000000000000 0.0000000000000000
0.0000000000000000 1.0000000000000000 0.0000000000000000
0.0000000000000000 1.0000000000000000 0.0000000000000000
0.0000000000000000 1.0000000000000000 0.0000000000000000
0.0000000000000000 1.0000000000000000 0.0000000000000000
0.0000000000000000 1.0000000000000000 0.0000000000000000
0.0000000000000000 1.0000000000000000 0.0000000000000000
0.0000000000000000 1.0000000000000000 0.0000000000000000
0.0000000000000000 1.0000000000000000 0.0000000000000000
0.0000000000000000 1.0000000000000000 0.0000000000000000
0.0000000000000000 1.0000000000000000 0.0000000000000000
0.0000000000000000 1.0000000000000000 0.0000000000000000
0.0000000000000000 1.0000000000000000 0.0000000000000000
0.0000000000000000 1.0000000000000000 0.0000000000000000
0.0000000000000000 1.0000000000000000 0.0000000000000000
0.0000000000000000 1.0000000000000000 0.0000000000000000
0.0000000000000000 1.0000000000000000 0.0000000000000000
0.0000000000000000 1.0000000000000000 0.0000000000000000
0.0000000000000000 1.0000000000000000 0.0000000000000000
0.0000000000000000 1.0000000000000000 0.0000000000000000
0.0000000000000000 1.0000000000000000 0.0000000000000000
0.0000000000000000 1.0000000000000000 0.0000000000000000
0.0000000000000000 1.0000000000000000 0.0000000000000000
0.0000000000000000 1.0000000000000000 0.0000000000000000
0.0000000000000000 1.0000000000000000 0.0000000000000000
0.0000000000000000 1.0000000000000000 0.0000000000000000
0.0000000000000000 1.0000000000000000 0.0000000000000000
0.0000000000000000 1.0000000000000000 0.0000000000000000
0.0000000000000000 1.0000000000000000 0.0000000000000000
0.0000000000000000 1.0000000000000000 0.0000000000000000
0.0000000000000000 1.0000000000000000 0.0000000000000000
0.0000000000000000 1.0000000000000000 0.0000000000000000
0.0000000000000000 1.0000000000000000 0.0000000000000000
0.0000000000000000 1.0000000000000000 0.0000000000000000
0.0000000000000000 1.0000000000000000 0.0000000000000000
0.0000000000000000 1.0000000000000000 0.0000000000000000
0.0000000000000000 1.0000000000000000 0.0000000000000000
0.0000000000000000 1.0000000000000000 0.0000000000000000
0.0000000000000000 1.0000000000000000 0.0000000000000000
0.0000000000000000 1.0000000000000000 0.0000000000000000
0.0000000000000000 1.0000000000000000 0.0000000000000000
0.0000000000000000 1.0000000000000000 0.0000000000000000
0.0000000000000000 1.0000000000000000 0.0000000000000000
0.0000000000000000 1.0000000000000000 0.0000000000000000
0.0000000000000000 1.0000000000000000 0.0000000000000000
0.0000000000000000 1.0000000000000000 0.0000000000000000
0.0000000000000000 1.0000000000000000 0.0000000000000000
0.0000000000000000 1.0000000000000000 0.0000000000000000
0.0000000000000000 1.0000000000000000 0.0000000000000000
0.0000000000000000 1.0000000000000000 0.0000000000000000
0.0000000000000000 1.0000000000000000 0.0000000000000000
0.0000000000000000 1.0000000000000000 0.0000000000000000
0.0000000000000000 1.0000000000000000 0.0000000000000000
0.0000000000000000 1.0000000000000000 0.0000000000000000
0.0000000000000000 1.0000000000000000 0.0000000000000000
0.0000000000000000 1.0000000000000000 0.0000000000000000
0.0000000000000000 1.0000000000000000 0.0000000000000000
0.0000000000000000 1.0000000000000000 0.0000000000000000
0.0000000000000000 1.0000000000000000 0.0000000000000000
0.0000000000000000 1.0000000000000000 0.0000000000000000
0.0000000000000000 1.0000000000000000 0.0000000000000000
0.0000000000000000 1.0000000000000000 0.0000000000000000
0.0000000000000000 1.0000000000000000 0.0000000000000000
0.0000000000000000 1.0000000000000000 0.0000000000000000
0.0000000000000000 1.0000000000000000 0.0000000000000000
0.0000000000000000 1.0000000000000000 0.0000000000000000
0.0000000000000000 1.0000000000000000 0.0000000000000000
0.0000000000000000 1.0000000000000000 0.0000000000000000
0.0000000000000000 1.0000000000000000 0.0000000000000000
0.0000000000000000 1.0000000000000000 0.0000000000000000
0.0000000000000000 1.0000000000000000 0.0000000000000000
0.0000000000000000 1.0000000000000000 0.0000000000000000
0.0000000000000000 1.0000000000000000 0.0000000000000000
0.0000000000000000 1.0000000000000000 0.0000000000000000
0.0000000000000000 1.0000000000000000 0.0000000000000000
0.0000000000000000 1.0000000000000000 0.0000000000000000
0.0000000000000000 1.0000000000000000 0.0000000000000000
0.0000000000000000 1.0000000000000000 0.0000000000000000
0.0000000000000000 1.0000000000000000 0.0000000000000000
0.0000000000000000 1.0000000000000000 0.0000000000000000
0.0000000000000000 1.0000000000000000 0.0000000000000000
0.0000000000000000 1.0000000000000000 0.0000000000000000
0.0000000000000000 1.0000000000000000 0.0000000000000000
0.0000000000000000 1.0000000000000000 0.0000000000000000
0.0000000000000000 1.0000000000000000 0.0000000000000000
0.0000000000000000 1.0000000000000000 0.0000000000000000
0.0000000000000000 1.0000000000000000 0.0000000000000000
0.0000000000000000 1.0000000000000000 0.0000000000000000
0.0000000000000000 1.0000000000000000 0.0000000000000000
0.0000000000000000 1.0000000000000000 0.0000000000000000
0.0000000000000000 1.0000000000000000 0.0000000000000000
0.0000000000000000 1.0000000000000000 0.0000000000000000
0.0000000000000000 1.0000000000000000 0.0000000000000000
0.0000000000000000 1.0000000000000000 0.0000000000000000
0.0000000000000000 1.0000000000000000 0.0000000000000000
0.0000000000000000 1.0000000000000000 0.0000000000000000
0.0000000000000000 1.0000000000000000 0.0000000000000000
0.0000000000000000 1.0000000000000000 0.0000000000000000
0.0000000000000000 1.0000000000000000 0.0000000000000000
0.0000000000000000 1.0000000000000000 0.0000000000000000
0.0000000000000000 1.0000000000000000 0.0000000000000000
0.0000000000000000 1.0000000000000000 0.0000000000000000
0.0000000000000000 1.0000000000000000 0.0000000000000000
0.0000000000000000 1.0000000000000000 0.0000000000000000
0.0000000000000000 1.0000000000000000 0.0000000000000000
0.0000000000000000 1.0000000000000000 0.0000000000000000
0.0000000000000000 1.0000000000000000 0.0000000000000000
0.0000000000000000 1.0000000000000000 0.0000000000000000
0.0000000000000000 1.0000000000000000 0.0000000000000000
0.0000000000000000 1.0000000000000000 0.0000000000000000
0.0000000000000000 1.0000000000000000 0.0000000000000000
0.0000000000000000 1.0000000000000000 0.0000000000000000
0.0000000000000000 1.0000000000000000 0.0000000000000000
0.0000000000000000 1.0000000000000000 0.0000000000000000
0.0000000000000000 1.0000000000000000 0.0000000000000000
0.0000000000000000 1.0000000000000000 0.0000000000000000
0.0000000000000000 1.0000000000000000 0.0000000000000000
0.0000000000000000 1.0000000000000000 0.0000000000000000
0.0000000000000000 1.0000000000000000 0.0000000000000000
0.0000000000000000 1.0000000000000000 0.0000000000000000
0.0000000000000000 1.0000000000000000 0.0000000000000000
0.0000000000000000 1.0000000000000000 0.0000000000000000
0.0000000000000000 1.0000000000000000 0.0000000000000000
0.0000000000000000 1.0000000000000000 0.0000000000000000
0.0000000000000000 1.0000000000000000 0.0000000000000000
0.0000000000000000 1.0000000000000000 0.0000000000000000
0.0000000000000000 1.0000000000000000 0.0000000000000000
0.0000000000000000 1.0000000000000000 0.0000000000000000
0.0000000000000000 1.0000000000000000 0.0000000000000000
0.0000000000000000 1.0000000000000000 0.0000000000000000
0.0000000000000000 1.0000000000000000 0.0000000000000000
0.0000000000000000 1.0000000000000000 0.0000000000000000
0.0000000000000000 1.0000000000000000 0.0000000000000000
0.0000000000000000 1.0000000000000000 0.0000000000000000
0.0000000000000000 1.0000000000000000 0.0000000000000000
0.0000000000000000 1.0000000000000000 0.0000000000000000
0.0000000000000000 1.0000000000000000 0.0000000000000000
0.0000000000000000 1.0000000000000000 0.0000000000000000
0.0000000000000000 1.0000000000000000 0.0000000000000000
0.0000000000000000 1.0000000000000000 0.0000000000000000
0.0000000000000000 1.0000000000000000 0.0000000000000000
0.0000000000000000 1.0000000000000000 0.0000000000000000
0.0000000000000000 1.0000000000000000 0.0000000000000000
0.0000000000000000 1.0000000000000000 0.0000000000000000
0.0000000000000000 1.0000000000000000 0.0000000000000000
0.0000000000000000 1.0000000000000000 0.0000000000000000
0.0000000000000000 1.0000000000000000 0.0000000000000000
0.0000000000000000 1.0000000000000000 0.0000000000000000
0.0000000000000000 1.0000000000000000 0.0000000000000000
0.0000000000000000 1.0000000000000000 0.0000000000000000
0.0000000000000000 1.0000000000000000 0.0000000000000000
0.0000000000000000 1.0000000000000000 0.0000000000000000
0.0000000000000000 1.0000000000000000 0.0000000000000000
0.0000000000000000 1.0000000000000000 0.0000000000000000
0.0000000000000000 1.0000000000000000 0.0000000000000000
0.0000000000000000 1.0000000000000000 0.0000000000000000
0.0000000000000000 1.0000000000000000 0.0000000000000000
0.0000000000000000 1.0000000000000000 0.0000000000000000
0.0000000000000000 1.0000000000000000 0.0000000000000000
0.0000000000000000 1.0000000000000000 0.0000000000000000
0.0000000000000000 1.0000000000000000 0.0000000000000000
0.0000000000000000 1.0000000000000000 0.0000000000000000
0.0000000000000000 1.0000000000000000 0.0000000000000000
0.0000000000000000 1.0000000000000000 0.0000000000000000
0.0000000000000000 1.0000000000000000 0.0000000000000000
0.0000000000000000 1.0000000000000000 0.0000000000000000
0.0000000000000000 1.0000000000000000 0.0000000000000000
0.0000000000000000 1.0000000000000000 0.0000000000000000
0.0000000000000000 1.0000000000000000 0.0000000000000000
0.0000000000000000 1.0000000000000000 0.0000000000000000
0.0000000000000000 1.0000000000000000 0.0000000000000000
0.0000000000000000 1.0000000000000000 0.0000000000000000
0.0000000000000000 1.0000000000000000 0.0000000000000000
0.0000000000000000 1.0000000000000000 0.0000000000000000
0.0000000000000000 1.0000000000000000 0.0000000000000000
0.0000000000000000 1.0000000000000000 0.0000000000000000
0.0000000000000000 1.0000000000000000 0.0000000000000000
0.0000000000000000 1.0000000000000000 0.0000000000000000
0.0000000000000000 1.0000000000000000 0.0000000000000000
0.0000000000000000 1.0000000000000000 0.0000000000000000
0.0000000000000000 1.0000000000000000 0.0000000000000000
0.0000000000000000 1.0000000000000000 0.0000000000000000
0.0000000000000000 1.0000000000000000 0.0000000000000000
0.0000000000000000 1.0000000000000000 0.0000000000000000
0.0000000000000000 1.0000000000000000 0.0000000000000000
0.0000000000000000 1.0000000000000000 0.0000000000000000
0.0000000000000000 1.0000000000000000 0.0000000000000000
0.0000000000000000 1.0000000000000000 0.0000000000000000
0.0000000000000000 1.0000000000000000 0.0000000000000000
0.0000000000000000 1.0000000000000000 0.0000000000000000
0.0000000000000000 1.0000000000000000 0.0000000000000000
0.0000000000000000 1.0000000000000000 0.0000000000000000
0.0000000000000000 1.0000000000000000 0.0000000000000000
0.0000000000000000 1.0000000000000000 0.0000000000000000
0.0000000000000000 1.0000000000000000 0.0000000000000000
0.0000000000000000 1.0000000000000000 0.0000000000000000
0.0000000000000000 1.0000000000000000 0.0000000000000000
0.0000000000000000 1.0000000000000000 0.0000000000000000
0.0000000000000000 1.0000000000000000 0.0000000000000000
0.0000000000000000 1.0000000000000000 0.0000000000000000
0.0000000000000000 1.0000000000000000 0.0000000000000000
0.0000000000000000 1.0000000000000000 0.0000000000000000
0.0000000000000000 1.0000000000000000 0.0000000000000000
0.0000000000000000 1.0000000000000000 0.0000000000000000
0.0000000000000000 1.0000000000000000 0.0000000000000000
0.0000000000000000 1.0000000000000000 0.0000000000000000
0.0000000000000000 1.0000000000000000 0.0000000000000000
0.0000000000000000 1.0000000000000000 0.0000000000000000
0.0000000000000000 1.0000000000000000 0.0000000000000000
0.0000000000000000 1.0000000000000000 0.0000000000000000
0.0000000000000000 1.0000000000000000 0.0000000000000000
0.0000000000000000 1.0000000000000000 0.0000000000000000
0.0000000000000000 1.0000000000000000 0.0000000000000000
0.0000000000000000 1.0000000000000000 0.0000000000000000
0.0000000000000000 1.0000000000000000 0.0000000000000000
0.0000000000000000 1.0000000000000000 0.0000000000000000
0.0000000000000000 1.0000000000000000 0.0000000000000000
0.0000000000000000 1.0000000000000000 0.0000000000000000
0.0000000000000000 1.0000000000000000 0.0000000000000000
0.0000000000000000 1.0000000000000000 0.0000000000000000
0.0000000000000000 1.0000000000000000 0.0000000000000000
0.0000000000000000 1.0000000000000000 0.0000000000000000
0.0000000000000000 1.0000000000000000 0.0000000000000000
0.0000000000000000 1.0000000000000000 0.0000000000000000
0.0000000000000000 1.0000000000000000 0.0000000000000000
0.0000000000000000 1.0000000000000000 0.0000000000000000
0.0000000000000000 1.0000000000000000 0.0000000000000000
0.0000000000000000 1.0000000000000000 0.0000000000000000
0.0000000000000000 1.0000000000000000 0.0000000000000000
0.0000000000000000 1.0000000000000000 0.0000000000000000
0.0000000000000000 1.0000000000000000 0.0000000000000000
0.0000000000000000 1.0000000000000000 0.0000000000000000
0.0000000000000000 1.0000000000000000 0.0000000000000000
0.0000000000000000 1.0000000000000000 0.0000000000000000
0.0000000000000000 1.0000000000000000 0.0000000000000000
0.0000000000000000 1.0000000000000000 0.0000000000000000
0.0000000000000000 1.0000000000000000 0.0000000000000000
0.0000000000000000 1.0000000000000000 0.0000000000000000
0.0000000000000000 1.0000000000000000 0.0000000000000000
0.0000000000000000 1.0000000000000000 0.0000000000000000
0.0000000000000000 1.0000000000000000 0.0000000000000000
0.0000000000000000 1.0000000000000000 0.0000000000000000
0.0000000000000000 1.0000000000000000 0.0000000000000000
0.0000000000000000 1.0000000000000000 0.0000000000000000
0.0000000000000000 1.0000000000000000 0.0000000000000000
0.0000000000000000 1.0000000000000000 0.0000000000000000
0.0000000000000000 1.0000000000000000 0.0000000000000000
0.0000000000000000 1.0000000000000000 0.0000000000000000
0.0000000000000000 1.0000000000000000 0.0000000000000000
0.0000000000000000 1.0000000000000000 0.0000000000000000
0.0000000000000000 1.0000000000000000 0.0000000000000000
0.0000000000000000 1.0000000000000000 0.0000000000000000
0.0000000000000000 1.0000000000000000 0.0000000000000000
0.0000000000000000 1.0000000000000000 0.0000000000000000
0.0000000000000000 1.0000000000000000 0.0000000000000000
0.0000000000000000 1.0000000000000000 0.0000000000000000
0.0000000000000000 1.0000000000000000 0.0000000000000000
0.0000000000000000 1.0000000000000000 0.0000000000000000
0.0000000000000000 1.0000000000000000 0.0000000000000000
0.0000000000000000 1.0000000000000000 0.0000000000000000
0.0000000000000000 1.0000000000000000 0.0000000000000000
0.0000000000000000 1.0000000000000000 0.0000000000000000
0.0000000000000000 1.0000000000000000 0.0000000000000000
0.0000000000000000 1.0000000000000000 0.0000000000000000
0.0000000000000000 1.0000000000000000 0.0000000000000000
0.0000000000000000 1.0000000000000000 0.0000000000000000
0.0000000000000000 1.0000000000000000 0.0000000000000000
0.0000000000000000 1.0000000000000000 0.0000000000000000
0.0000000000000000 1.0000000000000000 0.0000000000000000
0.0000000000000000 1.0000000000000000 0.0000000000000000
0.0000000000000000 1.0000000000000000 0.0000000000000000
0.0000000000000000 1.0000000000000000 0.0000000000000000
0.0000000000000000 1.0000000000000000 0.0000000000000000
0.0000000000000000 1.0000000000000000 0.0000000000000000
0.0000000000000000 1.0000000000000000 0.0000000000000000
0.0000000000000000 1.0000000000000000 0.0000000000000000
0.0000000000000000 1.0000000000000000 0.0000000000000000
0.0000000000000000 1.0000000000000000 0.0000000000000000
0.0000000000000000 1.0000000000000000 0.0000000000000000
0.0000000000000000 1.0000000000000000 0.0000000000000000
0.0000000000000000 1.0000000000000000 0.0000000000000000
0.0000000000000000 1.0000000000000000 0.0000000000000000
0.0000000000000000 1.0000000000000000 0.0000000000000000
0.0000000000000000 1.0000000000000000 0.0000000000000000
0.0000000000000000 1.0000000000000000 0.0000000000000000
0.0000000000000000 1.0000000000000000 0.0000000000000000
0.0000000000000000 1.0000000000000000 0.0000000000000000
0.0000000000000000 1.0000000000000000 0.0000000000000000
0.0000000000000000 1.0000000000000000 0.0000000000000000
0.0000000000000000 1.0000000000000000 0.0000000000000000
0.0000000000000000 1.0000000000000000 0.0000000000000000
0.0000000000000000 1.0000000000000000 0.0000000000000000
0.0000000000000000 1.0000000000000000 0.0000000000000000
0.0000000000000000 1.0000000000000000 0.0000000000000000
0.0000000000000000 1.0000000000000000 0.0000000000000000
0.0000000000000000 1.0000000000000000 0.0000000000000000
0.0000000000000000 1.0000000000000000 0.0000000000000000
0.0000000000000000 1.0000000000000000 0.0000000000000000
0.0000000000000000 1.0000000000000000 0.0000000000000000
0.0000000000000000 1.0000000000000000 0.0000000000000000
0.0000000000000000 1.0000000000000000 0.0000000000000000
0.0000000000000000 1.0000000000000000 0.0000000000000000
0.0000000000000000 1.0000000000000000 0.0000000000000000
0.0000000000000000 1.0000000000000000 0.0000000000000000
0.0000000000000000 1.0000000000000000 0.0000000000000000
0.0000000000000000 1.0000000000000000 0.0000000000000000
0.0000000000000000 1.0000000000000000 0.0000000000000000
0.0000000000000000 1.0000000000000000 0.0000000000000000
0.0000000000000000 1.0000000000000000 0.0000000000000000
0.0000000000000000 1.0000000000000000 0.0000000000000000
0.0000000000000000 1.0000000000000000 0.0000000000000000
0.0000000000000000 1.0000000000000000 0.0000000000000000
0.0000000000000000 1.0000000000000000 0.0000000000000000
0.0000000000000000 1.0000000000000000 0.0000000000000000
0.0000000000000000 1.0000000000000000 0.0000000000000000
0.0000000000000000 1.0000000000000000 0.0000000000000000
0.0000000000000000 1.0000000000000000 0.0000000000000000
0.0000000000000000 1.0000000000000000 0.0000000000000000
0.0000000000000000 1.0000000000000000 0.0000000000000000
0.0000000000000000 1.0000000000000000 0.0000000000000000
0.0000000000000000 1.0000000000000000 0.0000000000000000
0.0000000000000000 1.0000000000000000 0.0000000000000000
0.0000000000000000 1.0000000000000000 0.0000000000000000
0.0000000000000000 1.0000000000000000 0.0000000000000000
0.0000000000000000 1.0000000000000000 0.0000000000000000
0.0000000000000000 1.0000000000000000 0.0000000000000000
0.0000000000000000 1.0000000000000000 0.0000000000000000
0.0000000000000000 1.0000000000000000 0.0000000000000000
0.0000000000000000 1.0000000000000000 0.0000000000000000
0.0000000000000000 1.0000000000000000 0.0000000000000000
0.0000000000000000 1.0000000000000000 0.0000000000000000
0.0000000000000000 1.0000000000000000 0.0000000000000000
0.0000000000000000 1.0000000000000000 0.0000000000000000
0.0000000000000000 1.0000000000000000 0.0000000000000000
0.0000000000000000 1.0000000000000000 0.0000000000000000
0.0000000000000000 1.0000000000000000 0.0000000000000000
0.0000000000000000 1.0000000000000000 0.0000000000000000
0.0000000000000000 1.0000000000000000 0.0000000000000000
0.0000000000000000 1.0000000000000000 0.0000000000000000
0.0000000000000000 1.0000000000000000 0.0000000000000000
0.0000000000000000 1.0000000000000000 0.0000000000000000
0.0000000000000000 1.0000000000000000 0.0000000000000000
0.0000000000000000 1.0000000000000000 0.0000000000000000
0.0000000000000000 1.0000000000000000 0.0000000000000000
0.0000000000000000 1.0000000000000000 0.0000000000000000
0.0000000000000000 1.0000000000000000 0.0000000000000000
0.0000000000000000 1.0000000000000000 0.0000000000000000
0.0000000000000000 1.0000000000000000 0.0000000000000000
0.0000000000000000 1.0000000000000000 0.0000000000000000
0.0000000000000000 1.0000000000000000 0.0000000000000000
0.0000000000000000 1.0000000000000000 0.0000000000000000
0.0000000000000000 1.0000000000000000 0.0000000000000000
0.0000000000000000 1.0000000000000000 0.0000000000000000
0.0000000000000000 1.0000000000000000 0.0000000000000000
0.0000000000000000 1.0000000000000000 0.0000000000000000
0.0000000000000000 1.0000000000000000 0.0000000000000000
0.0000000000000000 1.0000000000000000 0.0000000000000000
0.0000000000000000 1.0000000000000000 0.0000000000000000
0.0000000000000000 1.0000000000000000 0.0000000000000000
0.0000000000000000 1.0000000000000000 0.0000000000000000
0.0000000000000000 1.0000000000000000 0.0000000000000000
0.0000000000000000 1.0000000000000000 0.0000000000000000
0.0000000000000000 1.0000000000000000 0.0000000000000000
0.0000000000000000 1.0000000000000000 0.0000000000000000
0.0000000000000000 1.0000000000000000 0.0000000000000000
0.0000000000000000 1.0000000000000000 0.0000000000000000
0.0000000000000000 1.0000000000000000 0.0000000000000000
0.0000000000000000 1.0000000000000000 0.0000000000000000
0.0000000000000000 1.0000000000000000 0.0000000000000000
0.0000000000000000 1.0000000000000000 0.0000000000000000
0.0000000000000000 1.0000000000000000 0.0000000000000000
0.0000000000000000 1.0000000000000000 0.0000000000000000
0.0000000000000000 1.0000000000000000 0.0000000000000000
0.0000000000000000 1.0000000000000000 0.0000000000000000
0.0000000000000000 1.0000000000000000 0.0000000000000000
0.0000000000000000 1.0000000000000000 0.0000000000000000
0.0000000000000000 1.0000000000000000 0.0000000000000000
0.0000000000000000 1.0000000000000000 0.0000000000000000
0.0000000000000000 1.0000000000000000 0.0000000000000000
0.0000000000000000 1.0000000000000000 0.0000000000000000
0.0000000000000000 1.0000000000000000 0.0000000000000000
0.0000000000000000 1.0000000000000000 0.0000000000000000
0.0000000000000000 1.0000000000000000 0.0000000000000000
0.0000000000000000 1.0000000000000000 0.0000000000000000
0.0000000000000000 1.0000000000000000 0.0000000000000000
0.0000000000000000 1.0000000000000000 0.0000000000000000
0.0000000000000000 1.0000000000000000 0.0000000000000000
0.0000000000000000 1.0000000000000000 0.0000000000000000
0.0000000000000000 1.0000000000000000 0.0000000000000000
0.0000000000000000 1.0000000000000000 0.0000000000000000
0.0000000000000000 1.0000000000000000 0.0000000000000000
0.0000000000000000 1.0000000000000000 0.0000000000000000
0.0000000000000000 1.0000000000000000 0.0000000000000000
0.0000000000000000 1.0000000000000000 0.0000000000000000
0.0000000000000000 1.0000000000000000 0.0000000000000000
0.0000000000000000 1.0000000000000000 0.0000000000000000
0.0000000000000000 1.0000000000000000 0.0000000000000000
0.0000000000000000 1.0000000000000000 0.0000000000000000
0.0000000000000000 1.0000000000000000 0.0000000000000000
0.0000000000000000 1.0000000000000000 0.0000000000000000
0.0000000000000000 1.0000000000000000 0.0000000000000000
0.0000000000000000 1.0000000000000000 0.0000000000000000
0.0000000000000000 1.0000000000000000 0.0000000000000000
0.0000000000000000 1.0000000000000000 0.0000000000000000
0.0000000000000000 1.0000000000000000 0.0000000000000000
0.0000000000000000 1.0000000000000000 0.0000000000000000
0.0000000000000000 1.0000000000000000 0.0000000000000000
0.0000000000000000 1.0000000000000000 0.0000000000000000
0.0000000000000000 1.0000000000000000 0.0000000000000000
0.0000000000000000 1.0000000000000000 0.0000000000000000
0.0000000000000000 1.0000000000000000 0.0000000000000000
0.0000000000000000 1.0000000000000000 0.0000000000000000
0.0000000000000000 1.0000000000000000 0.0000000000000000
0.0000000000000000 1.0000000000000000 0.0000000000000000
0.0000000000000000 1.0000000000000000 0.0000000000000000
0.0000000000000000 1.0000000000000000 0.0000000000000000
0.0000000000000000 1.0000000000000000 0.0000000000000000
0.0000000000000000 1.0000000000000000 0.0000000000000000
0.0000000000000000 1.0000000000000000 0.0000000000000000
0.0000000000000000 1.0000000000000000 0.0000000000000000
0.0000000000000000 1.0000000000000000 0.0000000000000000
0.0000000000000000 1.0000000000000000 0.0000000000000000
0.0000000000000000 1.0000000000000000 0.0000000000000000
0.0000000000000000 1.0000000000000000 0.0000000000000000
0.0000000000000000 1.0000000000000000 0.0000000000000000
0.0000000000000000 1.0000000000000000 0.0000000000000000
0.0000000000000000 1.0000000000000000 0.0000000000000000
0.0000000000000000 1.0000000000000000 0.0000000000000000
0.0000000000000000 1.0000000000000000 0.0000000000000000
0.0000000000000000 1.0000000000000000 0.0000000000000000
0.0000000000000000 1.0000000000000000 0.0000000000000000
0.0000000000000000 1.0000000000000000 0.0000000000000000
0.0000000000000000 1.0000000000000000 0.0000000000000000
0.0000000000000000 1.0000000000000000 0.0000000000000000
0.0000000000000000 1.0000000000000000 0.0000000000000000
0.0000000000000000 1.0000000000000000 0.0000000000000000
0.0000000000000000 1.0000000000000000 0.0000000000000000
0.0000000000000000 1.0000000000000000 0.0000000000000000
0.0000000000000000 1.0000000000000000 0.0000000000000000
0.0000000000000000 1.0000000000000000 0.0000000000000000
0.0000000000000000 1.0000000000000000 0.0000000000000000
0.0000000000000000 1.0000000000000000 0.0000000000000000
0.0000000000000000 1.0000000000000000 0.0000000000000000
0.0000000000000000 1.0000000000000000 0.0000000000000000
0.0000000000000000 1.0000000000000000 0.0000000000000000
0.0000000000000000 1.0000000000000000 0.0000000000000000
0.0000000000000000 1.0000000000000000 0.0000000000000000
0.0000000000000000 1.0000000000000000 0.0000000000000000
0.0000000000000000 1.0000000000000000 0.0000000000000000
0.0000000000000000 1.0000000000000000 0.0000000000000000
0.0000000000000000 1.0000000000000000 0.0000000000000000
0.0000000000000000 1.0000000000000000 0.0000000000000000
0.0000000000000000 1.0000000000000000 0.0000000000000000
0.0000000000000000 1.0000000000000000 0.0000000000000000
0.0000000000000000 1.0000000000000000 0.0000000000000000
0.0000000000000000 1.0000000000000000 0.0000000000000000
0.0000000000000000 1.0000000000000000 0.0000000000000000
0.0000000000000000 1.0000000000000000 0.0000000000000000
0.0000000000000000 1.0000000000000000 0.0000000000000000
0.0000000000000000 1.0000000000000000 0.0000000000000000
0.0000000000000000 1.0000000000000000 0.0000000000000000
0.0000000000000000 1.0000000000000000 0.0000000000000000
0.0000000000000000 1.0000000000000000 0.0000000000000000
0.0000000000000000 1.0000000000000000 0.0000000000000000
0.0000000000000000 1.0000000000000000 0.0000000000000000
0.0000000000000000 1.0000000000000000 0.0000000000000000
0.0000000000000000 1.0000000000000000 0.0000000000000000
0.0000000000000000 1.0000000000000000 0.0000000000000000
0.0000000000000000 1.0000000000000000 0.0000000000000000
0.0000000000000000 1.0000000000000000 0.0000000000000000
0.0000000000000000 1.0000000000000000 0.0000000000000000
0.0000000000000000 1.0000000000000000 0.0000000000000000
0.0000000000000000 1.0000000000000000 0.0000000000000000
0.0000000000000000 1.0000000000000000 0.0000000000000000
0.0000000000000000 1.0000000000000000 0.0000000000000000
0.0000000000000000 1.0000000000000000 0.0000000000000000
0.0000000000000000 1.0000000000000000 0.0000000000000000
0.0000000000000000 1.0000000000000000 0.0000000000000000
0.0000000000000000 1.0000000000000000 0.0000000000000000
0.0000000000000000 1.0000000000000000 0.0000000000000000
0.0000000000000000 1.0000000000000000 0.0000000000000000
0.0000000000000000 1.0000000000000000 0.0000000000000000
0.0000000000000000 1.0000000000000000 0.0000000000000000
0.0000000000000000 1.0000000000000000 0.0000000000000000
0.0000000000000000 1.0000000000000000 0.0000000000000000
0.0000000000000000 1.0000000000000000 0.0000000000000000
0.0000000000000000 1.0000000000000000 0.0000000000000000
0.0000000000000000 1.0000000000000000 0.0000000000000000
0.0000000000000000 1.0000000000000000 0.0000000000000000
0.0000000000000000 1.0000000000000000 0.0000000000000000
0.0000000000000000 1.0000000000000000 0.0000000000000000
0.0000000000000000 1.0000000000000000 0.0000000000000000
0.0000000000000000 1.0000000000000000 0.0000000000000000
0.0000000000000000 1.0000000000000000 0.0000000000000000
0.0000000000000000 1.0000000000000000 0.0000000000000000
0.0000000000000000 1.0000000000000000 0.0000000000000000
0.0000000000000000 1.0000000000000000 0.0000000000000000
0.0000000000000000 1.0000000000000000 0.0000000000000000
0.0000000000000000 1.0000000000000000 0.0000000000000000
0.0000000000000000 1.0000000000000000 0.0000000000000000
0.0000000000000000 1.0000000000000000 0.0000000000000000
0.0000000000000000 1.0000000000000000 0.0000000000000000
0.0000000000000000 1.0000000000000000 0.0000000000000000
0.0000000000000000 1.0000000000000000 0.0000000000000000
0.0000000000000000 1.0000000000000000 0.0000000000000000
0.0000000000000000 1.0000000000000000 0.0000000000000000
0.0000000000000000 1.0000000000000000 0.0000000000000000
0.0000000000000000 1.0000000000000000 0.0000000000000000
0.0000000000000000 1.0000000000000000 0.0000000000000000
0.0000000000000000 1.0000000000000000 0.0000000000000000
0.0000000000000000 1.0000000000000000 0.0000000000000000
0.0000000000000000 1.0000000000000000 0.0000000000000000
0.0000000000000000 1.0000000000000000 0.0000000000000000
0.0000000000000000 1.0000000000000000 0.0000000000000000
0.0000000000000000 1.0000000000000000 0.0000000000000000
0.0000000000000000 1.0000000000000000 0.0000000000000000
0.0000000000000000 1.0000000000000000 0.0000000000000000
0.0000000000000000 1.0000000000000000 0.0000000000000000
0.0000000000000000 1.0000000000000000 0.0000000000000000
0.0000000000000000 1.0000000000000000 0.0000000000000000
0.0000000000000000 1.0000000000000000 0.0000000000000000
0.0000000000000000 1.0000000000000000 0.0000000000000000
0.0000000000000000 1.0000000000000000 0.0000000000000000
0.0000000000000000 1.0000000000000000 0.0000000000000000
0.0000000000000000 1.0000000000000000 0.0000000000000000
0.0000000000000000 1.0000000000000000 0.0000000000000000
0.0000000000000000 1.0000000000000000 0.0000000000000000
0.0000000000000000 1.0000000000000000 0.0000000000000000
0.0000000000000000 1.0000000000000000 0.0000000000000000
0.0000000000000000 1.0000000000000000 0.0000000000000000
0.0000000000000000 1.0000000000000000 0.0000000000000000
0.0000000000000000 1.0000000000000000 0.0000000000000000
0.0000000000000000 1.0000000000000000 0.0000000000000000
0.0000000000000000 1.0000000000000000 0.0000000000000000
0.0000000000000000 1.0000000000000000 0.0000000000000000
0.0000000000000000 1.0000000000000000 0.0000000000000000
0.0000000000000000 1.0000000000000000 0.0000000000000000
0.0000000000000000 1.0000000000000000 0.0000000000000000
0.0000000000000000 1.0000000000000000 0.0000000000000000
0.0000000000000000 1.0000000000000000 0.0000000000000000
0.0000000000000000 1.0000000000000000 0.0000000000000000
0.0000000000000000 1.0000000000000000 0.0000000000000000
0.0000000000000000 1.0000000000000000 0.0000000000000000
0.0000000000000000 1.0000000000000000 0.0000000000000000
0.0000000000000000 1.0000000000000000 0.0000000000000000
0.0000000000000000 1.0000000000000000 0.0000000000000000
0.0000000000000000 1.0000000000000000 0.0000000000000000
0.0000000000000000 1.0000000000000000 0.0000000000000000
0.0000000000000000 1.0000000000000000 0.0000000000000000
0.0000000000000000 1.0000000000000000 0.0000000000000000
0.0000000000000000 1.0000000000000000 0.0000000000000000
0.0000000000000000 1.0000000000000000 0.0000000000000000
0.0000000000000000 1.0000000000000000 0.0000000000000000
0.0000000000000000 1.0000000000000000 0.0000000000000000
0.0000000000000000 1.0000000000000000 0.0000000000000000
0.0000000000000000 1.0000000000000000 0.0000000000000000
0.0000000000000000 1.0000000000000000 0.0000000000000000
0.0000000000000000 1.0000000000000000 0.0000000000000000
0.0000000000000000 1.0000000000000000 0.0000000000000000
0.0000000000000000 1.0000000000000000 0.0000000000000000
0.0000000000000000 1.0000000000000000 0.0000000000000000
0.0000000000000000 1.0000000000000000 0.0000000000000000
0.0000000000000000 1.0000000000000000 0.0000000000000000
0.0000000000000000 1.0000000000000000 0.0000000000000000
0.0000000000000000 1.0000000000000000 0.0000000000000000
0.0000000000000000 1.0000000000000000 0.0000000000000000
0.0000000000000000 1.0000000000000000 0.0000000000000000
0.0000000000000000 1.0000000000000000 0.0000000000000000
0.0000000000000000 1.0000000000000000 0.0000000000000000
0.0000000000000000 1.0000000000000000 0.0000000000000000
0.0000000000000000 1.0000000000000000 0.0000000000000000
0.0000000000000000 1.0000000000000000 0.0000000000000000
0.0000000000000000 1.0000000000000000 0.0000000000000000
0.0000000000000000 1.0000000000000000 0.0000000000000000
0.0000000000000000 1.0000000000000000 0.0000000000000000
0.0000000000000000 1.0000000000000000 0.0000000000000000
0.0000000000000000 1.0000000000000000 0.0000000000000000
0.0000000000000000 1.0000000000000000 0.0000000000000000
0.0000000000000000 1.0000000000000000 0.0000000000000000
0.0000000000000000 1.0000000000000000 0.0000000000000000
0.0000000000000000 1.0000000000000000 0.0000000000000000
0.0000000000000000 1.0000000000000000 0.0000000000000000
0.0000000000000000 1.0000000000000000 0.0000000000000000
0.0000000000000000 1.0000000000000000 0.0000000000000000
0.0000000000000000 1.0000000000000000 0.0000000000000000
0.0000000000000000 1.0000000000000000 0.0000000000000000
0.0000000000000000 1.0000000000000000 0.0000000000000000
0.0000000000000000 1.0000000000000000 0.0000000000000000
0.0000000000000000 1.0000000000000000 0.0000000000000000
0.0000000000000000 1.0000000000000000 0.0000000000000000
0.0000000000000000 1.0000000000000000 0.0000000000000000
0.0000000000000000 1.0000000000000000 0.0000000000000000
0.0000000000000000 1.0000000000000000 0.0000000000000000
0.0000000000000000 1.0000000000000000 0.0000000000000000
0.0000000000000000 1.0000000000000000 0.0000000000000000
0.0000000000000000 1.0000000000000000 0.0000000000000000
0.0000000000000000 1.0000000000000000 0.0000000000000000
0.0000000000000000 1.0000000000000000 0.0000000000000000
0.0000000000000000 1.0000000000000000 0.0000000000000000
0.0000000000000000 1.0000000000000000 0.0000000000000000
0.0000000000000000 1.0000000000000000 0.0000000000000000
0.0000000000000000 1.0000000000000000 0.0000000000000000
0.0000000000000000 1.0000000000000000 0.0000000000000000
0.0000000000000000 1.0000000000000000 0.0000000000000000
0.0000000000000000 1.0000000000000000 0.0000000000000000
0.0000000000000000 1.0000000000000000 0.0000000000000000
0.0000000000000000 1.0000000000000000 0.0000000000000000
0.0000000000000000 1.0000000000000000 0.0000000000000000
0.0000000000000000 1.0000000000000000 0.0000000000000000
0.0000000000000000 1.0000000000000000 0.0000000000000000
0.0000000000000000 1.0000000000000000 0.0000000000000000
0.0000000000000000 1.0000000000000000 0.0000000000000000
0.0000000000000000 1.0000000000000000 0.0000000000000000
0.0000000000000000 1.0000000000000000 0.0000000000000000
0.0000000000000000 1.0000000000000000 0.0000000000000000
0.0000000000000000 1.0000000000000000 0.0000000000000000
0.0000000000000000 1.0000000000000000 0.0000000000000000
0.0000000000000000 1.0000000000000000 0.0000000000000000
0.0000000000000000 1.0000000000000000 0.0000000000000000
0.0000000000000000 1.0000000000000000 0.0000000000000000
0.0000000000000000 1.0000000000000000 0.0000000000000000
0.0000000000000000 1.0000000000000000 0.0000000000000000
0.0000000000000000 1.0000000000000000 0.0000000000000000
0.0000000000000000 1.0000000000000000 0.0000000000000000
0.0000000000000000 1.0000000000000000 0.0000000000000000
0.0000000000000000 1.0000000000000000 0.0000000000000000
0.0000000000000000 1.0000000000000000 0.0000000000000000
0.0000000000000000 1.0000000000000000 0.0000000000000000
0.0000000000000000 1.0000000000000000 0.0000000000000000
0.0000000000000000 1.0000000000000000 0.0000000000000000
0.0000000000000000 1.0000000000000000 0.0000000000000000
0.0000000000000000 1.0000000000000000 0.0000000000000000
0.0000000000000000 1.0000000000000000 0.0000000000000000
0.0000000000000000 1.0000000000000000 0.0000000000000000
0.0000000000000000 1.0000000000000000 0.0000000000000000
0.0000000000000000 1.0000000000000000 0.0000000000000000
0.0000000000000000 1.0000000000000000 0.0000000000000000
0.0000000000000000 1.0000000000000000 0.0000000000000000
0.0000000000000000 1.0000000000000000 0.0000000000000000
0.0000000000000000 1.0000000000000000 0.0000000000000000
0.0000000000000000 1.0000000000000000 0.0000000000000000
0.0000000000000000 1.0000000000000000 0.0000000000000000
0.0000000000000000 1.0000000000000000 0.0000000000000000
0.0000000000000000 1.0000000000000000 0.0000000000000000
0.0000000000000000 1.0000000000000000 0.0000000000000000
0.0000000000000000 1.0000000000000000 0.0000000000000000
0.0000000000000000 1.0000000000000000 0.0000000000000000
0.0000000000000000 1.0000000000000000 0.0000000000000000
0.0000000000000000 1.0000000000000000 0.0000000000000000
0.0000000000000000 1.0000000000000000 0.0000000000000000
0.0000000000000000 1.0000000000000000 0.0000000000000000
0.0000000000000000 1.0000000000000000 0.0000000000000000
0.0000000000000000 1.0000000000000000 0.0000000000000000
0.0000000000000000 1.0000000000000000 0.0000000000000000
0.0000000000000000 1.0000000000000000 0.0000000000000000
0.0000000000000000 1.0000000000000000 0.0000000000000000
0.0000000000000000 1.0000000000000000 0.0000000000000000
0.0000000000000000 1.0000000000000000 0.0000000000000000
0.0000000000000000 1.0000000000000000 0.0000000000000000
0.0000000000000000 1.0000000000000000 0.0000000000000000
0.0000000000000000 1.0000000000000000 0.0000000000000000
0.0000000000000000 1.0000000000000000 0.0000000000000000
0.0000000000000000 1.0000000000000000 0.0000000000000000
0.0000000000000000 1.0000000000000000 0.0000000000000000
0.0000000000000000 1.0000000000000000 0.0000000000000000
0.0000000000000000 1.0000000000000000 0.0000000000000000
0.0000000000000000 1.0000000000000000 0.0000000000000000
0.0000000000000000 1.0000000000000000 0.0000000000000000
0.0000000000000000 1.0000000000000000 0.0000000000000000
0.0000000000000000 1.0000000000000000 0.0000000000000000
0.0000000000000000 1.0000000000000000 0.0000000000000000
0.0000000000000000 1.0000000000000000 0.0000000000000000
0.0000000000000000 1.0000000000000000 0.0000000000000000
0.0000000000000000 1.0000000000000000 0.0000000000000000
0.0000000000000000 1.0000000000000000 0.0000000000000000
0.0000000000000000 1.0000000000000000 0.0000000000000000
0.0000000000000000 1.0000000000000000 0.0000000000000000
0.0000000000000000 1.0000000000000000 0.0000000000000000
0.0000000000000000 1.0000000000000000 0.0000000000000000
0.0000000000000000 1.0000000000000000 0.0000000000000000
0.0000000000000000 1.0000000000000000 0.0000000000000000
0.0000000000000000 1.0000000000000000 0.0000000000000000
0.0000000000000000 1.0000000000000000 0.0000000000000000
0.0000000000000000 1.0000000000000000 0.0000000000000000
0.0000000000000000 1.0000000000000000 0.0000000000000000
0.0000000000000000 1.0000000000000000 0.0000000000000000
0.0000000000000000 1.0000000000000000 0.0000000000000000
0.0000000000000000 1.0000000000000000 0.0000000000000000
0.0000000000000000 1.0000000000000000 0.0000000000000000
0.0000000000000000 1.0000000000000000 0.0000000000000000
0.0000000000000000 1.0000000000000000 0.0000000000000000
0.0000000000000000 1.0000000000000000 0.0000000000000000
0.0000000000000000 1.0000000000000000 0.0000000000000000
0.0000000000000000 1.0000000000000000 0.0000000000000000
0.0000000000000000 1.0000000000000000 0.0000000000000000
0.0000000000000000 1.0000000000000000 0.0000000000000000
0.0000000000000000 1.0000000000000000 0.0000000000000000
0.0000000000000000 1.0000000000000000 0.0000000000000000
0.0000000000000000 1.0000000000000000 0.0000000000000000
0.0000000000000000 1.0000000000000000 0.0000000000000000
0.0000000000000000 1.0000000000000000 0.0000000000000000
0.0000000000000000 1.0000000000000000 0.0000000000000000
0.0000000000000000 1.0000000000000000 0.0000000000000000
0.0000000000000000 1.0000000000000000 0.0000000000000000
0.0000000000000000 1.0000000000000000 0.0000000000000000
0.0000000000000000 1.0000000000000000 0.0000000000000000
0.0000000000000000 1.0000000000000000 0.0000000000000000
0.0000000000000000 1.0000000000000000 0.0000000000000000
0.0000000000000000 1.0000000000000000 0.0000000000000000
0.0000000000000000 1.0000000000000000 0.0000000000000000
0.0000000000000000 1.0000000000000000 0.0000000000000000
0.0000000000000000 1.0000000000000000 0.0000000000000000
0.0000000000000000 1.0000000000000000 0.0000000000000000
0.0000000000000000 1.0000000000000000 0.0000000000000000
0.0000000000000000 1.0000000000000000 0.0000000000000000
0.0000000000000000 1.0000000000000000 0.0000000000000000
0.0000000000000000 1.0000000000000000 0.0000000000000000
0.0000000000000000 1.0000000000000000 0.0000000000000000
0.0000000000000000 1.0000000000000000 0.0000000000000000
0.0000000000000000 1.0000000000000000 0.0000000000000000
0.0000000000000000 1.0000000000000000 0.0000000000000000
0.0000000000000000 1.0000000000000000 0.0000000000000000
0.0000000000000000 1.0000000000000000 0.0000000000000000
0.0000000000000000 1.0000000000000000 0.0000000000000000
0.0000000000000000 1.0000000000000000 0.0000000000000000
0.0000000000000000 1.0000000000000000 0.0000000000000000
0.0000000000000000 1.0000000000000000 0.0000000000000000
0.0000000000000000 1.0000000000000000 0.0000000000000000
0.0000000000000000 1.0000000000000000 0.0000000000000000
0.0000000000000000 1.0000000000000000 0.0000000000000000
0.0000000000000000 1.0000000000000000 0.0000000000000000
0.0000000000000000 1.0000000000000000 0.0000000000000000
0.0000000000000000 1.0000000000000000 0.0000000000000000
0.0000000000000000 1.0000000000000000 0.0000000000000000
0.0000000000000000 1.0000000000000000 0.0000000000000000
0.0000000000000000 1.0000000000000000 0.0000000000000000
0.0000000000000000 1.0000000000000000 0.0000000000000000
0.0000000000000000 1.0000000000000000 0.0000000000000000
0.0000000000000000 1.0000000000000000 0.0000000000000000
0.0000000000000000 1.0000000000000000 0.0000000000000000
0.0000000000000000 1.0000000000000000 0.0000000000000000
0.0000000000000000 1.0000000000000000 0.0000000000000000
0.0000000000000000 1.0000000000000000 0.0000000000000000
0.0000000000000000 1.0000000000000000 0.0000000000000000
0.0000000000000000 1.0000000000000000 0.0000000000000000
0.0000000000000000 1.0000000000000000 0.0000000000000000
0.0000000000000000 1.0000000000000000 0.0000000000000000
0.0000000000000000 1.0000000000000000 0.0000000000000000
0.0000000000000000 1.0000000000000000 0.0000000000000000
0.0000000000000000 1.0000000000000000 0.0000000000000000
0.0000000000000000 1.0000000000000000 0.0000000000000000
0.0000000000000000 1.0000000000000000 0.0000000000000000
0.0000000000000000 1.0000000000000000 0.0000000000000000
0.0000000000000000 1.0000000000000000 0.0000000000000000
0.0000000000000000 1.0000000000000000 0.0000000000000000
0.0000000000000000 1.0000000000000000 0.0000000000000000
0.0000000000000000 1.0000000000000000 0.0000000000000000
0.0000000000000000 1.0000000000000000 0.0000000000000000
0.0000000000000000 1.0000000000000000 0.0000000000000000
0.0000000000000000 1.0000000000000000 0.0000000000000000
0.0000000000000000 1.0000000000000000 0.0000000000000000
0.0000000000000000 1.0000000000000000 0.0000000000000000
0.0000000000000000 1.0000000000000000 0.0000000000000000
0.0000000000000000 1.0000000000000000 0.0000000000000000
0.0000000000000000 1.0000000000000000 0.0000000000000000
0.0000000000000000 1.0000000000000000 0.0000000000000000
0.0000000000000000 1.0000000000000000 0.0000000000000000
0.0000000000000000 1.0000000000000000 0.0000000000000000
0.0000000000000000 1.0000000000000000 0.0000000000000000
0.0000000000000000 1.0000000000000000 0.0000000000000000
0.0000000000000000 1.0000000000000000 0.0000000000000000
0.0000000000000000 1.0000000000000000 0.0000000000000000
0.0000000000000000 1.0000000000000000 0.0000000000000000
0.0000000000000000 1.0000000000000000 0.0000000000000000
0.0000000000000000 1.0000000000000000 0.0000000000000000
0.0000000000000000 1.0000000000000000 0.0000000000000000
0.0000000000000000 1.0000000000000000 0.0000000000000000
0.0000000000000000 1.0000000000000000 0.0000000000000000
0.0000000000000000 1.0000000000000000 0.0000000000000000
0.0000000000000000 1.0000000000000000 0.0000000000000000
0.0000000000000000 1.0000000000000000 0.0000000000000000
0.0000000000000000 1.0000000000000000 0.0000000000000000
0.0000000000000000 1.0000000000000000 0.0000000000000000
0.0000000000000000 1.0000000000000000 0.0000000000000000
0.0000000000000000 1.0000000000000000 0.0000000000000000
0.0000000000000000 1.0000000000000000 0.0000000000000000
0.0000000000000000 1.0000000000000000 0.0000000000000000
0.0000000000000000 1.0000000000000000 0.0000000000000000
0.0000000000000000 1.0000000000000000 0.0000000000000000
0.0000000000000000 1.0000000000000000 0.0000000000000000
0.0000000000000000 1.0000000000000000 0.0000000000000000
0.0000000000000000 1.0000000000000000 0.0000000000000000
0.0000000000000000 1.0000000000000000 0.0000000000000000
0.0000000000000000 1.0000000000000000 0.0000000000000000
0.0000000000000000 1.0000000000000000 0.0000000000000000
0.0000000000000000 1.0000000000000000 0.0000000000000000
0.0000000000000000 1.0000000000000000 0.0000000000000000
0.0000000000000000 1.0000000000000000 0.0000000000000000
0.0000000000000000 1.0000000000000000 0.0000000000000000
0.0000000000000000 1.0000000000000000 0.0000000000000000
0.0000000000000000 1.0000000000000000 0.0000000000000000
0.0000000000000000 1.0000000000000000 0.0000000000000000
0.0000000000000000 1.0000000000000000 0.0000000000000000
0.0000000000000000 1.0000000000000000 0.0000000000000000
0.0000000000000000 1.0000000000000000 0.0000000000000000
0.0000000000000000 1.0000000000000000 0.0000000000000000
0.0000000000000000 1.0000000000000000 0.0000000000000000
0.0000000000000000 1.0000000000000000 0.0000000000000000
0.0000000000000000 1.0000000000000000 0.0000000000000000
0.0000000000000000 1.0000000000000000 0.0000000000000000
0.0000000000000000 1.0000000000000000 0.0000000000000000
0.0000000000000000 1.0000000000000000 0.0000000000000000
0.0000000000000000 1.0000000000000000 0.0000000000000000
0.0000000000000000 1.0000000000000000 0.0000000000000000
0.0000000000000000 1.0000000000000000 0.0000000000000000
0.0000000000000000 1.0000000000000000 0.0000000000000000
0.0000000000000000 1.0000000000000000 0.0000000000000000
0.0000000000000000 1.0000000000000000 0.0000000000000000
0.0000000000000000 1.0000000000000000 0.0000000000000000
0.0000000000000000 1.0000000000000000 0.0000000000000000
0.0000000000000000 1.0000000000000000 0.0000000000000000
0.0000000000000000 1.0000000000000000 0.0000000000000000
0.0000000000000000 1.0000000000000000 0.0000000000000000
0.0000000000000000 1.0000000000000000 0.0000000000000000
0.0000000000000000 1.0000000000000000 0.0000000000000000
0.0000000000000000 1.0000000000000000 0.0000000000000000
0.0000000000000000 1.0000000000000000 0.0000000000000000
0.0000000000000000 1.0000000000000000 0.0000000000000000
0.0000000000000000 1.0000000000000000 0.0000000000000000
0.0000000000000000 1.0000000000000000 0.0000000000000000
0.0000000000000000 1.0000000000000000 0.0000000000000000
0.0000000000000000 1.0000000000000000 0.0000000000000000
0.0000000000000000 1.0000000000000000 0.0000000000000000
0.0000000000000000 1.0000000000000000 0.0000000000000000
0.0000000000000000 1.0000000000000000 0.0000000000000000
0.0000000000000000 1.0000000000000000 0.0000000000000000
0.0000000000000000 1.0000000000000000 0.0000000000000000
0.0000000000000000 1.0000000000000000 0.0000000000000000
0.0000000000000000 1.0000000000000000 0.0000000000000000
0.0000000000000000 1.0000000000000000 0.0000000000000000
0.0000000000000000 1.0000000000000000 0.0000000000000000
0.0000000000000000 1.0000000000000000 0.0000000000000000
0.0000000000000000 1.0000000000000000 0.0000000000000000
0.0000000000000000 1.0000000000000000 0.0000000000000000
0.0000000000000000 1.0000000000000000 0.0000000000000000
0.0000000000000000 1.0000000000000000 0.0000000000000000
0.0000000000000000 1.0000000000000000 0.0000000000000000
0.0000000000000000 1.0000000000000000 0.0000000000000000
0.0000000000000000 1.0000000000000000 0.0000000000000000
0.0000000000000000 1.0000000000000000 0.0000000000000000
0.0000000000000000 1.0000000000000000 0.0000000000000000
0.0000000000000000 1.0000000000000000 0.0000000000000000
0.0000000000000000 1.0000000000000000 0.0000000000000000
0.0000000000000000 1.0000000000000000 0.0000000000000000
0.0000000000000000 1.0000000000000000 0.0000000000000000
0.0000000000000000 1.0000000000000000 0.0000000000000000
0.0000000000000000 1.0000000000000000 0.0000000000000000
0.0000000000000000 1.0000000000000000 0.0000000000000000
0.0000000000000000 1.0000000000000000 0.0000000000000000
0.0000000000000000 1.0000000000000000 0.0000000000000000
0.0000000000000000 1.0000000000000000 0.0000000000000000
0.0000000000000000 1.0000000000000000 0.0000000000000000
0.0000000000000000 1.0000000000000000 0.0000000000000000
0.0000000000000000 1.0000000000000000 0.0000000000000000
0.0000000000000000 1.0000000000000000 0.0000000000000000
0.0000000000000000 1.0000000000000000 0.0000000000000000
0.0000000000000000 1.0000000000000000 0.0000000000000000
0.0000000000000000 1.0000000000000000 0.0000000000000000
0.0000000000000000 1.0000000000000000 0.0000000000000000
0.0000000000000000 1.0000000000000000 0.0000000000000000
0.0000000000000000 1.0000000000000000 0.0000000000000000
0.0000000000000000 1.0000000000000000 0.0000000000000000
0.0000000000000000 1.0000000000000000 0.0000000000000000
0.0000000000000000 1.0000000000000000 0.0000000000000000
0.0000000000000000 1.0000000000000000 0.0000000000000000
0.0000000000000000 1.0000000000000000 0.0000000000000000
0.0000000000000000 1.0000000000000000 0.0000000000000000
0.0000000000000000 1.0000000000000000 0.0000000000000000
0.0000000000000000 1.0000000000000000 0.0000000000000000
0.0000000000000000 1.0000000000000000 0.0000000000000000
0.0000000000000000 1.0000000000000000 0.0000000000000000
0.0000000000000000 1.0000000000000000 0.0000000000000000
0.0000000000000000 1.0000000000000000 0.0000000000000000
0.0000000000000000 1.0000000000000000 0.0000000000000000
0.0000000000000000 1.0000000000000000 0.0000000000000000
0.0000000000000000 1.0000000000000000 0.0000000000000000
0.0000000000000000 1.0000000000000000 0.0000000000000000
0.0000000000000000 1.0000000000000000 0.0000000000000000
0.0000000000000000 1.0000000000000000 0.0000000000000000
0.0000000000000000 1.0000000000000000 0.0000000000000000
0.0000000000000000 1.0000000000000000 0.0000000000000000
0.0000000000000000 1.0000000000000000 0.0000000000000000
0.0000000000000000 1.0000000000000000 0.0000000000000000
0.0000000000000000 1.0000000000000000 0.0000000000000000
0.0000000000000000 1.0000000000000000 0.0000000000000000
0.0000000000000000 1.0000000000000000 0.0000000000000000
0.0000000000000000 1.0000000000000000 0.0000000000000000
0.0000000000000000 1.0000000000000000 0.0000000000000000
0.0000000000000000 1.0000000000000000 0.0000000000000000
0.0000000000000000 1.0000000000000000 0.0000000000000000
0.0000000000000000 1.0000000000000000 0.0000000000000000
0.0000000000000000 1.0000000000000000 0.0000000000000000
0.0000000000000000 1.0000000000000000 0.0000000000000000
0.0000000000000000 1.0000000000000000 0.0000000000000000
0.0000000000000000 1.0000000000000000 0.0000000000000000
0.0000000000000000 1.0000000000000000 0.0000000000000000
0.0000000000000000 1.0000000000000000 0.0000000000000000
0.0000000000000000 1.0000000000000000 0.0000000000000000
0.0000000000000000 1.0000000000000000 0.0000000000000000
0.0000000000000000 1.0000000000000000 0.0000000000000000
0.0000000000000000 1.0000000000000000 0.0000000000000000
0.0000000000000000 1.0000000000000000 0.0000000000000000
0.0000000000000000 1.0000000000000000 0.0000000000000000
0.0000000000000000 1.0000000000000000 0.0000000000000000
0.0000000000000000 1.0000000000000000 0.0000000000000000
0.0000000000000000 1.0000000000000000 0.0000000000000000
0.0000000000000000 1.0000000000000000 0.0000000000000000
0.0000000000000000 1.0000000000000000 0.0000000000000000
0.0000000000000000 1.0000000000000000 0.0000000000000000
0.0000000000000000 1.0000000000000000 0.0000000000000000
0.0000000000000000 1.0000000000000000 0.0000000000000000
0.0000000000000000 1.0000000000000000 0.0000000000000000
0.0000000000000000 1.0000000000000000 0.0000000000000000
0.0000000000000000 1.0000000000000000 0.0000000000000000
0.0000000000000000 1.0000000000000000 0.0000000000000000
0.0000000000000000 1.0000000000000000 0.0000000000000000
0.0000000000000000 1.0000000000000000 0.0000000000000000
0.0000000000000000 1.0000000000000000 0.0000000000000000
0.0000000000000000 1.0000000000000000 0.0000000000000000
0.0000000000000000 1.0000000000000000 0.0000000000000000
0.0000000000000000 1.0000000000000000 0.0000000000000000
0.0000000000000000 1.0000000000000000 0.0000000000000000
0.0000000000000000 1.0000000000000000 0.0000000000000000
0.0000000000000000 1.0000000000000000 0.0000000000000000
0.0000000000000000 1.0000000000000000 0.0000000000000000
0.0000000000000000 1.0000000000000000 0.0000000000000000
0.0000000000000000 1.0000000000000000 0.0000000000000000
0.0000000000000000 1.0000000000000000 0.0000000000000000
0.0000000000000000 1.0000000000000000 0.0000000000000000
0.0000000000000000 1.0000000000000000 0.0000000000000000
0.0000000000000000 1.0000000000000000 0.0000000000000000
0.0000000000000000 1.0000000000000000 0.0000000000000000
0.0000000000000000 1.0000000000000000 0.0000000000000000
0.0000000000000000 1.0000000000000000 0.0000000000000000
0.0000000000000000 1.0000000000000000 0.0000000000000000
0.0000000000000000 1.0000000000000000 0.0000000000000000
0.0000000000000000 1.0000000000000000 0.0000000000000000
0.0000000000000000 1.0000000000000000 0.0000000000000000
0.0000000000000000 1.0000000000000000 0.0000000000000000
0.0000000000000000 1.0000000000000000 0.0000000000000000
0.0000000000000000 1.0000000000000000 0.0000000000000000
0.0000000000000000 1.0000000000000000 0.0000000000000000
0.0000000000000000 1.0000000000000000 0.0000000000000000
0.0000000000000000 1.0000000000000000 0.0000000000000000
0.0000000000000000 1.0000000000000000 0.0000000000000000
0.0000000000000000 1.0000000000000000 0.0000000000000000
0.0000000000000000 1.0000000000000000 0.0000000000000000
0.0000000000000000 1.0000000000000000 0.0000000000000000
0.0000000000000000 1.0000000000000000 0.0000000000000000
0.0000000000000000 1.0000000000000000 0.0000000000000000
0.0000000000000000 1.0000000000000000 0.0000000000000000
0.0000000000000000 1.0000000000000000 0.0000000000000000
0.0000000000000000 1.0000000000000000 0.0000000000000000
0.0000000000000000 1.0000000000000000 0.0000000000000000
0.0000000000000000 1.0000000000000000 0.0000000000000000
0.0000000000000000 1.0000000000000000 0.0000000000000000
0.0000000000000000 1.0000000000000000 0.0000000000000000
0.0000000000000000 1.0000000000000000 0.0000000000000000
0.0000000000000000 1.0000000000000000 0.0000000000000000
0.0000000000000000 1.0000000000000000 0.0000000000000000
0.0000000000000000 1.0000000000000000 0.0000000000000000
0.0000000000000000 1.0000000000000000 0.0000000000000000
0.0000000000000000 1.0000000000000000 0.0000000000000000
0.0000000000000000 1.0000000000000000 0.0000000000000000
0.0000000000000000 1.0000000000000000 0.0000000000000000
0.0000000000000000 1.0000000000000000 0.0000000000000000
0.0000000000000000 1.0000000000000000 0.0000000000000000
0.0000000000000000 1.0000000000000000 0.0000000000000000
0.0000000000000000 1.0000000000000000 0.0000000000000000
0.0000000000000000 1.0000000000000000 0.0000000000000000
0.0000000000000000 1.0000000000000000 0.0000000000000000
0.0000000000000000 1.0000000000000000 0.0000000000000000
0.0000000000000000 1.0000000000000000 0.0000000000000000
0.0000000000000000 1.0000000000000000 0.0000000000000000
0.0000000000000000 1.0000000000000000 0.0000000000000000
0.0000000000000000 1.0000000000000000 0.0000000000000000
0.0000000000000000 1.0000000000000000 0.0000000000000000
0.0000000000000000 1.0000000000000000 0.0000000000000000
0.0000000000000000 1.0000000000000000 0.0000000000000000
0.0000000000000000 1.0000000000000000 0.0000000000000000
0.0000000000000000 1.0000000000000000 0.0000000000000000
0.0000000000000000 1.0000000000000000 0.0000000000000000
0.0000000000000000 1.0000000000000000 0.0000000000000000
0.0000000000000000 1.0000000000000000 0.0000000000000000
0.0000000000000000 1.0000000000000000 0.0000000000000000
0.0000000000000000 1.0000000000000000 0.0000000000000000
0.0000000000000000 1.0000000000000000 0.0000000000000000
0.0000000000000000 1.0000000000000000 0.0000000000000000
0.0000000000000000 1.0000000000000000 0.0000000000000000
0.0000000000000000 1.0000000000000000 0.0000000000000000
0.0000000000000000 1.0000000000000000 0.0000000000000000
0.0000000000000000 1.0000000000000000 0.0000000000000000
0.0000000000000000 1.0000000000000000 0.0000000000000000
0.0000000000000000 1.0000000000000000 0.0000000000000000
0.0000000000000000 1.0000000000000000 0.0000000000000000
0.0000000000000000 1.0000000000000000 0.0000000000000000
0.0000000000000000 1.0000000000000000 0.0000000000000000
0.0000000000000000 1.0000000000000000 0.0000000000000000
0.0000000000000000 1.0000000000000000 0.0000000000000000
0.0000000000000000 1.0000000000000000 0.0000000000000000
0.0000000000000000 1.0000000000000000 0.0000000000000000
0.0000000000000000 1.0000000000000000 0.0000000000000000
0.0000000000000000 1.0000000000000000 0.0000000000000000
0.0000000000000000 1.0000000000000000 0.0000000000000000
0.0000000000000000 1.0000000000000000 0.0000000000000000
0.0000000000000000 1.0000000000000000 0.0000000000000000
0.0000000000000000 1.0000000000000000 0.0000000000000000
0.0000000000000000 1.0000000000000000 0.0000000000000000
0.0000000000000000 1.0000000000000000 0.0000000000000000
0.0000000000000000 1.0000000000000000 0.0000000000000000
0.0000000000000000 1.0000000000000000 0.0000000000000000
0.0000000000000000 1.0000000000000000 0.0000000000000000
0.0000000000000000 1.0000000000000000 0.0000000000000000
0.0000000000000000 1.0000000000000000 0.0000000000000000
0.0000000000000000 1.0000000000000000 0.0000000000000000
0.0000000000000000 1.0000000000000000 0.0000000000000000
0.0000000000000000 1.0000000000000000 0.0000000000000000
0.0000000000000000 1.0000000000000000 0.0000000000000000
0.0000000000000000 1.0000000000000000 0.0000000000000000
0.0000000000000000 1.0000000000000000 0.0000000000000000
0.0000000000000000 1.0000000000000000 0.0000000000000000
0.0000000000000000 1.0000000000000000 0.0000000000000000
0.0000000000000000 1.0000000000000000 0.0000000000000000
0.0000000000000000 1.0000000000000000 0.0000000000000000
0.0000000000000000 1.0000000000000000 0.0000000000000000
0.0000000000000000 1.0000000000000000 0.0000000000000000
0.0000000000000000 1.0000000000000000 0.0000000000000000
0.0000000000000000 1.0000000000000000 0.0000000000000000
0.0000000000000000 1.0000000000000000 0.0000000000000000
0.0000000000000000 1.0000000000000000 0.0000000000000000
0.0000000000000000 1.0000000000000000 0.0000000000000000
0.0000000000000000 1.0000000000000000 0.0000000000000000
0.0000000000000000 1.0000000000000000 0.0000000000000000
0.0000000000000000 1.0000000000000000 0.0000000000000000
0.0000000000000000 1.0000000000000000 0.0000000000000000
0.0000000000000000 1.0000000000000000 0.0000000000000000
0.0000000000000000 1.0000000000000000 0.0000000000000000
0.0000000000000000 1.0000000000000000 0.0000000000000000
0.0000000000000000 1.0000000000000000 0.0000000000000000
0.0000000000000000 1.0000000000000000 0.0000000000000000
0.0000000000000000 1.0000000000000000 0.0000000000000000
0.0000000000000000 1.0000000000000000 0.0000000000000000
0.0000000000000000 1.0000000000000000 0.0000000000000000
0.0000000000000000 1.0000000000000000 0.0000000000000000
0.0000000000000000 1.0000000000000000 0.0000000000000000
0.0000000000000000 1.0000000000000000 0.0000000000000000
0.0000000000000000 1.0000000000000000 0.0000000000000000
0.0000000000000000 1.0000000000000000 0.0000000000000000
0.0000000000000000 1.0000000000000000 0.0000000000000000
0.0000000000000000 1.0000000000000000 0.0000000000000000
0.0000000000000000 1.0000000000000000 0.0000000000000000
0.0000000000000000 1.0000000000000000 0.0000000000000000
0.0000000000000000 1.0000000000000000 0.0000000000000000
0.0000000000000000 1.0000000000000000 0.0000000000000000
0.0000000000000000 1.0000000000000000 0.0000000000000000
0.0000000000000000 1.0000000000000000 0.0000000000000000
0.0000000000000000 1.0000000000000000 0.0000000000000000
0.0000000000000000 1.0000000000000000 0.0000000000000000
0.0000000000000000 1.0000000000000000 0.0000000000000000
0.0000000000000000 1.0000000000000000 0.0000000000000000
0.0000000000000000 1.0000000000000000 0.0000000000000000
0.0000000000000000 1.0000000000000000 0.0000000000000000
0.0000000000000000 1.0000000000000000 0.0000000000000000
0.0000000000000000 1.0000000000000000 0.0000000000000000
0.0000000000000000 1.0000000000000000 0.0000000000000000
0.0000000000000000 1.0000000000000000 0.0000000000000000
0.0000000000000000 1.0000000000000000 0.0000000000000000
0.0000000000000000 1.0000000000000000 0.0000000000000000
0.0000000000000000 1.0000000000000000 0.0000000000000000
0.0000000000000000 1.0000000000000000 0.0000000000000000
0.0000000000000000 1.0000000000000000 0.0000000000000000
0.0000000000000000 1.0000000000000000 0.0000000000000000
0.0000000000000000 1.0000000000000000 0.0000000000000000
0.0000000000000000 1.0000000000000000 0.0000000000000000
0.0000000000000000 1.0000000000000000 0.0000000000000000
0.0000000000000000 1.0000000000000000 0.0000000000000000
0.0000000000000000 1.0000000000000000 0.0000000000000000
0.0000000000000000 1.0000000000000000 0.0000000000000000
0.0000000000000000 1.0000000000000000 0.0000000000000000
0.0000000000000000 1.0000000000000000 0.0000000000000000
0.0000000000000000 1.0000000000000000 0.0000000000000000
0.0000000000000000 1.0000000000000000 0.0000000000000000
0.0000000000000000 1.0000000000000000 0.0000000000000000
0.0000000000000000 1.0000000000000000 0.0000000000000000
0.0000000000000000 1.0000000000000000 0.0000000000000000
0.0000000000000000 1.0000000000000000 0.0000000000000000
0.0000000000000000 1.0000000000000000 0.0000000000000000
0.0000000000000000 1.0000000000000000 0.0000000000000000
0.0000000000000000 1.0000000000000000 0.0000000000000000
0.0000000000000000 1.0000000000000000 0.0000000000000000
0.0000000000000000 1.0000000000000000 0.0000000000000000
0.0000000000000000 1.0000000000000000 0.0000000000000000
0.0000000000000000 1.0000000000000000 0.0000000000000000
0.0000000000000000 1.0000000000000000 0.0000000000000000
0.0000000000000000 1.0000000000000000 0.0000000000000000
0.0000000000000000 1.0000000000000000 0.0000000000000000
0.0000000000000000 1.0000000000000000 0.0000000000000000
0.0000000000000000 1.0000000000000000 0.0000000000000000
0.0000000000000000 1.0000000000000000 0.0000000000000000
0.0000000000000000 1.0000000000000000 0.0000000000000000
0.0000000000000000 1.0000000000000000 0.0000000000000000
0.0000000000000000 1.0000000000000000 0.0000000000000000
0.0000000000000000 1.0000000000000000 0.0000000000000000
0.0000000000000000 1.0000000000000000 0.0000000000000000
0.0000000000000000 1.0000000000000000 0.0000000000000000
0.0000000000000000 1.0000000000000000 0.0000000000000000
0.0000000000000000 1.0000000000000000 0.0000000000000000
0.0000000000000000 1.0000000000000000 0.0000000000000000
0.0000000000000000 1.0000000000000000 0.0000000000000000
0.0000000000000000 1.0000000000000000 0.0000000000000000
0.0000000000000000 1.0000000000000000 0.0000000000000000
0.0000000000000000 1.0000000000000000 0.0000000000000000
0.0000000000000000 1.0000000000000000 0.0000000000000000
0.0000000000000000 1.0000000000000000 0.0000000000000000
0.0000000000000000 1.0000000000000000 0.0000000000000000
0.0000000000000000 1.0000000000000000 0.0000000000000000
0.0000000000000000 1.0000000000000000 0.0000000000000000
0.0000000000000000 1.0000000000000000 0.0000000000000000
0.0000000000000000 1.0000000000000000 0.0000000000000000
0.0000000000000000 1.0000000000000000 0.0000000000000000
0.0000000000000000 1.0000000000000000 0.0000000000000000
0.0000000000000000 1.0000000000000000 0.0000000000000000
0.0000000000000000 1.0000000000000000 0.0000000000000000
0.0000000000000000 1.0000000000000000 0.0000000000000000
0.0000000000000000 1.0000000000000000 0.0000000000000000
0.0000000000000000 1.0000000000000000 0.0000000000000000
0.0000000000000000 1.0000000000000000 0.0000000000000000
0.0000000000000000 1.0000000000000000 0.0000000000000000
0.0000000000000000 1.0000000000000000 0.0000000000000000
0.0000000000000000 1.0000000000000000 0.0000000000000000
0.0000000000000000 1.0000000000000000 0.0000000000000000
0.0000000000000000 1.0000000000000000 0.0000000000000000
0.0000000000000000 1.0000000000000000 0.0000000000000000
0.0000000000000000 1.0000000000000000 0.0000000000000000
0.0000000000000000 1.0000000000000000 0.0000000000000000
0.0000000000000000 1.0000000000000000 0.0000000000000000
0.0000000000000000 1.0000000000000000 0.0000000000000000
0.0000000000000000 1.0000000000000000 0.0000000000000000
0.0000000000000000 1.0000000000000000 0.0000000000000000
0.0000000000000000 1.0000000000000000 0.0000000000000000
0.0000000000000000 1.0000000000000000 0.0000000000000000
0.0000000000000000 1.0000000000000000 0.0000000000000000
0.0000000000000000 1.0000000000000000 0.0000000000000000
0.0000000000000000 1.0000000000000000 0.0000000000000000
0.0000000000000000 1.0000000000000000 0.0000000000000000
0.0000000000000000 1.0000000000000000 0.0000000000000000
0.0000000000000000 1.0000000000000000 0.0000000000000000
0.0000000000000000 1.0000000000000000 0.0000000000000000
0.0000000000000000 1.0000000000000000 0.0000000000000000
0.0000000000000000 1.0000000000000000 0.0000000000000000
0.0000000000000000 1.0000000000000000 0.0000000000000000
0.0000000000000000 1.0000000000000000 0.0000000000000000
0.0000000000000000 1.0000000000000000 0.0000000000000000
0.0000000000000000 1.0000000000000000 0.0000000000000000
0.0000000000000000 1.0000000000000000 0.0000000000000000
0.0000000000000000 1.0000000000000000 0.0000000000000000
0.0000000000000000 1.0000000000000000 0.0000000000000000
0.0000000000000000 1.0000000000000000 0.0000000000000000
0.0000000000000000 1.0000000000000000 0.0000000000000000
0.0000000000000000 1.0000000000000000 0.0000000000000000
0.0000000000000000 1.0000000000000000 0.0000000000000000
0.0000000000000000 1.0000000000000000 0.0000000000000000
0.0000000000000000 1.0000000000000000 0.0000000000000000
0.0000000000000000 1.0000000000000000 0.0000000000000000
0.0000000000000000 1.0000000000000000 0.0000000000000000
0.0000000000000000 1.0000000000000000 0.0000000000000000
0.0000000000000000 1.0000000000000000 0.0000000000000000
0.0000000000000000 1.0000000000000000 0.0000000000000000
0.0000000000000000 1.0000000000000000 0.0000000000000000
0.0000000000000000 1.0000000000000000 0.0000000000000000
0.0000000000000000 1.0000000000000000 0.0000000000000000
0.0000000000000000 1.0000000000000000 0.0000000000000000
0.0000000000000000 1.0000000000000000 0.0000000000000000
0.0000000000000000 1.0000000000000000 0.0000000000000000
0.0000000000000000 1.0000000000000000 0.0000000000000000
0.0000000000000000 1.0000000000000000 0.0000000000000000
0.0000000000000000 1.0000000000000000 0.0000000000000000
0.0000000000000000 1.0000000000000000 0.0000000000000000
0.0000000000000000 1.0000000000000000 0.0000000000000000
0.0000000000000000 1.0000000000000000 0.0000000000000000
0.0000000000000000 1.0000000000000000 0.0000000000000000
0.0000000000000000 1.0000000000000000 0.0000000000000000
0.0000000000000000 1.0000000000000000 0.0000000000000000
0.0000000000000000 1.0000000000000000 0.0000000000000000
0.0000000000000000 1.0000000000000000 0.0000000000000000
0.0000000000000000 1.0000000000000000 0.0000000000000000
0.0000000000000000 1.0000000000000000 0.0000000000000000
0.0000000000000000 1.0000000000000000 0.0000000000000000
0.0000000000000000 1.0000000000000000 0.0000000000000000
0.0000000000000000 1.0000000000000000 0.0000000000000000
0.0000000000000000 1.0000000000000000 0.0000000000000000
0.0000000000000000 1.0000000000000000 0.0000000000000000
0.0000000000000000 1.0000000000000000 0.0000000000000000
0.0000000000000000 1.0000000000000000 0.0000000000000000
0.0000000000000000 1.0000000000000000 0.0000000000000000
0.0000000000000000 1.0000000000000000 0.0000000000000000
0.0000000000000000 1.0000000000000000 0.0000000000000000
0.0000000000000000 1.0000000000000000 0.0000000000000000
0.0000000000000000 1.0000000000000000 0.0000000000000000
0.0000000000000000 1.0000000000000000 0.0000000000000000
0.0000000000000000 1.0000000000000000 0.0000000000000000
0.0000000000000000 1.0000000000000000 0.0000000000000000
0.0000000000000000 1.0000000000000000 0.0000000000000000
0.0000000000000000 1.0000000000000000 0.0000000000000000
0.0000000000000000 1.0000000000000000 0.0000000000000000
0.0000000000000000 1.0000000000000000 0.0000000000000000
0.0000000000000000 1.0000000000000000 0.0000000000000000
0.0000000000000000 1.0000000000000000 0.0000000000000000
0.0000000000000000 1.0000000000000000 0.0000000000000000
0.0000000000000000 1.0000000000000000 0.0000000000000000
0.0000000000000000 1.0000000000000000 0.0000000000000000
0.0000000000000000 1.0000000000000000 0.0000000000000000
0.0000000000000000 1.0000000000000000 0.0000000000000000
0.0000000000000000 1.0000000000000000 0.0000000000000000
0.0000000000000000 1.0000000000000000 0.0000000000000000
0.0000000000000000 1.0000000000000000 0.0000000000000000
0.0000000000000000 1.0000000000000000 0.0000000000000000
0.0000000000000000 1.0000000000000000 0.0000000000000000
0.0000000000000000 1.0000000000000000 0.0000000000000000
0.0000000000000000 1.0000000000000000 0.0000000000000000
0.0000000000000000 1.0000000000000000 0.0000000000000000
0.0000000000000000 1.0000000000000000 0.0000000000000000
0.0000000000000000 1.0000000000000000 0.0000000000000000
0.0000000000000000 1.0000000000000000 0.0000000000000000
0.0000000000000000 1.0000000000000000 0.0000000000000000
0.0000000000000000 1.0000000000000000 0.0000000000000000
0.0000000000000000 1.0000000000000000 0.0000000000000000
0.0000000000000000 1.0000000000000000 0.0000000000000000
0.0000000000000000 1.0000000000000000 0.0000000000000000
0.0000000000000000 1.0000000000000000 0.0000000000000000
0.0000000000000000 1.0000000000000000 0.0000000000000000
0.0000000000000000 1.0000000000000000 0.0000000000000000
0.0000000000000000 1.0000000000000000 0.0000000000000000
0.0000000000000000 1.0000000000000000 0.0000000000000000
0.0000000000000000 1.0000000000000000 0.0000000000000000
0.0000000000000000 1.0000000000000000 0.0000000000000000
0.0000000000000000 1.0000000000000000 0.0000000000000000
0.0000000000000000 1.0000000000000000 0.0000000000000000
0.0000000000000000 1.0000000000000000 0.0000000000000000
0.0000000000000000 1.0000000000000000 0.0000000000000000
0.0000000000000000 1.0000000000000000 0.0000000000000000
0.0000000000000000 1.0000000000000000 0.0000000000000000
0.0000000000000000 1.0000000000000000 0.0000000000000000
0.0000000000000000 1.0000000000000000 0.0000000000000000
0.0000000000000000 1.0000000000000000 0.0000000000000000
0.0000000000000000 1.0000000000000000 0.0000000000000000
0.0000000000000000 1.0000000000000000 0.0000000000000000
0.0000000000000000 1.0000000000000000 0.0000000000000000
0.0000000000000000 1.0000000000000000 0.0000000000000000
0.0000000000000000 1.0000000000000000 0.0000000000000000
0.0000000000000000 1.0000000000000000 0.0000000000000000
0.0000000000000000 1.0000000000000000 0.0000000000000000
0.0000000000000000 1.0000000000000000 0.0000000000000000
0.0000000000000000 1.0000000000000000 0.0000000000000000
0.0000000000000000 1.0000000000000000 0.0000000000000000
0.0000000000000000 1.0000000000000000 0.0000000000000000
0.0000000000000000 1.0000000000000000 0.0000000000000000
0.0000000000000000 1.0000000000000000 0.0000000000000000
0.0000000000000000 1.0000000000000000 0.0000000000000000
0.0000000000000000 1.0000000000000000 0.0000000000000000
0.0000000000000000 1.0000000000000000 0.0000000000000000
0.0000000000000000 1.0000000000000000 0.0000000000000000
0.0000000000000000 1.0000000000000000 0.0000000000000000
0.0000000000000000 1.0000000000000000 0.0000000000000000
0.0000000000000000 1.0000000000000000 0.0000000000000000
0.0000000000000000 1.0000000000000000 0.0000000000000000
0.0000000000000000 1.0000000000000000 0.0000000000000000
0.0000000000000000 1.0000000000000000 0.0000000000000000
0.0000000000000000 1.0000000000000000 0.0000000000000000
0.0000000000000000 1.0000000000000000 0.0000000000000000
0.0000000000000000 1.0000000000000000 0.0000000000000000
0.0000000000000000 1.0000000000000000 0.0000000000000000
0.0000000000000000 1.0000000000000000 0.0000000000000000
0.0000000000000000 1.0000000000000000 0.0000000000000000
0.0000000000000000 1.0000000000000000 0.0000000000000000
0.0000000000000000 1.0000000000000000 0.0000000000000000
0.0000000000000000 1.0000000000000000 0.0000000000000000
0.0000000000000000 1.0000000000000000 0.0000000000000000
0.0000000000000000 1.0000000000000000 0.0000000000000000
0.0000000000000000 1.0000000000000000 0.0000000000000000
0.0000000000000000 1.0000000000000000 0.0000000000000000
0.0000000000000000 1.0000000000000000 0.0000000000000000
0.0000000000000000 1.0000000000000000 0.0000000000000000
0.0000000000000000 1.0000000000000000 0.0000000000000000
0.0000000000000000 1.0000000000000000 0.0000000000000000
0.0000000000000000 1.0000000000000000 0.0000000000000000
0.0000000000000000 1.0000000000000000 0.0000000000000000
0.0000000000000000 1.0000000000000000 0.0000000000000000
0.0000000000000000 1.0000000000000000 0.0000000000000000
0.0000000000000000 1.0000000000000000 0.0000000000000000
0.0000000000000000 1.0000000000000000 0.0000000000000000
0.0000000000000000 1.0000000000000000 0.0000000000000000
0.0000000000000000 1.0000000000000000 0.0000000000000000
0.0000000000000000 1.0000000000000000 0.0000000000000000
0.0000000000000000 1.0000000000000000 0.0000000000000000
0.0000000000000000 1.0000000000000000 0.0000000000000000
0.0000000000000000 1.0000000000000000 0.0000000000000000
0.0000000000000000 1.0000000000000000 0.0000000000000000
0.0000000000000000 1.0000000000000000 0.0000000000000000
0.0000000000000000 1.0000000000000000 0.0000000000000000
0.0000000000000000 1.0000000000000000 0.0000000000000000
0.0000000000000000 1.0000000000000000 0.0000000000000000
0.0000000000000000 1.0000000000000000 0.0000000000000000
0.0000000000000000 1.0000000000000000 0.0000000000000000
0.0000000000000000 1.0000000000000000 0.0000000000000000
0.0000000000000000 1.0000000000000000 0.0000000000000000
0.0000000000000000 1.0000000000000000 0.0000000000000000
0.0000000000000000 1.0000000000000000 0.0000000000000000
0.0000000000000000 1.0000000000000000 0.0000000000000000
0.0000000000000000 1.0000000000000000 0.0000000000000000
0.0000000000000000 1.0000000000000000 0.0000000000000000
0.0000000000000000 1.0000000000000000 0.0000000000000000
0.0000000000000000 1.0000000000000000 0.0000000000000000
0.0000000000000000 1.0000000000000000 0.0000000000000000
0.0000000000000000 1.0000000000000000 0.0000000000000000
0.0000000000000000 1.0000000000000000 0.0000000000000000
0.0000000000000000 1.0000000000000000 0.0000000000000000
0.0000000000000000 1.0000000000000000 0.0000000000000000
0.0000000000000000 1.0000000000000000 0.0000000000000000
0.0000000000000000 1.0000000000000000 0.0000000000000000
0.0000000000000000 1.0000000000000000 0.0000000000000000
0.0000000000000000 1.0000000000000000 0.0000000000000000
0.0000000000000000 1.0000000000000000 0.0000000000000000
0.0000000000000000 1.0000000000000000 0.0000000000000000
0.0000000000000000 1.0000000000000000 0.0000000000000000
0.0000000000000000 1.0000000000000000 0.0000000000000000
0.0000000000000000 1.0000000000000000 0.0000000000000000
0.0000000000000000 1.0000000000000000 0.0000000000000000
0.0000000000000000 1.0000000000000000 0.0000000000000000
0.0000000000000000 1.0000000000000000 0.0000000000000000
0.0000000000000000 1.0000000000000000 0.0000000000000000
0.0000000000000000 1.0000000000000000 0.0000000000000000
0.0000000000000000 1.0000000000000000 0.0000000000000000
0.0000000000000000 1.0000000000000000 0.0000000000000000
0.0000000000000000 1.0000000000000000 0.0000000000000000
0.0000000000000000 1.0000000000000000 0.0000000000000000
0.0000000000000000 1.0000000000000000 0.0000000000000000
0.0000000000000000 1.0000000000000000 0.0000000000000000
0.0000000000000000 1.0000000000000000 0.0000000000000000
0.0000000000000000 1.0000000000000000 0.0000000000000000
0.0000000000000000 1.0000000000000000 0.0000000000000000
0.0000000000000000 1.0000000000000000 0.0000000000000000
0.0000000000000000 1.0000000000000000 0.0000000000000000
0.0000000000000000 1.0000000000000000 0.0000000000000000
0.0000000000000000 1.0000000000000000 0.0000000000000000
0.0000000000000000 1.0000000000000000 0.0000000000000000
0.0000000000000000 1.0000000000000000 0.0000000000000000
0.0000000000000000 1.0000000000000000 0.0000000000000000
0.0000000000000000 1.0000000000000000 0.0000000000000000
0.0000000000000000 1.0000000000000000 0.0000000000000000
0.0000000000000000 1.0000000000000000 0.0000000000000000
0.0000000000000000 1.0000000000000000 0.0000000000000000
0.0000000000000000 1.0000000000000000 0.0000000000000000
0.0000000000000000 1.0000000000000000 0.0000000000000000
0.0000000000000000 1.0000000000000000 0.0000000000000000
0.0000000000000000 1.0000000000000000 0.0000000000000000
0.0000000000000000 1.0000000000000000 0.0000000000000000
0.0000000000000000 1.0000000000000000 0.0000000000000000
0.0000000000000000 1.0000000000000000 0.0000000000000000
0.0000000000000000 1.0000000000000000 0.0000000000000000
0.0000000000000000 1.0000000000000000 0.0000000000000000
0.0000000000000000 1.0000000000000000 0.0000000000000000
0.0000000000000000 1.0000000000000000 0.0000000000000000
0.0000000000000000 1.0000000000000000 0.0000000000000000
0.0000000000000000 1.0000000000000000 0.0000000000000000
0.0000000000000000 1.0000000000000000 0.0000000000000000
0.0000000000000000 1.0000000000000000 0.0000000000000000
0.0000000000000000 1.0000000000000000 0.0000000000000000
0.0000000000000000 1.0000000000000000 0.0000000000000000
0.0000000000000000 1.0000000000000000 0.0000000000000000
0.0000000000000000 1.0000000000000000 0.0000000000000000
0.0000000000000000 1.0000000000000000 0.0000000000000000
0.0000000000000000 1.0000000000000000 0.0000000000000000
0.0000000000000000 1.0000000000000000 0.0000000000000000
0.0000000000000000 1.0000000000000000 0.0000000000000000
0.0000000000000000 1.0000000000000000 0.0000000000000000
0.0000000000000000 1.0000000000000000 0.0000000000000000
0.0000000000000000 1.0000000000000000 0.0000000000000000
0.0000000000000000 1.0000000000000000 0.0000000000000000
0.0000000000000000 1.0000000000000000 0.0000000000000000
0.0000000000000000 1.0000000000000000 0.0000000000000000
0.0000000000000000 1.0000000000000000 0.0000000000000000
0.0000000000000000 1.0000000000000000 0.0000000000000000
0.0000000000000000 1.0000000000000000 0.0000000000000000
0.0000000000000000 1.0000000000000000 0.0000000000000000
0.0000000000000000 1.0000000000000000 0.0000000000000000
0.0000000000000000 1.0000000000000000 0.0000000000000000
0.0000000000000000 1.0000000000000000 0.0000000000000000
0.0000000000000000 1.0000000000000000 0.0000000000000000
0.0000000000000000 1.0000000000000000 0.0000000000000000
0.0000000000000000 1.0000000000000000 0.0000000000000000
0.0000000000000000 1.0000000000000000 0.0000000000000000
0.0000000000000000 1.0000000000000000 0.0000000000000000
0.0000000000000000 1.0000000000000000 0.0000000000000000
0.0000000000000000 1.0000000000000000 0.0000000000000000
0.0000000000000000 1.0000000000000000 0.0000000000000000
0.0000000000000000 1.0000000000000000 0.0000000000000000
0.0000000000000000 1.0000000000000000 0.0000000000000000
0.0000000000000000 1.0000000000000000 0.0000000000000000
0.0000000000000000 1.0000000000000000 0.0000000000000000
0.0000000000000000 1.0000000000000000 0.0000000000000000
0.0000000000000000 1.0000000000000000 0.0000000000000000
0.0000000000000000 1.0000000000000000 0.0000000000000000
0.0000000000000000 1.0000000000000000 0.0000000000000000
0.0000000000000000 1.0000000000000000 0.0000000000000000
0.0000000000000000 1.0000000000000000 0.0000000000000000
0.0000000000000000 1.0000000000000000 0.0000000000000000
0.0000000000000000 1.0000000000000000 0.0000000000000000
0.0000000000000000 1.0000000000000000 0.0000000000000000
0.0000000000000000 1.0000000000000000 0.0000000000000000
0.0000000000000000 1.0000000000000000 0.0000000000000000
0.0000000000000000 1.0000000000000000 0.0000000000000000
0.0000000000000000 1.0000000000000000 0.0000000000000000
0.0000000000000000 1.0000000000000000 0.0000000000000000
0.0000000000000000 1.0000000000000000 0.0000000000000000
0.0000000000000000 1.0000000000000000 0.0000000000000000
0.0000000000000000 1.0000000000000000 0.0000000000000000
0.0000000000000000 1.0000000000000000 0.0000000000000000
0.0000000000000000 1.0000000000000000 0.0000000000000000
0.0000000000000000 1.0000000000000000 0.0000000000000000
0.0000000000000000 1.0000000000000000 0.0000000000000000
0.0000000000000000 1.0000000000000000 0.0000000000000000
0.0000000000000000 1.0000000000000000 0.0000000000000000
0.0000000000000000 1.0000000000000000 0.0000000000000000
0.0000000000000000 1.0000000000000000 0.0000000000000000
0.0000000000000000 1.0000000000000000 0.0000000000000000
0.0000000000000000 1.0000000000000000 0.0000000000000000
0.0000000000000000 1.0000000000000000 0.0000000000000000
0.0000000000000000 1.0000000000000000 0.0000000000000000
0.0000000000000000 1.0000000000000000 0.0000000000000000
0.0000000000000000 1.0000000000000000 0.0000000000000000
0.0000000000000000 1.0000000000000000 0.0000000000000000
0.0000000000000000 1.0000000000000000 0.0000000000000000
0.0000000000000000 1.0000000000000000 0.0000000000000000
0.0000000000000000 1.0000000000000000 0.0000000000000000
0.0000000000000000 1.0000000000000000 0.0000000000000000
0.0000000000000000 1.0000000000000000 0.0000000000000000
0.0000000000000000 1.0000000000000000 0.0000000000000000
0.0000000000000000 1.0000000000000000 0.0000000000000000
0.0000000000000000 1.0000000000000000 0.0000000000000000
0.0000000000000000 1.0000000000000000 0.0000000000000000
0.0000000000000000 1.0000000000000000 0.0000000000000000
0.0000000000000000 1.0000000000000000 0.0000000000000000
0.0000000000000000 1.0000000000000000 0.0000000000000000
0.0000000000000000 1.0000000000000000 0.0000000000000000
0.0000000000000000 1.0000000000000000 0.0000000000000000
0.0000000000000000 1.0000000000000000 0.0000000000000000
0.0000000000000000 1.0000000000000000 0.0000000000000000
0.0000000000000000 1.0000000000000000 0.0000000000000000
0.0000000000000000 1.0000000000000000 0.0000000000000000
0.0000000000000000 1.0000000000000000 0.0000000000000000
0.0000000000000000 1.0000000000000000 0.0000000000000000
0.0000000000000000 1.0000000000000000 0.0000000000000000
0.0000000000000000 1.0000000000000000 0.0000000000000000
0.0000000000000000 1.0000000000000000 0.0000000000000000
0.0000000000000000 1.0000000000000000 0.0000000000000000
0.0000000000000000 1.0000000000000000 0.0000000000000000
0.0000000000000000 1.0000000000000000 0.0000000000000000
0.0000000000000000 1.0000000000000000 0.0000000000000000
0.0000000000000000 1.0000000000000000 0.0000000000000000
0.0000000000000000 1.0000000000000000 0.0000000000000000
0.0000000000000000 1.0000000000000000 0.0000000000000000
0.0000000000000000 1.0000000000000000 0.0000000000000000
0.0000000000000000 1.0000000000000000 0.0000000000000000
0.0000000000000000 1.0000000000000000 0.0000000000000000
0.0000000000000000 1.0000000000000000 0.0000000000000000
0.0000000000000000 1.0000000000000000 0.0000000000000000
0.0000000000000000 1.0000000000000000 0.0000000000000000
0.0000000000000000 1.0000000000000000 0.0000000000000000
0.0000000000000000 1.0000000000000000 0.0000000000000000
0.0000000000000000 1.0000000000000000 0.0000000000000000
0.0000000000000000 1.0000000000000000 0.0000000000000000
0.0000000000000000 1.0000000000000000 0.0000000000000000
0.0000000000000000 1.0000000000000000 0.0000000000000000
0.0000000000000000 1.0000000000000000 0.0000000000000000
0.0000000000000000 1.0000000000000000 0.0000000000000000
0.0000000000000000 1.0000000000000000 0.0000000000000000
0.0000000000000000 1.0000000000000000 0.0000000000000000
0.0000000000000000 1.0000000000000000 0.0000000000000000
0.0000000000000000 1.0000000000000000 0.0000000000000000
0.0000000000000000 1.0000000000000000 0.0000000000000000
0.0000000000000000 1.0000000000000000 0.0000000000000000
0.0000000000000000 1.0000000000000000 0.0000000000000000
0.0000000000000000 1.0000000000000000 0.0000000000000000
0.0000000000000000 1.0000000000000000 0.0000000000000000
0.0000000000000000 1.0000000000000000 0.0000000000000000
0.0000000000000000 1.0000000000000000 0.0000000000000000
0.0000000000000000 1.0000000000000000 0.0000000000000000
0.0000000000000000 1.0000000000000000 0.0000000000000000
0.0000000000000000 1.0000000000000000 0.0000000000000000
0.0000000000000000 1.0000000000000000 0.0000000000000000
0.0000000000000000 1.0000000000000000 0.0000000000000000
0.0000000000000000 1.0000000000000000 0.0000000000000000
0.0000000000000000 1.0000000000000000 0.0000000000000000
0.0000000000000000 1.0000000000000000 0.0000000000000000
0.0000000000000000 1.0000000000000000 0.0000000000000000
0.0000000000000000 1.0000000000000000 0.0000000000000000
0.0000000000000000 1.0000000000000000 0.0000000000000000
0.0000000000000000 1.0000000000000000 0.0000000000000000
0.0000000000000000 1.0000000000000000 0.0000000000000000
0.0000000000000000 1.0000000000000000 0.0000000000000000
0.0000000000000000 1.0000000000000000 0.0000000000000000
0.0000000000000000 1.0000000000000000 0.0000000000000000
0.0000000000000000 1.0000000000000000 0.0000000000000000
0.0000000000000000 1.0000000000000000 0.0000000000000000
0.0000000000000000 1.0000000000000000 0.0000000000000000
0.0000000000000000 1.0000000000000000 0.0000000000000000
0.0000000000000000 1.0000000000000000 0.0000000000000000
0.0000000000000000 1.0000000000000000 0.0000000000000000
0.0000000000000000 1.0000000000000000 0.0000000000000000
0.0000000000000000 1.0000000000000000 0.0000000000000000
0.0000000000000000 1.0000000000000000 0.0000000000000000
0.0000000000000000 1.0000000000000000 0.0000000000000000
0.0000000000000000 1.0000000000000000 0.0000000000000000
0.0000000000000000 1.0000000000000000 0.0000000000000000
0.0000000000000000 1.0000000000000000 0.0000000000000000
0.0000000000000000 1.0000000000000000 0.0000000000000000
0.0000000000000000 1.0000000000000000 0.0000000000000000
0.0000000000000000 1.0000000000000000 0.0000000000000000
0.0000000000000000 1.0000000000000000 0.0000000000000000
0.0000000000000000 1.0000000000000000 0.0000000000000000
0.0000000000000000 1.0000000000000000 0.0000000000000000
0.0000000000000000 1.0000000000000000 0.0000000000000000
0.0000000000000000 1.0000000000000000 0.0000000000000000
0.0000000000000000 1.0000000000000000 0.0000000000000000
0.0000000000000000 1.0000000000000000 0.0000000000000000
0.0000000000000000 1.0000000000000000 0.0000000000000000
0.0000000000000000 1.0000000000000000 0.0000000000000000
0.0000000000000000 1.0000000000000000 0.0000000000000000
0.0000000000000000 1.0000000000000000 0.0000000000000000
0.0000000000000000 1.0000000000000000 0.0000000000000000
0.0000000000000000 1.0000000000000000 0.0000000000000000
0.0000000000000000 1.0000000000000000 0.0000000000000000
0.0000000000000000 1.0000000000000000 0.0000000000000000
0.0000000000000000 1.0000000000000000 0.0000000000000000
0.0000000000000000 1.0000000000000000 0.0000000000000000
0.0000000000000000 1.0000000000000000 0.0000000000000000
0.0000000000000000 1.0000000000000000 0.0000000000000000
0.0000000000000000 1.0000000000000000 0.0000000000000000
0.0000000000000000 1.0000000000000000 0.0000000000000000
0.0000000000000000 1.0000000000000000 0.0000000000000000
0.0000000000000000 1.0000000000000000 0.0000000000000000
0.0000000000000000 1.0000000000000000 0.0000000000000000
0.0000000000000000 1.0000000000000000 0.0000000000000000
0.0000000000000000 1.0000000000000000 0.0000000000000000
0.0000000000000000 1.0000000000000000 0.0000000000000000
0.0000000000000000 1.0000000000000000 0.0000000000000000
0.0000000000000000 1.0000000000000000 0.0000000000000000
0.0000000000000000 1.0000000000000000 0.0000000000000000
0.0000000000000000 1.0000000000000000 0.0000000000000000
0.0000000000000000 1.0000000000000000 0.0000000000000000
0.0000000000000000 1.0000000000000000 0.0000000000000000
0.0000000000000000 1.0000000000000000 0.0000000000000000
0.0000000000000000 1.0000000000000000 0.0000000000000000
0.0000000000000000 1.0000000000000000 0.0000000000000000
0.0000000000000000 1.0000000000000000 0.0000000000000000
0.0000000000000000 1.0000000000000000 0.0000000000000000
0.0000000000000000 1.0000000000000000 0.0000000000000000
0.0000000000000000 1.0000000000000000 0.0000000000000000
0.0000000000000000 1.0000000000000000 0.0000000000000000
0.0000000000000000 1.0000000000000000 0.0000000000000000
0.0000000000000000 1.0000000000000000 0.0000000000000000
0.0000000000000000 1.0000000000000000 0.0000000000000000
0.0000000000000000 1.0000000000000000 0.0000000000000000
0.0000000000000000 1.0000000000000000 0.0000000000000000
0.0000000000000000 1.0000000000000000 0.0000000000000000
0.0000000000000000 1.0000000000000000 0.0000000000000000
0.0000000000000000 1.0000000000000000 0.0000000000000000
0.0000000000000000 1.0000000000000000 0.0000000000000000
0.0000000000000000 1.0000000000000000 0.0000000000000000
0.0000000000000000 1.0000000000000000 0.0000000000000000
0.0000000000000000 1.0000000000000000 0.0000000000000000
0.0000000000000000 1.0000000000000000 0.0000000000000000
0.0000000000000000 1.0000000000000000 0.0000000000000000
0.0000000000000000 1.0000000000000000 0.0000000000000000
0.0000000000000000 1.0000000000000000 0.0000000000000000
0.0000000000000000 1.0000000000000000 0.0000000000000000
0.0000000000000000 1.0000000000000000 0.0000000000000000
0.0000000000000000 1.0000000000000000 0.0000000000000000
0.0000000000000000 1.0000000000000000 0.0000000000000000
0.0000000000000000 1.0000000000000000 0.0000000000000000
0.0000000000000000 1.0000000000000000 0.0000000000000000
0.0000000000000000 1.0000000000000000 0.0000000000000000
0.0000000000000000 1.0000000000000000 0.0000000000000000
0.0000000000000000 1.0000000000000000 0.0000000000000000
0.0000000000000000 1.0000000000000000 0.0000000000000000
0.0000000000000000 1.0000000000000000 0.0000000000000000
0.0000000000000000 1.0000000000000000 0.0000000000000000
0.0000000000000000 1.0000000000000000 0.0000000000000000
0.0000000000000000 1.0000000000000000 0.0000000000000000
0.0000000000000000 1.0000000000000000 0.0000000000000000
0.0000000000000000 1.0000000000000000 0.0000000000000000
0.0000000000000000 1.0000000000000000 0.0000000000000000
0.0000000000000000 1.0000000000000000 0.0000000000000000
0.0000000000000000 1.0000000000000000 0.0000000000000000
0.0000000000000000 1.0000000000000000 0.0000000000000000
0.0000000000000000 1.0000000000000000 0.0000000000000000
0.0000000000000000 1.0000000000000000 0.0000000000000000
0.0000000000000000 1.0000000000000000 0.0000000000000000
0.0000000000000000 1.0000000000000000 0.0000000000000000
0.0000000000000000 1.0000000000000000 0.0000000000000000
0.0000000000000000 1.0000000000000000 0.0000000000000000
0.0000000000000000 1.0000000000000000 0.0000000000000000
0.0000000000000000 1.0000000000000000 0.0000000000000000
0.0000000000000000 1.0000000000000000 0.0000000000000000
0.0000000000000000 1.0000000000000000 0.0000000000000000
0.0000000000000000 1.0000000000000000 0.0000000000000000
0.0000000000000000 1.0000000000000000 0.0000000000000000
0.0000000000000000 1.0000000000000000 0.0000000000000000
0.0000000000000000 1.0000000000000000 0.0000000000000000
0.0000000000000000 1.0000000000000000 0.0000000000000000
0.0000000000000000 1.0000000000000000 0.0000000000000000
0.0000000000000000 1.0000000000000000 0.0000000000000000
0.0000000000000000 1.0000000000000000 0.0000000000000000
0.0000000000000000 1.0000000000000000 0.0000000000000000
0.0000000000000000 1.0000000000000000 0.0000000000000000
0.0000000000000000 1.0000000000000000 0.0000000000000000
0.0000000000000000 1.0000000000000000 0.0000000000000000
0.0000000000000000 1.0000000000000000 0.0000000000000000
0.0000000000000000 1.0000000000000000 0.0000000000000000
0.0000000000000000 1.0000000000000000 0.0000000000000000
0.0000000000000000 1.0000000000000000 0.0000000000000000
0.0000000000000000 1.0000000000000000 0.0000000000000000
0.0000000000000000 1.0000000000000000 0.0000000000000000
0.0000000000000000 1.0000000000000000 0.0000000000000000
0.0000000000000000 1.0000000000000000 0.0000000000000000
0.0000000000000000 1.0000000000000000 0.0000000000000000
0.0000000000000000 1.0000000000000000 0.0000000000000000
0.0000000000000000 1.0000000000000000 0.0000000000000000
0.0000000000000000 1.0000000000000000 0.0000000000000000
0.0000000000000000 1.0000000000000000 0.0000000000000000
0.0000000000000000 1.0000000000000000 0.0000000000000000
0.0000000000000000 1.0000000000000000 0.0000000000000000
0.0000000000000000 1.0000000000000000 0.0000000000000000
0.0000000000000000 1.0000000000000000 0.0000000000000000
0.0000000000000000 1.0000000000000000 0.0000000000000000
0.0000000000000000 1.0000000000000000 0.0000000000000000
0.0000000000000000 1.0000000000000000 0.0000000000000000
0.0000000000000000 1.0000000000000000 0.0000000000000000
0.0000000000000000 1.0000000000000000 0.0000000000000000
0.0000000000000000 1.0000000000000000 0.0000000000000000
0.0000000000000000 1.0000000000000000 0.0000000000000000
0.0000000000000000 1.0000000000000000 0.0000000000000000
0.0000000000000000 1.0000000000000000 0.0000000000000000
0.0000000000000000 1.0000000000000000 0.0000000000000000
0.0000000000000000 1.0000000000000000 0.0000000000000000
0.0000000000000000 1.0000000000000000 0.0000000000000000
0.0000000000000000 1.0000000000000000 0.0000000000000000
0.0000000000000000 1.0000000000000000 0.0000000000000000
0.0000000000000000 1.0000000000000000 0.0000000000000000
0.0000000000000000 1.0000000000000000 0.0000000000000000
0.0000000000000000 1.0000000000000000 0.0000000000000000
0.0000000000000000 1.0000000000000000 0.0000000000000000
0.0000000000000000 1.0000000000000000 0.0000000000000000
0.0000000000000000 1.0000000000000000 0.0000000000000000
0.0000000000000000 1.0000000000000000 0.0000000000000000
0.0000000000000000 1.0000000000000000 0.0000000000000000
0.0000000000000000 1.0000000000000000 0.0000000000000000
0.0000000000000000 1.0000000000000000 0.0000000000000000
0.0000000000000000 1.0000000000000000 0.0000000000000000
0.0000000000000000 1.0000000000000000 0.0000000000000000
0.0000000000000000 1.0000000000000000 0.0000000000000000
0.0000000000000000 1.0000000000000000 0.0000000000000000
0.0000000000000000 1.0000000000000000 0.0000000000000000
0.0000000000000000 1.0000000000000000 0.0000000000000000
0.0000000000000000 1.0000000000000000 0.0000000000000000
0.0000000000000000 1.0000000000000000 0.0000000000000000
0.0000000000000000 1.0000000000000000 0.0000000000000000
0.0000000000000000 1.0000000000000000 0.0000000000000000
0.0000000000000000 1.0000000000000000 0.0000000000000000
0.0000000000000000 1.0000000000000000 0.0000000000000000
0.0000000000000000 1.0000000000000000 0.0000000000000000
0.0000000000000000 1.0000000000000000 0.0000000000000000
0.0000000000000000 1.0000000000000000 0.0000000000000000
0.0000000000000000 1.0000000000000000 0.0000000000000000
0.0000000000000000 1.0000000000000000 0.0000000000000000
0.0000000000000000 1.0000000000000000 0.0000000000000000
0.0000000000000000 1.0000000000000000 0.0000000000000000
0.0000000000000000 1.0000000000000000 0.0000000000000000
0.0000000000000000 1.0000000000000000 0.0000000000000000
0.0000000000000000 1.0000000000000000 0.0000000000000000
0.0000000000000000 1.0000000000000000 0.0000000000000000
0.0000000000000000 1.0000000000000000 0.0000000000000000
0.0000000000000000 1.0000000000000000 0.0000000000000000
0.0000000000000000 1.0000000000000000 0.0000000000000000
0.0000000000000000 1.0000000000000000 0.0000000000000000
0.0000000000000000 1.0000000000000000 0.0000000000000000
0.0000000000000000 1.0000000000000000 0.0000000000000000
0.0000000000000000 1.0000000000000000 0.0000000000000000
0.0000000000000000 1.0000000000000000 0.0000000000000000
0.0000000000000000 1.0000000000000000 0.0000000000000000
0.0000000000000000 1.0000000000000000 0.0000000000000000
0.0000000000000000 1.0000000000000000 0.0000000000000000
0.0000000000000000 1.0000000000000000 0.0000000000000000
0.0000000000000000 1.0000000000000000 0.0000000000000000
0.0000000000000000 1.0000000000000000 0.0000000000000000
0.0000000000000000 1.0000000000000000 0.0000000000000000
0.0000000000000000 1.0000000000000000 0.0000000000000000
0.0000000000000000 1.0000000000000000 0.0000000000000000
0.0000000000000000 1.0000000000000000 0.0000000000000000
0.0000000000000000 1.0000000000000000 0.0000000000000000
0.0000000000000000 1.0000000000000000 0.0000000000000000
0.0000000000000000 1.0000000000000000 0.0000000000000000
0.0000000000000000 1.0000000000000000 0.0000000000000000
0.0000000000000000 1.0000000000000000 0.0000000000000000
0.0000000000000000 1.0000000000000000 0.0000000000000000
0.0000000000000000 1.0000000000000000 0.0000000000000000
0.0000000000000000 1.0000000000000000 0.0000000000000000
0.0000000000000000 1.0000000000000000 0.0000000000000000
0.0000000000000000 1.0000000000000000 0.0000000000000000
0.0000000000000000 1.0000000000000000 0.0000000000000000
0.0000000000000000 1.0000000000000000 0.0000000000000000
0.0000000000000000 1.0000000000000000 0.0000000000000000
0.0000000000000000 1.0000000000000000 0.0000000000000000
0.0000000000000000 1.0000000000000000 0.0000000000000000
0.0000000000000000 1.0000000000000000 0.0000000000000000
0.0000000000000000 1.0000000000000000 0.0000000000000000
0.0000000000000000 1.0000000000000000 0.0000000000000000
0.0000000000000000 1.0000000000000000 0.0000000000000000
0.0000000000000000 1.0000000000000000 0.0000000000000000
0.0000000000000000 1.0000000000000000 0.0000000000000000
0.0000000000000000 1.0000000000000000 0.0000000000000000
0.0000000000000000 1.0000000000000000 0.0000000000000000
0.0000000000000000 1.0000000000000000 0.0000000000000000
0.0000000000000000 1.0000000000000000 0.0000000000000000
0.0000000000000000 1.0000000000000000 0.0000000000000000
0.0000000000000000 1.0000000000000000 0.0000000000000000
0.0000000000000000 1.0000000000000000 0.0000000000000000
0.0000000000000000 1.0000000000000000 0.0000000000000000
0.0000000000000000 1.0000000000000000 0.0000000000000000
0.0000000000000000 1.0000000000000000 0.0000000000000000
0.0000000000000000 1.0000000000000000 0.0000000000000000
0.0000000000000000 1.0000000000000000 0.0000000000000000
0.0000000000000000 1.0000000000000000 0.0000000000000000
0.0000000000000000 1.0000000000000000 0.0000000000000000
0.0000000000000000 1.0000000000000000 0.0000000000000000
0.0000000000000000 1.0000000000000000 0.0000000000000000
0.0000000000000000 1.0000000000000000 0.0000000000000000
0.0000000000000000 1.0000000000000000 0.0000000000000000
0.0000000000000000 1.0000000000000000 0.0000000000000000
0.0000000000000000 1.0000000000000000 0.0000000000000000
0.0000000000000000 1.0000000000000000 0.0000000000000000
0.0000000000000000 1.0000000000000000 0.0000000000000000
0.0000000000000000 1.0000000000000000 0.0000000000000000
0.0000000000000000 1.0000000000000000 0.0000000000000000
0.0000000000000000 1.0000000000000000 0.0000000000000000
0.0000000000000000 1.0000000000000000 0.0000000000000000
0.0000000000000000 1.0000000000000000 0.0000000000000000
0.0000000000000000 1.0000000000000000 0.0000000000000000
0.0000000000000000 1.0000000000000000 0.0000000000000000
0.0000000000000000 1.0000000000000000 0.0000000000000000
0.0000000000000000 1.0000000000000000 0.0000000000000000
0.0000000000000000 1.0000000000000000 0.0000000000000000
0.0000000000000000 1.0000000000000000 0.0000000000000000
0.0000000000000000 1.0000000000000000 0.0000000000000000
0.0000000000000000 1.0000000000000000 0.0000000000000000
0.0000000000000000 1.0000000000000000 0.0000000000000000
0.0000000000000000 1.0000000000000000 0.0000000000000000
0.0000000000000000 1.0000000000000000 0.0000000000000000
0.0000000000000000 1.0000000000000000 0.0000000000000000
0.0000000000000000 1.0000000000000000 0.0000000000000000
0.0000000000000000 1.0000000000000000 0.0000000000000000
0.0000000000000000 1.0000000000000000 0.0000000000000000
0.0000000000000000 1.0000000000000000 0.0000000000000000
0.0000000000000000 1.0000000000000000 0.0000000000000000
0.0000000000000000 1.0000000000000000 0.0000000000000000
0.0000000000000000 1.0000000000000000 0.0000000000000000
0.0000000000000000 1.0000000000000000 0.0000000000000000
0.0000000000000000 1.0000000000000000 0.0000000000000000
0.0000000000000000 1.0000000000000000 0.0000000000000000
0.0000000000000000 1.0000000000000000 0.0000000000000000
0.0000000000000000 1.0000000000000000 0.0000000000000000
0.0000000000000000 1.0000000000000000 0.0000000000000000
0.0000000000000000 1.0000000000000000 0.0000000000000000
0.0000000000000000 1.0000000000000000 0.0000000000000000
0.0000000000000000 1.0000000000000000 0.0000000000000000
0.0000000000000000 1.0000000000000000 0.0000000000000000
0.0000000000000000 1.0000000000000000 0.0000000000000000
0.0000000000000000 1.0000000000000000 0.0000000000000000
0.0000000000000000 1.0000000000000000 0.0000000000000000
0.0000000000000000 1.0000000000000000 0.0000000000000000
0.0000000000000000 1.0000000000000000 0.0000000000000000
0.0000000000000000 1.0000000000000000 0.0000000000000000
0.0000000000000000 1.0000000000000000 0.0000000000000000
0.0000000000000000 1.0000000000000000 0.0000000000000000
0.0000000000000000 1.0000000000000000 0.0000000000000000
0.0000000000000000 1.0000000000000000 0.0000000000000000
0.0000000000000000 1.0000000000000000 0.0000000000000000
0.0000000000000000 1.0000000000000000 0.0000000000000000
0.0000000000000000 1.0000000000000000 0.0000000000000000
0.0000000000000000 1.0000000000000000 0.0000000000000000
0.0000000000000000 1.0000000000000000 0.0000000000000000
0.0000000000000000 1.0000000000000000 0.0000000000000000
0.0000000000000000 1.0000000000000000 0.0000000000000000
0.0000000000000000 1.0000000000000000 0.0000000000000000
0.0000000000000000 1.0000000000000000 0.0000000000000000
0.0000000000000000 1.0000000000000000 0.0000000000000000
0.0000000000000000 1.0000000000000000 0.0000000000000000
0.0000000000000000 1.0000000000000000 0.0000000000000000
0.0000000000000000 1.0000000000000000 0.0000000000000000
0.0000000000000000 1.0000000000000000 0.0000000000000000
0.0000000000000000 1.0000000000000000 0.0000000000000000
0.0000000000000000 1.0000000000000000 0.0000000000000000
0.0000000000000000 1.0000000000000000 0.0000000000000000
0.0000000000000000 1.0000000000000000 0.0000000000000000
0.0000000000000000 1.0000000000000000 0.0000000000000000
0.0000000000000000 1.0000000000000000 0.0000000000000000
0.0000000000000000 1.0000000000000000 0.0000000000000000
0.0000000000000000 1.0000000000000000 0.0000000000000000
0.0000000000000000 1.0000000000000000 0.0000000000000000
0.0000000000000000 1.0000000000000000 0.0000000000000000
0.0000000000000000 1.0000000000000000 0.0000000000000000
0.0000000000000000 1.0000000000000000 0.0000000000000000
0.0000000000000000 1.0000000000000000 0.0000000000000000
0.0000000000000000 1.0000000000000000 0.0000000000000000
0.0000000000000000 1.0000000000000000 0.0000000000000000
0.0000000000000000 1.0000000000000000 0.0000000000000000
0.0000000000000000 1.0000000000000000 0.0000000000000000
0.0000000000000000 1.0000000000000000 0.0000000000000000
0.0000000000000000 1.0000000000000000 0.0000000000000000
0.0000000000000000 1.0000000000000000 0.0000000000000000
0.0000000000000000 1.0000000000000000 0.0000000000000000
0.0000000000000000 1.0000000000000000 0.0000000000000000
0.0000000000000000 1.0000000000000000 0.0000000000000000
0.0000000000000000 1.0000000000000000 0.0000000000000000
0.0000000000000000 1.0000000000000000 0.0000000000000000
0.0000000000000000 1.0000000000000000 0.0000000000000000
0.0000000000000000 1.0000000000000000 0.0000000000000000
0.0000000000000000 1.0000000000000000 0.0000000000000000
0.0000000000000000 1.0000000000000000 0.0000000000000000
0.0000000000000000 1.0000000000000000 0.0000000000000000
0.0000000000000000 1.0000000000000000 0.0000000000000000
0.0000000000000000 1.0000000000000000 0.0000000000000000
0.0000000000000000 1.0000000000000000 0.0000000000000000
0.0000000000000000 1.0000000000000000 0.0000000000000000
0.0000000000000000 1.0000000000000000 0.0000000000000000
0.0000000000000000 1.0000000000000000 0.0000000000000000
0.0000000000000000 1.0000000000000000 0.0000000000000000
0.0000000000000000 1.0000000000000000 0.0000000000000000
0.0000000000000000 1.0000000000000000 0.0000000000000000
0.0000000000000000 1.0000000000000000 0.0000000000000000
0.0000000000000000 1.0000000000000000 0.0000000000000000
0.0000000000000000 1.0000000000000000 0.0000000000000000
0.0000000000000000 1.0000000000000000 0.0000000000000000
0.0000000000000000 1.0000000000000000 0.0000000000000000
0.0000000000000000 1.0000000000000000 0.0000000000000000
0.0000000000000000 1.0000000000000000 0.0000000000000000
0.0000000000000000 1.0000000000000000 0.0000000000000000
0.0000000000000000 1.0000000000000000 0.0000000000000000
0.0000000000000000 1.0000000000000000 0.0000000000000000
0.0000000000000000 1.0000000000000000 0.0000000000000000
0.0000000000000000 1.0000000000000000 0.0000000000000000
0.0000000000000000 1.0000000000000000 0.0000000000000000
0.0000000000000000 1.0000000000000000 0.0000000000000000
0.0000000000000000 1.0000000000000000 0.0000000000000000
0.0000000000000000 1.0000000000000000 0.0000000000000000
0.0000000000000000 1.0000000000000000 0.0000000000000000
0.0000000000000000 1.0000000000000000 0.0000000000000000
0.0000000000000000 1.0000000000000000 0.0000000000000000
0.0000000000000000 1.0000000000000000 0.0000000000000000
0.0000000000000000 1.0000000000000000 0.0000000000000000
0.0000000000000000 1.0000000000000000 0.0000000000000000
0.0000000000000000 1.0000000000000000 0.0000000000000000
0.0000000000000000 1.0000000000000000 0.0000000000000000
0.0000000000000000 1.0000000000000000 0.0000000000000000
0.0000000000000000 1.0000000000000000 0.0000000000000000
0.0000000000000000 1.0000000000000000 0.0000000000000000
0.0000000000000000 1.0000000000000000 0.0000000000000000
0.0000000000000000 1.0000000000000000 0.0000000000000000
0.0000000000000000 1.0000000000000000 0.0000000000000000
0.0000000000000000 1.0000000000000000 0.0000000000000000
0.0000000000000000 1.0000000000000000 0.0000000000000000
0.0000000000000000 1.0000000000000000 0.0000000000000000
0.0000000000000000 1.0000000000000000 0.0000000000000000
0.0000000000000000 1.0000000000000000 0.0000000000000000
0.0000000000000000 1.0000000000000000 0.0000000000000000
0.0000000000000000 1.0000000000000000 0.0000000000000000
0.0000000000000000 1.0000000000000000 0.0000000000000000
0.0000000000000000 1.0000000000000000 0.0000000000000000
0.0000000000000000 1.0000000000000000 0.0000000000000000
0.0000000000000000 1.0000000000000000 0.0000000000000000
0.0000000000000000 1.0000000000000000 0.0000000000000000
0.0000000000000000 1.0000000000000000 0.0000000000000000
0.0000000000000000 1.0000000000000000 0.0000000000000000
0.0000000000000000 1.0000000000000000 0.0000000000000000
0.0000000000000000 1.0000000000000000 0.0000000000000000
0.0000000000000000 1.0000000000000000 0.0000000000000000
0.0000000000000000 1.0000000000000000 0.0000000000000000
0.0000000000000000 1.0000000000000000 0.0000000000000000
0.0000000000000000 1.0000000000000000 0.0000000000000000
0.0000000000000000 1.0000000000000000 0.0000000000000000
0.0000000000000000 1.0000000000000000 0.0000000000000000
0.0000000000000000 1.0000000000000000 0.0000000000000000
0.0000000000000000 1.0000000000000000 0.0000000000000000
0.0000000000000000 1.0000000000000000 0.0000000000000000
0.0000000000000000 1.0000000000000000 0.0000000000000000
0.0000000000000000 1.0000000000000000 0.0000000000000000
0.0000000000000000 1.0000000000000000 0.0000000000000000
0.0000000000000000 1.0000000000000000 0.0000000000000000
0.0000000000000000 1.0000000000000000 0.0000000000000000
0.0000000000000000 1.0000000000000000 0.0000000000000000
0.0000000000000000 1.0000000000000000 0.0000000000000000
0.0000000000000000 1.0000000000000000 0.0000000000000000
0.0000000000000000 1.0000000000000000 0.0000000000000000
0.0000000000000000 1.0000000000000000 0.0000000000000000
0.0000000000000000 1.0000000000000000 0.0000000000000000
0.0000000000000000 1.0000000000000000 0.0000000000000000
0.0000000000000000 1.0000000000000000 0.0000000000000000
0.0000000000000000 1.0000000000000000 0.0000000000000000
0.0000000000000000 1.0000000000000000 0.0000000000000000
0.0000000000000000 1.0000000000000000 0.0000000000000000
0.0000000000000000 1.0000000000000000 0.0000000000000000
0.0000000000000000 1.0000000000000000 0.0000000000000000
0.0000000000000000 1.0000000000000000 0.0000000000000000
0.0000000000000000 1.0000000000000000 0.0000000000000000
0.0000000000000000 1.0000000000000000 0.0000000000000000
0.0000000000000000 1.0000000000000000 0.0000000000000000
0.0000000000000000 1.0000000000000000 0.0000000000000000
0.0000000000000000 1.0000000000000000 0.0000000000000000
0.0000000000000000 1.0000000000000000 0.0000000000000000
0.0000000000000000 1.0000000000000000 0.0000000000000000
0.0000000000000000 1.0000000000000000 0.0000000000000000
0.0000000000000000 1.0000000000000000 0.0000000000000000
0.0000000000000000 1.0000000000000000 0.0000000000000000
0.0000000000000000 1.0000000000000000 0.0000000000000000
0.0000000000000000 1.0000000000000000 0.0000000000000000
0.0000000000000000 1.0000000000000000 0.0000000000000000
0.0000000000000000 1.0000000000000000 0.0000000000000000
0.0000000000000000 1.0000000000000000 0.0000000000000000
0.0000000000000000 1.0000000000000000 0.0000000000000000
0.0000000000000000 1.0000000000000000 0.0000000000000000
0.0000000000000000 1.0000000000000000 0.0000000000000000
0.0000000000000000 1.0000000000000000 0.0000000000000000
0.0000000000000000 1.0000000000000000 0.0000000000000000
0.0000000000000000 1.0000000000000000 0.0000000000000000
0.0000000000000000 1.0000000000000000 0.0000000000000000
0.0000000000000000 1.0000000000000000 0.0000000000000000
0.0000000000000000 1.0000000000000000 0.0000000000000000
0.0000000000000000 1.0000000000000000 0.0000000000000000
0.0000000000000000 1.0000000000000000 0.0000000000000000
0.0000000000000000 1.0000000000000000 0.0000000000000000
0.0000000000000000 1.0000000000000000 0.0000000000000000
0.0000000000000000 1.0000000000000000 0.0000000000000000
0.0000000000000000 1.0000000000000000 0.0000000000000000
0.0000000000000000 1.0000000000000000 0.0000000000000000
0.0000000000000000 1.0000000000000000 0.0000000000000000
0.0000000000000000 1.0000000000000000 0.0000000000000000
0.0000000000000000 1.0000000000000000 0.0000000000000000
0.0000000000000000 1.0000000000000000 0.0000000000000000
0.0000000000000000 1.0000000000000000 0.0000000000000000
0.0000000000000000 1.0000000000000000 0.0000000000000000
0.0000000000000000 1.0000000000000000 0.0000000000000000
0.0000000000000000 1.0000000000000000 0.0000000000000000
0.0000000000000000 1.0000000000000000 0.0000000000000000
0.0000000000000000 1.0000000000000000 0.0000000000000000
0.0000000000000000 1.0000000000000000 0.0000000000000000
0.0000000000000000 1.0000000000000000 0.0000000000000000
0.0000000000000000 1.0000000000000000 0.0000000000000000
0.0000000000000000 1.0000000000000000 0.0000000000000000
0.0000000000000000 1.0000000000000000 0.0000000000000000
0.0000000000000000 1.0000000000000000 0.0000000000000000
0.0000000000000000 1.0000000000000000 0.0000000000000000
0.0000000000000000 1.0000000000000000 0.0000000000000000
0.0000000000000000 1.0000000000000000 0.0000000000000000
0.0000000000000000 1.0000000000000000 0.0000000000000000
0.0000000000000000 1.0000000000000000 0.0000000000000000
0.0000000000000000 1.0000000000000000 0.0000000000000000
0.0000000000000000 1.0000000000000000 0.0000000000000000
0.0000000000000000 1.0000000000000000 0.0000000000000000
0.0000000000000000 1.0000000000000000 0.0000000000000000
0.0000000000000000 1.0000000000000000 0.0000000000000000
0.0000000000000000 1.0000000000000000 0.0000000000000000
0.0000000000000000 1.0000000000000000 0.0000000000000000
0.0000000000000000 1.0000000000000000 0.0000000000000000
0.0000000000000000 1.0000000000000000 0.0000000000000000
0.0000000000000000 1.0000000000000000 0.0000000000000000
0.0000000000000000 1.0000000000000000 0.0000000000000000
0.0000000000000000 1.0000000000000000 0.0000000000000000
0.0000000000000000 1.0000000000000000 0.0000000000000000
0.0000000000000000 1.0000000000000000 0.0000000000000000
0.0000000000000000 1.0000000000000000 0.0000000000000000
0.0000000000000000 1.0000000000000000 0.0000000000000000
0.0000000000000000 1.0000000000000000 0.0000000000000000
0.0000000000000000 1.0000000000000000 0.0000000000000000
0.0000000000000000 1.0000000000000000 0.0000000000000000
0.0000000000000000 1.0000000000000000 0.0000000000000000
0.0000000000000000 1.0000000000000000 0.0000000000000000
0.0000000000000000 1.0000000000000000 0.0000000000000000
0.0000000000000000 1.0000000000000000 0.0000000000000000
0.0000000000000000 1.0000000000000000 0.0000000000000000
0.0000000000000000 1.0000000000000000 0.0000000000000000
0.0000000000000000 1.0000000000000000 0.0000000000000000
0.0000000000000000 1.0000000000000000 0.0000000000000000
0.0000000000000000 1.0000000000000000 0.0000000000000000
0.0000000000000000 1.0000000000000000 0.0000000000000000
0.0000000000000000 1.0000000000000000 0.0000000000000000
0.0000000000000000 1.0000000000000000 0.0000000000000000
0.0000000000000000 1.0000000000000000 0.0000000000000000
0.0000000000000000 1.0000000000000000 0.0000000000000000
0.0000000000000000 1.0000000000000000 0.0000000000000000
0.0000000000000000 1.0000000000000000 0.0000000000000000
0.0000000000000000 1.0000000000000000 0.0000000000000000
0.0000000000000000 1.0000000000000000 0.0000000000000000
0.0000000000000000 1.0000000000000000 0.0000000000000000
0.0000000000000000 1.0000000000000000 0.0000000000000000
0.0000000000000000 1.0000000000000000 0.0000000000000000
0.0000000000000000 1.0000000000000000 0.0000000000000000
0.0000000000000000 1.0000000000000000 0.0000000000000000
0.0000000000000000 1.0000000000000000 0.0000000000000000
0.0000000000000000 1.0000000000000000 0.0000000000000000
0.0000000000000000 1.0000000000000000 0.0000000000000000
0.0000000000000000 1.0000000000000000 0.0000000000000000
0.0000000000000000 1.0000000000000000 0.0000000000000000
0.0000000000000000 1.0000000000000000 0.0000000000000000
0.0000000000000000 1.0000000000000000 0.0000000000000000
0.0000000000000000 1.0000000000000000 0.0000000000000000
0.0000000000000000 1.0000000000000000 0.0000000000000000
0.0000000000000000 1.0000000000000000 0.0000000000000000
0.0000000000000000 1.0000000000000000 0.0000000000000000
0.0000000000000000 1.0000000000000000 0.0000000000000000
0.0000000000000000 1.0000000000000000 0.0000000000000000
0.0000000000000000 1.0000000000000000 0.0000000000000000
0.0000000000000000 1.0000000000000000 0.0000000000000000
0.0000000000000000 1.0000000000000000 0.0000000000000000
0.0000000000000000 1.0000000000000000 0.0000000000000000
0.0000000000000000 1.0000000000000000 0.0000000000000000
0.0000000000000000 1.0000000000000000 0.0000000000000000
0.0000000000000000 1.0000000000000000 0.0000000000000000
0.0000000000000000 1.0000000000000000 0.0000000000000000
0.0000000000000000 1.0000000000000000 0.0000000000000000
0.0000000000000000 1.0000000000000000 0.0000000000000000
0.0000000000000000 1.0000000000000000 0.0000000000000000
0.0000000000000000 1.0000000000000000 0.0000000000000000
0.0000000000000000 1.0000000000000000 0.0000000000000000
0.0000000000000000 1.0000000000000000 0.0000000000000000
0.0000000000000000 1.0000000000000000 0.0000000000000000
0.0000000000000000 1.0000000000000000 0.0000000000000000
0.0000000000000000 1.0000000000000000 0.0000000000000000
0.0000000000000000 1.0000000000000000 0.0000000000000000
0.0000000000000000 1.0000000000000000 0.0000000000000000
0.0000000000000000 1.0000000000000000 0.0000000000000000
0.0000000000000000 1.0000000000000000 0.0000000000000000
0.0000000000000000 1.0000000000000000 0.0000000000000000
0.0000000000000000 1.0000000000000000 0.0000000000000000
0.0000000000000000 1.0000000000000000 0.0000000000000000
0.0000000000000000 1.0000000000000000 0.0000000000000000
0.0000000000000000 1.0000000000000000 0.0000000000000000
0.0000000000000000 1.0000000000000000 0.0000000000000000
0.0000000000000000 1.0000000000000000 0.0000000000000000
0.0000000000000000 1.0000000000000000 0.0000000000000000
0.0000000000000000 1.0000000000000000 0.0000000000000000
0.0000000000000000 1.0000000000000000 0.0000000000000000
0.0000000000000000 1.0000000000000000 0.0000000000000000
0.0000000000000000 1.0000000000000000 0.0000000000000000
0.0000000000000000 1.0000000000000000 0.0000000000000000
0.0000000000000000 1.0000000000000000 0.0000000000000000
0.0000000000000000 1.0000000000000000 0.0000000000000000
0.0000000000000000 1.0000000000000000 0.0000000000000000
0.0000000000000000 1.0000000000000000 0.0000000000000000
0.0000000000000000 1.0000000000000000 0.0000000000000000
0.0000000000000000 1.0000000000000000 0.0000000000000000
0.0000000000000000 1.0000000000000000 0.0000000000000000
0.0000000000000000 1.0000000000000000 0.0000000000000000
0.0000000000000000 1.0000000000000000 0.0000000000000000
0.0000000000000000 1.0000000000000000 0.0000000000000000
0.0000000000000000 1.0000000000000000 0.0000000000000000
0.0000000000000000 1.0000000000000000 0.0000000000000000
0.0000000000000000 1.0000000000000000 0.0000000000000000
0.0000000000000000 1.0000000000000000 0.0000000000000000
0.0000000000000000 1.0000000000000000 0.0000000000000000
0.0000000000000000 1.0000000000000000 0.0000000000000000
0.0000000000000000 1.0000000000000000 0.0000000000000000
0.0000000000000000 1.0000000000000000 0.0000000000000000
0.0000000000000000 1.0000000000000000 0.0000000000000000
0.0000000000000000 1.0000000000000000 0.0000000000000000
0.0000000000000000 1.0000000000000000 0.0000000000000000
0.0000000000000000 1.0000000000000000 0.0000000000000000
0.0000000000000000 1.0000000000000000 0.0000000000000000
0.0000000000000000 1.0000000000000000 0.0000000000000000
0.0000000000000000 1.0000000000000000 0.0000000000000000
0.0000000000000000 1.0000000000000000 0.0000000000000000
0.0000000000000000 1.0000000000000000 0.0000000000000000
0.0000000000000000 1.0000000000000000 0.0000000000000000
0.0000000000000000 1.0000000000000000 0.0000000000000000
0.0000000000000000 1.0000000000000000 0.0000000000000000
0.0000000000000000 1.0000000000000000 0.0000000000000000
0.0000000000000000 1.0000000000000000 0.0000000000000000
0.0000000000000000 1.0000000000000000 0.0000000000000000
0.0000000000000000 1.0000000000000000 0.0000000000000000
0.0000000000000000 1.0000000000000000 0.0000000000000000
0.0000000000000000 1.0000000000000000 0.0000000000000000
0.0000000000000000 1.0000000000000000 0.0000000000000000
0.0000000000000000 1.0000000000000000 0.0000000000000000
0.0000000000000000 1.0000000000000000 0.0000000000000000
0.0000000000000000 1.0000000000000000 0.0000000000000000
0.0000000000000000 1.0000000000000000 0.0000000000000000
0.0000000000000000 1.0000000000000000 0.0000000000000000
0.0000000000000000 1.0000000000000000 0.0000000000000000
0.0000000000000000 1.0000000000000000 0.0000000000000000
0.0000000000000000 1.0000000000000000 0.0000000000000000
0.0000000000000000 1.0000000000000000 0.0000000000000000
0.0000000000000000 1.0000000000000000 0.0000000000000000
0.0000000000000000 1.0000000000000000 0.0000000000000000
0.0000000000000000 1.0000000000000000 0.0000000000000000
0.0000000000000000 1.0000000000000000 0.0000000000000000
0.0000000000000000 1.0000000000000000 0.0000000000000000
0.0000000000000000 1.0000000000000000 0.0000000000000000
0.0000000000000000 1.0000000000000000 0.0000000000000000
0.0000000000000000 1.0000000000000000 0.0000000000000000
0.0000000000000000 1.0000000000000000 0.0000000000000000
0.0000000000000000 1.0000000000000000 0.0000000000000000
0.0000000000000000 1.0000000000000000 0.0000000000000000
0.0000000000000000 1.0000000000000000 0.0000000000000000
0.0000000000000000 1.0000000000000000 0.0000000000000000
0.0000000000000000 1.0000000000000000 0.0000000000000000
0.0000000000000000 1.0000000000000000 0.0000000000000000
0.0000000000000000 1.0000000000000000 0.0000000000000000
0.0000000000000000 1.0000000000000000 0.0000000000000000
0.0000000000000000 1.0000000000000000 0.0000000000000000
0.0000000000000000 1.0000000000000000 0.0000000000000000
0.0000000000000000 1.0000000000000000 0.0000000000000000
0.0000000000000000 1.0000000000000000 0.0000000000000000
0.0000000000000000 1.0000000000000000 0.0000000000000000
0.0000000000000000 1.0000000000000000 0.0000000000000000
0.0000000000000000 1.0000000000000000 0.0000000000000000
0.0000000000000000 1.0000000000000000 0.0000000000000000
0.0000000000000000 1.0000000000000000 0.0000000000000000
0.0000000000000000 1.0000000000000000 0.0000000000000000
0.0000000000000000 1.0000000000000000 0.0000000000000000
0.0000000000000000 1.0000000000000000 0.0000000000000000
0.0000000000000000 1.0000000000000000 0.0000000000000000
0.0000000000000000 1.0000000000000000 0.0000000000000000
0.0000000000000000 1.0000000000000000 0.0000000000000000
0.0000000000000000 1.0000000000000000 0.0000000000000000
0.0000000000000000 1.0000000000000000 0.0000000000000000
0.0000000000000000 1.0000000000000000 0.0000000000000000
0.0000000000000000 1.0000000000000000 0.0000000000000000
0.0000000000000000 1.0000000000000000 0.0000000000000000
0.0000000000000000 1.0000000000000000 0.0000000000000000
0.0000000000000000 1.0000000000000000 0.0000000000000000
0.0000000000000000 1.0000000000000000 0.0000000000000000
0.0000000000000000 1.0000000000000000 0.0000000000000000
0.0000000000000000 1.0000000000000000 0.0000000000000000
0.0000000000000000 1.0000000000000000 0.0000000000000000
0.0000000000000000 1.0000000000000000 0.0000000000000000
0.0000000000000000 1.0000000000000000 0.0000000000000000
0.0000000000000000 1.0000000000000000 0.0000000000000000
0.0000000000000000 1.0000000000000000 0.0000000000000000
0.0000000000000000 1.0000000000000000 0.0000000000000000
0.0000000000000000 1.0000000000000000 0.0000000000000000
0.0000000000000000 1.0000000000000000 0.0000000000000000
0.0000000000000000 1.0000000000000000 0.0000000000000000
0.0000000000000000 1.0000000000000000 0.0000000000000000
0.0000000000000000 1.0000000000000000 0.0000000000000000
0.0000000000000000 1.0000000000000000 0.0000000000000000
0.0000000000000000 1.0000000000000000 0.0000000000000000
0.0000000000000000 1.0000000000000000 0.0000000000000000
0.0000000000000000 1.0000000000000000 0.0000000000000000
0.0000000000000000 1.0000000000000000 0.0000000000000000
0.0000000000000000 1.0000000000000000 0.0000000000000000
0.0000000000000000 1.0000000000000000 0.0000000000000000
0.0000000000000000 1.0000000000000000 0.0000000000000000
0.0000000000000000 1.0000000000000000 0.0000000000000000
0.0000000000000000 1.0000000000000000 0.0000000000000000
0.0000000000000000 1.0000000000000000 0.0000000000000000
0.0000000000000000 1.0000000000000000 0.0000000000000000
0.0000000000000000 1.0000000000000000 0.0000000000000000
0.0000000000000000 1.0000000000000000 0.0000000000000000
0.0000000000000000 1.0000000000000000 0.0000000000000000
0.0000000000000000 1.0000000000000000 0.0000000000000000
0.0000000000000000 1.0000000000000000 0.0000000000000000
0.0000000000000000 1.0000000000000000 0.0000000000000000
0.0000000000000000 1.0000000000000000 0.0000000000000000
0.0000000000000000 1.0000000000000000 0.0000000000000000
0.0000000000000000 1.0000000000000000 0.0000000000000000
0.0000000000000000 1.0000000000000000 0.0000000000000000
0.0000000000000000 1.0000000000000000 0.0000000000000000
0.0000000000000000 1.0000000000000000 0.0000000000000000
0.0000000000000000 1.0000000000000000 0.0000000000000000
0.0000000000000000 1.0000000000000000 0.0000000000000000
0.0000000000000000 1.0000000000000000 0.0000000000000000
0.0000000000000000 1.0000000000000000 0.0000000000000000
0.0000000000000000 1.0000000000000000 0.0000000000000000
0.0000000000000000 1.0000000000000000 0.0000000000000000
0.0000000000000000 1.0000000000000000 0.0000000000000000
0.0000000000000000 1.0000000000000000 0.0000000000000000
0.0000000000000000 1.0000000000000000 0.0000000000000000
0.0000000000000000 1.0000000000000000 0.0000000000000000
0.0000000000000000 1.0000000000000000 0.0000000000000000
0.0000000000000000 1.0000000000000000 0.0000000000000000
0.0000000000000000 1.0000000000000000 0.0000000000000000
0.0000000000000000 1.0000000000000000 0.0000000000000000
0.0000000000000000 1.0000000000000000 0.0000000000000000
0.0000000000000000 1.0000000000000000 0.0000000000000000
0.0000000000000000 1.0000000000000000 0.0000000000000000
0.0000000000000000 1.0000000000000000 0.0000000000000000
0.0000000000000000 1.0000000000000000 0.0000000000000000
0.0000000000000000 1.0000000000000000 0.0000000000000000
0.0000000000000000 1.0000000000000000 0.0000000000000000
0.0000000000000000 1.0000000000000000 0.0000000000000000
0.0000000000000000 1.0000000000000000 0.0000000000000000
0.0000000000000000 1.0000000000000000 0.0000000000000000
0.0000000000000000 1.0000000000000000 0.0000000000000000
0.0000000000000000 1.0000000000000000 0.0000000000000000
0.0000000000000000 1.0000000000000000 0.0000000000000000
0.0000000000000000 1.0000000000000000 0.0000000000000000
0.0000000000000000 1.0000000000000000 0.0000000000000000
0.0000000000000000 1.0000000000000000 0.0000000000000000
0.0000000000000000 1.0000000000000000 0.0000000000000000
0.0000000000000000 1.0000000000000000 0.0000000000000000
0.0000000000000000 1.0000000000000000 0.0000000000000000
0.0000000000000000 1.0000000000000000 0.0000000000000000
0.0000000000000000 1.0000000000000000 0.0000000000000000
0.0000000000000000 1.0000000000000000 0.0000000000000000
0.0000000000000000 1.0000000000000000 0.0000000000000000
0.0000000000000000 1.0000000000000000 0.0000000000000000
0.0000000000000000 1.0000000000000000 0.0000000000000000
0.0000000000000000 1.0000000000000000 0.0000000000000000
0.0000000000000000 1.0000000000000000 0.0000000000000000
0.0000000000000000 1.0000000000000000 0.0000000000000000
0.0000000000000000 1.0000000000000000 0.0000000000000000
0.0000000000000000 1.0000000000000000 0.0000000000000000
0.0000000000000000 1.0000000000000000 0.0000000000000000
0.0000000000000000 1.0000000000000000 0.0000000000000000
0.0000000000000000 1.0000000000000000 0.0000000000000000
0.0000000000000000 1.0000000000000000 0.0000000000000000
0.0000000000000000 1.0000000000000000 0.0000000000000000
0.0000000000000000 1.0000000000000000 0.0000000000000000
0.0000000000000000 1.0000000000000000 0.0000000000000000
0.0000000000000000 1.0000000000000000 0.0000000000000000
0.0000000000000000 1.0000000000000000 0.0000000000000000
0.0000000000000000 1.0000000000000000 0.0000000000000000
0.0000000000000000 1.0000000000000000 0.0000000000000000
0.0000000000000000 1.0000000000000000 0.0000000000000000
0.0000000000000000 1.0000000000000000 0.0000000000000000
0.0000000000000000 1.0000000000000000 0.0000000000000000
0.0000000000000000 1.0000000000000000 0.0000000000000000
0.0000000000000000 1.0000000000000000 0.0000000000000000
0.0000000000000000 1.0000000000000000 0.0000000000000000
0.0000000000000000 1.0000000000000000 0.0000000000000000
0.0000000000000000 1.0000000000000000 0.0000000000000000
0.0000000000000000 1.0000000000000000 0.0000000000000000
0.0000000000000000 1.0000000000000000 0.0000000000000000
0.0000000000000000 1.0000000000000000 0.0000000000000000
0.0000000000000000 1.0000000000000000 0.0000000000000000
0.0000000000000000 1.0000000000000000 0.0000000000000000
0.0000000000000000 1.0000000000000000 0.0000000000000000
0.0000000000000000 1.0000000000000000 0.0000000000000000
0.0000000000000000 1.0000000000000000 0.0000000000000000
0.0000000000000000 1.0000000000000000 0.0000000000000000
0.0000000000000000 1.0000000000000000 0.0000000000000000
0.0000000000000000 1.0000000000000000 0.0000000000000000
0.0000000000000000 1.0000000000000000 0.0000000000000000
0.0000000000000000 1.0000000000000000 0.0000000000000000
0.0000000000000000 1.0000000000000000 0.0000000000000000
0.0000000000000000 1.0000000000000000 0.0000000000000000
0.0000000000000000 1.0000000000000000 0.0000000000000000
0.0000000000000000 1.0000000000000000 0.0000000000000000
0.0000000000000000 1.0000000000000000 0.0000000000000000
0.0000000000000000 1.0000000000000000 0.0000000000000000
0.0000000000000000 1.0000000000000000 0.0000000000000000
0.0000000000000000 1.0000000000000000 0.0000000000000000
0.0000000000000000 1.0000000000000000 0.0000000000000000
0.0000000000000000 1.0000000000000000 0.0000000000000000
0.0000000000000000 1.0000000000000000 0.0000000000000000
0.0000000000000000 1.0000000000000000 0.0000000000000000
0.0000000000000000 1.0000000000000000 0.0000000000000000
0.0000000000000000 1.0000000000000000 0.0000000000000000
0.0000000000000000 1.0000000000000000 0.0000000000000000
0.0000000000000000 1.0000000000000000 0.0000000000000000
0.0000000000000000 1.0000000000000000 0.0000000000000000
0.0000000000000000 1.0000000000000000 0.0000000000000000
0.0000000000000000 1.0000000000000000 0.0000000000000000
0.0000000000000000 1.0000000000000000 0.0000000000000000
0.0000000000000000 1.0000000000000000 0.0000000000000000
0.0000000000000000 1.0000000000000000 0.0000000000000000
0.0000000000000000 1.0000000000000000 0.0000000000000000
0.0000000000000000 1.0000000000000000 0.0000000000000000
0.0000000000000000 1.0000000000000000 0.0000000000000000
0.0000000000000000 1.0000000000000000 0.0000000000000000
0.0000000000000000 1.0000000000000000 0.0000000000000000
0.0000000000000000 1.0000000000000000 0.0000000000000000
0.0000000000000000 1.0000000000000000 0.0000000000000000
0.0000000000000000 1.0000000000000000 0.0000000000000000
0.0000000000000000 1.0000000000000000 0.0000000000000000
0.0000000000000000 1.0000000000000000 0.0000000000000000
0.0000000000000000 1.0000000000000000 0.0000000000000000
0.0000000000000000 1.0000000000000000 0.0000000000000000
0.0000000000000000 1.0000000000000000 0.0000000000000000
0.0000000000000000 1.0000000000000000 0.0000000000000000
0.0000000000000000 1.0000000000000000 0.0000000000000000
0.0000000000000000 1.0000000000000000 0.0000000000000000
0.0000000000000000 1.0000000000000000 0.0000000000000000
0.0000000000000000 1.0000000000000000 0.0000000000000000
0.0000000000000000 1.0000000000000000 0.0000000000000000
0.0000000000000000 1.0000000000000000 0.0000000000000000
0.0000000000000000 1.0000000000000000 0.0000000000000000
0.0000000000000000 1.0000000000000000 0.0000000000000000
0.0000000000000000 1.0000000000000000 0.0000000000000000
0.0000000000000000 1.0000000000000000 0.0000000000000000
0.0000000000000000 1.0000000000000000 0.0000000000000000
0.0000000000000000 1.0000000000000000 0.0000000000000000
0.0000000000000000 1.0000000000000000 0.0000000000000000
0.0000000000000000 1.0000000000000000 0.0000000000000000
0.0000000000000000 1.0000000000000000 0.0000000000000000
0.0000000000000000 1.0000000000000000 0.0000000000000000
0.0000000000000000 1.0000000000000000 0.0000000000000000
0.0000000000000000 1.0000000000000000 0.0000000000000000
0.0000000000000000 1.0000000000000000 0.0000000000000000
0.0000000000000000 1.0000000000000000 0.0000000000000000
0.0000000000000000 1.0000000000000000 0.0000000000000000
0.0000000000000000 1.0000000000000000 0.0000000000000000
0.0000000000000000 1.0000000000000000 0.0000000000000000
0.0000000000000000 1.0000000000000000 0.0000000000000000
0.0000000000000000 1.0000000000000000 0.0000000000000000
0.0000000000000000 1.0000000000000000 0.0000000000000000
0.0000000000000000 1.0000000000000000 0.0000000000000000
0.0000000000000000 1.0000000000000000 0.0000000000000000
0.0000000000000000 1.0000000000000000 0.0000000000000000
0.0000000000000000 1.0000000000000000 0.0000000000000000
0.0000000000000000 1.0000000000000000 0.0000000000000000
0.0000000000000000 1.0000000000000000 0.0000000000000000
0.0000000000000000 1.0000000000000000 0.0000000000000000
0.0000000000000000 1.0000000000000000 0.0000000000000000
0.0000000000000000 1.0000000000000000 0.0000000000000000
0.0000000000000000 1.0000000000000000 0.0000000000000000
0.0000000000000000 1.0000000000000000 0.0000000000000000
0.0000000000000000 1.0000000000000000 0.0000000000000000
0.0000000000000000 1.0000000000000000 0.0000000000000000
0.0000000000000000 1.0000000000000000 0.0000000000000000
0.0000000000000000 1.0000000000000000 0.0000000000000000
0.0000000000000000 1.0000000000000000 0.0000000000000000
0.0000000000000000 1.0000000000000000 0.0000000000000000
0.0000000000000000 1.0000000000000000 0.0000000000000000
0.0000000000000000 1.0000000000000000 0.0000000000000000
0.0000000000000000 1.0000000000000000 0.0000000000000000
0.0000000000000000 1.0000000000000000 0.0000000000000000
0.0000000000000000 1.0000000000000000 0.0000000000000000
0.0000000000000000 1.0000000000000000 0.0000000000000000
0.0000000000000000 1.0000000000000000 0.0000000000000000
0.0000000000000000 1.0000000000000000 0.0000000000000000
0.0000000000000000 1.0000000000000000 0.0000000000000000
0.0000000000000000 1.0000000000000000 0.0000000000000000
0.0000000000000000 1.0000000000000000 0.0000000000000000
0.0000000000000000 1.0000000000000000 0.0000000000000000
0.0000000000000000 1.0000000000000000 0.0000000000000000
0.0000000000000000 1.0000000000000000 0.0000000000000000
0.0000000000000000 1.0000000000000000 0.0000000000000000
0.0000000000000000 1.0000000000000000 0.0000000000000000
0.0000000000000000 1.0000000000000000 0.0000000000000000
0.0000000000000000 1.0000000000000000 0.0000000000000000
0.0000000000000000 1.0000000000000000 0.0000000000000000
0.0000000000000000 1.0000000000000000 0.0000000000000000
0.0000000000000000 1.0000000000000000 0.0000000000000000
0.0000000000000000 1.0000000000000000 0.0000000000000000
0.0000000000000000 1.0000000000000000 0.0000000000000000
0.0000000000000000 1.0000000000000000 0.0000000000000000
0.0000000000000000 1.0000000000000000 0.0000000000000000
0.0000000000000000 1.0000000000000000 0.0000000000000000
0.0000000000000000 1.0000000000000000 0.0000000000000000
0.0000000000000000 1.0000000000000000 0.0000000000000000
0.0000000000000000 1.0000000000000000 0.0000000000000000
0.0000000000000000 1.0000000000000000 0.0000000000000000
0.0000000000000000 1.0000000000000000 0.0000000000000000
0.0000000000000000 1.0000000000000000 0.0000000000000000
0.0000000000000000 1.0000000000000000 0.0000000000000000
0.0000000000000000 1.0000000000000000 0.0000000000000000
0.0000000000000000 1.0000000000000000 0.0000000000000000
0.0000000000000000 1.0000000000000000 0.0000000000000000
0.0000000000000000 1.0000000000000000 0.0000000000000000
0.0000000000000000 1.0000000000000000 0.0000000000000000
0.0000000000000000 1.0000000000000000 0.0000000000000000
0.0000000000000000 1.0000000000000000 0.0000000000000000
0.0000000000000000 1.0000000000000000 0.0000000000000000
0.0000000000000000 1.0000000000000000 0.0000000000000000
0.0000000000000000 1.0000000000000000 0.0000000000000000
0.0000000000000000 1.0000000000000000 0.0000000000000000
0.0000000000000000 1.0000000000000000 0.0000000000000000
0.0000000000000000 1.0000000000000000 0.0000000000000000
0.0000000000000000 1.0000000000000000 0.0000000000000000
0.0000000000000000 1.0000000000000000 0.0000000000000000
0.0000000000000000 1.0000000000000000 0.0000000000000000
0.0000000000000000 1.0000000000000000 0.0000000000000000
0.0000000000000000 1.0000000000000000 0.0000000000000000
0.0000000000000000 1.0000000000000000 0.0000000000000000
0.0000000000000000 1.0000000000000000 0.0000000000000000
0.0000000000000000 1.0000000000000000 0.0000000000000000
0.0000000000000000 1.0000000000000000 0.0000000000000000
0.0000000000000000 1.0000000000000000 0.0000000000000000
0.0000000000000000 1.0000000000000000 0.0000000000000000
0.0000000000000000 1.0000000000000000 0.0000000000000000
0.0000000000000000 1.0000000000000000 0.0000000000000000
0.0000000000000000 1.0000000000000000 0.0000000000000000
0.0000000000000000 1.0000000000000000 0.0000000000000000
0.0000000000000000 1.0000000000000000 0.0000000000000000
0.0000000000000000 1.0000000000000000 0.0000000000000000
0.0000000000000000 1.0000000000000000 0.0000000000000000
0.0000000000000000 1.0000000000000000 0.0000000000000000
0.0000000000000000 1.0000000000000000 0.0000000000000000
0.0000000000000000 1.0000000000000000 0.0000000000000000
0.0000000000000000 1.0000000000000000 0.0000000000000000
0.0000000000000000 1.0000000000000000 0.0000000000000000
0.0000000000000000 1.0000000000000000 0.0000000000000000
0.0000000000000000 1.0000000000000000 0.0000000000000000
0.0000000000000000 1.0000000000000000 0.0000000000000000
0.0000000000000000 1.0000000000000000 0.0000000000000000
0.0000000000000000 1.0000000000000000 0.0000000000000000
0.0000000000000000 1.0000000000000000 0.0000000000000000
0.0000000000000000 1.0000000000000000 0.0000000000000000
0.0000000000000000 1.0000000000000000 0.0000000000000000
0.0000000000000000 1.0000000000000000 0.0000000000000000
0.0000000000000000 1.0000000000000000 0.0000000000000000
0.0000000000000000 1.0000000000000000 0.0000000000000000
0.0000000000000000 1.0000000000000000 0.0000000000000000
0.0000000000000000 1.0000000000000000 0.0000000000000000
0.0000000000000000 1.0000000000000000 0.0000000000000000
0.0000000000000000 1.0000000000000000 0.0000000000000000
0.0000000000000000 1.0000000000000000 0.0000000000000000
0.0000000000000000 1.0000000000000000 0.0000000000000000
0.0000000000000000 1.0000000000000000 0.0000000000000000
0.0000000000000000 1.0000000000000000 0.0000000000000000
0.0000000000000000 1.0000000000000000 0.0000000000000000
0.0000000000000000 1.0000000000000000 0.0000000000000000
0.0000000000000000 1.0000000000000000 0.0000000000000000
0.0000000000000000 1.0000000000000000 0.0000000000000000
0.0000000000000000 1.0000000000000000 0.0000000000000000
0.0000000000000000 1.0000000000000000 0.0000000000000000
0.0000000000000000 1.0000000000000000 0.0000000000000000
0.0000000000000000 1.0000000000000000 0.0000000000000000
0.0000000000000000 1.0000000000000000 0.0000000000000000
0.0000000000000000 1.0000000000000000 0.0000000000000000
0.0000000000000000 1.0000000000000000 0.0000000000000000
0.0000000000000000 1.0000000000000000 0.0000000000000000
0.0000000000000000 1.0000000000000000 0.0000000000000000
0.0000000000000000 1.0000000000000000 0.0000000000000000
0.0000000000000000 1.0000000000000000 0.0000000000000000
0.0000000000000000 1.0000000000000000 0.0000000000000000
0.0000000000000000 1.0000000000000000 0.0000000000000000
0.0000000000000000 1.0000000000000000 0.0000000000000000
0.0000000000000000 1.0000000000000000 0.0000000000000000
0.0000000000000000 1.0000000000000000 0.0000000000000000
0.0000000000000000 1.0000000000000000 0.0000000000000000
0.0000000000000000 1.0000000000000000 0.0000000000000000
0.0000000000000000 1.0000000000000000 0.0000000000000000
0.0000000000000000 1.0000000000000000 0.0000000000000000
0.0000000000000000 1.0000000000000000 0.0000000000000000
0.0000000000000000 1.0000000000000000 0.0000000000000000
0.0000000000000000 1.0000000000000000 0.0000000000000000
0.0000000000000000 1.0000000000000000 0.0000000000000000
0.0000000000000000 1.0000000000000000 0.0000000000000000
0.0000000000000000 1.0000000000000000 0.0000000000000000
0.0000000000000000 1.0000000000000000 0.0000000000000000
0.0000000000000000 1.0000000000000000 0.0000000000000000
0.0000000000000000 1.0000000000000000 0.0000000000000000
0.0000000000000000 1.0000000000000000 0.0000000000000000
0.0000000000000000 1.0000000000000000 0.0000000000000000
0.0000000000000000 1.0000000000000000 0.0000000000000000
0.0000000000000000 1.0000000000000000 0.0000000000000000
0.0000000000000000 1.0000000000000000 0.0000000000000000
0.0000000000000000 1.0000000000000000 0.0000000000000000
0.0000000000000000 1.0000000000000000 0.0000000000000000
0.0000000000000000 1.0000000000000000 0.0000000000000000
0.0000000000000000 1.0000000000000000 0.0000000000000000
0.0000000000000000 1.0000000000000000 0.0000000000000000
0.0000000000000000 1.0000000000000000 0.0000000000000000
0.0000000000000000 1.0000000000000000 0.0000000000000000
0.0000000000000000 1.0000000000000000 0.0000000000000000
0.0000000000000000 1.0000000000000000 0.0000000000000000
0.0000000000000000 1.0000000000000000 0.0000000000000000
0.0000000000000000 1.0000000000000000 0.0000000000000000
0.0000000000000000 1.0000000000000000 0.0000000000000000
0.0000000000000000 1.0000000000000000 0.0000000000000000
0.0000000000000000 1.0000000000000000 0.0000000000000000
0.0000000000000000 1.0000000000000000 0.0000000000000000
0.0000000000000000 1.0000000000000000 0.0000000000000000
0.0000000000000000 1.0000000000000000 0.0000000000000000
0.0000000000000000 1.0000000000000000 0.0000000000000000
0.0000000000000000 1.0000000000000000 0.0000000000000000
0.0000000000000000 1.0000000000000000 0.0000000000000000
0.0000000000000000 1.0000000000000000 0.0000000000000000
0.0000000000000000 1.0000000000000000 0.0000000000000000
0.0000000000000000 1.0000000000000000 0.0000000000000000
0.0000000000000000 1.0000000000000000 0.0000000000000000
0.0000000000000000 1.0000000000000000 0.0000000000000000
0.0000000000000000 1.0000000000000000 0.0000000000000000
0.0000000000000000 1.0000000000000000 0.0000000000000000
0.0000000000000000 1.0000000000000000 0.0000000000000000
0.0000000000000000 1.0000000000000000 0.0000000000000000
0.0000000000000000 1.0000000000000000 0.0000000000000000
0.0000000000000000 1.0000000000000000 0.0000000000000000
0.0000000000000000 1.0000000000000000 0.0000000000000000
0.0000000000000000 1.0000000000000000 0.0000000000000000
0.0000000000000000 1.0000000000000000 0.0000000000000000
0.0000000000000000 1.0000000000000000 0.0000000000000000
0.0000000000000000 1.0000000000000000 0.0000000000000000
0.0000000000000000 1.0000000000000000 0.0000000000000000
0.0000000000000000 1.0000000000000000 0.0000000000000000
0.0000000000000000 1.0000000000000000 0.0000000000000000
0.0000000000000000 1.0000000000000000 0.0000000000000000
0.0000000000000000 1.0000000000000000 0.0000000000000000
0.0000000000000000 1.0000000000000000 0.0000000000000000
0.0000000000000000 1.0000000000000000 0.0000000000000000
0.0000000000000000 1.0000000000000000 0.0000000000000000
0.0000000000000000 1.0000000000000000 0.0000000000000000
0.0000000000000000 1.0000000000000000 0.0000000000000000
0.0000000000000000 1.0000000000000000 0.0000000000000000
0.0000000000000000 1.0000000000000000 0.0000000000000000
0.0000000000000000 1.0000000000000000 0.0000000000000000
0.0000000000000000 1.0000000000000000 0.0000000000000000
0.0000000000000000 1.0000000000000000 0.0000000000000000
0.0000000000000000 1.0000000000000000 0.0000000000000000
0.0000000000000000 1.0000000000000000 0.0000000000000000
0.0000000000000000 1.0000000000000000 0.0000000000000000
0.0000000000000000 1.0000000000000000 0.0000000000000000
0.0000000000000000 1.0000000000000000 0.0000000000000000
0.0000000000000000 1.0000000000000000 0.0000000000000000
0.0000000000000000 1.0000000000000000 0.0000000000000000
0.0000000000000000 1.0000000000000000 0.0000000000000000
0.0000000000000000 1.0000000000000000 0.0000000000000000
0.0000000000000000 1.0000000000000000 0.0000000000000000
0.0000000000000000 1.0000000000000000 0.0000000000000000
0.0000000000000000 1.0000000000000000 0.0000000000000000
0.0000000000000000 1.0000000000000000 0.0000000000000000
0.0000000000000000 1.0000000000000000 0.0000000000000000
0.0000000000000000 1.0000000000000000 0.0000000000000000
0.0000000000000000 1.0000000000000000 0.0000000000000000
0.0000000000000000 1.0000000000000000 0.0000000000000000
0.0000000000000000 1.0000000000000000 0.0000000000000000
0.0000000000000000 1.0000000000000000 0.0000000000000000
0.0000000000000000 1.0000000000000000 0.0000000000000000
0.0000000000000000 1.0000000000000000 0.0000000000000000
0.0000000000000000 1.0000000000000000 0.0000000000000000
0.0000000000000000 1.0000000000000000 0.0000000000000000
0.0000000000000000 1.0000000000000000 0.0000000000000000
0.0000000000000000 1.0000000000000000 0.0000000000000000
0.0000000000000000 1.0000000000000000 0.0000000000000000
0.0000000000000000 1.0000000000000000 0.0000000000000000
0.0000000000000000 1.0000000000000000 0.0000000000000000
0.0000000000000000 1.0000000000000000 0.0000000000000000
0.0000000000000000 1.0000000000000000 0.0000000000000000
0.0000000000000000 1.0000000000000000 0.0000000000000000
0.0000000000000000 1.0000000000000000 0.0000000000000000
0.0000000000000000 1.0000000000000000 0.0000000000000000
0.0000000000000000 1.0000000000000000 0.0000000000000000
0.0000000000000000 1.0000000000000000 0.0000000000000000
0.0000000000000000 1.0000000000000000 0.0000000000000000
0.0000000000000000 1.0000000000000000 0.0000000000000000
0.0000000000000000 1.0000000000000000 0.0000000000000000
0.0000000000000000 1.0000000000000000 0.0000000000000000
0.0000000000000000 1.0000000000000000 0.0000000000000000
0.0000000000000000 1.0000000000000000 0.0000000000000000
0.0000000000000000 1.0000000000000000 0.0000000000000000
0.0000000000000000 1.0000000000000000 0.0000000000000000
0.0000000000000000 1.0000000000000000 0.0000000000000000
0.0000000000000000 1.0000000000000000 0.0000000000000000
0.0000000000000000 1.0000000000000000 0.0000000000000000
0.0000000000000000 1.0000000000000000 0.0000000000000000
0.0000000000000000 1.0000000000000000 0.0000000000000000
0.0000000000000000 1.0000000000000000 0.0000000000000000
0.0000000000000000 1.0000000000000000 0.0000000000000000
0.0000000000000000 1.0000000000000000 0.0000000000000000
0.0000000000000000 1.0000000000000000 0.0000000000000000
0.0000000000000000 1.0000000000000000 0.0000000000000000
0.0000000000000000 1.0000000000000000 0.0000000000000000
0.0000000000000000 1.0000000000000000 0.0000000000000000
0.0000000000000000 1.0000000000000000 0.0000000000000000
0.0000000000000000 1.0000000000000000 0.0000000000000000
0.0000000000000000 1.0000000000000000 0.0000000000000000
0.0000000000000000 1.0000000000000000 0.0000000000000000
0.0000000000000000 1.0000000000000000 0.0000000000000000
0.0000000000000000 1.0000000000000000 0.0000000000000000
0.0000000000000000 1.0000000000000000 0.0000000000000000
0.0000000000000000 1.0000000000000000 0.0000000000000000
0.0000000000000000 1.0000000000000000 0.0000000000000000
0.0000000000000000 1.0000000000000000 0.0000000000000000
0.0000000000000000 1.0000000000000000 0.0000000000000000
0.0000000000000000 1.0000000000000000 0.0000000000000000
0.0000000000000000 1.0000000000000000 0.0000000000000000
0.0000000000000000 1.0000000000000000 0.0000000000000000
0.0000000000000000 1.0000000000000000 0.0000000000000000
0.0000000000000000 1.0000000000000000 0.0000000000000000
0.0000000000000000 1.0000000000000000 0.0000000000000000
0.0000000000000000 1.0000000000000000 0.0000000000000000
0.0000000000000000 1.0000000000000000 0.0000000000000000
0.0000000000000000 1.0000000000000000 0.0000000000000000
0.0000000000000000 1.0000000000000000 0.0000000000000000
0.0000000000000000 1.0000000000000000 0.0000000000000000
0.0000000000000000 1.0000000000000000 0.0000000000000000
0.0000000000000000 1.0000000000000000 0.0000000000000000
0.0000000000000000 1.0000000000000000 0.0000000000000000
0.0000000000000000 1.0000000000000000 0.0000000000000000
0.0000000000000000 1.0000000000000000 0.0000000000000000
0.0000000000000000 1.0000000000000000 0.0000000000000000
0.0000000000000000 1.0000000000000000 0.0000000000000000
0.0000000000000000 1.0000000000000000 0.0000000000000000
0.0000000000000000 1.0000000000000000 0.0000000000000000
0.0000000000000000 1.0000000000000000 0.0000000000000000
0.0000000000000000 1.0000000000000000 0.0000000000000000
0.0000000000000000 1.0000000000000000 0.0000000000000000
0.0000000000000000 1.0000000000000000 0.0000000000000000
0.0000000000000000 1.0000000000000000 0.0000000000000000
0.0000000000000000 1.0000000000000000 0.0000000000000000
0.0000000000000000 1.0000000000000000 0.0000000000000000
0.0000000000000000 1.0000000000000000 0.0000000000000000
0.0000000000000000 1.0000000000000000 0.0000000000000000
0.0000000000000000 1.0000000000000000 0.0000000000000000
0.0000000000000000 1.0000000000000000 0.0000000000000000
0.0000000000000000 1.0000000000000000 0.0000000000000000
0.0000000000000000 1.0000000000000000 0.0000000000000000
0.0000000000000000 1.0000000000000000 0.0000000000000000
0.0000000000000000 1.0000000000000000 0.0000000000000000
0.0000000000000000 1.0000000000000000 0.0000000000000000
0.0000000000000000 1.0000000000000000 0.0000000000000000
0.0000000000000000 1.0000000000000000 0.0000000000000000
0.0000000000000000 1.0000000000000000 0.0000000000000000
0.0000000000000000 1.0000000000000000 0.0000000000000000
0.0000000000000000 1.0000000000000000 0.0000000000000000
0.0000000000000000 1.0000000000000000 0.0000000000000000
0.0000000000000000 1.0000000000000000 0.0000000000000000
0.0000000000000000 1.0000000000000000 0.0000000000000000
0.0000000000000000 1.0000000000000000 0.0000000000000000
0.0000000000000000 1.0000000000000000 0.0000000000000000
0.0000000000000000 1.0000000000000000 0.0000000000000000
0.0000000000000000 1.0000000000000000 0.0000000000000000
0.0000000000000000 1.0000000000000000 0.0000000000000000
0.0000000000000000 1.0000000000000000 0.0000000000000000
0.0000000000000000 1.0000000000000000 0.0000000000000000
0.0000000000000000 1.0000000000000000 0.0000000000000000
0.0000000000000000 1.0000000000000000 0.0000000000000000
0.0000000000000000 1.0000000000000000 0.0000000000000000
0.0000000000000000 1.0000000000000000 0.0000000000000000
0.0000000000000000 1.0000000000000000 0.0000000000000000
0.0000000000000000 1.0000000000000000 0.0000000000000000
0.0000000000000000 1.0000000000000000 0.0000000000000000
0.0000000000000000 1.0000000000000000 0.0000000000000000
0.0000000000000000 1.0000000000000000 0.0000000000000000
0.0000000000000000 1.0000000000000000 0.0000000000000000
0.0000000000000000 1.0000000000000000 0.0000000000000000
0.0000000000000000 1.0000000000000000 0.0000000000000000
0.0000000000000000 1.0000000000000000 0.0000000000000000
0.0000000000000000 1.0000000000000000 0.0000000000000000
0.0000000000000000 1.0000000000000000 0.0000000000000000
0.0000000000000000 1.0000000000000000 0.0000000000000000
0.0000000000000000 1.0000000000000000 0.0000000000000000
0.0000000000000000 1.0000000000000000 0.0000000000000000
0.0000000000000000 1.0000000000000000 0.0000000000000000
0.0000000000000000 1.0000000000000000 0.0000000000000000
0.0000000000000000 1.0000000000000000 0.0000000000000000
0.0000000000000000 1.0000000000000000 0.0000000000000000
0.0000000000000000 1.0000000000000000 0.0000000000000000
0.0000000000000000 1.0000000000000000 0.0000000000000000
0.0000000000000000 1.0000000000000000 0.0000000000000000
0.0000000000000000 1.0000000000000000 0.0000000000000000
0.0000000000000000 1.0000000000000000 0.0000000000000000
0.0000000000000000 1.0000000000000000 0.0000000000000000
0.0000000000000000 1.0000000000000000 0.0000000000000000
0.0000000000000000 1.0000000000000000 0.0000000000000000
0.0000000000000000 1.0000000000000000 0.0000000000000000
0.0000000000000000 1.0000000000000000 0.0000000000000000
0.0000000000000000 1.0000000000000000 0.0000000000000000
0.0000000000000000 1.0000000000000000 0.0000000000000000
0.0000000000000000 1.0000000000000000 0.0000000000000000
0.0000000000000000 1.0000000000000000 0.0000000000000000
0.0000000000000000 1.0000000000000000 0.0000000000000000
0.0000000000000000 1.0000000000000000 0.0000000000000000
0.0000000000000000 1.0000000000000000 0.0000000000000000
0.0000000000000000 1.0000000000000000 0.0000000000000000
0.0000000000000000 1.0000000000000000 0.0000000000000000
0.0000000000000000 1.0000000000000000 0.0000000000000000
0.0000000000000000 1.0000000000000000 0.0000000000000000
0.0000000000000000 1.0000000000000000 0.0000000000000000
0.0000000000000000 1.0000000000000000 0.0000000000000000
0.0000000000000000 1.0000000000000000 0.0000000000000000
0.0000000000000000 1.0000000000000000 0.0000000000000000
0.0000000000000000 1.0000000000000000 0.0000000000000000
0.0000000000000000 1.0000000000000000 0.0000000000000000
0.0000000000000000 1.0000000000000000 0.0000000000000000
0.0000000000000000 1.0000000000000000 0.0000000000000000
0.0000000000000000 1.0000000000000000 0.0000000000000000
0.0000000000000000 1.0000000000000000 0.0000000000000000
0.0000000000000000 1.0000000000000000 0.0000000000000000
0.0000000000000000 1.0000000000000000 0.0000000000000000
0.0000000000000000 1.0000000000000000 0.0000000000000000
0.0000000000000000 1.0000000000000000 0.0000000000000000
0.0000000000000000 1.0000000000000000 0.0000000000000000
0.0000000000000000 1.0000000000000000 0.0000000000000000
0.0000000000000000 1.0000000000000000 0.0000000000000000
0.0000000000000000 1.0000000000000000 0.0000000000000000
0.0000000000000000 1.0000000000000000 0.0000000000000000
0.0000000000000000 1.0000000000000000 0.0000000000000000
0.0000000000000000 1.0000000000000000 0.0000000000000000
0.0000000000000000 1.0000000000000000 0.0000000000000000
0.0000000000000000 1.0000000000000000 0.0000000000000000
0.0000000000000000 1.0000000000000000 0.0000000000000000
0.0000000000000000 1.0000000000000000 0.0000000000000000
0.0000000000000000 1.0000000000000000 0.0000000000000000
0.0000000000000000 1.0000000000000000 0.0000000000000000
0.0000000000000000 1.0000000000000000 0.0000000000000000
0.0000000000000000 1.0000000000000000 0.0000000000000000
0.0000000000000000 1.0000000000000000 0.0000000000000000
0.0000000000000000 1.0000000000000000 0.0000000000000000
0.0000000000000000 1.0000000000000000 0.0000000000000000
0.0000000000000000 1.0000000000000000 0.0000000000000000
0.0000000000000000 1.0000000000000000 0.0000000000000000
0.0000000000000000 1.0000000000000000 0.0000000000000000
0.0000000000000000 1.0000000000000000 0.0000000000000000
0.0000000000000000 1.0000000000000000 0.0000000000000000
0.0000000000000000 1.0000000000000000 0.0000000000000000
0.0000000000000000 1.0000000000000000 0.0000000000000000
0.0000000000000000 1.0000000000000000 0.0000000000000000
0.0000000000000000 1.0000000000000000 0.0000000000000000
0.0000000000000000 1.0000000000000000 0.0000000000000000
0.0000000000000000 1.0000000000000000 0.0000000000000000
0.0000000000000000 1.0000000000000000 0.0000000000000000
0.0000000000000000 1.0000000000000000 0.0000000000000000
0.0000000000000000 1.0000000000000000 0.0000000000000000
0.0000000000000000 1.0000000000000000 0.0000000000000000
0.0000000000000000 1.0000000000000000 0.0000000000000000
0.0000000000000000 1.0000000000000000 0.0000000000000000
0.0000000000000000 1.0000000000000000 0.0000000000000000
0.0000000000000000 1.0000000000000000 0.0000000000000000
0.0000000000000000 1.0000000000000000 0.0000000000000000
0.0000000000000000 1.0000000000000000 0.0000000000000000
0.0000000000000000 1.0000000000000000 0.0000000000000000
0.0000000000000000 1.0000000000000000 0.0000000000000000
0.0000000000000000 1.0000000000000000 0.0000000000000000
0.0000000000000000 1.0000000000000000 0.0000000000000000
0.0000000000000000 1.0000000000000000 0.0000000000000000
0.0000000000000000 1.0000000000000000 0.0000000000000000
0.0000000000000000 1.0000000000000000 0.0000000000000000
0.0000000000000000 1.0000000000000000 0.0000000000000000
0.0000000000000000 1.0000000000000000 0.0000000000000000
0.0000000000000000 1.0000000000000000 0.0000000000000000
0.0000000000000000 1.0000000000000000 0.0000000000000000
0.0000000000000000 1.0000000000000000 0.0000000000000000
0.0000000000000000 1.0000000000000000 0.0000000000000000
0.0000000000000000 1.0000000000000000 0.0000000000000000
0.0000000000000000 1.0000000000000000 0.0000000000000000
0.0000000000000000 1.0000000000000000 0.0000000000000000
0.0000000000000000 1.0000000000000000 0.0000000000000000
0.0000000000000000 1.0000000000000000 0.0000000000000000
0.0000000000000000 1.0000000000000000 0.0000000000000000
0.0000000000000000 1.0000000000000000 0.0000000000000000
0.0000000000000000 1.0000000000000000 0.0000000000000000
0.0000000000000000 1.0000000000000000 0.0000000000000000
0.0000000000000000 1.0000000000000000 0.0000000000000000
0.0000000000000000 1.0000000000000000 0.0000000000000000
0.0000000000000000 1.0000000000000000 0.0000000000000000
0.0000000000000000 1.0000000000000000 0.0000000000000000
0.0000000000000000 1.0000000000000000 0.0000000000000000
0.0000000000000000 1.0000000000000000 0.0000000000000000
0.0000000000000000 1.0000000000000000 0.0000000000000000
0.0000000000000000 1.0000000000000000 0.0000000000000000
0.0000000000000000 1.0000000000000000 0.0000000000000000
0.0000000000000000 1.0000000000000000 0.0000000000000000
0.0000000000000000 1.0000000000000000 0.0000000000000000
0.0000000000000000 1.0000000000000000 0.0000000000000000
0.0000000000000000 1.0000000000000000 0.0000000000000000
0.0000000000000000 1.0000000000000000 0.0000000000000000
0.0000000000000000 1.0000000000000000 0.0000000000000000
0.0000000000000000 1.0000000000000000 0.0000000000000000
0.0000000000000000 1.0000000000000000 0.0000000000000000
0.0000000000000000 1.0000000000000000 0.0000000000000000
0.0000000000000000 1.0000000000000000 0.0000000000000000
0.0000000000000000 1.0000000000000000 0.0000000000000000
0.0000000000000000 1.0000000000000000 0.0000000000000000
0.0000000000000000 1.0000000000000000 0.0000000000000000
0.0000000000000000 1.0000000000000000 0.0000000000000000
0.0000000000000000 1.0000000000000000 0.0000000000000000
0.0000000000000000 1.0000000000000000 0.0000000000000000
0.0000000000000000 1.0000000000000000 0.0000000000000000
0.0000000000000000 1.0000000000000000 0.0000000000000000
0.0000000000000000 1.0000000000000000 0.0000000000000000
0.0000000000000000 1.0000000000000000 0.0000000000000000
0.0000000000000000 1.0000000000000000 0.0000000000000000
0.0000000000000000 1.0000000000000000 0.0000000000000000
0.0000000000000000 1.0000000000000000 0.0000000000000000
0.0000000000000000 1.0000000000000000 0.0000000000000000
0.0000000000000000 1.0000000000000000 0.0000000000000000
0.0000000000000000 1.0000000000000000 0.0000000000000000
0.0000000000000000 1.0000000000000000 0.0000000000000000
0.0000000000000000 1.0000000000000000 0.0000000000000000
0.0000000000000000 1.0000000000000000 0.0000000000000000
0.0000000000000000 1.0000000000000000 0.0000000000000000
0.0000000000000000 1.0000000000000000 0.0000000000000000
0.0000000000000000 1.0000000000000000 0.0000000000000000
0.0000000000000000 1.0000000000000000 0.0000000000000000
0.0000000000000000 1.0000000000000000 0.0000000000000000
0.0000000000000000 1.0000000000000000 0.0000000000000000
0.0000000000000000 1.0000000000000000 0.0000000000000000
0.0000000000000000 1.0000000000000000 0.0000000000000000
0.0000000000000000 1.0000000000000000 0.0000000000000000
0.0000000000000000 1.0000000000000000 0.0000000000000000
0.0000000000000000 1.0000000000000000 0.0000000000000000
0.0000000000000000 1.0000000000000000 0.0000000000000000
0.0000000000000000 1.0000000000000000 0.0000000000000000
0.0000000000000000 1.0000000000000000 0.0000000000000000
0.0000000000000000 1.0000000000000000 0.0000000000000000
0.0000000000000000 1.0000000000000000 0.0000000000000000
0.0000000000000000 1.0000000000000000 0.0000000000000000
0.0000000000000000 1.0000000000000000 0.0000000000000000
0.0000000000000000 1.0000000000000000 0.0000000000000000
0.0000000000000000 1.0000000000000000 0.0000000000000000
0.0000000000000000 1.0000000000000000 0.0000000000000000
0.0000000000000000 1.0000000000000000 0.0000000000000000
0.0000000000000000 1.0000000000000000 0.0000000000000000
0.0000000000000000 1.0000000000000000 0.0000000000000000
0.0000000000000000 1.0000000000000000 0.0000000000000000
0.0000000000000000 1.0000000000000000 0.0000000000000000
0.0000000000000000 1.0000000000000000 0.0000000000000000
0.0000000000000000 1.0000000000000000 0.0000000000000000
0.0000000000000000 1.0000000000000000 0.0000000000000000
0.0000000000000000 1.0000000000000000 0.0000000000000000
0.0000000000000000 1.0000000000000000 0.0000000000000000
0.0000000000000000 1.0000000000000000 0.0000000000000000
0.0000000000000000 1.0000000000000000 0.0000000000000000
0.0000000000000000 1.0000000000000000 0.0000000000000000
0.0000000000000000 1.0000000000000000 0.0000000000000000
0.0000000000000000 1.0000000000000000 0.0000000000000000
0.0000000000000000 1.0000000000000000 0.0000000000000000
0.0000000000000000 1.0000000000000000 0.0000000000000000
0.0000000000000000 1.0000000000000000 0.0000000000000000
0.0000000000000000 1.0000000000000000 0.0000000000000000
0.0000000000000000 1.0000000000000000 0.0000000000000000
0.0000000000000000 1.0000000000000000 0.0000000000000000
0.0000000000000000 1.0000000000000000 0.0000000000000000
0.0000000000000000 1.0000000000000000 0.0000000000000000
0.0000000000000000 1.0000000000000000 0.0000000000000000
0.0000000000000000 1.0000000000000000 0.0000000000000000
0.0000000000000000 1.0000000000000000 0.0000000000000000
0.0000000000000000 1.0000000000000000 0.0000000000000000
0.0000000000000000 1.0000000000000000 0.0000000000000000
0.0000000000000000 1.0000000000000000 0.0000000000000000
0.0000000000000000 1.0000000000000000 0.0000000000000000
0.0000000000000000 1.0000000000000000 0.0000000000000000
0.0000000000000000 1.0000000000000000 0.0000000000000000
0.0000000000000000 1.0000000000000000 0.0000000000000000
0.0000000000000000 1.0000000000000000 0.0000000000000000
0.0000000000000000 1.0000000000000000 0.0000000000000000
0.0000000000000000 1.0000000000000000 0.0000000000000000
0.0000000000000000 1.0000000000000000 0.0000000000000000
0.0000000000000000 1.0000000000000000 0.0000000000000000
0.0000000000000000 1.0000000000000000 0.0000000000000000
0.0000000000000000 1.0000000000000000 0.0000000000000000
0.0000000000000000 1.0000000000000000 0.0000000000000000
0.0000000000000000 1.0000000000000000 0.0000000000000000
0.0000000000000000 1.0000000000000000 0.0000000000000000
0.0000000000000000 1.0000000000000000 0.0000000000000000
0.0000000000000000 1.0000000000000000 0.0000000000000000
0.0000000000000000 1.0000000000000000 0.0000000000000000
0.0000000000000000 1.0000000000000000 0.0000000000000000
0.0000000000000000 1.0000000000000000 0.0000000000000000
0.0000000000000000 1.0000000000000000 0.0000000000000000
0.0000000000000000 1.0000000000000000 0.0000000000000000
0.0000000000000000 1.0000000000000000 0.0000000000000000
0.0000000000000000 1.0000000000000000 0.0000000000000000
0.0000000000000000 1.0000000000000000 0.0000000000000000
0.0000000000000000 1.0000000000000000 0.0000000000000000
0.0000000000000000 1.0000000000000000 0.0000000000000000
0.0000000000000000 1.0000000000000000 0.0000000000000000
0.0000000000000000 1.0000000000000000 0.0000000000000000
0.0000000000000000 1.0000000000000000 0.0000000000000000
0.0000000000000000 1.0000000000000000 0.0000000000000000
0.0000000000000000 1.0000000000000000 0.0000000000000000
0.0000000000000000 1.0000000000000000 0.0000000000000000
0.0000000000000000 1.0000000000000000 0.0000000000000000
0.0000000000000000 1.0000000000000000 0.0000000000000000
0.0000000000000000 1.0000000000000000 0.0000000000000000
0.0000000000000000 1.0000000000000000 0.0000000000000000
0.0000000000000000 1.0000000000000000 0.0000000000000000
0.0000000000000000 1.0000000000000000 0.0000000000000000
0.0000000000000000 1.0000000000000000 0.0000000000000000
0.0000000000000000 1.0000000000000000 0.0000000000000000
0.0000000000000000 1.0000000000000000 0.0000000000000000
0.0000000000000000 1.0000000000000000 0.0000000000000000
0.0000000000000000 1.0000000000000000 0.0000000000000000
0.0000000000000000 1.0000000000000000 0.0000000000000000
0.0000000000000000 1.0000000000000000 0.0000000000000000
0.0000000000000000 1.0000000000000000 0.0000000000000000
0.0000000000000000 1.0000000000000000 0.0000000000000000
0.0000000000000000 1.0000000000000000 0.0000000000000000
0.0000000000000000 1.0000000000000000 0.0000000000000000
0.0000000000000000 1.0000000000000000 0.0000000000000000
0.0000000000000000 1.0000000000000000 0.0000000000000000
0.0000000000000000 1.0000000000000000 0.0000000000000000
0.0000000000000000 1.0000000000000000 0.0000000000000000
0.0000000000000000 1.0000000000000000 0.0000000000000000
0.0000000000000000 1.0000000000000000 0.0000000000000000
0.0000000000000000 1.0000000000000000 0.0000000000000000
0.0000000000000000 1.0000000000000000 0.0000000000000000
0.0000000000000000 1.0000000000000000 0.0000000000000000
0.0000000000000000 1.0000000000000000 0.0000000000000000
0.0000000000000000 1.0000000000000000 0.0000000000000000
0.0000000000000000 1.0000000000000000 0.0000000000000000
0.0000000000000000 1.0000000000000000 0.0000000000000000
0.0000000000000000 1.0000000000000000 0.0000000000000000
0.0000000000000000 1.0000000000000000 0.0000000000000000
0.0000000000000000 1.0000000000000000 0.0000000000000000
0.0000000000000000 1.0000000000000000 0.0000000000000000
0.0000000000000000 1.0000000000000000 0.0000000000000000
0.0000000000000000 1.0000000000000000 0.0000000000000000
0.0000000000000000 1.0000000000000000 0.0000000000000000
0.0000000000000000 1.0000000000000000 0.0000000000000000
0.0000000000000000 1.0000000000000000 0.0000000000000000
0.0000000000000000 1.0000000000000000 0.0000000000000000
0.0000000000000000 1.0000000000000000 0.0000000000000000
0.0000000000000000 1.0000000000000000 0.0000000000000000
0.0000000000000000 1.0000000000000000 0.0000000000000000
0.0000000000000000 1.0000000000000000 0.0000000000000000
0.0000000000000000 1.0000000000000000 0.0000000000000000
0.0000000000000000 1.0000000000000000 0.0000000000000000
0.0000000000000000 1.0000000000000000 0.0000000000000000
0.0000000000000000 1.0000000000000000 0.0000000000000000
0.0000000000000000 1.0000000000000000 0.0000000000000000
0.0000000000000000 1.0000000000000000 0.0000000000000000
0.0000000000000000 1.0000000000000000 0.0000000000000000
0.0000000000000000 1.0000000000000000 0.0000000000000000
0.0000000000000000 1.0000000000000000 0.0000000000000000
0.0000000000000000 1.0000000000000000 0.0000000000000000
0.0000000000000000 1.0000000000000000 0.0000000000000000
0.0000000000000000 1.0000000000000000 0.0000000000000000
0.0000000000000000 1.0000000000000000 0.0000000000000000
0.0000000000000000 1.0000000000000000 0.0000000000000000
0.0000000000000000 1.0000000000000000 0.0000000000000000
0.0000000000000000 1.0000000000000000 0.0000000000000000
0.0000000000000000 1.0000000000000000 0.0000000000000000
0.0000000000000000 1.0000000000000000 0.0000000000000000
0.0000000000000000 1.0000000000000000 0.0000000000000000
0.0000000000000000 1.0000000000000000 0.0000000000000000
0.0000000000000000 1.0000000000000000 0.0000000000000000
0.0000000000000000 1.0000000000000000 0.0000000000000000
0.0000000000000000 1.0000000000000000 0.0000000000000000
0.0000000000000000 1.0000000000000000 0.0000000000000000
0.0000000000000000 1.0000000000000000 0.0000000000000000
0.0000000000000000 1.0000000000000000 0.0000000000000000
0.0000000000000000 1.0000000000000000 0.0000000000000000
0.0000000000000000 1.0000000000000000 0.0000000000000000
0.0000000000000000 1.0000000000000000 0.0000000000000000
0.0000000000000000 1.0000000000000000 0.0000000000000000
0.0000000000000000 1.0000000000000000 0.0000000000000000
0.0000000000000000 1.0000000000000000 0.0000000000000000
0.0000000000000000 1.0000000000000000 0.0000000000000000
0.0000000000000000 1.0000000000000000 0.0000000000000000
0.0000000000000000 1.0000000000000000 0.0000000000000000
0.0000000000000000 1.0000000000000000 0.0000000000000000
0.0000000000000000 1.0000000000000000 0.0000000000000000
0.0000000000000000 1.0000000000000000 0.0000000000000000
0.0000000000000000 1.0000000000000000 0.0000000000000000
0.0000000000000000 1.0000000000000000 0.0000000000000000
0.0000000000000000 1.0000000000000000 0.0000000000000000
0.0000000000000000 1.0000000000000000 0.0000000000000000
0.0000000000000000 1.0000000000000000 0.0000000000000000
0.0000000000000000 1.0000000000000000 0.0000000000000000
0.0000000000000000 1.0000000000000000 0.0000000000000000
0.0000000000000000 1.0000000000000000 0.0000000000000000
0.0000000000000000 1.0000000000000000 0.0000000000000000
0.0000000000000000 1.0000000000000000 0.0000000000000000
0.0000000000000000 1.0000000000000000 0.0000000000000000
0.0000000000000000 1.0000000000000000 0.0000000000000000
0.0000000000000000 1.0000000000000000 0.0000000000000000
0.0000000000000000 1.0000000000000000 0.0000000000000000
0.0000000000000000 1.0000000000000000 0.0000000000000000
0.0000000000000000 1.0000000000000000 0.0000000000000000
0.0000000000000000 1.0000000000000000 0.0000000000000000
0.0000000000000000 1.0000000000000000 0.0000000000000000
0.0000000000000000 1.0000000000000000 0.0000000000000000
0.0000000000000000 1.0000000000000000 0.0000000000000000
0.0000000000000000 1.0000000000000000 0.0000000000000000
0.0000000000000000 1.0000000000000000 0.0000000000000000
0.0000000000000000 1.0000000000000000 0.0000000000000000
0.0000000000000000 1.0000000000000000 0.0000000000000000
0.0000000000000000 1.0000000000000000 0.0000000000000000
0.0000000000000000 1.0000000000000000 0.0000000000000000
0.0000000000000000 1.0000000000000000 0.0000000000000000
0.0000000000000000 1.0000000000000000 0.0000000000000000
0.0000000000000000 1.0000000000000000 0.0000000000000000
0.0000000000000000 1.0000000000000000 0.0000000000000000
0.0000000000000000 1.0000000000000000 0.0000000000000000
0.0000000000000000 1.0000000000000000 0.0000000000000000
0.0000000000000000 1.0000000000000000 0.0000000000000000
0.0000000000000000 1.0000000000000000 0.0000000000000000
0.0000000000000000 1.0000000000000000 0.0000000000000000
0.0000000000000000 1.0000000000000000 0.0000000000000000
0.0000000000000000 1.0000000000000000 0.0000000000000000
0.0000000000000000 1.0000000000000000 0.0000000000000000
0.0000000000000000 1.0000000000000000 0.0000000000000000
0.0000000000000000 1.0000000000000000 0.0000000000000000
0.0000000000000000 1.0000000000000000 0.0000000000000000
0.0000000000000000 1.0000000000000000 0.0000000000000000
0.0000000000000000 1.0000000000000000 0.0000000000000000
0.0000000000000000 1.0000000000000000 0.0000000000000000
0.0000000000000000 1.0000000000000000 0.0000000000000000
0.0000000000000000 1.0000000000000000 0.0000000000000000
0.0000000000000000 1.0000000000000000 0.0000000000000000
0.0000000000000000 1.0000000000000000 0.0000000000000000
0.0000000000000000 1.0000000000000000 0.0000000000000000
0.0000000000000000 1.0000000000000000 0.0000000000000000
0.0000000000000000 1.0000000000000000 0.0000000000000000
0.0000000000000000 1.0000000000000000 0.0000000000000000
0.0000000000000000 1.0000000000000000 0.0000000000000000
0.0000000000000000 1.0000000000000000 0.0000000000000000
0.0000000000000000 1.0000000000000000 0.0000000000000000
0.0000000000000000 1.0000000000000000 0.0000000000000000
0.0000000000000000 1.0000000000000000 0.0000000000000000
0.0000000000000000 1.0000000000000000 0.0000000000000000
0.0000000000000000 1.0000000000000000 0.0000000000000000
0.0000000000000000 1.0000000000000000 0.0000000000000000
0.0000000000000000 1.0000000000000000 0.0000000000000000
0.0000000000000000 1.0000000000000000 0.0000000000000000
0.0000000000000000 1.0000000000000000 0.0000000000000000
0.0000000000000000 1.0000000000000000 0.0000000000000000
0.0000000000000000 1.0000000000000000 0.0000000000000000
0.0000000000000000 1.0000000000000000 0.0000000000000000
0.0000000000000000 1.0000000000000000 0.0000000000000000
0.0000000000000000 1.0000000000000000 0.0000000000000000
0.0000000000000000 1.0000000000000000 0.0000000000000000
0.0000000000000000 1.0000000000000000 0.0000000000000000
0.0000000000000000 1.0000000000000000 0.0000000000000000
0.0000000000000000 1.0000000000000000 0.0000000000000000
0.0000000000000000 1.0000000000000000 0.0000000000000000
0.0000000000000000 1.0000000000000000 0.0000000000000000
0.0000000000000000 1.0000000000000000 0.0000000000000000
0.0000000000000000 1.0000000000000000 0.0000000000000000
0.0000000000000000 1.0000000000000000 0.0000000000000000
0.0000000000000000 1.0000000000000000 0.0000000000000000
0.0000000000000000 1.0000000000000000 0.0000000000000000
0.0000000000000000 1.0000000000000000 0.0000000000000000
0.0000000000000000 1.0000000000000000 0.0000000000000000
0.0000000000000000 1.0000000000000000 0.0000000000000000
0.0000000000000000 1.0000000000000000 0.0000000000000000
0.0000000000000000 1.0000000000000000 0.0000000000000000
0.0000000000000000 1.0000000000000000 0.0000000000000000
0.0000000000000000 1.0000000000000000 0.0000000000000000
0.0000000000000000 1.0000000000000000 0.0000000000000000
0.0000000000000000 1.0000000000000000 0.0000000000000000
0.0000000000000000 1.0000000000000000 0.0000000000000000
0.0000000000000000 1.0000000000000000 0.0000000000000000
0.0000000000000000 1.0000000000000000 0.0000000000000000
0.0000000000000000 1.0000000000000000 0.0000000000000000
0.0000000000000000 1.0000000000000000 0.0000000000000000
0.0000000000000000 1.0000000000000000 0.0000000000000000
0.0000000000000000 1.0000000000000000 0.0000000000000000
0.0000000000000000 1.0000000000000000 0.0000000000000000
0.0000000000000000 1.0000000000000000 0.0000000000000000
0.0000000000000000 1.0000000000000000 0.0000000000000000
0.0000000000000000 1.0000000000000000 0.0000000000000000
0.0000000000000000 1.0000000000000000 0.0000000000000000
0.0000000000000000 1.0000000000000000 0.0000000000000000
0.0000000000000000 1.0000000000000000 0.0000000000000000
0.0000000000000000 1.0000000000000000 0.0000000000000000
0.0000000000000000 1.0000000000000000 0.0000000000000000
0.0000000000000000 1.0000000000000000 0.0000000000000000
0.0000000000000000 1.0000000000000000 0.0000000000000000
0.0000000000000000 1.0000000000000000 0.0000000000000000
0.0000000000000000 1.0000000000000000 0.0000000000000000
0.0000000000000000 1.0000000000000000 0.0000000000000000
0.0000000000000000 1.0000000000000000 0.0000000000000000
0.0000000000000000 1.0000000000000000 0.0000000000000000
0.0000000000000000 1.0000000000000000 0.0000000000000000
0.0000000000000000 1.0000000000000000 0.0000000000000000
0.0000000000000000 1.0000000000000000 0.0000000000000000
0.0000000000000000 1.0000000000000000 0.0000000000000000
0.0000000000000000 1.0000000000000000 0.0000000000000000
0.0000000000000000 1.0000000000000000 0.0000000000000000
0.0000000000000000 1.0000000000000000 0.0000000000000000
0.0000000000000000 1.0000000000000000 0.0000000000000000
0.0000000000000000 1.0000000000000000 0.0000000000000000
0.0000000000000000 1.0000000000000000 0.0000000000000000
0.0000000000000000 1.0000000000000000 0.0000000000000000
0.0000000000000000 1.0000000000000000 0.0000000000000000
0.0000000000000000 1.0000000000000000 0.0000000000000000
0.0000000000000000 1.0000000000000000 0.0000000000000000
0.0000000000000000 1.0000000000000000 0.0000000000000000
0.0000000000000000 1.0000000000000000 0.0000000000000000
0.0000000000000000 1.0000000000000000 0.0000000000000000
0.0000000000000000 1.0000000000000000 0.0000000000000000
0.0000000000000000 1.0000000000000000 0.0000000000000000
0.0000000000000000 1.0000000000000000 0.0000000000000000
0.0000000000000000 1.0000000000000000 0.0000000000000000
0.0000000000000000 1.0000000000000000 0.0000000000000000
0.0000000000000000 1.0000000000000000 0.0000000000000000
0.0000000000000000 1.0000000000000000 0.0000000000000000
0.0000000000000000 1.0000000000000000 0.0000000000000000
0.0000000000000000 1.0000000000000000 0.0000000000000000
0.0000000000000000 1.0000000000000000 0.0000000000000000
0.0000000000000000 1.0000000000000000 0.0000000000000000
0.0000000000000000 1.0000000000000000 0.0000000000000000
0.0000000000000000 1.0000000000000000 0.0000000000000000
0.0000000000000000 1.0000000000000000 0.0000000000000000
0.0000000000000000 1.0000000000000000 0.0000000000000000
0.0000000000000000 1.0000000000000000 0.0000000000000000
0.0000000000000000 1.0000000000000000 0.0000000000000000
0.0000000000000000 1.0000000000000000 0.0000000000000000
0.0000000000000000 1.0000000000000000 0.0000000000000000
0.0000000000000000 1.0000000000000000 0.0000000000000000
0.0000000000000000 1.0000000000000000 0.0000000000000000
0.0000000000000000 1.0000000000000000 0.0000000000000000
0.0000000000000000 1.0000000000000000 0.0000000000000000
0.0000000000000000 1.0000000000000000 0.0000000000000000
0.0000000000000000 1.0000000000000000 0.0000000000000000
0.0000000000000000 1.0000000000000000 0.0000000000000000
0.0000000000000000 1.0000000000000000 0.0000000000000000
0.0000000000000000 1.0000000000000000 0.0000000000000000
0.0000000000000000 1.0000000000000000 0.0000000000000000
0.0000000000000000 1.0000000000000000 0.0000000000000000
0.0000000000000000 1.0000000000000000 0.0000000000000000
0.0000000000000000 1.0000000000000000 0.0000000000000000
0.0000000000000000 1.0000000000000000 0.0000000000000000
0.0000000000000000 1.0000000000000000 0.0000000000000000
0.0000000000000000 1.0000000000000000 0.0000000000000000
0.0000000000000000 1.0000000000000000 0.0000000000000000
0.0000000000000000 1.0000000000000000 0.0000000000000000
0.0000000000000000 1.0000000000000000 0.0000000000000000
0.0000000000000000 1.0000000000000000 0.0000000000000000
0.0000000000000000 1.0000000000000000 0.0000000000000000
0.0000000000000000 1.0000000000000000 0.0000000000000000
0.0000000000000000 1.0000000000000000 0.0000000000000000
0.0000000000000000 1.0000000000000000 0.0000000000000000
0.0000000000000000 1.0000000000000000 0.0000000000000000
0.0000000000000000 1.0000000000000000 0.0000000000000000
0.0000000000000000 1.0000000000000000 0.0000000000000000
0.0000000000000000 1.0000000000000000 0.0000000000000000
0.0000000000000000 1.0000000000000000 0.0000000000000000
0.0000000000000000 1.0000000000000000 0.0000000000000000
0.0000000000000000 1.0000000000000000 0.0000000000000000
0.0000000000000000 1.0000000000000000 0.0000000000000000
0.0000000000000000 1.0000000000000000 0.0000000000000000
0.0000000000000000 1.0000000000000000 0.0000000000000000
0.0000000000000000 1.0000000000000000 0.0000000000000000
0.0000000000000000 1.0000000000000000 0.0000000000000000
0.0000000000000000 1.0000000000000000 0.0000000000000000
0.0000000000000000 1.0000000000000000 0.0000000000000000
0.0000000000000000 1.0000000000000000 0.0000000000000000
0.0000000000000000 1.0000000000000000 0.0000000000000000
0.0000000000000000 1.0000000000000000 0.0000000000000000
0.0000000000000000 1.0000000000000000 0.0000000000000000
0.0000000000000000 1.0000000000000000 0.0000000000000000
0.0000000000000000 1.0000000000000000 0.0000000000000000
0.0000000000000000 1.0000000000000000 0.0000000000000000
0.0000000000000000 1.0000000000000000 0.0000000000000000
0.0000000000000000 1.0000000000000000 0.0000000000000000
0.0000000000000000 1.0000000000000000 0.0000000000000000
0.0000000000000000 1.0000000000000000 0.0000000000000000
0.0000000000000000 1.0000000000000000 0.0000000000000000
0.0000000000000000 1.0000000000000000 0.0000000000000000
0.0000000000000000 1.0000000000000000 0.0000000000000000
0.0000000000000000 1.0000000000000000 0.0000000000000000
0.0000000000000000 1.0000000000000000 0.0000000000000000
0.0000000000000000 1.0000000000000000 0.0000000000000000
0.0000000000000000 1.0000000000000000 0.0000000000000000
0.0000000000000000 1.0000000000000000 0.0000000000000000
0.0000000000000000 1.0000000000000000 0.0000000000000000
0.0000000000000000 1.0000000000000000 0.0000000000000000
0.0000000000000000 1.0000000000000000 0.0000000000000000
0.0000000000000000 1.0000000000000000 0.0000000000000000
0.0000000000000000 1.0000000000000000 0.0000000000000000
0.0000000000000000 1.0000000000000000 0.0000000000000000
0.0000000000000000 1.0000000000000000 0.0000000000000000
0.0000000000000000 1.0000000000000000 0.0000000000000000
0.0000000000000000 1.0000000000000000 0.0000000000000000
0.0000000000000000 1.0000000000000000 0.0000000000000000
0.0000000000000000 1.0000000000000000 0.0000000000000000
0.0000000000000000 1.0000000000000000 0.0000000000000000
0.0000000000000000 1.0000000000000000 0.0000000000000000
0.0000000000000000 1.0000000000000000 0.0000000000000000
0.0000000000000000 1.0000000000000000 0.0000000000000000
0.0000000000000000 1.0000000000000000 0.0000000000000000
0.0000000000000000 1.0000000000000000 0.0000000000000000
0.0000000000000000 1.0000000000000000 0.0000000000000000
0.0000000000000000 1.0000000000000000 0.0000000000000000
0.0000000000000000 1.0000000000000000 0.0000000000000000
0.0000000000000000 1.0000000000000000 0.0000000000000000
0.0000000000000000 1.0000000000000000 0.0000000000000000
0.0000000000000000 1.0000000000000000 0.0000000000000000
0.0000000000000000 1.0000000000000000 0.0000000000000000
0.0000000000000000 1.0000000000000000 0.0000000000000000
0.0000000000000000 1.0000000000000000 0.0000000000000000
0.0000000000000000 1.0000000000000000 0.0000000000000000
0.0000000000000000 1.0000000000000000 0.0000000000000000
0.0000000000000000 1.0000000000000000 0.0000000000000000
0.0000000000000000 1.0000000000000000 0.0000000000000000
0.0000000000000000 1.0000000000000000 0.0000000000000000
0.0000000000000000 1.0000000000000000 0.0000000000000000
0.0000000000000000 1.0000000000000000 0.0000000000000000
0.0000000000000000 1.0000000000000000 0.0000000000000000
0.0000000000000000 1.0000000000000000 0.0000000000000000
0.0000000000000000 1.0000000000000000 0.0000000000000000
0.0000000000000000 1.0000000000000000 0.0000000000000000
0.0000000000000000 1.0000000000000000 0.0000000000000000
0.0000000000000000 1.0000000000000000 0.0000000000000000
0.0000000000000000 1.0000000000000000 0.0000000000000000
0.0000000000000000 1.0000000000000000 0.0000000000000000
0.0000000000000000 1.0000000000000000 0.0000000000000000
0.0000000000000000 1.0000000000000000 0.0000000000000000
0.0000000000000000 1.0000000000000000 0.0000000000000000
0.0000000000000000 1.0000000000000000 0.0000000000000000
0.0000000000000000 1.0000000000000000 0.0000000000000000
0.0000000000000000 1.0000000000000000 0.0000000000000000
0.0000000000000000 1.0000000000000000 0.0000000000000000
0.0000000000000000 1.0000000000000000 0.0000000000000000
0.0000000000000000 1.0000000000000000 0.0000000000000000
0.0000000000000000 1.0000000000000000 0.0000000000000000
0.0000000000000000 1.0000000000000000 0.0000000000000000
0.0000000000000000 1.0000000000000000 0.0000000000000000
0.0000000000000000 1.0000000000000000 0.0000000000000000
0.0000000000000000 1.0000000000000000 0.0000000000000000
0.0000000000000000 1.0000000000000000 0.0000000000000000
0.0000000000000000 1.0000000000000000 0.0000000000000000
0.0000000000000000 1.0000000000000000 0.0000000000000000
0.0000000000000000 1.0000000000000000 0.0000000000000000
0.0000000000000000 1.0000000000000000 0.0000000000000000
0.0000000000000000 1.0000000000000000 0.0000000000000000
0.0000000000000000 1.0000000000000000 0.0000000000000000
0.0000000000000000 1.0000000000000000 0.0000000000000000
0.0000000000000000 1.0000000000000000 0.0000000000000000
0.0000000000000000 1.0000000000000000 0.0000000000000000
0.0000000000000000 1.0000000000000000 0.0000000000000000
0.0000000000000000 1.0000000000000000 0.0000000000000000
0.0000000000000000 1.0000000000000000 0.0000000000000000
0.0000000000000000 1.0000000000000000 0.0000000000000000
0.0000000000000000 1.0000000000000000 0.0000000000000000
0.0000000000000000 1.0000000000000000 0.0000000000000000
0.0000000000000000 1.0000000000000000 0.0000000000000000
0.0000000000000000 1.0000000000000000 0.0000000000000000
0.0000000000000000 1.0000000000000000 0.0000000000000000
0.0000000000000000 1.0000000000000000 0.0000000000000000
0.0000000000000000 1.0000000000000000 0.0000000000000000
0.0000000000000000 1.0000000000000000 0.0000000000000000
0.0000000000000000 1.0000000000000000 0.0000000000000000
0.0000000000000000 1.0000000000000000 0.0000000000000000
0.0000000000000000 1.0000000000000000 0.0000000000000000
0.0000000000000000 1.0000000000000000 0.0000000000000000
0.0000000000000000 1.0000000000000000 0.0000000000000000
0.0000000000000000 1.0000000000000000 0.0000000000000000
0.0000000000000000 1.0000000000000000 0.0000000000000000
0.0000000000000000 1.0000000000000000 0.0000000000000000
0.0000000000000000 1.0000000000000000 0.0000000000000000
0.0000000000000000 1.0000000000000000 0.0000000000000000
0.0000000000000000 1.0000000000000000 0.0000000000000000
0.0000000000000000 1.0000000000000000 0.0000000000000000
0.0000000000000000 1.0000000000000000 0.0000000000000000
0.0000000000000000 1.0000000000000000 0.0000000000000000
0.0000000000000000 1.0000000000000000 0.0000000000000000
0.0000000000000000 1.0000000000000000 0.0000000000000000
0.0000000000000000 1.0000000000000000 0.0000000000000000
0.0000000000000000 1.0000000000000000 0.0000000000000000
0.0000000000000000 1.0000000000000000 0.0000000000000000
0.0000000000000000 1.0000000000000000 0.0000000000000000
0.0000000000000000 1.0000000000000000 0.0000000000000000
0.0000000000000000 1.0000000000000000 0.0000000000000000
0.0000000000000000 1.0000000000000000 0.0000000000000000
0.0000000000000000 1.0000000000000000 0.0000000000000000
0.0000000000000000 1.0000000000000000 0.0000000000000000
0.0000000000000000 1.0000000000000000 0.0000000000000000
0.0000000000000000 1.0000000000000000 0.0000000000000000
0.0000000000000000 1.0000000000000000 0.0000000000000000
0.0000000000000000 1.0000000000000000 0.0000000000000000
0.0000000000000000 1.0000000000000000 0.0000000000000000
0.0000000000000000 1.0000000000000000 0.0000000000000000
0.0000000000000000 1.0000000000000000 0.0000000000000000
0.0000000000000000 1.0000000000000000 0.0000000000000000
0.0000000000000000 1.0000000000000000 0.0000000000000000
0.0000000000000000 1.0000000000000000 0.0000000000000000
0.0000000000000000 1.0000000000000000 0.0000000000000000
0.0000000000000000 1.0000000000000000 0.0000000000000000
0.0000000000000000 1.0000000000000000 0.0000000000000000
0.0000000000000000 1.0000000000000000 0.0000000000000000
0.0000000000000000 1.0000000000000000 0.0000000000000000
0.0000000000000000 1.0000000000000000 0.0000000000000000
0.0000000000000000 1.0000000000000000 0.0000000000000000
0.0000000000000000 1.0000000000000000 0.0000000000000000
0.0000000000000000 1.0000000000000000 0.0000000000000000
0.0000000000000000 1.0000000000000000 0.0000000000000000
0.0000000000000000 1.0000000000000000 0.0000000000000000
0.0000000000000000 1.0000000000000000 0.0000000000000000
0.0000000000000000 1.0000000000000000 0.0000000000000000
0.0000000000000000 1.0000000000000000 0.0000000000000000
0.0000000000000000 1.0000000000000000 0.0000000000000000
0.0000000000000000 1.0000000000000000 0.0000000000000000
0.0000000000000000 1.0000000000000000 0.0000000000000000
0.0000000000000000 1.0000000000000000 0.0000000000000000
0.0000000000000000 1.0000000000000000 0.0000000000000000
0.0000000000000000 1.0000000000000000 0.0000000000000000
0.0000000000000000 1.0000000000000000 0.0000000000000000
0.0000000000000000 1.0000000000000000 0.0000000000000000
0.0000000000000000 1.0000000000000000 0.0000000000000000
0.0000000000000000 1.0000000000000000 0.0000000000000000
0.0000000000000000 1.0000000000000000 0.0000000000000000
0.0000000000000000 1.0000000000000000 0.0000000000000000
0.0000000000000000 1.0000000000000000 0.0000000000000000
0.0000000000000000 1.0000000000000000 0.0000000000000000
0.0000000000000000 1.0000000000000000 0.0000000000000000
0.0000000000000000 1.0000000000000000 0.0000000000000000
0.0000000000000000 1.0000000000000000 0.0000000000000000
0.0000000000000000 1.0000000000000000 0.0000000000000000
0.0000000000000000 1.0000000000000000 0.0000000000000000
0.0000000000000000 1.0000000000000000 0.0000000000000000
0.0000000000000000 1.0000000000000000 0.0000000000000000
0.0000000000000000 1.0000000000000000 0.0000000000000000
0.0000000000000000 1.0000000000000000 0.0000000000000000
0.0000000000000000 1.0000000000000000 0.0000000000000000
0.0000000000000000 1.0000000000000000 0.0000000000000000
0.0000000000000000 1.0000000000000000 0.0000000000000000
0.0000000000000000 1.0000000000000000 0.0000000000000000
0.0000000000000000 1.0000000000000000 0.0000000000000000
0.0000000000000000 1.0000000000000000 0.0000000000000000
0.0000000000000000 1.0000000000000000 0.0000000000000000
0.0000000000000000 1.0000000000000000 0.0000000000000000
0.0000000000000000 1.0000000000000000 0.0000000000000000
0.0000000000000000 1.0000000000000000 0.0000000000000000
0.0000000000000000 1.0000000000000000 0.0000000000000000
0.0000000000000000 1.0000000000000000 0.0000000000000000
0.0000000000000000 1.0000000000000000 0.0000000000000000
0.0000000000000000 1.0000000000000000 0.0000000000000000
0.0000000000000000 1.0000000000000000 0.0000000000000000
0.0000000000000000 1.0000000000000000 0.0000000000000000
0.0000000000000000 1.0000000000000000 0.0000000000000000
0.0000000000000000 1.0000000000000000 0.0000000000000000
0.0000000000000000 1.0000000000000000 0.0000000000000000
0.0000000000000000 1.0000000000000000 0.0000000000000000
0.0000000000000000 1.0000000000000000 0.0000000000000000
0.0000000000000000 1.0000000000000000 0.0000000000000000
0.0000000000000000 1.0000000000000000 0.0000000000000000
0.0000000000000000 1.0000000000000000 0.0000000000000000
0.0000000000000000 1.0000000000000000 0.0000000000000000
0.0000000000000000 1.0000000000000000 0.0000000000000000
0.0000000000000000 1.0000000000000000 0.0000000000000000
0.0000000000000000 1.0000000000000000 0.0000000000000000
0.0000000000000000 1.0000000000000000 0.0000000000000000
0.0000000000000000 1.0000000000000000 0.0000000000000000
0.0000000000000000 1.0000000000000000 0.0000000000000000
0.0000000000000000 1.0000000000000000 0.0000000000000000
0.0000000000000000 1.0000000000000000 0.0000000000000000
0.0000000000000000 1.0000000000000000 0.0000000000000000
0.0000000000000000 1.0000000000000000 0.0000000000000000
0.0000000000000000 1.0000000000000000 0.0000000000000000
0.0000000000000000 1.0000000000000000 0.0000000000000000
0.0000000000000000 1.0000000000000000 0.0000000000000000
0.0000000000000000 1.0000000000000000 0.0000000000000000
0.0000000000000000 1.0000000000000000 0.0000000000000000
0.0000000000000000 1.0000000000000000 0.0000000000000000
0.0000000000000000 1.0000000000000000 0.0000000000000000
0.0000000000000000 1.0000000000000000 0.0000000000000000
0.0000000000000000 1.0000000000000000 0.0000000000000000
0.0000000000000000 1.0000000000000000 0.0000000000000000
0.0000000000000000 1.0000000000000000 0.0000000000000000
0.0000000000000000 1.0000000000000000 0.0000000000000000
0.0000000000000000 1.0000000000000000 0.0000000000000000
0.0000000000000000 1.0000000000000000 0.0000000000000000
0.0000000000000000 1.0000000000000000 0.0000000000000000
0.0000000000000000 1.0000000000000000 0.0000000000000000
0.0000000000000000 1.0000000000000000 0.0000000000000000
0.0000000000000000 1.0000000000000000 0.0000000000000000
0.0000000000000000 1.0000000000000000 0.0000000000000000
0.0000000000000000 1.0000000000000000 0.0000000000000000
0.0000000000000000 1.0000000000000000 0.0000000000000000
0.0000000000000000 1.0000000000000000 0.0000000000000000
0.0000000000000000 1.0000000000000000 0.0000000000000000
0.0000000000000000 1.0000000000000000 0.0000000000000000
0.0000000000000000 1.0000000000000000 0.0000000000000000
0.0000000000000000 1.0000000000000000 0.0000000000000000
0.0000000000000000 1.0000000000000000 0.0000000000000000
0.0000000000000000 1.0000000000000000 0.0000000000000000
0.0000000000000000 1.0000000000000000 0.0000000000000000
0.0000000000000000 1.0000000000000000 0.0000000000000000
0.0000000000000000 1.0000000000000000 0.0000000000000000
0.0000000000000000 1.0000000000000000 0.0000000000000000
0.0000000000000000 1.0000000000000000 0.0000000000000000
0.0000000000000000 1.0000000000000000 0.0000000000000000
0.0000000000000000 1.0000000000000000 0.0000000000000000
0.0000000000000000 1.0000000000000000 0.0000000000000000
0.0000000000000000 1.0000000000000000 0.0000000000000000
0.0000000000000000 1.0000000000000000 0.0000000000000000
0.0000000000000000 1.0000000000000000 0.0000000000000000
0.0000000000000000 1.0000000000000000 0.0000000000000000
0.0000000000000000 1.0000000000000000 0.0000000000000000
0.0000000000000000 1.0000000000000000 0.0000000000000000
0.0000000000000000 1.0000000000000000 0.0000000000000000
0.0000000000000000 1.0000000000000000 0.0000000000000000
0.0000000000000000 1.0000000000000000 0.0000000000000000
0.0000000000000000 1.0000000000000000 0.0000000000000000
0.0000000000000000 1.0000000000000000 0.0000000000000000
0.0000000000000000 1.0000000000000000 0.0000000000000000
0.0000000000000000 1.0000000000000000 0.0000000000000000
0.0000000000000000 1.0000000000000000 0.0000000000000000
0.0000000000000000 1.0000000000000000 0.0000000000000000
0.0000000000000000 1.0000000000000000 0.0000000000000000
0.0000000000000000 1.0000000000000000 0.0000000000000000
0.0000000000000000 1.0000000000000000 0.0000000000000000
0.0000000000000000 1.0000000000000000 0.0000000000000000
0.0000000000000000 1.0000000000000000 0.0000000000000000
0.0000000000000000 1.0000000000000000 0.0000000000000000
0.0000000000000000 1.0000000000000000 0.0000000000000000
0.0000000000000000 1.0000000000000000 0.0000000000000000
0.0000000000000000 1.0000000000000000 0.0000000000000000
0.0000000000000000 1.0000000000000000 0.0000000000000000
0.0000000000000000 1.0000000000000000 0.0000000000000000
0.0000000000000000 1.0000000000000000 0.0000000000000000
0.0000000000000000 1.0000000000000000 0.0000000000000000
0.0000000000000000 1.0000000000000000 0.0000000000000000
0.0000000000000000 1.0000000000000000 0.0000000000000000
0.0000000000000000 1.0000000000000000 0.0000000000000000
0.0000000000000000 1.0000000000000000 0.0000000000000000
0.0000000000000000 1.0000000000000000 0.0000000000000000
0.0000000000000000 1.0000000000000000 0.0000000000000000
0.0000000000000000 1.0000000000000000 0.0000000000000000
0.0000000000000000 1.0000000000000000 0.0000000000000000
0.0000000000000000 1.0000000000000000 0.0000000000000000
0.0000000000000000 1.0000000000000000 0.0000000000000000
0.0000000000000000 1.0000000000000000 0.0000000000000000
0.0000000000000000 1.0000000000000000 0.0000000000000000
0.0000000000000000 1.0000000000000000 0.0000000000000000
0.0000000000000000 1.0000000000000000 0.0000000000000000
0.0000000000000000 1.0000000000000000 0.0000000000000000
0.0000000000000000 1.0000000000000000 0.0000000000000000
0.0000000000000000 1.0000000000000000 0.0000000000000000
0.0000000000000000 1.0000000000000000 0.0000000000000000
0.0000000000000000 1.0000000000000000 0.0000000000000000
0.0000000000000000 1.0000000000000000 0.0000000000000000
0.0000000000000000 1.0000000000000000 0.0000000000000000
0.0000000000000000 1.0000000000000000 0.0000000000000000
0.0000000000000000 1.0000000000000000 0.0000000000000000
0.0000000000000000 1.0000000000000000 0.0000000000000000
0.0000000000000000 1.0000000000000000 0.0000000000000000
0.0000000000000000 1.0000000000000000 0.0000000000000000
0.0000000000000000 1.0000000000000000 0.0000000000000000
0.0000000000000000 1.0000000000000000 0.0000000000000000
0.0000000000000000 1.0000000000000000 0.0000000000000000
0.0000000000000000 1.0000000000000000 0.0000000000000000
0.0000000000000000 1.0000000000000000 0.0000000000000000
0.0000000000000000 1.0000000000000000 0.0000000000000000
0.0000000000000000 1.0000000000000000 0.0000000000000000
0.0000000000000000 1.0000000000000000 0.0000000000000000
0.0000000000000000 1.0000000000000000 0.0000000000000000
0.0000000000000000 1.0000000000000000 0.0000000000000000
0.0000000000000000 1.0000000000000000 0.0000000000000000
0.0000000000000000 1.0000000000000000 0.0000000000000000
0.0000000000000000 1.0000000000000000 0.0000000000000000
0.0000000000000000 1.0000000000000000 0.0000000000000000
0.0000000000000000 1.0000000000000000 0.0000000000000000
0.0000000000000000 1.0000000000000000 0.0000000000000000
0.0000000000000000 1.0000000000000000 0.0000000000000000
0.0000000000000000 1.0000000000000000 0.0000000000000000
0.0000000000000000 1.0000000000000000 0.0000000000000000
0.0000000000000000 1.0000000000000000 0.0000000000000000
0.0000000000000000 1.0000000000000000 0.0000000000000000
0.0000000000000000 1.0000000000000000 0.0000000000000000
0.0000000000000000 1.0000000000000000 0.0000000000000000
0.0000000000000000 1.0000000000000000 0.0000000000000000
0.0000000000000000 1.0000000000000000 0.0000000000000000
0.0000000000000000 1.0000000000000000 0.0000000000000000
0.0000000000000000 1.0000000000000000 0.0000000000000000
0.0000000000000000 1.0000000000000000 0.0000000000000000
0.0000000000000000 1.0000000000000000 0.0000000000000000
0.0000000000000000 1.0000000000000000 0.0000000000000000
0.0000000000000000 1.0000000000000000 0.0000000000000000
0.0000000000000000 1.0000000000000000 0.0000000000000000
0.0000000000000000 1.0000000000000000 0.0000000000000000
0.0000000000000000 1.0000000000000000 0.0000000000000000
0.0000000000000000 1.0000000000000000 0.0000000000000000
0.0000000000000000 1.0000000000000000 0.0000000000000000
0.0000000000000000 1.0000000000000000 0.0000000000000000
0.0000000000000000 1.0000000000000000 0.0000000000000000
0.0000000000000000 1.0000000000000000 0.0000000000000000
0.0000000000000000 1.0000000000000000 0.0000000000000000
0.0000000000000000 1.0000000000000000 0.0000000000000000
0.0000000000000000 1.0000000000000000 0.0000000000000000
0.0000000000000000 1.0000000000000000 0.0000000000000000
0.0000000000000000 1.0000000000000000 0.0000000000000000
0.0000000000000000 1.0000000000000000 0.0000000000000000
0.0000000000000000 1.0000000000000000 0.0000000000000000
0.0000000000000000 1.0000000000000000 0.0000000000000000
0.0000000000000000 1.0000000000000000 0.0000000000000000
0.0000000000000000 1.0000000000000000 0.0000000000000000
0.0000000000000000 1.0000000000000000 0.0000000000000000
0.0000000000000000 1.0000000000000000 0.0000000000000000
0.0000000000000000 1.0000000000000000 0.0000000000000000
0.0000000000000000 1.0000000000000000 0.0000000000000000
0.0000000000000000 1.0000000000000000 0.0000000000000000
0.0000000000000000 1.0000000000000000 0.0000000000000000
0.0000000000000000 1.0000000000000000 0.0000000000000000
0.0000000000000000 1.0000000000000000 0.0000000000000000
0.0000000000000000 1.0000000000000000 0.0000000000000000
0.0000000000000000 1.0000000000000000 0.0000000000000000
0.0000000000000000 1.0000000000000000 0.0000000000000000
0.0000000000000000 1.0000000000000000 0.0000000000000000
0.0000000000000000 1.0000000000000000 0.0000000000000000
0.0000000000000000 1.0000000000000000 0.0000000000000000
0.0000000000000000 1.0000000000000000 0.0000000000000000
0.0000000000000000 1.0000000000000000 0.0000000000000000
0.0000000000000000 1.0000000000000000 0.0000000000000000
0.0000000000000000 1.0000000000000000 0.0000000000000000
0.0000000000000000 1.0000000000000000 0.0000000000000000
0.0000000000000000 1.0000000000000000 0.0000000000000000
0.0000000000000000 1.0000000000000000 0.0000000000000000
0.0000000000000000 1.0000000000000000 0.0000000000000000
0.0000000000000000 1.0000000000000000 0.0000000000000000
0.0000000000000000 1.0000000000000000 0.0000000000000000
0.0000000000000000 1.0000000000000000 0.0000000000000000
0.0000000000000000 1.0000000000000000 0.0000000000000000
0.0000000000000000 1.0000000000000000 0.0000000000000000
0.0000000000000000 1.0000000000000000 0.0000000000000000
0.0000000000000000 1.0000000000000000 0.0000000000000000
0.0000000000000000 1.0000000000000000 0.0000000000000000
0.0000000000000000 1.0000000000000000 0.0000000000000000
0.0000000000000000 1.0000000000000000 0.0000000000000000
0.0000000000000000 1.0000000000000000 0.0000000000000000
0.0000000000000000 1.0000000000000000 0.0000000000000000
0.0000000000000000 1.0000000000000000 0.0000000000000000
0.0000000000000000 1.0000000000000000 0.0000000000000000
0.0000000000000000 1.0000000000000000 0.0000000000000000
0.0000000000000000 1.0000000000000000 0.0000000000000000
0.0000000000000000 1.0000000000000000 0.0000000000000000
0.0000000000000000 1.0000000000000000 0.0000000000000000
0.0000000000000000 1.0000000000000000 0.0000000000000000
0.0000000000000000 1.0000000000000000 0.0000000000000000
0.0000000000000000 1.0000000000000000 0.0000000000000000
0.0000000000000000 1.0000000000000000 0.0000000000000000
0.0000000000000000 1.0000000000000000 0.0000000000000000
0.0000000000000000 1.0000000000000000 0.0000000000000000
0.0000000000000000 1.0000000000000000 0.0000000000000000
0.0000000000000000 1.0000000000000000 0.0000000000000000
0.0000000000000000 1.0000000000000000 0.0000000000000000
0.0000000000000000 1.0000000000000000 0.0000000000000000
0.0000000000000000 1.0000000000000000 0.0000000000000000
0.0000000000000000 1.0000000000000000 0.0000000000000000
0.0000000000000000 1.0000000000000000 0.0000000000000000
0.0000000000000000 1.0000000000000000 0.0000000000000000
0.0000000000000000 1.0000000000000000 0.0000000000000000
0.0000000000000000 1.0000000000000000 0.0000000000000000
0.0000000000000000 1.0000000000000000 0.0000000000000000
0.0000000000000000 1.0000000000000000 0.0000000000000000
0.0000000000000000 1.0000000000000000 0.0000000000000000
0.0000000000000000 1.0000000000000000 0.0000000000000000
0.0000000000000000 1.0000000000000000 0.0000000000000000
0.0000000000000000 1.0000000000000000 0.0000000000000000
0.0000000000000000 1.0000000000000000 0.0000000000000000
0.0000000000000000 1.0000000000000000 0.0000000000000000
0.0000000000000000 1.0000000000000000 0.0000000000000000
0.0000000000000000 1.0000000000000000 0.0000000000000000
0.0000000000000000 1.0000000000000000 0.0000000000000000
0.0000000000000000 1.0000000000000000 0.0000000000000000
0.0000000000000000 1.0000000000000000 0.0000000000000000
0.0000000000000000 1.0000000000000000 0.0000000000000000
0.0000000000000000 1.0000000000000000 0.0000000000000000
0.0000000000000000 1.0000000000000000 0.0000000000000000
0.0000000000000000 1.0000000000000000 0.0000000000000000
0.0000000000000000 1.0000000000000000 0.0000000000000000
0.0000000000000000 1.0000000000000000 0.0000000000000000
0.0000000000000000 1.0000000000000000 0.0000000000000000
0.0000000000000000 1.0000000000000000 0.0000000000000000
0.0000000000000000 1.0000000000000000 0.0000000000000000
0.0000000000000000 1.0000000000000000 0.0000000000000000
0.0000000000000000 1.0000000000000000 0.0000000000000000
0.0000000000000000 1.0000000000000000 0.0000000000000000
0.0000000000000000 1.0000000000000000 0.0000000000000000
0.0000000000000000 1.0000000000000000 0.0000000000000000
0.0000000000000000 1.0000000000000000 0.0000000000000000
0.0000000000000000 1.0000000000000000 0.0000000000000000
0.0000000000000000 1.0000000000000000 0.0000000000000000
0.0000000000000000 1.0000000000000000 0.0000000000000000
0.0000000000000000 1.0000000000000000 0.0000000000000000
0.0000000000000000 1.0000000000000000 0.0000000000000000
0.0000000000000000 1.0000000000000000 0.0000000000000000
0.0000000000000000 1.0000000000000000 0.0000000000000000
0.0000000000000000 1.0000000000000000 0.0000000000000000
0.0000000000000000 1.0000000000000000 0.0000000000000000
0.0000000000000000 1.0000000000000000 0.0000000000000000
0.0000000000000000 1.0000000000000000 0.0000000000000000
0.0000000000000000 1.0000000000000000 0.0000000000000000
0.0000000000000000 1.0000000000000000 0.0000000000000000
0.0000000000000000 1.0000000000000000 0.0000000000000000
0.0000000000000000 1.0000000000000000 0.0000000000000000
0.0000000000000000 1.0000000000000000 0.0000000000000000
0.0000000000000000 1.0000000000000000 0.0000000000000000
0.0000000000000000 1.0000000000000000 0.0000000000000000
0.0000000000000000 1.0000000000000000 0.0000000000000000
0.0000000000000000 1.0000000000000000 0.0000000000000000
0.0000000000000000 1.0000000000000000 0.0000000000000000
0.0000000000000000 1.0000000000000000 0.0000000000000000
0.0000000000000000 1.0000000000000000 0.0000000000000000
0.0000000000000000 1.0000000000000000 0.0000000000000000
0.0000000000000000 1.0000000000000000 0.0000000000000000
0.0000000000000000 1.0000000000000000 0.0000000000000000
0.0000000000000000 1.0000000000000000 0.0000000000000000
0.0000000000000000 1.0000000000000000 0.0000000000000000
0.0000000000000000 1.0000000000000000 0.0000000000000000
0.0000000000000000 1.0000000000000000 0.0000000000000000
0.0000000000000000 1.0000000000000000 0.0000000000000000
0.0000000000000000 1.0000000000000000 0.0000000000000000
0.0000000000000000 1.0000000000000000 0.0000000000000000
0.0000000000000000 1.0000000000000000 0.0000000000000000
0.0000000000000000 1.0000000000000000 0.0000000000000000
0.0000000000000000 1.0000000000000000 0.0000000000000000
0.0000000000000000 1.0000000000000000 0.0000000000000000
0.0000000000000000 1.0000000000000000 0.0000000000000000
0.0000000000000000 1.0000000000000000 0.0000000000000000
0.0000000000000000 1.0000000000000000 0.0000000000000000
0.0000000000000000 1.0000000000000000 0.0000000000000000
0.0000000000000000 1.0000000000000000 0.0000000000000000
0.0000000000000000 1.0000000000000000 0.0000000000000000
0.0000000000000000 1.0000000000000000 0.0000000000000000
0.0000000000000000 1.0000000000000000 0.0000000000000000
0.0000000000000000 1.0000000000000000 0.0000000000000000
0.0000000000000000 1.0000000000000000 0.0000000000000000
0.0000000000000000 1.0000000000000000 0.0000000000000000
0.0000000000000000 1.0000000000000000 0.0000000000000000
0.0000000000000000 1.0000000000000000 0.0000000000000000
0.0000000000000000 1.0000000000000000 0.0000000000000000
0.0000000000000000 1.0000000000000000 0.0000000000000000
0.0000000000000000 1.0000000000000000 0.0000000000000000
0.0000000000000000 1.0000000000000000 0.0000000000000000
0.0000000000000000 1.0000000000000000 0.0000000000000000
0.0000000000000000 1.0000000000000000 0.0000000000000000
0.0000000000000000 1.0000000000000000 0.0000000000000000
0.0000000000000000 1.0000000000000000 0.0000000000000000
0.0000000000000000 1.0000000000000000 0.0000000000000000
0.0000000000000000 1.0000000000000000 0.0000000000000000
0.0000000000000000 1.0000000000000000 0.0000000000000000
0.0000000000000000 1.0000000000000000 0.0000000000000000
0.0000000000000000 1.0000000000000000 0.0000000000000000
0.0000000000000000 1.0000000000000000 0.0000000000000000
0.0000000000000000 1.0000000000000000 0.0000000000000000
0.0000000000000000 1.0000000000000000 0.0000000000000000
0.0000000000000000 1.0000000000000000 0.0000000000000000
0.0000000000000000 1.0000000000000000 0.0000000000000000
0.0000000000000000 1.0000000000000000 0.0000000000000000
0.0000000000000000 1.0000000000000000 0.0000000000000000
0.0000000000000000 1.0000000000000000 0.0000000000000000
0.0000000000000000 1.0000000000000000 0.0000000000000000
0.0000000000000000 1.0000000000000000 0.0000000000000000
0.0000000000000000 1.0000000000000000 0.0000000000000000
0.0000000000000000 1.0000000000000000 0.0000000000000000
0.0000000000000000 1.0000000000000000 0.0000000000000000
0.0000000000000000 1.0000000000000000 0.0000000000000000
0.0000000000000000 1.0000000000000000 0.0000000000000000
0.0000000000000000 1.0000000000000000 0.0000000000000000
0.0000000000000000 1.0000000000000000 0.0000000000000000
0.0000000000000000 1.0000000000000000 0.0000000000000000
0.0000000000000000 1.0000000000000000 0.0000000000000000
0.0000000000000000 1.0000000000000000 0.0000000000000000
0.0000000000000000 1.0000000000000000 0.0000000000000000
0.0000000000000000 1.0000000000000000 0.0000000000000000
0.0000000000000000 1.0000000000000000 0.0000000000000000
0.0000000000000000 1.0000000000000000 0.0000000000000000
0.0000000000000000 1.0000000000000000 0.0000000000000000
0.0000000000000000 1.0000000000000000 0.0000000000000000
0.0000000000000000 1.0000000000000000 0.0000000000000000
0.0000000000000000 1.0000000000000000 0.0000000000000000
0.0000000000000000 1.0000000000000000 0.0000000000000000
0.0000000000000000 1.0000000000000000 0.0000000000000000
0.0000000000000000 1.0000000000000000 0.0000000000000000
0.0000000000000000 1.0000000000000000 0.0000000000000000
0.0000000000000000 1.0000000000000000 0.0000000000000000
0.0000000000000000 1.0000000000000000 0.0000000000000000
0.0000000000000000 1.0000000000000000 0.0000000000000000
0.0000000000000000 1.0000000000000000 0.0000000000000000
0.0000000000000000 1.0000000000000000 0.0000000000000000
0.0000000000000000 1.0000000000000000 0.0000000000000000
0.0000000000000000 1.0000000000000000 0.0000000000000000
0.0000000000000000 1.0000000000000000 0.0000000000000000
0.0000000000000000 1.0000000000000000 0.0000000000000000
0.0000000000000000 1.0000000000000000 0.0000000000000000
0.0000000000000000 1.0000000000000000 0.0000000000000000
0.0000000000000000 1.0000000000000000 0.0000000000000000
0.0000000000000000 1.0000000000000000 0.0000000000000000
0.0000000000000000 1.0000000000000000 0.0000000000000000
0.0000000000000000 1.0000000000000000 0.0000000000000000
0.0000000000000000 1.0000000000000000 0.0000000000000000
0.0000000000000000 1.0000000000000000 0.0000000000000000
0.0000000000000000 1.0000000000000000 0.0000000000000000
0.0000000000000000 1.0000000000000000 0.0000000000000000
0.0000000000000000 1.0000000000000000 0.0000000000000000
0.0000000000000000 1.0000000000000000 0.0000000000000000
0.0000000000000000 1.0000000000000000 0.0000000000000000
0.0000000000000000 1.0000000000000000 0.0000000000000000
0.0000000000000000 1.0000000000000000 0.0000000000000000
0.0000000000000000 1.0000000000000000 0.0000000000000000
0.0000000000000000 1.0000000000000000 0.0000000000000000
0.0000000000000000 1.0000000000000000 0.0000000000000000
0.0000000000000000 1.0000000000000000 0.0000000000000000
0.0000000000000000 1.0000000000000000 0.0000000000000000
0.0000000000000000 1.0000000000000000 0.0000000000000000
0.0000000000000000 1.0000000000000000 0.0000000000000000
0.0000000000000000 1.0000000000000000 0.0000000000000000
0.0000000000000000 1.0000000000000000 0.0000000000000000
0.0000000000000000 1.0000000000000000 0.0000000000000000
0.0000000000000000 1.0000000000000000 0.0000000000000000
0.0000000000000000 1.0000000000000000 0.0000000000000000
0.0000000000000000 1.0000000000000000 0.0000000000000000
0.0000000000000000 1.0000000000000000 0.0000000000000000
0.0000000000000000 1.0000000000000000 0.0000000000000000
0.0000000000000000 1.0000000000000000 0.0000000000000000
0.0000000000000000 1.0000000000000000 0.0000000000000000
0.0000000000000000 1.0000000000000000 0.0000000000000000
0.0000000000000000 1.0000000000000000 0.0000000000000000
0.0000000000000000 1.0000000000000000 0.0000000000000000
0.0000000000000000 1.0000000000000000 0.0000000000000000
0.0000000000000000 1.0000000000000000 0.0000000000000000
0.0000000000000000 1.0000000000000000 0.0000000000000000
0.0000000000000000 1.0000000000000000 0.0000000000000000
0.0000000000000000 1.0000000000000000 0.0000000000000000
0.0000000000000000 1.0000000000000000 0.0000000000000000
0.0000000000000000 1.0000000000000000 0.0000000000000000
0.0000000000000000 1.0000000000000000 0.0000000000000000
0.0000000000000000 1.0000000000000000 0.0000000000000000
0.0000000000000000 1.0000000000000000 0.0000000000000000
0.0000000000000000 1.0000000000000000 0.0000000000000000
0.0000000000000000 1.0000000000000000 0.0000000000000000
0.0000000000000000 1.0000000000000000 0.0000000000000000
0.0000000000000000 1.0000000000000000 0.0000000000000000
0.0000000000000000 1.0000000000000000 0.0000000000000000
0.0000000000000000 1.0000000000000000 0.0000000000000000
0.0000000000000000 1.0000000000000000 0.0000000000000000
0.0000000000000000 1.0000000000000000 0.0000000000000000
0.0000000000000000 1.0000000000000000 0.0000000000000000
0.0000000000000000 1.0000000000000000 0.0000000000000000
0.0000000000000000 1.0000000000000000 0.0000000000000000
0.0000000000000000 1.0000000000000000 0.0000000000000000
0.0000000000000000 1.0000000000000000 0.0000000000000000
0.0000000000000000 1.0000000000000000 0.0000000000000000
0.0000000000000000 1.0000000000000000 0.0000000000000000
0.0000000000000000 1.0000000000000000 0.0000000000000000
0.0000000000000000 1.0000000000000000 0.0000000000000000
0.0000000000000000 1.0000000000000000 0.0000000000000000
0.0000000000000000 1.0000000000000000 0.0000000000000000
0.0000000000000000 1.0000000000000000 0.0000000000000000
0.0000000000000000 1.0000000000000000 0.0000000000000000
0.0000000000000000 1.0000000000000000 0.0000000000000000
0.0000000000000000 1.0000000000000000 0.0000000000000000
0.0000000000000000 1.0000000000000000 0.0000000000000000
0.0000000000000000 1.0000000000000000 0.0000000000000000
0.0000000000000000 1.0000000000000000 0.0000000000000000
0.0000000000000000 1.0000000000000000 0.0000000000000000
0.0000000000000000 1.0000000000000000 0.0000000000000000
0.0000000000000000 1.0000000000000000 0.0000000000000000
0.0000000000000000 1.0000000000000000 0.0000000000000000
0.0000000000000000 1.0000000000000000 0.0000000000000000
0.0000000000000000 1.0000000000000000 0.0000000000000000
0.0000000000000000 1.0000000000000000 0.0000000000000000
0.0000000000000000 1.0000000000000000 0.0000000000000000
0.0000000000000000 1.0000000000000000 0.0000000000000000
0.0000000000000000 1.0000000000000000 0.0000000000000000
0.0000000000000000 1.0000000000000000 0.0000000000000000
0.0000000000000000 1.0000000000000000 0.0000000000000000
0.0000000000000000 1.0000000000000000 0.0000000000000000
0.0000000000000000 1.0000000000000000 0.0000000000000000
0.0000000000000000 1.0000000000000000 0.0000000000000000
0.0000000000000000 1.0000000000000000 0.0000000000000000
0.0000000000000000 1.0000000000000000 0.0000000000000000
0.0000000000000000 1.0000000000000000 0.0000000000000000
0.0000000000000000 1.0000000000000000 0.0000000000000000
0.0000000000000000 1.0000000000000000 0.0000000000000000
0.0000000000000000 1.0000000000000000 0.0000000000000000
0.0000000000000000 1.0000000000000000 0.0000000000000000
0.0000000000000000 1.0000000000000000 0.0000000000000000
0.0000000000000000 1.0000000000000000 0.0000000000000000
0.0000000000000000 1.0000000000000000 0.0000000000000000
0.0000000000000000 1.0000000000000000 0.0000000000000000
0.0000000000000000 1.0000000000000000 0.0000000000000000
0.0000000000000000 1.0000000000000000 0.0000000000000000
0.0000000000000000 1.0000000000000000 0.0000000000000000
0.0000000000000000 1.0000000000000000 0.0000000000000000
0.0000000000000000 1.0000000000000000 0.0000000000000000
0.0000000000000000 1.0000000000000000 0.0000000000000000
0.0000000000000000 1.0000000000000000 0.0000000000000000
0.0000000000000000 1.0000000000000000 0.0000000000000000
0.0000000000000000 1.0000000000000000 0.0000000000000000
0.0000000000000000 1.0000000000000000 0.0000000000000000
0.0000000000000000 1.0000000000000000 0.0000000000000000
0.0000000000000000 1.0000000000000000 0.0000000000000000
0.0000000000000000 1.0000000000000000 0.0000000000000000
0.0000000000000000 1.0000000000000000 0.0000000000000000
0.0000000000000000 1.0000000000000000 0.0000000000000000
0.0000000000000000 1.0000000000000000 0.0000000000000000
0.0000000000000000 1.0000000000000000 0.0000000000000000
0.0000000000000000 1.0000000000000000 0.0000000000000000
0.0000000000000000 1.0000000000000000 0.0000000000000000
0.0000000000000000 1.0000000000000000 0.0000000000000000
0.0000000000000000 1.0000000000000000 0.0000000000000000
0.0000000000000000 1.0000000000000000 0.0000000000000000
0.0000000000000000 1.0000000000000000 0.0000000000000000
0.0000000000000000 1.0000000000000000 0.0000000000000000
0.0000000000000000 1.0000000000000000 0.0000000000000000
0.0000000000000000 1.0000000000000000 0.0000000000000000
0.0000000000000000 1.0000000000000000 0.0000000000000000
0.0000000000000000 1.0000000000000000 0.0000000000000000
0.0000000000000000 1.0000000000000000 0.0000000000000000
0.0000000000000000 1.0000000000000000 0.0000000000000000
0.0000000000000000 1.0000000000000000 0.0000000000000000
0.0000000000000000 1.0000000000000000 0.0000000000000000
0.0000000000000000 1.0000000000000000 0.0000000000000000
0.0000000000000000 1.0000000000000000 0.0000000000000000
0.0000000000000000 1.0000000000000000 0.0000000000000000
0.0000000000000000 1.0000000000000000 0.0000000000000000
0.0000000000000000 1.0000000000000000 0.0000000000000000
0.0000000000000000 1.0000000000000000 0.0000000000000000
0.0000000000000000 1.0000000000000000 0.0000000000000000
0.0000000000000000 1.0000000000000000 0.0000000000000000
0.0000000000000000 1.0000000000000000 0.0000000000000000
0.0000000000000000 1.0000000000000000 0.0000000000000000
0.0000000000000000 1.0000000000000000 0.0000000000000000
0.0000000000000000 1.0000000000000000 0.0000000000000000
0.0000000000000000 1.0000000000000000 0.0000000000000000
0.0000000000000000 1.0000000000000000 0.0000000000000000
0.0000000000000000 1.0000000000000000 0.0000000000000000
0.0000000000000000 1.0000000000000000 0.0000000000000000
0.0000000000000000 1.0000000000000000 0.0000000000000000
0.0000000000000000 1.0000000000000000 0.0000000000000000
0.0000000000000000 1.0000000000000000 0.0000000000000000
0.0000000000000000 1.0000000000000000 0.0000000000000000
0.0000000000000000 1.0000000000000000 0.0000000000000000
0.0000000000000000 1.0000000000000000 0.0000000000000000
0.0000000000000000 1.0000000000000000 0.0000000000000000
0.0000000000000000 1.0000000000000000 0.0000000000000000
0.0000000000000000 1.0000000000000000 0.0000000000000000
0.0000000000000000 1.0000000000000000 0.0000000000000000
0.0000000000000000 1.0000000000000000 0.0000000000000000
0.0000000000000000 1.0000000000000000 0.0000000000000000
0.0000000000000000 1.0000000000000000 0.0000000000000000
0.0000000000000000 1.0000000000000000 0.0000000000000000
0.0000000000000000 1.0000000000000000 0.0000000000000000
0.0000000000000000 1.0000000000000000 0.0000000000000000
0.0000000000000000 1.0000000000000000 0.0000000000000000
0.0000000000000000 1.0000000000000000 0.0000000000000000
0.0000000000000000 1.0000000000000000 0.0000000000000000
0.0000000000000000 1.0000000000000000 0.0000000000000000
0.0000000000000000 1.0000000000000000 0.0000000000000000
0.0000000000000000 1.0000000000000000 0.0000000000000000
0.0000000000000000 1.0000000000000000 0.0000000000000000
0.0000000000000000 1.0000000000000000 0.0000000000000000
0.0000000000000000 1.0000000000000000 0.0000000000000000
0.0000000000000000 1.0000000000000000 0.0000000000000000
0.0000000000000000 1.0000000000000000 0.0000000000000000
0.0000000000000000 1.0000000000000000 0.0000000000000000
0.0000000000000000 1.0000000000000000 0.0000000000000000
0.0000000000000000 1.0000000000000000 0.0000000000000000
0.0000000000000000 1.0000000000000000 0.0000000000000000
0.0000000000000000 1.0000000000000000 0.0000000000000000
0.0000000000000000 1.0000000000000000 0.0000000000000000
0.0000000000000000 1.0000000000000000 0.0000000000000000
0.0000000000000000 1.0000000000000000 0.0000000000000000
0.0000000000000000 1.0000000000000000 0.0000000000000000
0.0000000000000000 1.0000000000000000 0.0000000000000000
0.0000000000000000 1.0000000000000000 0.0000000000000000
0.0000000000000000 1.0000000000000000 0.0000000000000000
0.0000000000000000 1.0000000000000000 0.0000000000000000
0.0000000000000000 1.0000000000000000 0.0000000000000000
0.0000000000000000 1.0000000000000000 0.0000000000000000
0.0000000000000000 1.0000000000000000 0.0000000000000000
0.0000000000000000 1.0000000000000000 0.0000000000000000
0.0000000000000000 1.0000000000000000 0.0000000000000000
0.0000000000000000 1.0000000000000000 0.0000000000000000
0.0000000000000000 1.0000000000000000 0.0000000000000000
0.0000000000000000 1.0000000000000000 0.0000000000000000
0.0000000000000000 1.0000000000000000 0.0000000000000000
0.0000000000000000 1.0000000000000000 0.0000000000000000
0.0000000000000000 1.0000000000000000 0.0000000000000000
0.0000000000000000 1.0000000000000000 0.0000000000000000
0.0000000000000000 1.0000000000000000 0.0000000000000000
0.0000000000000000 1.0000000000000000 0.0000000000000000
0.0000000000000000 1.0000000000000000 0.0000000000000000
0.0000000000000000 1.0000000000000000 0.0000000000000000
0.0000000000000000 1.0000000000000000 0.0000000000000000
0.0000000000000000 1.0000000000000000 0.0000000000000000
0.0000000000000000 1.0000000000000000 0.0000000000000000
0.0000000000000000 1.0000000000000000 0.0000000000000000
0.0000000000000000 1.0000000000000000 0.0000000000000000
0.0000000000000000 1.0000000000000000 0.0000000000000000
0.0000000000000000 1.0000000000000000 0.0000000000000000
0.0000000000000000 1.0000000000000000 0.0000000000000000
0.0000000000000000 1.0000000000000000 0.0000000000000000
0.0000000000000000 1.0000000000000000 0.0000000000000000
0.0000000000000000 1.0000000000000000 0.0000000000000000
0.0000000000000000 1.0000000000000000 0.0000000000000000
0.0000000000000000 1.0000000000000000 0.0000000000000000
0.0000000000000000 1.0000000000000000 0.0000000000000000
0.0000000000000000 1.0000000000000000 0.0000000000000000
0.0000000000000000 1.0000000000000000 0.0000000000000000
0.0000000000000000 1.0000000000000000 0.0000000000000000
0.0000000000000000 1.0000000000000000 0.0000000000000000
0.0000000000000000 1.0000000000000000 0.0000000000000000
0.0000000000000000 1.0000000000000000 0.0000000000000000
0.0000000000000000 1.0000000000000000 0.0000000000000000
0.0000000000000000 1.0000000000000000 0.0000000000000000
0.0000000000000000 1.0000000000000000 0.0000000000000000
0.0000000000000000 1.0000000000000000 0.0000000000000000
0.0000000000000000 1.0000000000000000 0.0000000000000000
0.0000000000000000 1.0000000000000000 0.0000000000000000
0.0000000000000000 1.0000000000000000 0.0000000000000000
0.0000000000000000 1.0000000000000000 0.0000000000000000
0.0000000000000000 1.0000000000000000 0.0000000000000000
0.0000000000000000 1.0000000000000000 0.0000000000000000
0.0000000000000000 1.0000000000000000 0.0000000000000000
0.0000000000000000 1.0000000000000000 0.0000000000000000
0.0000000000000000 1.0000000000000000 0.0000000000000000
0.0000000000000000 1.0000000000000000 0.0000000000000000
0.0000000000000000 1.0000000000000000 0.0000000000000000
0.0000000000000000 1.0000000000000000 0.0000000000000000
0.0000000000000000 1.0000000000000000 0.0000000000000000
0.0000000000000000 1.0000000000000000 0.0000000000000000
0.0000000000000000 1.0000000000000000 0.0000000000000000
0.0000000000000000 1.0000000000000000 0.0000000000000000
0.0000000000000000 1.0000000000000000 0.0000000000000000
0.0000000000000000 1.0000000000000000 0.0000000000000000
0.0000000000000000 1.0000000000000000 0.0000000000000000
0.0000000000000000 1.0000000000000000 0.0000000000000000
0.0000000000000000 1.0000000000000000 0.0000000000000000
0.0000000000000000 1.0000000000000000 0.0000000000000000
0.0000000000000000 1.0000000000000000 0.0000000000000000
0.0000000000000000 1.0000000000000000 0.0000000000000000
0.0000000000000000 1.0000000000000000 0.0000000000000000
0.0000000000000000 1.0000000000000000 0.0000000000000000
0.0000000000000000 1.0000000000000000 0.0000000000000000
0.0000000000000000 1.0000000000000000 0.0000000000000000
0.0000000000000000 1.0000000000000000 0.0000000000000000
0.0000000000000000 1.0000000000000000 0.0000000000000000
0.0000000000000000 1.0000000000000000 0.0000000000000000
0.0000000000000000 1.0000000000000000 0.0000000000000000
0.0000000000000000 1.0000000000000000 0.0000000000000000
0.0000000000000000 1.0000000000000000 0.0000000000000000
0.0000000000000000 1.0000000000000000 0.0000000000000000
0.0000000000000000 1.0000000000000000 0.0000000000000000
0.0000000000000000 1.0000000000000000 0.0000000000000000
0.0000000000000000 1.0000000000000000 0.0000000000000000
0.0000000000000000 1.0000000000000000 0.0000000000000000
0.0000000000000000 1.0000000000000000 0.0000000000000000
0.0000000000000000 1.0000000000000000 0.0000000000000000
0.0000000000000000 1.0000000000000000 0.0000000000000000
0.0000000000000000 1.0000000000000000 0.0000000000000000
0.0000000000000000 1.0000000000000000 0.0000000000000000
0.0000000000000000 1.0000000000000000 0.0000000000000000
0.0000000000000000 1.0000000000000000 0.0000000000000000
0.0000000000000000 1.0000000000000000 0.0000000000000000
0.0000000000000000 1.0000000000000000 0.0000000000000000
0.0000000000000000 1.0000000000000000 0.0000000000000000
0.0000000000000000 1.0000000000000000 0.0000000000000000
0.0000000000000000 1.0000000000000000 0.0000000000000000
0.0000000000000000 1.0000000000000000 0.0000000000000000
0.0000000000000000 1.0000000000000000 0.0000000000000000
0.0000000000000000 1.0000000000000000 0.0000000000000000
0.0000000000000000 1.0000000000000000 0.0000000000000000
0.0000000000000000 1.0000000000000000 0.0000000000000000
0.0000000000000000 1.0000000000000000 0.0000000000000000
0.0000000000000000 1.0000000000000000 0.0000000000000000
0.0000000000000000 1.0000000000000000 0.0000000000000000
0.0000000000000000 1.0000000000000000 0.0000000000000000
0.0000000000000000 1.0000000000000000 0.0000000000000000
0.0000000000000000 1.0000000000000000 0.0000000000000000
0.0000000000000000 1.0000000000000000 0.0000000000000000
0.0000000000000000 1.0000000000000000 0.0000000000000000
0.0000000000000000 1.0000000000000000 0.0000000000000000
0.0000000000000000 1.0000000000000000 0.0000000000000000
0.0000000000000000 1.0000000000000000 0.0000000000000000
0.0000000000000000 1.0000000000000000 0.0000000000000000
0.0000000000000000 1.0000000000000000 0.0000000000000000
0.0000000000000000 1.0000000000000000 0.0000000000000000
0.0000000000000000 1.0000000000000000 0.0000000000000000
0.0000000000000000 1.0000000000000000 0.0000000000000000
0.0000000000000000 1.0000000000000000 0.0000000000000000
0.0000000000000000 1.0000000000000000 0.0000000000000000
0.0000000000000000 1.0000000000000000 0.0000000000000000
0.0000000000000000 1.0000000000000000 0.0000000000000000
0.0000000000000000 1.0000000000000000 0.0000000000000000
0.0000000000000000 1.0000000000000000 0.0000000000000000
0.0000000000000000 1.0000000000000000 0.0000000000000000
0.0000000000000000 1.0000000000000000 0.0000000000000000
0.0000000000000000 1.0000000000000000 0.0000000000000000
0.0000000000000000 1.0000000000000000 0.0000000000000000
0.0000000000000000 1.0000000000000000 0.0000000000000000
0.0000000000000000 1.0000000000000000 0.0000000000000000
0.0000000000000000 1.0000000000000000 0.0000000000000000
0.0000000000000000 1.0000000000000000 0.0000000000000000
0.0000000000000000 1.0000000000000000 0.0000000000000000
0.0000000000000000 1.0000000000000000 0.0000000000000000
0.0000000000000000 1.0000000000000000 0.0000000000000000
0.0000000000000000 1.0000000000000000 0.0000000000000000
0.0000000000000000 1.0000000000000000 0.0000000000000000
0.0000000000000000 1.0000000000000000 0.0000000000000000
0.0000000000000000 1.0000000000000000 0.0000000000000000
0.0000000000000000 1.0000000000000000 0.0000000000000000
0.0000000000000000 1.0000000000000000 0.0000000000000000
0.0000000000000000 1.0000000000000000 0.0000000000000000
0.0000000000000000 1.0000000000000000 0.0000000000000000
0.0000000000000000 1.0000000000000000 0.0000000000000000
0.0000000000000000 1.0000000000000000 0.0000000000000000
0.0000000000000000 1.0000000000000000 0.0000000000000000
0.0000000000000000 1.0000000000000000 0.0000000000000000
0.0000000000000000 1.0000000000000000 0.0000000000000000
0.0000000000000000 1.0000000000000000 0.0000000000000000
0.0000000000000000 1.0000000000000000 0.0000000000000000
0.0000000000000000 1.0000000000000000 0.0000000000000000
0.0000000000000000 1.0000000000000000 0.0000000000000000
0.0000000000000000 1.0000000000000000 0.0000000000000000
0.0000000000000000 1.0000000000000000 0.0000000000000000
0.0000000000000000 1.0000000000000000 0.0000000000000000
0.0000000000000000 1.0000000000000000 0.0000000000000000
0.0000000000000000 1.0000000000000000 0.0000000000000000
0.0000000000000000 1.0000000000000000 0.0000000000000000
0.0000000000000000 1.0000000000000000 0.0000000000000000
0.0000000000000000 1.0000000000000000 0.0000000000000000
0.0000000000000000 1.0000000000000000 0.0000000000000000
0.0000000000000000 1.0000000000000000 0.0000000000000000
0.0000000000000000 1.0000000000000000 0.0000000000000000
0.0000000000000000 1.0000000000000000 0.0000000000000000
0.0000000000000000 1.0000000000000000 0.0000000000000000
0.0000000000000000 1.0000000000000000 0.0000000000000000
0.0000000000000000 1.0000000000000000 0.0000000000000000
0.0000000000000000 1.0000000000000000 0.0000000000000000
0.0000000000000000 1.0000000000000000 0.0000000000000000
0.0000000000000000 1.0000000000000000 0.0000000000000000
0.0000000000000000 1.0000000000000000 0.0000000000000000
0.0000000000000000 1.0000000000000000 0.0000000000000000
0.0000000000000000 1.0000000000000000 0.0000000000000000
0.0000000000000000 1.0000000000000000 0.0000000000000000
0.0000000000000000 1.0000000000000000 0.0000000000000000
0.0000000000000000 1.0000000000000000 0.0000000000000000
0.0000000000000000 1.0000000000000000 0.0000000000000000
0.0000000000000000 1.0000000000000000 0.0000000000000000
0.0000000000000000 1.0000000000000000 0.0000000000000000
0.0000000000000000 1.0000000000000000 0.0000000000000000
0.0000000000000000 1.0000000000000000 0.0000000000000000
0.0000000000000000 1.0000000000000000 0.0000000000000000
0.0000000000000000 1.0000000000000000 0.0000000000000000
0.0000000000000000 1.0000000000000000 0.0000000000000000
0.0000000000000000 1.0000000000000000 0.0000000000000000
0.0000000000000000 1.0000000000000000 0.0000000000000000
0.0000000000000000 1.0000000000000000 0.0000000000000000
0.0000000000000000 1.0000000000000000 0.0000000000000000
0.0000000000000000 1.0000000000000000 0.0000000000000000
0.0000000000000000 1.0000000000000000 0.0000000000000000
0.0000000000000000 1.0000000000000000 0.0000000000000000
0.0000000000000000 1.0000000000000000 0.0000000000000000
0.0000000000000000 1.0000000000000000 0.0000000000000000
0.0000000000000000 1.0000000000000000 0.0000000000000000
0.0000000000000000 1.0000000000000000 0.0000000000000000
0.0000000000000000 1.0000000000000000 0.0000000000000000
0.0000000000000000 1.0000000000000000 0.0000000000000000
0.0000000000000000 1.0000000000000000 0.0000000000000000
0.0000000000000000 1.0000000000000000 0.0000000000000000
0.0000000000000000 1.0000000000000000 0.0000000000000000
0.0000000000000000 1.0000000000000000 0.0000000000000000
0.0000000000000000 1.0000000000000000 0.0000000000000000
0.0000000000000000 1.0000000000000000 0.0000000000000000
0.0000000000000000 1.0000000000000000 0.0000000000000000
0.0000000000000000 1.0000000000000000 0.0000000000000000
0.0000000000000000 1.0000000000000000 0.0000000000000000
0.0000000000000000 1.0000000000000000 0.0000000000000000
0.0000000000000000 1.0000000000000000 0.0000000000000000
0.0000000000000000 1.0000000000000000 0.0000000000000000
0.0000000000000000 1.0000000000000000 0.0000000000000000
0.0000000000000000 1.0000000000000000 0.0000000000000000
0.0000000000000000 1.0000000000000000 0.0000000000000000
0.0000000000000000 1.0000000000000000 0.0000000000000000
0.0000000000000000 1.0000000000000000 0.0000000000000000
0.0000000000000000 1.0000000000000000 0.0000000000000000
0.0000000000000000 1.0000000000000000 0.0000000000000000
0.0000000000000000 1.0000000000000000 0.0000000000000000
0.0000000000000000 1.0000000000000000 0.0000000000000000
0.0000000000000000 1.0000000000000000 0.0000000000000000
0.0000000000000000 1.0000000000000000 0.0000000000000000
0.0000000000000000 1.0000000000000000 0.0000000000000000
0.0000000000000000 1.0000000000000000 0.0000000000000000
0.0000000000000000 1.0000000000000000 0.0000000000000000
0.0000000000000000 1.0000000000000000 0.0000000000000000
0.0000000000000000 1.0000000000000000 0.0000000000000000
0.0000000000000000 1.0000000000000000 0.0000000000000000
0.0000000000000000 1.0000000000000000 0.0000000000000000
0.0000000000000000 1.0000000000000000 0.0000000000000000
0.0000000000000000 1.0000000000000000 0.0000000000000000
0.0000000000000000 1.0000000000000000 0.0000000000000000
0.0000000000000000 1.0000000000000000 0.0000000000000000
0.0000000000000000 1.0000000000000000 0.0000000000000000
0.0000000000000000 1.0000000000000000 0.0000000000000000
0.0000000000000000 1.0000000000000000 0.0000000000000000
0.0000000000000000 1.0000000000000000 0.0000000000000000
0.0000000000000000 1.0000000000000000 0.0000000000000000
0.0000000000000000 1.0000000000000000 0.0000000000000000
0.0000000000000000 1.0000000000000000 0.0000000000000000
0.0000000000000000 1.0000000000000000 0.0000000000000000
0.0000000000000000 1.0000000000000000 0.0000000000000000
0.0000000000000000 1.0000000000000000 0.0000000000000000
0.0000000000000000 1.0000000000000000 0.0000000000000000
0.0000000000000000 1.0000000000000000 0.0000000000000000
0.0000000000000000 1.0000000000000000 0.0000000000000000
0.0000000000000000 1.0000000000000000 0.0000000000000000
0.0000000000000000 1.0000000000000000 0.0000000000000000
0.0000000000000000 1.0000000000000000 0.0000000000000000
0.0000000000000000 1.0000000000000000 0.0000000000000000
0.0000000000000000 1.0000000000000000 0.0000000000000000
0.0000000000000000 1.0000000000000000 0.0000000000000000
0.0000000000000000 1.0000000000000000 0.0000000000000000
0.0000000000000000 1.0000000000000000 0.0000000000000000
0.0000000000000000 1.0000000000000000 0.0000000000000000
0.0000000000000000 1.0000000000000000 0.0000000000000000
0.0000000000000000 1.0000000000000000 0.0000000000000000
0.0000000000000000 1.0000000000000000 0.0000000000000000
0.0000000000000000 1.0000000000000000 0.0000000000000000
0.0000000000000000 1.0000000000000000 0.0000000000000000
0.0000000000000000 1.0000000000000000 0.0000000000000000
0.0000000000000000 1.0000000000000000 0.0000000000000000
0.0000000000000000 1.0000000000000000 0.0000000000000000
0.0000000000000000 1.0000000000000000 0.0000000000000000
0.0000000000000000 1.0000000000000000 0.0000000000000000
0.0000000000000000 1.0000000000000000 0.0000000000000000
0.0000000000000000 1.0000000000000000 0.0000000000000000
0.0000000000000000 1.0000000000000000 0.0000000000000000
0.0000000000000000 1.0000000000000000 0.0000000000000000
0.0000000000000000 1.0000000000000000 0.0000000000000000
0.0000000000000000 1.0000000000000000 0.0000000000000000
0.0000000000000000 1.0000000000000000 0.0000000000000000
0.0000000000000000 1.0000000000000000 0.0000000000000000
0.0000000000000000 1.0000000000000000 0.0000000000000000
0.0000000000000000 1.0000000000000000 0.0000000000000000
0.0000000000000000 1.0000000000000000 0.0000000000000000
0.0000000000000000 1.0000000000000000 0.0000000000000000
0.0000000000000000 1.0000000000000000 0.0000000000000000
0.0000000000000000 1.0000000000000000 0.0000000000000000
0.0000000000000000 1.0000000000000000 0.0000000000000000
0.0000000000000000 1.0000000000000000 0.0000000000000000
0.0000000000000000 1.0000000000000000 0.0000000000000000
0.0000000000000000 1.0000000000000000 0.0000000000000000
0.0000000000000000 1.0000000000000000 0.0000000000000000
0.0000000000000000 1.0000000000000000 0.0000000000000000
0.0000000000000000 1.0000000000000000 0.0000000000000000
0.0000000000000000 1.0000000000000000 0.0000000000000000
0.0000000000000000 1.0000000000000000 0.0000000000000000
0.0000000000000000 1.0000000000000000 0.0000000000000000
0.0000000000000000 1.0000000000000000 0.0000000000000000
0.0000000000000000 1.0000000000000000 0.0000000000000000
0.0000000000000000 1.0000000000000000 0.0000000000000000
0.0000000000000000 1.0000000000000000 0.0000000000000000
0.0000000000000000 1.0000000000000000 0.0000000000000000
0.0000000000000000 1.0000000000000000 0.0000000000000000
0.0000000000000000 1.0000000000000000 0.0000000000000000
0.0000000000000000 1.0000000000000000 0.0000000000000000
0.0000000000000000 1.0000000000000000 0.0000000000000000
0.0000000000000000 1.0000000000000000 0.0000000000000000
0.0000000000000000 1.0000000000000000 0.0000000000000000
0.0000000000000000 1.0000000000000000 0.0000000000000000
0.0000000000000000 1.0000000000000000 0.0000000000000000
0.0000000000000000 1.0000000000000000 0.0000000000000000
0.0000000000000000 1.0000000000000000 0.0000000000000000
0.0000000000000000 1.0000000000000000 0.0000000000000000
0.0000000000000000 1.0000000000000000 0.0000000000000000
0.0000000000000000 1.0000000000000000 0.0000000000000000
0.0000000000000000 1.0000000000000000 0.0000000000000000
0.0000000000000000 1.0000000000000000 0.0000000000000000
0.0000000000000000 1.0000000000000000 0.0000000000000000
0.0000000000000000 1.0000000000000000 0.0000000000000000
0.0000000000000000 1.0000000000000000 0.0000000000000000
0.0000000000000000 1.0000000000000000 0.0000000000000000
0.0000000000000000 1.0000000000000000 0.0000000000000000
0.0000000000000000 1.0000000000000000 0.0000000000000000
0.0000000000000000 1.0000000000000000 0.0000000000000000
0.0000000000000000 1.0000000000000000 0.0000000000000000
0.0000000000000000 1.0000000000000000 0.0000000000000000
0.0000000000000000 1.0000000000000000 0.0000000000000000
0.0000000000000000 1.0000000000000000 0.0000000000000000
0.0000000000000000 1.0000000000000000 0.0000000000000000
0.0000000000000000 1.0000000000000000 0.0000000000000000
0.0000000000000000 1.0000000000000000 0.0000000000000000
0.0000000000000000 1.0000000000000000 0.0000000000000000
0.0000000000000000 1.0000000000000000 0.0000000000000000
0.0000000000000000 1.0000000000000000 0.0000000000000000
0.0000000000000000 1.0000000000000000 0.0000000000000000
0.0000000000000000 1.0000000000000000 0.0000000000000000
0.0000000000000000 1.0000000000000000 0.0000000000000000
0.0000000000000000 1.0000000000000000 0.0000000000000000
0.0000000000000000 1.0000000000000000 0.0000000000000000
0.0000000000000000 1.0000000000000000 0.0000000000000000
0.0000000000000000 1.0000000000000000 0.0000000000000000
0.0000000000000000 1.0000000000000000 0.0000000000000000
0.0000000000000000 1.0000000000000000 0.0000000000000000
0.0000000000000000 1.0000000000000000 0.0000000000000000
0.0000000000000000 1.0000000000000000 0.0000000000000000
0.0000000000000000 1.0000000000000000 0.0000000000000000
0.0000000000000000 1.0000000000000000 0.0000000000000000
0.0000000000000000 1.0000000000000000 0.0000000000000000
0.0000000000000000 1.0000000000000000 0.0000000000000000
0.0000000000000000 1.0000000000000000 0.0000000000000000
0.0000000000000000 1.0000000000000000 0.0000000000000000
0.0000000000000000 1.0000000000000000 0.0000000000000000
0.0000000000000000 1.0000000000000000 0.0000000000000000
0.0000000000000000 1.0000000000000000 0.0000000000000000
0.0000000000000000 1.0000000000000000 0.0000000000000000
0.0000000000000000 1.0000000000000000 0.0000000000000000
0.0000000000000000 1.0000000000000000 0.0000000000000000
0.0000000000000000 1.0000000000000000 0.0000000000000000
0.0000000000000000 1.0000000000000000 0.0000000000000000
0.0000000000000000 1.0000000000000000 0.0000000000000000
0.0000000000000000 1.0000000000000000 0.0000000000000000
0.0000000000000000 1.0000000000000000 0.0000000000000000
0.0000000000000000 1.0000000000000000 0.0000000000000000
0.0000000000000000 1.0000000000000000 0.0000000000000000
0.0000000000000000 1.0000000000000000 0.0000000000000000
0.0000000000000000 1.0000000000000000 0.0000000000000000
0.0000000000000000 1.0000000000000000 0.0000000000000000
0.0000000000000000 1.0000000000000000 0.0000000000000000
0.0000000000000000 1.0000000000000000 0.0000000000000000
0.0000000000000000 1.0000000000000000 0.0000000000000000
0.0000000000000000 1.0000000000000000 0.0000000000000000
0.0000000000000000 1.0000000000000000 0.0000000000000000
0.0000000000000000 1.0000000000000000 0.0000000000000000
0.0000000000000000 1.0000000000000000 0.0000000000000000
0.0000000000000000 1.0000000000000000 0.0000000000000000
0.0000000000000000 1.0000000000000000 0.0000000000000000
0.0000000000000000 1.0000000000000000 0.0000000000000000
0.0000000000000000 1.0000000000000000 0.0000000000000000
0.0000000000000000 1.0000000000000000 0.0000000000000000
0.0000000000000000 1.0000000000000000 0.0000000000000000
0.0000000000000000 1.0000000000000000 0.0000000000000000
0.0000000000000000 1.0000000000000000 0.0000000000000000
0.0000000000000000 1.0000000000000000 0.0000000000000000
0.0000000000000000 1.0000000000000000 0.0000000000000000
0.0000000000000000 1.0000000000000000 0.0000000000000000
0.0000000000000000 1.0000000000000000 0.0000000000000000
0.0000000000000000 1.0000000000000000 0.0000000000000000
0.0000000000000000 1.0000000000000000 0.0000000000000000
0.0000000000000000 1.0000000000000000 0.0000000000000000
0.0000000000000000 1.0000000000000000 0.0000000000000000
0.0000000000000000 1.0000000000000000 0.0000000000000000
0.0000000000000000 1.0000000000000000 0.0000000000000000
0.0000000000000000 1.0000000000000000 0.0000000000000000
0.0000000000000000 1.0000000000000000 0.0000000000000000
0.0000000000000000 1.0000000000000000 0.0000000000000000
0.0000000000000000 1.0000000000000000 0.0000000000000000
0.0000000000000000 1.0000000000000000 0.0000000000000000
0.0000000000000000 1.0000000000000000 0.0000000000000000
0.0000000000000000 1.0000000000000000 0.0000000000000000
0.0000000000000000 1.0000000000000000 0.0000000000000000
0.0000000000000000 1.0000000000000000 0.0000000000000000
0.0000000000000000 1.0000000000000000 0.0000000000000000
0.0000000000000000 1.0000000000000000 0.0000000000000000
0.0000000000000000 1.0000000000000000 0.0000000000000000
0.0000000000000000 1.0000000000000000 0.0000000000000000
0.0000000000000000 1.0000000000000000 0.0000000000000000
0.0000000000000000 1.0000000000000000 0.0000000000000000
0.0000000000000000 1.0000000000000000 0.0000000000000000
0.0000000000000000 1.0000000000000000 0.0000000000000000
0.0000000000000000 1.0000000000000000 0.0000000000000000
0.0000000000000000 1.0000000000000000 0.0000000000000000
0.0000000000000000 1.0000000000000000 0.0000000000000000
0.0000000000000000 1.0000000000000000 0.0000000000000000
0.0000000000000000 1.0000000000000000 0.0000000000000000
0.0000000000000000 1.0000000000000000 0.0000000000000000
0.0000000000000000 1.0000000000000000 0.0000000000000000
0.0000000000000000 1.0000000000000000 0.0000000000000000
0.0000000000000000 1.0000000000000000 0.0000000000000000
0.0000000000000000 1.0000000000000000 0.0000000000000000
0.0000000000000000 1.0000000000000000 0.0000000000000000
0.0000000000000000 1.0000000000000000 0.0000000000000000
0.0000000000000000 1.0000000000000000 0.0000000000000000
0.0000000000000000 1.0000000000000000 0.0000000000000000
0.0000000000000000 1.0000000000000000 0.0000000000000000
0.0000000000000000 1.0000000000000000 0.0000000000000000
0.0000000000000000 1.0000000000000000 0.0000000000000000
0.0000000000000000 1.0000000000000000 0.0000000000000000
0.0000000000000000 1.0000000000000000 0.0000000000000000
0.0000000000000000 1.0000000000000000 0.0000000000000000
0.0000000000000000 1.0000000000000000 0.0000000000000000
0.0000000000000000 1.0000000000000000 0.0000000000000000
0.0000000000000000 1.0000000000000000 0.0000000000000000
0.0000000000000000 1.0000000000000000 0.0000000000000000
0.0000000000000000 1.0000000000000000 0.0000000000000000
0.0000000000000000 1.0000000000000000 0.0000000000000000
0.0000000000000000 1.0000000000000000 0.0000000000000000
0.0000000000000000 1.0000000000000000 0.0000000000000000
0.0000000000000000 1.0000000000000000 0.0000000000000000
0.0000000000000000 1.0000000000000000 0.0000000000000000
0.0000000000000000 1.0000000000000000 0.0000000000000000
0.0000000000000000 1.0000000000000000 0.0000000000000000
0.0000000000000000 1.0000000000000000 0.0000000000000000
0.0000000000000000 1.0000000000000000 0.0000000000000000
0.0000000000000000 1.0000000000000000 0.0000000000000000
0.0000000000000000 1.0000000000000000 0.0000000000000000
0.0000000000000000 1.0000000000000000 0.0000000000000000
0.0000000000000000 1.0000000000000000 0.0000000000000000
0.0000000000000000 1.0000000000000000 0.0000000000000000
0.0000000000000000 1.0000000000000000 0.0000000000000000
0.0000000000000000 1.0000000000000000 0.0000000000000000
0.0000000000000000 1.0000000000000000 0.0000000000000000
0.0000000000000000 1.0000000000000000 0.0000000000000000
0.0000000000000000 1.0000000000000000 0.0000000000000000
0.0000000000000000 1.0000000000000000 0.0000000000000000
0.0000000000000000 1.0000000000000000 0.0000000000000000
0.0000000000000000 1.0000000000000000 0.0000000000000000
0.0000000000000000 1.0000000000000000 0.0000000000000000
0.0000000000000000 1.0000000000000000 0.0000000000000000
0.0000000000000000 1.0000000000000000 0.0000000000000000
0.0000000000000000 1.0000000000000000 0.0000000000000000
0.0000000000000000 1.0000000000000000 0.0000000000000000
0.0000000000000000 1.0000000000000000 0.0000000000000000
0.0000000000000000 1.0000000000000000 0.0000000000000000
0.0000000000000000 1.0000000000000000 0.0000000000000000
0.0000000000000000 1.0000000000000000 0.0000000000000000
0.0000000000000000 1.0000000000000000 0.0000000000000000
0.0000000000000000 1.0000000000000000 0.0000000000000000
0.0000000000000000 1.0000000000000000 0.0000000000000000
0.0000000000000000 1.0000000000000000 0.0000000000000000
0.0000000000000000 1.0000000000000000 0.0000000000000000
0.0000000000000000 1.0000000000000000 0.0000000000000000
0.0000000000000000 1.0000000000000000 0.0000000000000000
0.0000000000000000 1.0000000000000000 0.0000000000000000
0.0000000000000000 1.0000000000000000 0.0000000000000000
0.0000000000000000 1.0000000000000000 0.0000000000000000
0.0000000000000000 1.0000000000000000 0.0000000000000000
0.0000000000000000 1.0000000000000000 0.0000000000000000
0.0000000000000000 1.0000000000000000 0.0000000000000000
0.0000000000000000 1.0000000000000000 0.0000000000000000
0.0000000000000000 1.0000000000000000 0.0000000000000000
0.0000000000000000 1.0000000000000000 0.0000000000000000
0.0000000000000000 1.0000000000000000 0.0000000000000000
0.0000000000000000 1.0000000000000000 0.0000000000000000
0.0000000000000000 1.0000000000000000 0.0000000000000000
0.0000000000000000 1.0000000000000000 0.0000000000000000
0.0000000000000000 1.0000000000000000 0.0000000000000000
0.0000000000000000 1.0000000000000000 0.0000000000000000
0.0000000000000000 1.0000000000000000 0.0000000000000000
0.0000000000000000 1.0000000000000000 0.0000000000000000
0.0000000000000000 1.0000000000000000 0.0000000000000000
0.0000000000000000 1.0000000000000000 0.0000000000000000
0.0000000000000000 1.0000000000000000 0.0000000000000000
0.0000000000000000 1.0000000000000000 0.0000000000000000
0.0000000000000000 1.0000000000000000 0.0000000000000000
0.0000000000000000 1.0000000000000000 0.0000000000000000
0.0000000000000000 1.0000000000000000 0.0000000000000000
0.0000000000000000 1.0000000000000000 0.0000000000000000
0.0000000000000000 1.0000000000000000 0.0000000000000000
0.0000000000000000 1.0000000000000000 0.0000000000000000
0.0000000000000000 1.0000000000000000 0.0000000000000000
0.0000000000000000 1.0000000000000000 0.0000000000000000
0.0000000000000000 1.0000000000000000 0.0000000000000000
0.0000000000000000 1.0000000000000000 0.0000000000000000
0.0000000000000000 1.0000000000000000 0.0000000000000000
0.0000000000000000 1.0000000000000000 0.0000000000000000
0.0000000000000000 1.0000000000000000 0.0000000000000000
0.0000000000000000 1.0000000000000000 0.0000000000000000
0.0000000000000000 1.0000000000000000 0.0000000000000000
0.0000000000000000 1.0000000000000000 0.0000000000000000
0.0000000000000000 1.0000000000000000 0.0000000000000000
0.0000000000000000 1.0000000000000000 0.0000000000000000
0.0000000000000000 1.0000000000000000 0.0000000000000000
0.0000000000000000 1.0000000000000000 0.0000000000000000
0.0000000000000000 1.0000000000000000 0.0000000000000000
0.0000000000000000 1.0000000000000000 0.0000000000000000
0.0000000000000000 1.0000000000000000 0.0000000000000000
0.0000000000000000 1.0000000000000000 0.0000000000000000
0.0000000000000000 1.0000000000000000 0.0000000000000000
0.0000000000000000 1.0000000000000000 0.0000000000000000
0.0000000000000000 1.0000000000000000 0.0000000000000000
0.0000000000000000 1.0000000000000000 0.0000000000000000
0.0000000000000000 1.0000000000000000 0.0000000000000000
0.0000000000000000 1.0000000000000000 0.0000000000000000
0.0000000000000000 1.0000000000000000 0.0000000000000000
0.0000000000000000 1.0000000000000000 0.0000000000000000
0.0000000000000000 1.0000000000000000 0.0000000000000000
0.0000000000000000 1.0000000000000000 0.0000000000000000
0.0000000000000000 1.0000000000000000 0.0000000000000000
0.0000000000000000 1.0000000000000000 0.0000000000000000
0.0000000000000000 1.0000000000000000 0.0000000000000000
0.0000000000000000 1.0000000000000000 0.0000000000000000
0.0000000000000000 1.0000000000000000 0.0000000000000000
0.0000000000000000 1.0000000000000000 0.0000000000000000
0.0000000000000000 1.0000000000000000 0.0000000000000000
0.0000000000000000 1.0000000000000000 0.0000000000000000
0.0000000000000000 1.0000000000000000 0.0000000000000000
0.0000000000000000 1.0000000000000000 0.0000000000000000
0.0000000000000000 1.0000000000000000 0.0000000000000000
0.0000000000000000 1.0000000000000000 0.0000000000000000
0.0000000000000000 1.0000000000000000 0.0000000000000000
0.0000000000000000 1.0000000000000000 0.0000000000000000
0.0000000000000000 1.0000000000000000 0.0000000000000000
0.0000000000000000 1.0000000000000000 0.0000000000000000
0.0000000000000000 1.0000000000000000 0.0000000000000000
0.0000000000000000 1.0000000000000000 0.0000000000000000
0.0000000000000000 1.0000000000000000 0.0000000000000000
0.0000000000000000 1.0000000000000000 0.0000000000000000
0.0000000000000000 1.0000000000000000 0.0000000000000000
0.0000000000000000 1.0000000000000000 0.0000000000000000
0.0000000000000000 1.0000000000000000 0.0000000000000000
0.0000000000000000 1.0000000000000000 0.0000000000000000
0.0000000000000000 1.0000000000000000 0.0000000000000000
0.0000000000000000 1.0000000000000000 0.0000000000000000
0.0000000000000000 1.0000000000000000 0.0000000000000000
0.0000000000000000 1.0000000000000000 0.0000000000000000
0.0000000000000000 1.0000000000000000 0.0000000000000000
0.0000000000000000 1.0000000000000000 0.0000000000000000
0.0000000000000000 1.0000000000000000 0.0000000000000000
0.0000000000000000 1.0000000000000000 0.0000000000000000
0.0000000000000000 1.0000000000000000 0.0000000000000000
0.0000000000000000 1.0000000000000000 0.0000000000000000
0.0000000000000000 1.0000000000000000 0.0000000000000000
0.0000000000000000 1.0000000000000000 0.0000000000000000
0.0000000000000000 1.0000000000000000 0.0000000000000000
0.0000000000000000 1.0000000000000000 0.0000000000000000
0.0000000000000000 1.0000000000000000 0.0000000000000000
0.0000000000000000 1.0000000000000000 0.0000000000000000
0.0000000000000000 1.0000000000000000 0.0000000000000000
0.0000000000000000 1.0000000000000000 0.0000000000000000
0.0000000000000000 1.0000000000000000 0.0000000000000000
0.0000000000000000 1.0000000000000000 0.0000000000000000
0.0000000000000000 1.0000000000000000 0.0000000000000000
0.0000000000000000 1.0000000000000000 0.0000000000000000
0.0000000000000000 1.0000000000000000 0.0000000000000000
0.0000000000000000 1.0000000000000000 0.0000000000000000
0.0000000000000000 1.0000000000000000 0.0000000000000000
0.0000000000000000 1.0000000000000000 0.0000000000000000
0.0000000000000000 1.0000000000000000 0.0000000000000000
0.0000000000000000 1.0000000000000000 0.0000000000000000
0.0000000000000000 1.0000000000000000 0.0000000000000000
0.0000000000000000 1.0000000000000000 0.0000000000000000
0.0000000000000000 1.0000000000000000 0.0000000000000000
0.0000000000000000 1.0000000000000000 0.0000000000000000
0.0000000000000000 1.0000000000000000 0.0000000000000000
0.0000000000000000 1.0000000000000000 0.0000000000000000
0.0000000000000000 1.0000000000000000 0.0000000000000000
0.0000000000000000 1.0000000000000000 0.0000000000000000
0.0000000000000000 1.0000000000000000 0.0000000000000000
0.0000000000000000 1.0000000000000000 0.0000000000000000
0.0000000000000000 1.0000000000000000 0.0000000000000000
0.0000000000000000 1.0000000000000000 0.0000000000000000
0.0000000000000000 1.0000000000000000 0.0000000000000000
0.0000000000000000 1.0000000000000000 0.0000000000000000
0.0000000000000000 1.0000000000000000 0.0000000000000000
0.0000000000000000 1.0000000000000000 0.0000000000000000
0.0000000000000000 1.0000000000000000 0.0000000000000000
0.0000000000000000 1.0000000000000000 0.0000000000000000
0.0000000000000000 1.0000000000000000 0.0000000000000000
0.0000000000000000 1.0000000000000000 0.0000000000000000
0.0000000000000000 1.0000000000000000 0.0000000000000000
0.0000000000000000 1.0000000000000000 0.0000000000000000
0.0000000000000000 1.0000000000000000 0.0000000000000000
0.0000000000000000 1.0000000000000000 0.0000000000000000
0.0000000000000000 1.0000000000000000 0.0000000000000000
0.0000000000000000 1.0000000000000000 0.0000000000000000
0.0000000000000000 1.0000000000000000 0.0000000000000000
0.0000000000000000 1.0000000000000000 0.0000000000000000
0.0000000000000000 1.0000000000000000 0.0000000000000000
0.0000000000000000 1.0000000000000000 0.0000000000000000
0.0000000000000000 1.0000000000000000 0.0000000000000000
0.0000000000000000 1.0000000000000000 0.0000000000000000
0.0000000000000000 1.0000000000000000 0.0000000000000000
0.0000000000000000 1.0000000000000000 0.0000000000000000
0.0000000000000000 1.0000000000000000 0.0000000000000000
0.0000000000000000 1.0000000000000000 0.0000000000000000
0.0000000000000000 1.0000000000000000 0.0000000000000000
0.0000000000000000 1.0000000000000000 0.0000000000000000
0.0000000000000000 1.0000000000000000 0.0000000000000000
0.0000000000000000 1.0000000000000000 0.0000000000000000
0.0000000000000000 1.0000000000000000 0.0000000000000000
0.0000000000000000 1.0000000000000000 0.0000000000000000
0.0000000000000000 1.0000000000000000 0.0000000000000000
0.0000000000000000 1.0000000000000000 0.0000000000000000
0.0000000000000000 1.0000000000000000 0.0000000000000000
0.0000000000000000 1.0000000000000000 0.0000000000000000
0.0000000000000000 1.0000000000000000 0.0000000000000000
0.0000000000000000 1.0000000000000000 0.0000000000000000
0.0000000000000000 1.0000000000000000 0.0000000000000000
0.0000000000000000 1.0000000000000000 0.0000000000000000
0.0000000000000000 1.0000000000000000 0.0000000000000000
0.0000000000000000 1.0000000000000000 0.0000000000000000
0.0000000000000000 1.0000000000000000 0.0000000000000000
0.0000000000000000 1.0000000000000000 0.0000000000000000
0.0000000000000000 1.0000000000000000 0.0000000000000000
0.0000000000000000 1.0000000000000000 0.0000000000000000
0.0000000000000000 1.0000000000000000 0.0000000000000000
0.0000000000000000 1.0000000000000000 0.0000000000000000
0.0000000000000000 1.0000000000000000 0.0000000000000000
0.0000000000000000 1.0000000000000000 0.0000000000000000
0.0000000000000000 1.0000000000000000 0.0000000000000000
0.0000000000000000 1.0000000000000000 0.0000000000000000
0.0000000000000000 1.0000000000000000 0.0000000000000000
0.0000000000000000 1.0000000000000000 0.0000000000000000
0.0000000000000000 1.0000000000000000 0.0000000000000000
0.0000000000000000 1.0000000000000000 0.0000000000000000
0.0000000000000000 1.0000000000000000 0.0000000000000000
0.0000000000000000 1.0000000000000000 0.0000000000000000
0.0000000000000000 1.0000000000000000 0.0000000000000000
0.0000000000000000 1.0000000000000000 0.0000000000000000
0.0000000000000000 1.0000000000000000 0.0000000000000000
0.0000000000000000 1.0000000000000000 0.0000000000000000
0.0000000000000000 1.0000000000000000 0.0000000000000000
0.0000000000000000 1.0000000000000000 0.0000000000000000
0.0000000000000000 1.0000000000000000 0.0000000000000000
0.0000000000000000 1.0000000000000000 0.0000000000000000
0.0000000000000000 1.0000000000000000 0.0000000000000000
0.0000000000000000 1.0000000000000000 0.0000000000000000
0.0000000000000000 1.0000000000000000 0.0000000000000000
0.0000000000000000 1.0000000000000000 0.0000000000000000
0.0000000000000000 1.0000000000000000 0.0000000000000000
0.0000000000000000 1.0000000000000000 0.0000000000000000
0.0000000000000000 1.0000000000000000 0.0000000000000000
0.0000000000000000 1.0000000000000000 0.0000000000000000
0.0000000000000000 1.0000000000000000 0.0000000000000000
0.0000000000000000 1.0000000000000000 0.0000000000000000
0.0000000000000000 1.0000000000000000 0.0000000000000000
0.0000000000000000 1.0000000000000000 0.0000000000000000
0.0000000000000000 1.0000000000000000 0.0000000000000000
0.0000000000000000 1.0000000000000000 0.0000000000000000
0.0000000000000000 1.0000000000000000 0.0000000000000000
0.0000000000000000 1.0000000000000000 0.0000000000000000
0.0000000000000000 1.0000000000000000 0.0000000000000000
0.0000000000000000 1.0000000000000000 0.0000000000000000
0.0000000000000000 1.0000000000000000 0.0000000000000000
0.0000000000000000 1.0000000000000000 0.0000000000000000
0.0000000000000000 1.0000000000000000 0.0000000000000000
0.0000000000000000 1.0000000000000000 0.0000000000000000
0.0000000000000000 1.0000000000000000 0.0000000000000000
0.0000000000000000 1.0000000000000000 0.0000000000000000
0.0000000000000000 1.0000000000000000 0.0000000000000000
0.0000000000000000 1.0000000000000000 0.0000000000000000
0.0000000000000000 1.0000000000000000 0.0000000000000000
0.0000000000000000 1.0000000000000000 0.0000000000000000
0.0000000000000000 1.0000000000000000 0.0000000000000000
0.0000000000000000 1.0000000000000000 0.0000000000000000
0.0000000000000000 1.0000000000000000 0.0000000000000000
0.0000000000000000 1.0000000000000000 0.0000000000000000
0.0000000000000000 1.0000000000000000 0.0000000000000000
0.0000000000000000 1.0000000000000000 0.0000000000000000
0.0000000000000000 1.0000000000000000 0.0000000000000000
0.0000000000000000 1.0000000000000000 0.0000000000000000
0.0000000000000000 1.0000000000000000 0.0000000000000000
0.0000000000000000 1.0000000000000000 0.0000000000000000
0.0000000000000000 1.0000000000000000 0.0000000000000000
0.0000000000000000 1.0000000000000000 0.0000000000000000
0.0000000000000000 1.0000000000000000 0.0000000000000000
0.0000000000000000 1.0000000000000000 0.0000000000000000
0.0000000000000000 1.0000000000000000 0.0000000000000000
0.0000000000000000 1.0000000000000000 0.0000000000000000
0.0000000000000000 1.0000000000000000 0.0000000000000000
0.0000000000000000 1.0000000000000000 0.0000000000000000
0.0000000000000000 1.0000000000000000 0.0000000000000000
0.0000000000000000 1.0000000000000000 0.0000000000000000
0.0000000000000000 1.0000000000000000 0.0000000000000000
0.0000000000000000 1.0000000000000000 0.0000000000000000
0.0000000000000000 1.0000000000000000 0.0000000000000000
0.0000000000000000 1.0000000000000000 0.0000000000000000
0.0000000000000000 1.0000000000000000 0.0000000000000000
0.0000000000000000 1.0000000000000000 0.0000000000000000
0.0000000000000000 1.0000000000000000 0.0000000000000000
0.0000000000000000 1.0000000000000000 0.0000000000000000
0.0000000000000000 1.0000000000000000 0.0000000000000000
0.0000000000000000 1.0000000000000000 0.0000000000000000
0.0000000000000000 1.0000000000000000 0.0000000000000000
0.0000000000000000 1.0000000000000000 0.0000000000000000
0.0000000000000000 1.0000000000000000 0.0000000000000000
0.0000000000000000 1.0000000000000000 0.0000000000000000
0.0000000000000000 1.0000000000000000 0.0000000000000000
0.0000000000000000 1.0000000000000000 0.0000000000000000
0.0000000000000000 1.0000000000000000 0.0000000000000000
0.0000000000000000 1.0000000000000000 0.0000000000000000
0.0000000000000000 1.0000000000000000 0.0000000000000000
0.0000000000000000 1.0000000000000000 0.0000000000000000
0.0000000000000000 1.0000000000000000 0.0000000000000000
0.0000000000000000 1.0000000000000000 0.0000000000000000
0.0000000000000000 1.0000000000000000 0.0000000000000000
0.0000000000000000 1.0000000000000000 0.0000000000000000
0.0000000000000000 1.0000000000000000 0.0000000000000000
0.0000000000000000 1.0000000000000000 0.0000000000000000
0.0000000000000000 1.0000000000000000 0.0000000000000000
0.0000000000000000 1.0000000000000000 0.0000000000000000
0.0000000000000000 1.0000000000000000 0.0000000000000000
0.0000000000000000 1.0000000000000000 0.0000000000000000
0.0000000000000000 1.0000000000000000 0.0000000000000000
0.0000000000000000 1.0000000000000000 0.0000000000000000
0.0000000000000000 1.0000000000000000 0.0000000000000000
0.0000000000000000 1.0000000000000000 0.0000000000000000
0.0000000000000000 1.0000000000000000 0.0000000000000000
0.0000000000000000 1.0000000000000000 0.0000000000000000
0.0000000000000000 1.0000000000000000 0.0000000000000000
0.0000000000000000 1.0000000000000000 0.0000000000000000
0.0000000000000000 1.0000000000000000 0.0000000000000000
0.0000000000000000 1.0000000000000000 0.0000000000000000
0.0000000000000000 1.0000000000000000 0.0000000000000000
0.0000000000000000 1.0000000000000000 0.0000000000000000
0.0000000000000000 1.0000000000000000 0.0000000000000000
0.0000000000000000 1.0000000000000000 0.0000000000000000
0.0000000000000000 1.0000000000000000 0.0000000000000000
0.0000000000000000 1.0000000000000000 0.0000000000000000
0.0000000000000000 1.0000000000000000 0.0000000000000000
0.0000000000000000 1.0000000000000000 0.0000000000000000
0.0000000000000000 1.0000000000000000 0.0000000000000000
0.0000000000000000 1.0000000000000000 0.0000000000000000
0.0000000000000000 1.0000000000000000 0.0000000000000000
0.0000000000000000 1.0000000000000000 0.0000000000000000
0.0000000000000000 1.0000000000000000 0.0000000000000000
0.0000000000000000 1.0000000000000000 0.0000000000000000
0.0000000000000000 1.0000000000000000 0.0000000000000000
0.0000000000000000 1.0000000000000000 0.0000000000000000
0.0000000000000000 1.0000000000000000 0.0000000000000000
0.0000000000000000 1.0000000000000000 0.0000000000000000
0.0000000000000000 1.0000000000000000 0.0000000000000000
0.0000000000000000 1.0000000000000000 0.0000000000000000
0.0000000000000000 1.0000000000000000 0.0000000000000000
0.0000000000000000 1.0000000000000000 0.0000000000000000
0.0000000000000000 1.0000000000000000 0.0000000000000000
0.0000000000000000 1.0000000000000000 0.0000000000000000
0.0000000000000000 1.0000000000000000 0.0000000000000000
0.0000000000000000 1.0000000000000000 0.0000000000000000
0.0000000000000000 1.0000000000000000 0.0000000000000000
0.0000000000000000 1.0000000000000000 0.0000000000000000
0.0000000000000000 1.0000000000000000 0.0000000000000000
0.0000000000000000 1.0000000000000000 0.0000000000000000
0.0000000000000000 1.0000000000000000 0.0000000000000000
0.0000000000000000 1.0000000000000000 0.0000000000000000
0.0000000000000000 1.0000000000000000 0.0000000000000000
0.0000000000000000 1.0000000000000000 0.0000000000000000
0.0000000000000000 1.0000000000000000 0.0000000000000000
0.0000000000000000 1.0000000000000000 0.0000000000000000
0.0000000000000000 1.0000000000000000 0.0000000000000000
0.0000000000000000 1.0000000000000000 0.0000000000000000
0.0000000000000000 1.0000000000000000 0.0000000000000000
0.0000000000000000 1.0000000000000000 0.0000000000000000
0.0000000000000000 1.0000000000000000 0.0000000000000000
0.0000000000000000 1.0000000000000000 0.0000000000000000
0.0000000000000000 1.0000000000000000 0.0000000000000000
0.0000000000000000 1.0000000000000000 0.0000000000000000
0.0000000000000000 1.0000000000000000 0.0000000000000000
0.0000000000000000 1.0000000000000000 0.0000000000000000
0.0000000000000000 1.0000000000000000 0.0000000000000000
0.0000000000000000 1.0000000000000000 0.0000000000000000
0.0000000000000000 1.0000000000000000 0.0000000000000000
0.0000000000000000 1.0000000000000000 0.0000000000000000
0.0000000000000000 1.0000000000000000 0.0000000000000000
0.0000000000000000 1.0000000000000000 0.0000000000000000
0.0000000000000000 1.0000000000000000 0.0000000000000000
0.0000000000000000 1.0000000000000000 0.0000000000000000
0.0000000000000000 1.0000000000000000 0.0000000000000000
0.0000000000000000 1.0000000000000000 0.0000000000000000
0.0000000000000000 1.0000000000000000 0.0000000000000000
0.0000000000000000 1.0000000000000000 0.0000000000000000
0.0000000000000000 1.0000000000000000 0.0000000000000000
0.0000000000000000 1.0000000000000000 0.0000000000000000
0.0000000000000000 1.0000000000000000 0.0000000000000000
0.0000000000000000 1.0000000000000000 0.0000000000000000
0.0000000000000000 1.0000000000000000 0.0000000000000000
0.0000000000000000 1.0000000000000000 0.0000000000000000
0.0000000000000000 1.0000000000000000 0.0000000000000000
0.0000000000000000 1.0000000000000000 0.0000000000000000
0.0000000000000000 1.0000000000000000 0.0000000000000000
0.0000000000000000 1.0000000000000000 0.0000000000000000
0.0000000000000000 1.0000000000000000 0.0000000000000000
0.0000000000000000 1.0000000000000000 0.0000000000000000
0.0000000000000000 1.0000000000000000 0.0000000000000000
0.0000000000000000 1.0000000000000000 0.0000000000000000
0.0000000000000000 1.0000000000000000 0.0000000000000000
0.0000000000000000 1.0000000000000000 0.0000000000000000
0.0000000000000000 1.0000000000000000 0.0000000000000000
0.0000000000000000 1.0000000000000000 0.0000000000000000
0.0000000000000000 1.0000000000000000 0.0000000000000000
0.0000000000000000 1.0000000000000000 0.0000000000000000
0.0000000000000000 1.0000000000000000 0.0000000000000000
0.0000000000000000 1.0000000000000000 0.0000000000000000
0.0000000000000000 1.0000000000000000 0.0000000000000000
0.0000000000000000 1.0000000000000000 0.0000000000000000
0.0000000000000000 1.0000000000000000 0.0000000000000000
0.0000000000000000 1.0000000000000000 0.0000000000000000
0.0000000000000000 1.0000000000000000 0.0000000000000000
0.0000000000000000 1.0000000000000000 0.0000000000000000
0.0000000000000000 1.0000000000000000 0.0000000000000000
0.0000000000000000 1.0000000000000000 0.0000000000000000
0.0000000000000000 1.0000000000000000 0.0000000000000000
0.0000000000000000 1.0000000000000000 0.0000000000000000
0.0000000000000000 1.0000000000000000 0.0000000000000000
0.0000000000000000 1.0000000000000000 0.0000000000000000
0.0000000000000000 1.0000000000000000 0.0000000000000000
0.0000000000000000 1.0000000000000000 0.0000000000000000
0.0000000000000000 1.0000000000000000 0.0000000000000000
0.0000000000000000 1.0000000000000000 0.0000000000000000
0.0000000000000000 1.0000000000000000 0.0000000000000000
0.0000000000000000 1.0000000000000000 0.0000000000000000
0.0000000000000000 1.0000000000000000 0.0000000000000000
0.0000000000000000 1.0000000000000000 0.0000000000000000
0.0000000000000000 1.0000000000000000 0.0000000000000000
0.0000000000000000 1.0000000000000000 0.0000000000000000
0.0000000000000000 1.0000000000000000 0.0000000000000000
0.0000000000000000 1.0000000000000000 0.0000000000000000
0.0000000000000000 1.0000000000000000 0.0000000000000000
0.0000000000000000 1.0000000000000000 0.0000000000000000
0.0000000000000000 1.0000000000000000 0.0000000000000000
0.0000000000000000 1.0000000000000000 0.0000000000000000
0.0000000000000000 1.0000000000000000 0.0000000000000000
0.0000000000000000 1.0000000000000000 0.0000000000000000
0.0000000000000000 1.0000000000000000 0.0000000000000000
0.0000000000000000 1.0000000000000000 0.0000000000000000
0.0000000000000000 1.0000000000000000 0.0000000000000000
0.0000000000000000 1.0000000000000000 0.0000000000000000
0.0000000000000000 1.0000000000000000 0.0000000000000000
0.0000000000000000 1.0000000000000000 0.0000000000000000
0.0000000000000000 1.0000000000000000 0.0000000000000000
0.0000000000000000 1.0000000000000000 0.0000000000000000
0.0000000000000000 1.0000000000000000 0.0000000000000000
0.0000000000000000 1.0000000000000000 0.0000000000000000
0.0000000000000000 1.0000000000000000 0.0000000000000000
0.0000000000000000 1.0000000000000000 0.0000000000000000
0.0000000000000000 1.0000000000000000 0.0000000000000000
0.0000000000000000 1.0000000000000000 0.0000000000000000
0.0000000000000000 1.0000000000000000 0.0000000000000000
0.0000000000000000 1.0000000000000000 0.0000000000000000
0.0000000000000000 1.0000000000000000 0.0000000000000000
0.0000000000000000 1.0000000000000000 0.0000000000000000
0.0000000000000000 1.0000000000000000 0.0000000000000000
0.0000000000000000 1.0000000000000000 0.0000000000000000
0.0000000000000000 1.0000000000000000 0.0000000000000000
0.0000000000000000 1.0000000000000000 0.0000000000000000
0.0000000000000000 1.0000000000000000 0.0000000000000000
0.0000000000000000 1.0000000000000000 0.0000000000000000
0.0000000000000000 1.0000000000000000 0.0000000000000000
0.0000000000000000 1.0000000000000000 0.0000000000000000
0.0000000000000000 1.0000000000000000 0.0000000000000000
0.0000000000000000 1.0000000000000000 0.0000000000000000
0.0000000000000000 1.0000000000000000 0.0000000000000000
0.0000000000000000 1.0000000000000000 0.0000000000000000
0.0000000000000000 1.0000000000000000 0.0000000000000000
0.0000000000000000 1.0000000000000000 0.0000000000000000
0.0000000000000000 1.0000000000000000 0.0000000000000000
0.0000000000000000 1.0000000000000000 0.0000000000000000
0.0000000000000000 1.0000000000000000 0.0000000000000000
0.0000000000000000 1.0000000000000000 0.0000000000000000
0.0000000000000000 1.0000000000000000 0.0000000000000000
0.0000000000000000 1.0000000000000000 0.0000000000000000
0.0000000000000000 1.0000000000000000 0.0000000000000000
0.0000000000000000 1.0000000000000000 0.0000000000000000
0.0000000000000000 1.0000000000000000 0.0000000000000000
0.0000000000000000 1.0000000000000000 0.0000000000000000
0.0000000000000000 1.0000000000000000 0.0000000000000000
0.0000000000000000 1.0000000000000000 0.0000000000000000
0.0000000000000000 1.0000000000000000 0.0000000000000000
0.0000000000000000 1.0000000000000000 0.0000000000000000
0.0000000000000000 1.0000000000000000 0.0000000000000000
0.0000000000000000 1.0000000000000000 0.0000000000000000
0.0000000000000000 1.0000000000000000 0.0000000000000000
0.0000000000000000 1.0000000000000000 0.0000000000000000
0.0000000000000000 1.0000000000000000 0.0000000000000000
0.0000000000000000 1.0000000000000000 0.0000000000000000
0.0000000000000000 1.0000000000000000 0.0000000000000000
0.0000000000000000 1.0000000000000000 0.0000000000000000
0.0000000000000000 1.0000000000000000 0.0000000000000000
0.0000000000000000 1.0000000000000000 0.0000000000000000
0.0000000000000000 1.0000000000000000 0.0000000000000000
0.0000000000000000 1.0000000000000000 0.0000000000000000
0.0000000000000000 1.0000000000000000 0.0000000000000000
0.0000000000000000 1.0000000000000000 0.0000000000000000
0.0000000000000000 1.0000000000000000 0.0000000000000000
0.0000000000000000 1.0000000000000000 0.0000000000000000
0.0000000000000000 1.0000000000000000 0.0000000000000000
0.0000000000000000 1.0000000000000000 0.0000000000000000
0.0000000000000000 1.0000000000000000 0.0000000000000000
0.0000000000000000 1.0000000000000000 0.0000000000000000
0.0000000000000000 1.0000000000000000 0.0000000000000000
0.0000000000000000 1.0000000000000000 0.0000000000000000
0.0000000000000000 1.0000000000000000 0.0000000000000000
0.0000000000000000 1.0000000000000000 0.0000000000000000
0.0000000000000000 1.0000000000000000 0.0000000000000000
0.0000000000000000 1.0000000000000000 0.0000000000000000
0.0000000000000000 1.0000000000000000 0.0000000000000000
0.0000000000000000 1.0000000000000000 0.0000000000000000
0.0000000000000000 1.0000000000000000 0.0000000000000000
0.0000000000000000 1.0000000000000000 0.0000000000000000
0.0000000000000000 1.0000000000000000 0.0000000000000000
0.0000000000000000 1.0000000000000000 0.0000000000000000
0.0000000000000000 1.0000000000000000 0.0000000000000000
0.0000000000000000 1.0000000000000000 0.0000000000000000
0.0000000000000000 1.0000000000000000 0.0000000000000000
0.0000000000000000 1.0000000000000000 0.0000000000000000
0.0000000000000000 1.0000000000000000 0.0000000000000000
0.0000000000000000 1.0000000000000000 0.0000000000000000
0.0000000000000000 1.0000000000000000 0.0000000000000000
0.0000000000000000 1.0000000000000000 0.0000000000000000
0.0000000000000000 1.0000000000000000 0.0000000000000000
0.0000000000000000 1.0000000000000000 0.0000000000000000
0.0000000000000000 1.0000000000000000 0.0000000000000000
0.0000000000000000 1.0000000000000000 0.0000000000000000
0.0000000000000000 1.0000000000000000 0.0000000000000000
0.0000000000000000 1.0000000000000000 0.0000000000000000
0.0000000000000000 1.0000000000000000 0.0000000000000000
0.0000000000000000 1.0000000000000000 0.0000000000000000
0.0000000000000000 1.0000000000000000 0.0000000000000000
0.0000000000000000 1.0000000000000000 0.0000000000000000
0.0000000000000000 1.0000000000000000 0.0000000000000000
0.0000000000000000 1.0000000000000000 0.0000000000000000
0.0000000000000000 1.0000000000000000 0.0000000000000000
0.0000000000000000 1.0000000000000000 0.0000000000000000
0.0000000000000000 1.0000000000000000 0.0000000000000000
0.0000000000000000 1.0000000000000000 0.0000000000000000
0.0000000000000000 1.0000000000000000 0.0000000000000000
0.0000000000000000 1.0000000000000000 0.0000000000000000
0.0000000000000000 1.0000000000000000 0.0000000000000000
0.0000000000000000 1.0000000000000000 0.0000000000000000
0.0000000000000000 1.0000000000000000 0.0000000000000000
0.0000000000000000 1.0000000000000000 0.0000000000000000
0.0000000000000000 1.0000000000000000 0.0000000000000000
0.0000000000000000 1.0000000000000000 0.0000000000000000
0.0000000000000000 1.0000000000000000 0.0000000000000000
0.0000000000000000 1.0000000000000000 0.0000000000000000
0.0000000000000000 1.0000000000000000 0.0000000000000000
0.0000000000000000 1.0000000000000000 0.0000000000000000
0.0000000000000000 1.0000000000000000 0.0000000000000000
0.0000000000000000 1.0000000000000000 0.0000000000000000
0.0000000000000000 1.0000000000000000 0.0000000000000000
0.0000000000000000 1.0000000000000000 0.0000000000000000
0.0000000000000000 1.0000000000000000 0.0000000000000000
0.0000000000000000 1.0000000000000000 0.0000000000000000
0.0000000000000000 1.0000000000000000 0.0000000000000000
0.0000000000000000 1.0000000000000000 0.0000000000000000
0.0000000000000000 1.0000000000000000 0.0000000000000000
0.0000000000000000 1.0000000000000000 0.0000000000000000
0.0000000000000000 1.0000000000000000 0.0000000000000000
0.0000000000000000 1.0000000000000000 0.0000000000000000
0.0000000000000000 1.0000000000000000 0.0000000000000000
0.0000000000000000 1.0000000000000000 0.0000000000000000
0.0000000000000000 1.0000000000000000 0.0000000000000000
0.0000000000000000 1.0000000000000000 0.0000000000000000
0.0000000000000000 1.0000000000000000 0.0000000000000000
0.0000000000000000 1.0000000000000000 0.0000000000000000
0.0000000000000000 1.0000000000000000 0.0000000000000000
0.0000000000000000 1.0000000000000000 0.0000000000000000
0.0000000000000000 1.0000000000000000 0.0000000000000000
0.0000000000000000 1.0000000000000000 0.0000000000000000
0.0000000000000000 1.0000000000000000 0.0000000000000000
0.0000000000000000 1.0000000000000000 0.0000000000000000
0.0000000000000000 1.0000000000000000 0.0000000000000000
0.0000000000000000 1.0000000000000000 0.0000000000000000
0.0000000000000000 1.0000000000000000 0.0000000000000000
0.0000000000000000 1.0000000000000000 0.0000000000000000
0.0000000000000000 1.0000000000000000 0.0000000000000000
0.0000000000000000 1.0000000000000000 0.0000000000000000
0.0000000000000000 1.0000000000000000 0.0000000000000000
0.0000000000000000 1.0000000000000000 0.0000000000000000
0.0000000000000000 1.0000000000000000 0.0000000000000000
0.0000000000000000 1.0000000000000000 0.0000000000000000
0.0000000000000000 1.0000000000000000 0.0000000000000000
0.0000000000000000 1.0000000000000000 0.0000000000000000
0.0000000000000000 1.0000000000000000 0.0000000000000000
0.0000000000000000 1.0000000000000000 0.0000000000000000
0.0000000000000000 1.0000000000000000 0.0000000000000000
0.0000000000000000 1.0000000000000000 0.0000000000000000
0.0000000000000000 1.0000000000000000 0.0000000000000000
0.0000000000000000 1.0000000000000000 0.0000000000000000
0.0000000000000000 1.0000000000000000 0.0000000000000000
0.0000000000000000 1.0000000000000000 0.0000000000000000
0.0000000000000000 1.0000000000000000 0.0000000000000000
0.0000000000000000 1.0000000000000000 0.0000000000000000
0.0000000000000000 1.0000000000000000 0.0000000000000000
0.0000000000000000 1.0000000000000000 0.0000000000000000
0.0000000000000000 1.0000000000000000 0.0000000000000000
0.0000000000000000 1.0000000000000000 0.0000000000000000
0.0000000000000000 1.0000000000000000 0.0000000000000000
0.0000000000000000 1.0000000000000000 0.0000000000000000
0.0000000000000000 1.0000000000000000 0.0000000000000000
0.0000000000000000 1.0000000000000000 0.0000000000000000
0.0000000000000000 1.0000000000000000 0.0000000000000000
0.0000000000000000 1.0000000000000000 0.0000000000000000
0.0000000000000000 1.0000000000000000 0.0000000000000000
0.0000000000000000 1.0000000000000000 0.0000000000000000
0.0000000000000000 1.0000000000000000 0.0000000000000000
0.0000000000000000 1.0000000000000000 0.0000000000000000
0.0000000000000000 1.0000000000000000 0.0000000000000000
0.0000000000000000 1.0000000000000000 0.0000000000000000
0.0000000000000000 1.0000000000000000 0.0000000000000000
0.0000000000000000 1.0000000000000000 0.0000000000000000
0.0000000000000000 1.0000000000000000 0.0000000000000000
0.0000000000000000 1.0000000000000000 0.0000000000000000
0.0000000000000000 1.0000000000000000 0.0000000000000000
0.0000000000000000 1.0000000000000000 0.0000000000000000
0.0000000000000000 1.0000000000000000 0.0000000000000000
0.0000000000000000 1.0000000000000000 0.0000000000000000
0.0000000000000000 1.0000000000000000 0.0000000000000000
0.0000000000000000 1.0000000000000000 0.0000000000000000
0.0000000000000000 1.0000000000000000 0.0000000000000000
0.0000000000000000 1.0000000000000000 0.0000000000000000
0.0000000000000000 1.0000000000000000 0.0000000000000000
0.0000000000000000 1.0000000000000000 0.0000000000000000
0.0000000000000000 1.0000000000000000 0.0000000000000000
0.0000000000000000 1.0000000000000000 0.0000000000000000
0.0000000000000000 1.0000000000000000 0.0000000000000000
0.0000000000000000 1.0000000000000000 0.0000000000000000
0.0000000000000000 1.0000000000000000 0.0000000000000000
0.0000000000000000 1.0000000000000000 0.0000000000000000
0.0000000000000000 1.0000000000000000 0.0000000000000000
0.0000000000000000 1.0000000000000000 0.0000000000000000
0.0000000000000000 1.0000000000000000 0.0000000000000000
0.0000000000000000 1.0000000000000000 0.0000000000000000
0.0000000000000000 1.0000000000000000 0.0000000000000000
0.0000000000000000 1.0000000000000000 0.0000000000000000
0.0000000000000000 1.0000000000000000 0.0000000000000000
0.0000000000000000 1.0000000000000000 0.0000000000000000
0.0000000000000000 1.0000000000000000 0.0000000000000000
0.0000000000000000 1.0000000000000000 0.0000000000000000
0.0000000000000000 1.0000000000000000 0.0000000000000000
0.0000000000000000 1.0000000000000000 0.0000000000000000
0.0000000000000000 1.0000000000000000 0.0000000000000000
0.0000000000000000 1.0000000000000000 0.0000000000000000
0.0000000000000000 1.0000000000000000 0.0000000000000000
0.0000000000000000 1.0000000000000000 0.0000000000000000
0.0000000000000000 1.0000000000000000 0.0000000000000000
0.0000000000000000 1.0000000000000000 0.0000000000000000
0.0000000000000000 1.0000000000000000 0.0000000000000000
0.0000000000000000 1.0000000000000000 0.0000000000000000
0.0000000000000000 1.0000000000000000 0.0000000000000000
0.0000000000000000 1.0000000000000000 0.0000000000000000
0.0000000000000000 1.0000000000000000 0.0000000000000000
0.0000000000000000 1.0000000000000000 0.0000000000000000
0.0000000000000000 1.0000000000000000 0.0000000000000000
0.0000000000000000 1.0000000000000000 0.0000000000000000
0.0000000000000000 1.0000000000000000 0.0000000000000000
0.0000000000000000 1.0000000000000000 0.0000000000000000
0.0000000000000000 1.0000000000000000 0.0000000000000000
0.0000000000000000 1.0000000000000000 0.0000000000000000
0.0000000000000000 1.0000000000000000 0.0000000000000000
0.0000000000000000 1.0000000000000000 0.0000000000000000
0.0000000000000000 1.0000000000000000 0.0000000000000000
0.0000000000000000 1.0000000000000000 0.0000000000000000
0.0000000000000000 1.0000000000000000 0.0000000000000000
0.0000000000000000 1.0000000000000000 0.0000000000000000
0.0000000000000000 1.0000000000000000 0.0000000000000000
0.0000000000000000 1.0000000000000000 0.0000000000000000
0.0000000000000000 1.0000000000000000 0.0000000000000000
0.0000000000000000 1.0000000000000000 0.0000000000000000
0.0000000000000000 1.0000000000000000 0.0000000000000000
0.0000000000000000 1.0000000000000000 0.0000000000000000
0.0000000000000000 1.0000000000000000 0.0000000000000000
0.0000000000000000 1.0000000000000000 0.0000000000000000
0.0000000000000000 1.0000000000000000 0.0000000000000000
0.0000000000000000 1.0000000000000000 0.0000000000000000
0.0000000000000000 1.0000000000000000 0.0000000000000000
0.0000000000000000 1.0000000000000000 0.0000000000000000
0.0000000000000000 1.0000000000000000 0.0000000000000000
0.0000000000000000 1.0000000000000000 0.0000000000000000
0.0000000000000000 1.0000000000000000 0.0000000000000000
0.0000000000000000 1.0000000000000000 0.0000000000000000
0.0000000000000000 1.0000000000000000 0.0000000000000000
0.0000000000000000 1.0000000000000000 0.0000000000000000
0.0000000000000000 1.0000000000000000 0.0000000000000000
0.0000000000000000 1.0000000000000000 0.0000000000000000
0.0000000000000000 1.0000000000000000 0.0000000000000000
0.0000000000000000 1.0000000000000000 0.0000000000000000
0.0000000000000000 1.0000000000000000 0.0000000000000000
0.0000000000000000 1.0000000000000000 0.0000000000000000
0.0000000000000000 1.0000000000000000 0.0000000000000000
0.0000000000000000 1.0000000000000000 0.0000000000000000
0.0000000000000000 1.0000000000000000 0.0000000000000000
0.0000000000000000 1.0000000000000000 0.0000000000000000
0.0000000000000000 1.0000000000000000 0.0000000000000000
0.0000000000000000 1.0000000000000000 0.0000000000000000
0.0000000000000000 1.0000000000000000 0.0000000000000000
0.0000000000000000 1.0000000000000000 0.0000000000000000
0.0000000000000000 1.0000000000000000 0.0000000000000000
0.0000000000000000 1.0000000000000000 0.0000000000000000
0.0000000000000000 1.0000000000000000 0.0000000000000000
0.0000000000000000 1.0000000000000000 0.0000000000000000
0.0000000000000000 1.0000000000000000 0.0000000000000000
0.0000000000000000 1.0000000000000000 0.0000000000000000
0.0000000000000000 1.0000000000000000 0.0000000000000000
0.0000000000000000 1.0000000000000000 0.0000000000000000
0.0000000000000000 1.0000000000000000 0.0000000000000000
0.0000000000000000 1.0000000000000000 0.0000000000000000
0.0000000000000000 1.0000000000000000 0.0000000000000000
0.0000000000000000 1.0000000000000000 0.0000000000000000
0.0000000000000000 1.0000000000000000 0.0000000000000000
0.0000000000000000 1.0000000000000000 0.0000000000000000
0.0000000000000000 1.0000000000000000 0.0000000000000000
0.0000000000000000 1.0000000000000000 0.0000000000000000
0.0000000000000000 1.0000000000000000 0.0000000000000000
0.0000000000000000 1.0000000000000000 0.0000000000000000
0.0000000000000000 1.0000000000000000 0.0000000000000000
0.0000000000000000 1.0000000000000000 0.0000000000000000
0.0000000000000000 1.0000000000000000 0.0000000000000000
0.0000000000000000 1.0000000000000000 0.0000000000000000
0.0000000000000000 1.0000000000000000 0.0000000000000000
0.0000000000000000 1.0000000000000000 0.0000000000000000
0.0000000000000000 1.0000000000000000 0.0000000000000000
0.0000000000000000 1.0000000000000000 0.0000000000000000
0.0000000000000000 1.0000000000000000 0.0000000000000000
0.0000000000000000 1.0000000000000000 0.0000000000000000
0.0000000000000000 1.0000000000000000 0.0000000000000000
0.0000000000000000 1.0000000000000000 0.0000000000000000
0.0000000000000000 1.0000000000000000 0.0000000000000000
0.0000000000000000 1.0000000000000000 0.0000000000000000
0.0000000000000000 1.0000000000000000 0.0000000000000000
0.0000000000000000 1.0000000000000000 0.0000000000000000
0.0000000000000000 1.0000000000000000 0.0000000000000000
0.0000000000000000 1.0000000000000000 0.0000000000000000
0.0000000000000000 1.0000000000000000 0.0000000000000000
0.0000000000000000 1.0000000000000000 0.0000000000000000
0.0000000000000000 1.0000000000000000 0.0000000000000000
0.0000000000000000 1.0000000000000000 0.0000000000000000
0.0000000000000000 1.0000000000000000 0.0000000000000000
0.0000000000000000 1.0000000000000000 0.0000000000000000
0.0000000000000000 1.0000000000000000 0.0000000000000000
0.0000000000000000 1.0000000000000000 0.0000000000000000
0.0000000000000000 1.0000000000000000 0.0000000000000000
0.0000000000000000 1.0000000000000000 0.0000000000000000
0.0000000000000000 1.0000000000000000 0.0000000000000000
0.0000000000000000 1.0000000000000000 0.0000000000000000
0.0000000000000000 1.0000000000000000 0.0000000000000000
0.0000000000000000 1.0000000000000000 0.0000000000000000
0.0000000000000000 1.0000000000000000 0.0000000000000000
0.0000000000000000 1.0000000000000000 0.0000000000000000
0.0000000000000000 1.0000000000000000 0.0000000000000000
0.0000000000000000 1.0000000000000000 0.0000000000000000
0.0000000000000000 1.0000000000000000 0.0000000000000000
0.0000000000000000 1.0000000000000000 0.0000000000000000
0.0000000000000000 1.0000000000000000 0.0000000000000000
0.0000000000000000 1.0000000000000000 0.0000000000000000
0.0000000000000000 1.0000000000000000 0.0000000000000000
0.0000000000000000 1.0000000000000000 0.0000000000000000
0.0000000000000000 1.0000000000000000 0.0000000000000000
0.0000000000000000 1.0000000000000000 0.0000000000000000
0.0000000000000000 1.0000000000000000 0.0000000000000000
0.0000000000000000 1.0000000000000000 0.0000000000000000
0.0000000000000000 1.0000000000000000 0.0000000000000000
0.0000000000000000 1.0000000000000000 0.0000000000000000
0.0000000000000000 1.0000000000000000 0.0000000000000000
0.0000000000000000 1.0000000000000000 0.0000000000000000
0.0000000000000000 1.0000000000000000 0.0000000000000000
0.0000000000000000 1.0000000000000000 0.0000000000000000
0.0000000000000000 1.0000000000000000 0.0000000000000000
0.0000000000000000 1.0000000000000000 0.0000000000000000
0.0000000000000000 1.0000000000000000 0.0000000000000000
0.0000000000000000 1.0000000000000000 0.0000000000000000
0.0000000000000000 1.0000000000000000 0.0000000000000000
0.0000000000000000 1.0000000000000000 0.0000000000000000
0.0000000000000000 1.0000000000000000 0.0000000000000000
0.0000000000000000 1.0000000000000000 0.0000000000000000
0.0000000000000000 1.0000000000000000 0.0000000000000000
0.0000000000000000 1.0000000000000000 0.0000000000000000
0.0000000000000000 1.0000000000000000 0.0000000000000000
0.0000000000000000 1.0000000000000000 0.0000000000000000
0.0000000000000000 1.0000000000000000 0.0000000000000000
0.0000000000000000 1.0000000000000000 0.0000000000000000
0.0000000000000000 1.0000000000000000 0.0000000000000000
0.0000000000000000 1.0000000000000000 0.0000000000000000
0.0000000000000000 1.0000000000000000 0.0000000000000000
0.0000000000000000 1.0000000000000000 0.0000000000000000
0.0000000000000000 1.0000000000000000 0.0000000000000000
0.0000000000000000 1.0000000000000000 0.0000000000000000
0.0000000000000000 1.0000000000000000 0.0000000000000000
0.0000000000000000 1.0000000000000000 0.0000000000000000
0.0000000000000000 1.0000000000000000 0.0000000000000000
0.0000000000000000 1.0000000000000000 0.0000000000000000
0.0000000000000000 1.0000000000000000 0.0000000000000000
0.0000000000000000 1.0000000000000000 0.0000000000000000
0.0000000000000000 1.0000000000000000 0.0000000000000000
0.0000000000000000 1.0000000000000000 0.0000000000000000
0.0000000000000000 1.0000000000000000 0.0000000000000000
0.0000000000000000 1.0000000000000000 0.0000000000000000
0.0000000000000000 1.0000000000000000 0.0000000000000000
0.0000000000000000 1.0000000000000000 0.0000000000000000
0.0000000000000000 1.0000000000000000 0.0000000000000000
0.0000000000000000 1.0000000000000000 0.0000000000000000
0.0000000000000000 1.0000000000000000 0.0000000000000000
0.0000000000000000 1.0000000000000000 0.0000000000000000
0.0000000000000000 1.0000000000000000 0.0000000000000000
0.0000000000000000 1.0000000000000000 0.0000000000000000
0.0000000000000000 1.0000000000000000 0.0000000000000000
0.0000000000000000 1.0000000000000000 0.0000000000000000
0.0000000000000000 1.0000000000000000 0.0000000000000000
0.0000000000000000 1.0000000000000000 0.0000000000000000
0.0000000000000000 1.0000000000000000 0.0000000000000000
0.0000000000000000 1.0000000000000000 0.0000000000000000
0.0000000000000000 1.0000000000000000 0.0000000000000000
0.0000000000000000 1.0000000000000000 0.0000000000000000
0.0000000000000000 1.0000000000000000 0.0000000000000000
0.0000000000000000 1.0000000000000000 0.0000000000000000
0.0000000000000000 1.0000000000000000 0.0000000000000000
0.0000000000000000 1.0000000000000000 0.0000000000000000
0.0000000000000000 1.0000000000000000 0.0000000000000000
0.0000000000000000 1.0000000000000000 0.0000000000000000
0.0000000000000000 1.0000000000000000 0.0000000000000000
0.0000000000000000 1.0000000000000000 0.0000000000000000
0.0000000000000000 1.0000000000000000 0.0000000000000000
0.0000000000000000 1.0000000000000000 0.0000000000000000
0.0000000000000000 1.0000000000000000 0.0000000000000000
0.0000000000000000 1.0000000000000000 0.0000000000000000
0.0000000000000000 1.0000000000000000 0.0000000000000000
0.0000000000000000 1.0000000000000000 0.0000000000000000
0.0000000000000000 1.0000000000000000 0.0000000000000000
0.0000000000000000 1.0000000000000000 0.0000000000000000
0.0000000000000000 1.0000000000000000 0.0000000000000000
0.0000000000000000 1.0000000000000000 0.0000000000000000
0.0000000000000000 1.0000000000000000 0.0000000000000000
0.0000000000000000 1.0000000000000000 0.0000000000000000
0.0000000000000000 1.0000000000000000 0.0000000000000000
0.0000000000000000 1.0000000000000000 0.0000000000000000
0.0000000000000000 1.0000000000000000 0.0000000000000000
0.0000000000000000 1.0000000000000000 0.0000000000000000
0.0000000000000000 1.0000000000000000 0.0000000000000000
0.0000000000000000 1.0000000000000000 0.0000000000000000
0.0000000000000000 1.0000000000000000 0.0000000000000000
0.0000000000000000 1.0000000000000000 0.0000000000000000
0.0000000000000000 1.0000000000000000 0.0000000000000000
0.0000000000000000 1.0000000000000000 0.0000000000000000
0.0000000000000000 1.0000000000000000 0.0000000000000000
0.0000000000000000 1.0000000000000000 0.0000000000000000
0.0000000000000000 1.0000000000000000 0.0000000000000000
0.0000000000000000 1.0000000000000000 0.0000000000000000
0.0000000000000000 1.0000000000000000 0.0000000000000000
0.0000000000000000 1.0000000000000000 0.0000000000000000
0.0000000000000000 1.0000000000000000 0.0000000000000000
0.0000000000000000 1.0000000000000000 0.0000000000000000
0.0000000000000000 1.0000000000000000 0.0000000000000000
0.0000000000000000 1.0000000000000000 0.0000000000000000
0.0000000000000000 1.0000000000000000 0.0000000000000000
0.0000000000000000 1.0000000000000000 0.0000000000000000
0.0000000000000000 1.0000000000000000 0.0000000000000000
0.0000000000000000 1.0000000000000000 0.0000000000000000
0.0000000000000000 1.0000000000000000 0.0000000000000000
0.0000000000000000 1.0000000000000000 0.0000000000000000
0.0000000000000000 1.0000000000000000 0.0000000000000000
0.0000000000000000 1.0000000000000000 0.0000000000000000
0.0000000000000000 1.0000000000000000 0.0000000000000000
0.0000000000000000 1.0000000000000000 0.0000000000000000
0.0000000000000000 1.0000000000000000 0.0000000000000000
0.0000000000000000 1.0000000000000000 0.0000000000000000
0.0000000000000000 1.0000000000000000 0.0000000000000000
0.0000000000000000 1.0000000000000000 0.0000000000000000
0.0000000000000000 1.0000000000000000 0.0000000000000000
0.0000000000000000 1.0000000000000000 0.0000000000000000
0.0000000000000000 1.0000000000000000 0.0000000000000000
0.0000000000000000 1.0000000000000000 0.0000000000000000
0.0000000000000000 1.0000000000000000 0.0000000000000000
0.0000000000000000 1.0000000000000000 0.0000000000000000
0.0000000000000000 1.0000000000000000 0.0000000000000000
0.0000000000000000 1.0000000000000000 0.0000000000000000
0.0000000000000000 1.0000000000000000 0.0000000000000000
0.0000000000000000 1.0000000000000000 0.0000000000000000
0.0000000000000000 1.0000000000000000 0.0000000000000000
0.0000000000000000 1.0000000000000000 0.0000000000000000
0.0000000000000000 1.0000000000000000 0.0000000000000000
0.0000000000000000 1.0000000000000000 0.0000000000000000
0.0000000000000000 1.0000000000000000 0.0000000000000000
0.0000000000000000 1.0000000000000000 0.0000000000000000
0.0000000000000000 1.0000000000000000 0.0000000000000000
0.0000000000000000 1.0000000000000000 0.0000000000000000
0.0000000000000000 1.0000000000000000 0.0000000000000000
0.0000000000000000 1.0000000000000000 0.0000000000000000
0.0000000000000000 1.0000000000000000 0.0000000000000000
0.0000000000000000 1.0000000000000000 0.0000000000000000
0.0000000000000000 1.0000000000000000 0.0000000000000000
0.0000000000000000 1.0000000000000000 0.0000000000000000
0.0000000000000000 1.0000000000000000 0.0000000000000000
0.0000000000000000 1.0000000000000000 0.0000000000000000
0.0000000000000000 1.0000000000000000 0.0000000000000000
0.0000000000000000 1.0000000000000000 0.0000000000000000
0.0000000000000000 1.0000000000000000 0.0000000000000000
0.0000000000000000 1.0000000000000000 0.0000000000000000
0.0000000000000000 1.0000000000000000 0.0000000000000000
0.0000000000000000 1.0000000000000000 0.0000000000000000
0.0000000000000000 1.0000000000000000 0.0000000000000000
0.0000000000000000 1.0000000000000000 0.0000000000000000
0.0000000000000000 1.0000000000000000 0.0000000000000000
0.0000000000000000 1.0000000000000000 0.0000000000000000
0.0000000000000000 1.0000000000000000 0.0000000000000000
0.0000000000000000 1.0000000000000000 0.0000000000000000
0.0000000000000000 1.0000000000000000 0.0000000000000000
0.0000000000000000 1.0000000000000000 0.0000000000000000
0.0000000000000000 1.0000000000000000 0.0000000000000000
0.0000000000000000 1.0000000000000000 0.0000000000000000
0.0000000000000000 1.0000000000000000 0.0000000000000000
0.0000000000000000 1.0000000000000000 0.0000000000000000
0.0000000000000000 1.0000000000000000 0.0000000000000000
0.0000000000000000 1.0000000000000000 0.0000000000000000
0.0000000000000000 1.0000000000000000 0.0000000000000000
0.0000000000000000 1.0000000000000000 0.0000000000000000
0.0000000000000000 1.0000000000000000 0.0000000000000000
0.0000000000000000 1.0000000000000000 0.0000000000000000
0.0000000000000000 1.0000000000000000 0.0000000000000000
0.0000000000000000 1.0000000000000000 0.0000000000000000
0.0000000000000000 1.0000000000000000 0.0000000000000000
0.0000000000000000 1.0000000000000000 0.0000000000000000
0.0000000000000000 1.0000000000000000 0.0000000000000000
0.0000000000000000 1.0000000000000000 0.0000000000000000
0.0000000000000000 1.0000000000000000 0.0000000000000000
0.0000000000000000 1.0000000000000000 0.0000000000000000
0.0000000000000000 1.0000000000000000 0.0000000000000000
0.0000000000000000 1.0000000000000000 0.0000000000000000
0.0000000000000000 1.0000000000000000 0.0000000000000000
0.0000000000000000 1.0000000000000000 0.0000000000000000
0.0000000000000000 1.0000000000000000 0.0000000000000000
0.0000000000000000 1.0000000000000000 0.0000000000000000
0.0000000000000000 1.0000000000000000 0.0000000000000000
0.0000000000000000 1.0000000000000000 0.0000000000000000
0.0000000000000000 1.0000000000000000 0.0000000000000000
0.0000000000000000 1.0000000000000000 0.0000000000000000
0.0000000000000000 1.0000000000000000 0.0000000000000000
0.0000000000000000 1.0000000000000000 0.0000000000000000
0.0000000000000000 1.0000000000000000 0.0000000000000000
0.0000000000000000 1.0000000000000000 0.0000000000000000
0.0000000000000000 1.0000000000000000 0.0000000000000000
0.0000000000000000 1.0000000000000000 0.0000000000000000
0.0000000000000000 1.0000000000000000 0.0000000000000000
0.0000000000000000 1.0000000000000000 0.0000000000000000
0.0000000000000000 1.0000000000000000 0.0000000000000000
0.0000000000000000 1.0000000000000000 0.0000000000000000
0.0000000000000000 1.0000000000000000 0.0000000000000000
0.0000000000000000 1.0000000000000000 0.0000000000000000
0.0000000000000000 1.0000000000000000 0.0000000000000000
0.0000000000000000 1.0000000000000000 0.0000000000000000
0.0000000000000000 1.0000000000000000 0.0000000000000000
0.0000000000000000 1.0000000000000000 0.0000000000000000
0.0000000000000000 1.0000000000000000 0.0000000000000000
0.0000000000000000 1.0000000000000000 0.0000000000000000
0.0000000000000000 1.0000000000000000 0.0000000000000000

SCALARS f:fiber_s double 3
LOOKUP_TABLE default
1.0000000000000000 0.0000000000000000 0.0000000000000000
1.0000000000000000 0.0000000000000000 0.0000000000000000
1.0000000000000000 0.0000000000000000 0.0000000000000000
1.0000000000000000 0.0000000000000000 0.0000000000000000
1.0000000000000000 0.0000000000000000 0.0000000000000000
1.0000000000000000 0.0000000000000000 0.0000000000000000
1.0000000000000000 0.0000000000000000 0.0000000000000000
1.0000000000000000 0.0000000000000000 0.0000000000000000
1.0000000000000000 0.0000000000000000 0.0000000000000000
1.0000000000000000 0.0000000000000000 0.0000000000000000
1.0000000000000000 0.0000000000000000 0.0000000000000000
1.0000000000000000 0.0000000000000000 0.0000000000000000
1.0000000000000000 0.0000000000000000 0.0000000000000000
1.0000000000000000 0.0000000000000000 0.0000000000000000
1.0000000000000000 0.0000000000000000 0.0000000000000000
1.0000000000000000 0.0000000000000000 0.0000000000000000
1.0000000000000000 0.0000000000000000 0.0000000000000000
1.0000000000000000 0.0000000000000000 0.0000000000000000
1.0000000000000000 0.0000000000000000 0.0000000000000000
1.0000000000000000 0.0000000000000000 0.0000000000000000
1.0000000000000000 0.0000000000000000 0.0000000000000000
1.0000000000000000 0.0000000000000000 0.0000000000000000
1.0000000000000000 0.0000000000000000 0.0000000000000000
1.0000000000000000 0.0000000000000000 0.0000000000000000
1.0000000000000000 0.0000000000000000 0.0000000000000000
1.0000000000000000 0.0000000000000000 0.0000000000000000
1.0000000000000000 0.0000000000000000 0.0000000000000000
1.0000000000000000 0.0000000000000000 0.0000000000000000
1.0000000000000000 0.0000000000000000 0.0000000000000000
1.0000000000000000 0.0000000000000000 0.0000000000000000
1.0000000000000000 0.0000000000000000 0.0000000000000000
1.0000000000000000 0.0000000000000000 0.0000000000000000
1.0000000000000000 0.0000000000000000 0.0000000000000000
1.0000000000000000 0.0000000000000000 0.0000000000000000
1.0000000000000000 0.0000000000000000 0.0000000000000000
1.0000000000000000 0.0000000000000000 0.0000000000000000
1.0000000000000000 0.0000000000000000 0.0000000000000000
1.0000000000000000 0.0000000000000000 0.0000000000000000
1.0000000000000000 0.0000000000000000 0.0000000000000000
1.0000000000000000 0.0000000000000000 0.0000000000000000
1.0000000000000000 0.0000000000000000 0.0000000000000000
1.0000000000000000 0.0000000000000000 0.0000000000000000
1.0000000000000000 0.0000000000000000 0.0000000000000000
1.0000000000000000 0.0000000000000000 0.0000000000000000
1.0000000000000000 0.0000000000000000 0.0000000000000000
1.0000000000000000 0.0000000000000000 0.0000000000000000
1.0000000000000000 0.0000000000000000 0.0000000000000000
1.0000000000000000 0.0000000000000000 0.0000000000000000
1.0000000000000000 0.0000000000000000 0.0000000000000000
1.0000000000000000 0.0000000000000000 0.0000000000000000
1.0000000000000000 0.0000000000000000 0.0000000000000000
1.0000000000000000 0.0000000000000000 0.0000000000000000
1.0000000000000000 0.0000000000000000 0.0000000000000000
1.0000000000000000 0.0000000000000000 0.0000000000000000
1.0000000000000000 0.0000000000000000 0.0000000000000000
1.0000000000000000 0.0000000000000000 0.0000000000000000
1.0000000000000000 0.0000000000000000 0.0000000000000000
1.0000000000000000 0.0000000000000000 0.0000000000000000
1.0000000000000000 0.0000000000000000 0.0000000000000000
1.0000000000000000 0.0000000000000000 0.0000000000000000
1.0000000000000000 0.0000000000000000 0.0000000000000000
1.0000000000000000 0.0000000000000000 0.0000000000000000
1.0000000000000000 0.0000000000000000 0.0000000000000000
1.0000000000000000 0.0000000000000000 0.0000000000000000
1.0000000000000000 0.0000000000000000 0.0000000000000000
1.0000000000000000 0.0000000000000000 0.0000000000000000
1.0000000000000000 0.0000000000000000 0.0000000000000000
1.0000000000000000 0.0000000000000000 0.0000000000000000
1.0000000000000000 0.0000000000000000 0.0000000000000000
1.0000000000000000 0.0000000000000000 0.0000000000000000
1.0000000000000000 0.0000000000000000 0.0000000000000000
1.0000000000000000 0.0000000000000000 0.0000000000000000
1.0000000000000000 0.0000000000000000 0.0000000000000000
1.0000000000000000 0.0000000000000000 0.0000000000000000
1.0000000000000000 0.0000000000000000 0.0000000000000000
1.0000000000000000 0.0000000000000000 0.0000000000000000
1.0000000000000000 0.0000000000000000 0.0000000000000000
1.0000000000000000 0.0000000000000000 0.0000000000000000
1.0000000000000000 0.0000000000000000 0.0000000000000000
1.0000000000000000 0.0000000000000000 0.0000000000000000
1.0000000000000000 0.0000000000000000 0.0000000000000000
1.0000000000000000 0.0000000000000000 0.0000000000000000
1.0000000000000000 0.0000000000000000 0.0000000000000000
1.0000000000000000 0.0000000000000000 0.0000000000000000
1.0000000000000000 0.0000000000000000 0.0000000000000000
1.0000000000000000 0.0000000000000000 0.0000000000000000
1.0000000000000000 0.0000000000000000 0.0000000000000000
1.0000000000000000 0.0000000000000000 0.0000000000000000
1.0000000000000000 0.0000000000000000 0.0000000000000000
1.0000000000000000 0.0000000000000000 0.0000000000000000
1.0000000000000000 0.0000000000000000 0.0000000000000000
1.0000000000000000 0.0000000000000000 0.0000000000000000
1.0000000000000000 0.0000000000000000 0.0000000000000000
1.0000000000000000 0.0000000000000000 0.0000000000000000
1.0000000000000000 0.0000000000000000 0.0000000000000000
1.0000000000000000 0.0000000000000000 0.0000000000000000
1.0000000000000000 0.0000000000000000 0.0000000000000000
1.0000000000000000 0.0000000000000000 0.0000000000000000
1.0000000000000000 0.0000000000000000 0.0000000000000000
1.0000000000000000 0.0000000000000000 0.0000000000000000
1.0000000000000000 0.0000000000000000 0.0000000000000000
1.0000000000000000 0.0000000000000000 0.0000000000000000
1.0000000000000000 0.0000000000000000 0.0000000000000000
1.0000000000000000 0.0000000000000000 0.0000000000000000
1.0000000000000000 0.0000000000000000 0.0000000000000000
1.0000000000000000 0.0000000000000000 0.0000000000000000
1.0000000000000000 0.0000000000000000 0.0000000000000000
1.0000000000000000 0.0000000000000000 0.0000000000000000
1.0000000000000000 0.0000000000000000 0.0000000000000000
1.0000000000000000 0.0000000000000000 0.0000000000000000
1.0000000000000000 0.0000000000000000 0.0000000000000000
1.0000000000000000 0.0000000000000000 0.0000000000000000
1.0000000000000000 0.0000000000000000 0.0000000000000000
1.0000000000000000 0.0000000000000000 0.0000000000000000
1.0000000000000000 0.0000000000000000 0.0000000000000000
1.0000000000000000 0.0000000000000000 0.0000000000000000
1.0000000000000000 0.0000000000000000 0.0000000000000000
1.0000000000000000 0.0000000000000000 0.0000000000000000
1.0000000000000000 0.0000000000000000 0.0000000000000000
1.0000000000000000 0.0000000000000000 0.0000000000000000
1.0000000000000000 0.0000000000000000 0.0000000000000000
1.0000000000000000 0.0000000000000000 0.0000000000000000
1.0000000000000000 0.0000000000000000 0.0000000000000000
1.0000000000000000 0.0000000000000000 0.0000000000000000
1.0000000000000000 0.0000000000000000 0.0000000000000000
1.0000000000000000 0.0000000000000000 0.0000000000000000
1.0000000000000000 0.0000000000000000 0.0000000000000000
1.0000000000000000 0.0000000000000000 0.0000000000000000
1.0000000000000000 0.0000000000000000 0.0000000000000000
1.0000000000000000 0.0000000000000000 0.0000000000000000
1.0000000000000000 0.0000000000000000 0.0000000000000000
1.0000000000000000 0.0000000000000000 0.0000000000000000
1.0000000000000000 0.0000000000000000 0.0000000000000000
1.0000000000000000 0.0000000000000000 0.0000000000000000
1.0000000000000000 0.0000000000000000 0.0000000000000000
1.0000000000000000 0.0000000000000000 0.0000000000000000
1.0000000000000000 0.0000000000000000 0.0000000000000000
1.0000000000000000 0.0000000000000000 0.0000000000000000
1.0000000000000000 0.0000000000000000 0.0000000000000000
1.0000000000000000 0.0000000000000000 0.0000000000000000
1.0000000000000000 0.0000000000000000 0.0000000000000000
1.0000000000000000 0.0000000000000000 0.0000000000000000
1.0000000000000000 0.0000000000000000 0.0000000000000000
1.0000000000000000 0.0000000000000000 0.0000000000000000
1.0000000000000000 0.0000000000000000 0.0000000000000000
1.0000000000000000 0.0000000000000000 0.0000000000000000
1.0000000000000000 0.0000000000000000 0.0000000000000000
1.0000000000000000 0.0000000000000000 0.0000000000000000
1.0000000000000000 0.0000000000000000 0.0000000000000000
1.0000000000000000 0.0000000000000000 0.0000000000000000
1.0000000000000000 0.0000000000000000 0.0000000000000000
1.0000000000000000 0.0000000000000000 0.0000000000000000
1.0000000000000000 0.0000000000000000 0.0000000000000000
1.0000000000000000 0.0000000000000000 0.0000000000000000
1.0000000000000000 0.0000000000000000 0.0000000000000000
1.0000000000000000 0.0000000000000000 0.0000000000000000
1.0000000000000000 0.0000000000000000 0.0000000000000000
1.0000000000000000 0.0000000000000000 0.0000000000000000
1.0000000000000000 0.0000000000000000 0.0000000000000000
1.0000000000000000 0.0000000000000000 0.0000000000000000
1.0000000000000000 0.0000000000000000 0.0000000000000000
1.0000000000000000 0.0000000000000000 0.0000000000000000
1.0000000000000000 0.0000000000000000 0.0000000000000000
1.0000000000000000 0.0000000000000000 0.0000000000000000
1.0000000000000000 0.0000000000000000 0.0000000000000000
1.0000000000000000 0.0000000000000000 0.0000000000000000
1.0000000000000000 0.0000000000000000 0.0000000000000000
1.0000000000000000 0.0000000000000000 0.0000000000000000
1.0000000000000000 0.0000000000000000 0.0000000000000000
1.0000000000000000 0.0000000000000000 0.0000000000000000
1.0000000000000000 0.0000000000000000 0.0000000000000000
1.0000000000000000 0.0000000000000000 0.0000000000000000
1.0000000000000000 0.0000000000000000 0.0000000000000000
1.0000000000000000 0.0000000000000000 0.0000000000000000
1.0000000000000000 0.0000000000000000 0.0000000000000000
1.0000000000000000 0.0000000000000000 0.0000000000000000
1.0000000000000000 0.0000000000000000 0.0000000000000000
1.0000000000000000 0.0000000000000000 0.0000000000000000
1.0000000000000000 0.0000000000000000 0.0000000000000000
1.0000000000000000 0.0000000000000000 0.0000000000000000
1.0000000000000000 0.0000000000000000 0.0000000000000000
1.0000000000000000 0.0000000000000000 0.0000000000000000
1.0000000000000000 0.0000000000000000 0.0000000000000000
1.0000000000000000 0.0000000000000000 0.0000000000000000
1.0000000000000000 0.0000000000000000 0.0000000000000000
1.0000000000000000 0.0000000000000000 0.0000000000000000
1.0000000000000000 0.0000000000000000 0.0000000000000000
1.0000000000000000 0.0000000000000000 0.0000000000000000
1.0000000000000000 0.0000000000000000 0.0000000000000000
1.0000000000000000 0.0000000000000000 0.0000000000000000
1.0000000000000000 0.0000000000000000 0.0000000000000000
1.0000000000000000 0.0000000000000000 0.0000000000000000
1.0000000000000000 0.0000000000000000 0.0000000000000000
1.0000000000000000 0.0000000000000000 0.0000000000000000
1.0000000000000000 0.0000000000000000 0.0000000000000000
1.0000000000000000 0.0000000000000000 0.0000000000000000
1.0000000000000000 0.0000000000000000 0.0000000000000000
1.0000000000000000 0.0000000000000000 0.0000000000000000
1.0000000000000000 0.0000000000000000 0.0000000000000000
1.0000000000000000 0.0000000000000000 0.0000000000000000
1.0000000000000000 0.0000000000000000 0.0000000000000000
1.0000000000000000 0.0000000000000000 0.0000000000000000
1.0000000000000000 0.0000000000000000 0.0000000000000000
1.0000000000000000 0.0000000000000000 0.0000000000000000
1.0000000000000000 0.0000000000000000 0.0000000000000000
1.0000000000000000 0.0000000000000000 0.0000000000000000
1.0000000000000000 0.0000000000000000 0.0000000000000000
1.0000000000000000 0.0000000000000000 0.0000000000000000
1.0000000000000000 0.0000000000000000 0.0000000000000000
1.0000000000000000 0.0000000000000000 0.0000000000000000
1.0000000000000000 0.0000000000000000 0.0000000000000000
1.0000000000000000 0.0000000000000000 0.0000000000000000
1.0000000000000000 0.0000000000000000 0.0000000000000000
1.0000000000000000 0.0000000000000000 0.0000000000000000
1.0000000000000000 0.0000000000000000 0.0000000000000000
1.0000000000000000 0.0000000000000000 0.0000000000000000
1.0000000000000000 0.0000000000000000 0.0000000000000000
1.0000000000000000 0.0000000000000000 0.0000000000000000
1.0000000000000000 0.0000000000000000 0.0000000000000000
1.0000000000000000 0.0000000000000000 0.0000000000000000
1.0000000000000000 0.0000000000000000 0.0000000000000000
1.0000000000000000 0.0000000000000000 0.0000000000000000
1.0000000000000000 0.0000000000000000 0.0000000000000000
1.0000000000000000 0.0000000000000000 0.0000000000000000
1.0000000000000000 0.0000000000000000 0.0000000000000000
1.0000000000000000 0.0000000000000000 0.0000000000000000
1.0000000000000000 0.0000000000000000 0.0000000000000000
1.0000000000000000 0.0000000000000000 0.0000000000000000
1.0000000000000000 0.0000000000000000 0.0000000000000000
1.0000000000000000 0.0000000000000000 0.0000000000000000
1.0000000000000000 0.0000000000000000 0.0000000000000000
1.0000000000000000 0.0000000000000000 0.0000000000000000
1.0000000000000000 0.0000000000000000 0.0000000000000000
1.0000000000000000 0.0000000000000000 0.0000000000000000
1.0000000000000000 0.0000000000000000 0.0000000000000000
1.0000000000000000 0.0000000000000000 0.0000000000000000
1.0000000000000000 0.0000000000000000 0.0000000000000000
1.0000000000000000 0.0000000000000000 0.0000000000000000
1.0000000000000000 0.0000000000000000 0.0000000000000000
1.0000000000000000 0.0000000000000000 0.0000000000000000
1.0000000000000000 0.0000000000000000 0.0000000000000000
1.0000000000000000 0.0000000000000000 0.0000000000000000
1.0000000000000000 0.0000000000000000 0.0000000000000000
1.0000000000000000 0.0000000000000000 0.0000000000000000
1.0000000000000000 0.0000000000000000 0.0000000000000000
1.0000000000000000 0.0000000000000000 0.0000000000000000
1.0000000000000000 0.0000000000000000 0.0000000000000000
1.0000000000000000 0.0000000000000000 0.0000000000000000
1.0000000000000000 0.0000000000000000 0.0000000000000000
1.0000000000000000 0.0000000000000000 0.0000000000000000
1.0000000000000000 0.0000000000000000 0.0000000000000000
1.0000000000000000 0.0000000000000000 0.0000000000000000
1.0000000000000000 0.0000000000000000 0.0000000000000000
1.0000000000000000 0.0000000000000000 0.0000000000000000
1.0000000000000000 0.0000000000000000 0.0000000000000000
1.0000000000000000 0.0000000000000000 0.0000000000000000
1.0000000000000000 0.0000000000000000 0.0000000000000000
1.0000000000000000 0.0000000000000000 0.0000000000000000
1.0000000000000000 0.0000000000000000 0.0000000000000000
1.0000000000000000 0.0000000000000000 0.0000000000000000
1.0000000000000000 0.0000000000000000 0.0000000000000000
1.0000000000000000 0.0000000000000000 0.0000000000000000
1.0000000000000000 0.0000000000000000 0.0000000000000000
1.0000000000000000 0.0000000000000000 0.0000000000000000
1.0000000000000000 0.0000000000000000 0.0000000000000000
1.0000000000000000 0.0000000000000000 0.0000000000000000
1.0000000000000000 0.0000000000000000 0.0000000000000000
1.0000000000000000 0.0000000000000000 0.0000000000000000
1.0000000000000000 0.0000000000000000 0.0000000000000000
1.0000000000000000 0.0000000000000000 0.0000000000000000
1.0000000000000000 0.0000000000000000 0.0000000000000000
1.0000000000000000 0.0000000000000000 0.0000000000000000
1.0000000000000000 0.0000000000000000 0.0000000000000000
1.0000000000000000 0.0000000000000000 0.0000000000000000
1.0000000000000000 0.0000000000000000 0.0000000000000000
1.0000000000000000 0.0000000000000000 0.0000000000000000
1.0000000000000000 0.0000000000000000 0.0000000000000000
1.0000000000000000 0.0000000000000000 0.0000000000000000
1.0000000000000000 0.0000000000000000 0.0000000000000000
1.0000000000000000 0.0000000000000000 0.0000000000000000
1.0000000000000000 0.0000000000000000 0.0000000000000000
1.0000000000000000 0.0000000000000000 0.0000000000000000
1.0000000000000000 0.0000000000000000 0.0000000000000000
1.0000000000000000 0.0000000000000000 0.0000000000000000
1.0000000000000000 0.0000000000000000 0.0000000000000000
1.0000000000000000 0.0000000000000000 0.0000000000000000
1.0000000000000000 0.0000000000000000 0.0000000000000000
1.0000000000000000 0.0000000000000000 0.0000000000000000
1.0000000000000000 0.0000000000000000 0.0000000000000000
1.0000000000000000 0.0000000000000000 0.0000000000000000
1.0000000000000000 0.0000000000000000 0.0000000000000000
1.0000000000000000 0.0000000000000000 0.0000000000000000
1.0000000000000000 0.0000000000000000 0.0000000000000000
1.0000000000000000 0.0000000000000000 0.0000000000000000
1.0000000000000000 0.0000000000000000 0.0000000000000000
1.0000000000000000 0.0000000000000000 0.0000000000000000
1.0000000000000000 0.0000000000000000 0.0000000000000000
1.0000000000000000 0.0000000000000000 0.0000000000000000
1.0000000000000000 0.0000000000000000 0.0000000000000000
1.0000000000000000 0.0000000000000000 0.0000000000000000
1.0000000000000000 0.0000000000000000 0.0000000000000000
1.0000000000000000 0.0000000000000000 0.0000000000000000
1.0000000000000000 0.0000000000000000 0.0000000000000000
1.0000000000000000 0.0000000000000000 0.0000000000000000
1.0000000000000000 0.0000000000000000 0.0000000000000000
1.0000000000000000 0.0000000000000000 0.0000000000000000
1.0000000000000000 0.0000000000000000 0.0000000000000000
1.0000000000000000 0.0000000000000000 0.0000000000000000
1.0000000000000000 0.0000000000000000 0.0000000000000000
1.0000000000000000 0.0000000000000000 0.0000000000000000
1.0000000000000000 0.0000000000000000 0.0000000000000000
1.0000000000000000 0.0000000000000000 0.0000000000000000
1.0000000000000000 0.0000000000000000 0.0000000000000000
1.0000000000000000 0.0000000000000000 0.0000000000000000
1.0000000000000000 0.0000000000000000 0.0000000000000000
1.0000000000000000 0.0000000000000000 0.0000000000000000
1.0000000000000000 0.0000000000000000 0.0000000000000000
1.0000000000000000 0.0000000000000000 0.0000000000000000
1.0000000000000000 0.0000000000000000 0.0000000000000000
1.0000000000000000 0.0000000000000000 0.0000000000000000
1.0000000000000000 0.0000000000000000 0.0000000000000000
1.0000000000000000 0.0000000000000000 0.0000000000000000
1.0000000000000000 0.0000000000000000 0.0000000000000000
1.0000000000000000 0.0000000000000000 0.0000000000000000
1.0000000000000000 0.0000000000000000 0.0000000000000000
1.0000000000000000 0.0000000000000000 0.0000000000000000
1.0000000000000000 0.0000000000000000 0.0000000000000000
1.0000000000000000 0.0000000000000000 0.0000000000000000
1.0000000000000000 0.0000000000000000 0.0000000000000000
1.0000000000000000 0.0000000000000000 0.0000000000000000
1.0000000000000000 0.0000000000000000 0.0000000000000000
1.0000000000000000 0.0000000000000000 0.0000000000000000
1.0000000000000000 0.0000000000000000 0.0000000000000000
1.0000000000000000 0.0000000000000000 0.0000000000000000
1.0000000000000000 0.0000000000000000 0.0000000000000000
1.0000000000000000 0.0000000000000000 0.0000000000000000
1.0000000000000000 0.0000000000000000 0.0000000000000000
1.0000000000000000 0.0000000000000000 0.0000000000000000
1.0000000000000000 0.0000000000000000 0.0000000000000000
1.0000000000000000 0.0000000000000000 0.0000000000000000
1.0000000000000000 0.0000000000000000 0.0000000000000000
1.0000000000000000 0.0000000000000000 0.0000000000000000
1.0000000000000000 0.0000000000000000 0.0000000000000000
1.0000000000000000 0.0000000000000000 0.0000000000000000
1.0000000000000000 0.0000000000000000 0.0000000000000000
1.0000000000000000 0.0000000000000000 0.0000000000000000
1.0000000000000000 0.0000000000000000 0.0000000000000000
1.0000000000000000 0.0000000000000000 0.0000000000000000
1.0000000000000000 0.0000000000000000 0.0000000000000000
1.0000000000000000 0.0000000000000000 0.0000000000000000
1.0000000000000000 0.0000000000000000 0.0000000000000000
1.0000000000000000 0.0000000000000000 0.0000000000000000
1.0000000000000000 0.0000000000000000 0.0000000000000000
1.0000000000000000 0.0000000000000000 0.0000000000000000
1.0000000000000000 0.0000000000000000 0.0000000000000000
1.0000000000000000 0.0000000000000000 0.0000000000000000
1.0000000000000000 0.0000000000000000 0.0000000000000000
1.0000000000000000 0.0000000000000000 0.0000000000000000
1.0000000000000000 0.0000000000000000 0.0000000000000000
1.0000000000000000 0.0000000000000000 0.0000000000000000
1.0000000000000000 0.0000000000000000 0.0000000000000000
1.0000000000000000 0.0000000000000000 0.0000000000000000
1.0000000000000000 0.0000000000000000 0.0000000000000000
1.0000000000000000 0.0000000000000000 0.0000000000000000
1.0000000000000000 0.0000000000000000 0.0000000000000000
1.0000000000000000 0.0000000000000000 0.0000000000000000
1.0000000000000000 0.0000000000000000 0.0000000000000000
1.0000000000000000 0.0000000000000000 0.0000000000000000
1.0000000000000000 0.0000000000000000 0.0000000000000000
1.0000000000000000 0.0000000000000000 0.0000000000000000
1.0000000000000000 0.0000000000000000 0.0000000000000000
1.0000000000000000 0.0000000000000000 0.0000000000000000
1.0000000000000000 0.0000000000000000 0.0000000000000000
1.0000000000000000 0.0000000000000000 0.0000000000000000
1.0000000000000000 0.0000000000000000 0.0000000000000000
1.0000000000000000 0.0000000000000000 0.0000000000000000
1.0000000000000000 0.0000000000000000 0.0000000000000000
1.0000000000000000 0.0000000000000000 0.0000000000000000
1.0000000000000000 0.0000000000000000 0.0000000000000000
1.0000000000000000 0.0000000000000000 0.0000000000000000
1.0000000000000000 0.0000000000000000 0.0000000000000000
1.0000000000000000 0.0000000000000000 0.0000000000000000
1.0000000000000000 0.0000000000000000 0.0000000000000000
1.0000000000000000 0.0000000000000000 0.0000000000000000
1.0000000000000000 0.0000000000000000 0.0000000000000000
1.0000000000000000 0.0000000000000000 0.0000000000000000
1.0000000000000000 0.0000000000000000 0.0000000000000000
1.0000000000000000 0.0000000000000000 0.0000000000000000
1.0000000000000000 0.0000000000000000 0.0000000000000000
1.0000000000000000 0.0000000000000000 0.0000000000000000
1.0000000000000000 0.0000000000000000 0.0000000000000000
1.0000000000000000 0.0000000000000000 0.0000000000000000
1.0000000000000000 0.0000000000000000 0.0000000000000000
1.0000000000000000 0.0000000000000000 0.0000000000000000
1.0000000000000000 0.0000000000000000 0.0000000000000000
1.0000000000000000 0.0000000000000000 0.0000000000000000
1.0000000000000000 0.0000000000000000 0.0000000000000000
1.0000000000000000 0.0000000000000000 0.0000000000000000
1.0000000000000000 0.0000000000000000 0.0000000000000000
1.0000000000000000 0.0000000000000000 0.0000000000000000
1.0000000000000000 0.0000000000000000 0.0000000000000000
1.0000000000000000 0.0000000000000000 0.0000000000000000
1.0000000000000000 0.0000000000000000 0.0000000000000000
1.0000000000000000 0.0000000000000000 0.0000000000000000
1.0000000000000000 0.0000000000000000 0.0000000000000000
1.0000000000000000 0.0000000000000000 0.0000000000000000
1.0000000000000000 0.0000000000000000 0.0000000000000000
1.0000000000000000 0.0000000000000000 0.0000000000000000
1.0000000000000000 0.0000000000000000 0.0000000000000000
1.0000000000000000 0.0000000000000000 0.0000000000000000
1.0000000000000000 0.0000000000000000 0.0000000000000000
1.0000000000000000 0.0000000000000000 0.0000000000000000
1.0000000000000000 0.0000000000000000 0.0000000000000000
1.0000000000000000 0.0000000000000000 0.0000000000000000
1.0000000000000000 0.0000000000000000 0.0000000000000000
1.0000000000000000 0.0000000000000000 0.0000000000000000
1.0000000000000000 0.0000000000000000 0.0000000000000000
1.0000000000000000 0.0000000000000000 0.0000000000000000
1.0000000000000000 0.0000000000000000 0.0000000000000000
1.0000000000000000 0.0000000000000000 0.0000000000000000
1.0000000000000000 0.0000000000000000 0.0000000000000000
1.0000000000000000 0.0000000000000000 0.0000000000000000
1.0000000000000000 0.0000000000000000 0.0000000000000000
1.0000000000000000 0.0000000000000000 0.0000000000000000
1.0000000000000000 0.0000000000000000 0.0000000000000000
1.0000000000000000 0.0000000000000000 0.0000000000000000
1.0000000000000000 0.0000000000000000 0.0000000000000000
1.0000000000000000 0.0000000000000000 0.0000000000000000
1.0000000000000000 0.0000000000000000 0.0000000000000000
1.0000000000000000 0.0000000000000000 0.0000000000000000
1.0000000000000000 0.0000000000000000 0.0000000000000000
1.0000000000000000 0.0000000000000000 0.0000000000000000
1.0000000000000000 0.0000000000000000 0.0000000000000000
1.0000000000000000 0.0000000000000000 0.0000000000000000
1.0000000000000000 0.0000000000000000 0.0000000000000000
1.0000000000000000 0.0000000000000000 0.0000000000000000
1.0000000000000000 0.0000000000000000 0.0000000000000000
1.0000000000000000 0.0000000000000000 0.0000000000000000
1.0000000000000000 0.0000000000000000 0.0000000000000000
1.0000000000000000 0.0000000000000000 0.0000000000000000
1.0000000000000000 0.0000000000000000 0.0000000000000000
1.0000000000000000 0.0000000000000000 0.0000000000000000
1.0000000000000000 0.0000000000000000 0.0000000000000000
1.0000000000000000 0.0000000000000000 0.0000000000000000
1.0000000000000000 0.0000000000000000 0.0000000000000000
1.0000000000000000 0.0000000000000000 0.0000000000000000
1.0000000000000000 0.0000000000000000 0.0000000000000000
1.0000000000000000 0.0000000000000000 0.0000000000000000
1.0000000000000000 0.0000000000000000 0.0000000000000000
1.0000000000000000 0.0000000000000000 0.0000000000000000
1.0000000000000000 0.0000000000000000 0.0000000000000000
1.0000000000000000 0.0000000000000000 0.0000000000000000
1.0000000000000000 0.0000000000000000 0.0000000000000000
1.0000000000000000 0.0000000000000000 0.0000000000000000
1.0000000000000000 0.0000000000000000 0.0000000000000000
1.0000000000000000 0.0000000000000000 0.0000000000000000
1.0000000000000000 0.0000000000000000 0.0000000000000000
1.0000000000000000 0.0000000000000000 0.0000000000000000
1.0000000000000000 0.0000000000000000 0.0000000000000000
1.0000000000000000 0.0000000000000000 0.0000000000000000
1.0000000000000000 0.0000000000000000 0.0000000000000000
1.0000000000000000 0.0000000000000000 0.0000000000000000
1.0000000000000000 0.0000000000000000 0.0000000000000000
1.0000000000000000 0.0000000000000000 0.0000000000000000
1.0000000000000000 0.0000000000000000 0.0000000000000000
1.0000000000000000 0.0000000000000000 0.0000000000000000
1.0000000000000000 0.0000000000000000 0.0000000000000000
1.0000000000000000 0.0000000000000000 0.0000000000000000
1.0000000000000000 0.0000000000000000 0.0000000000000000
1.0000000000000000 0.0000000000000000 0.0000000000000000
1.0000000000000000 0.0000000000000000 0.0000000000000000
1.0000000000000000 0.0000000000000000 0.0000000000000000
1.0000000000000000 0.0000000000000000 0.0000000000000000
1.0000000000000000 0.0000000000000000 0.0000000000000000
1.0000000000000000 0.0000000000000000 0.0000000000000000
1.0000000000000000 0.0000000000000000 0.0000000000000000
1.0000000000000000 0.0000000000000000 0.0000000000000000
1.0000000000000000 0.0000000000000000 0.0000000000000000
1.0000000000000000 0.0000000000000000 0.0000000000000000
1.0000000000000000 0.0000000000000000 0.0000000000000000
1.0000000000000000 0.0000000000000000 0.0000000000000000
1.0000000000000000 0.0000000000000000 0.0000000000000000
1.0000000000000000 0.0000000000000000 0.0000000000000000
1.0000000000000000 0.0000000000000000 0.0000000000000000
1.0000000000000000 0.0000000000000000 0.0000000000000000
1.0000000000000000 0.0000000000000000 0.0000000000000000
1.0000000000000000 0.0000000000000000 0.0000000000000000
1.0000000000000000 0.0000000000000000 0.0000000000000000
1.0000000000000000 0.0000000000000000 0.0000000000000000
1.0000000000000000 0.0000000000000000 0.0000000000000000
1.0000000000000000 0.0000000000000000 0.0000000000000000
1.0000000000000000 0.0000000000000000 0.0000000000000000
1.0000000000000000 0.0000000000000000 0.0000000000000000
1.0000000000000000 0.0000000000000000 0.0000000000000000
1.0000000000000000 0.0000000000000000 0.0000000000000000
1.0000000000000000 0.0000000000000000 0.0000000000000000
1.0000000000000000 0.0000000000000000 0.0000000000000000
1.0000000000000000 0.0000000000000000 0.0000000000000000
1.0000000000000000 0.0000000000000000 0.0000000000000000
1.0000000000000000 0.0000000000000000 0.0000000000000000
1.0000000000000000 0.0000000000000000 0.0000000000000000
1.0000000000000000 0.0000000000000000 0.0000000000000000
1.0000000000000000 0.0000000000000000 0.0000000000000000
1.0000000000000000 0.0000000000000000 0.0000000000000000
1.0000000000000000 0.0000000000000000 0.0000000000000000
1.0000000000000000 0.0000000000000000 0.0000000000000000
1.0000000000000000 0.0000000000000000 0.0000000000000000
1.0000000000000000 0.0000000000000000 0.0000000000000000
1.0000000000000000 0.0000000000000000 0.0000000000000000
1.0000000000000000 0.0000000000000000 0.0000000000000000
1.0000000000000000 0.0000000000000000 0.0000000000000000
1.0000000000000000 0.0000000000000000 0.0000000000000000
1.0000000000000000 0.0000000000000000 0.0000000000000000
1.0000000000000000 0.0000000000000000 0.0000000000000000
1.0000000000000000 0.0000000000000000 0.0000000000000000
1.0000000000000000 0.0000000000000000 0.0000000000000000
1.0000000000000000 0.0000000000000000 0.0000000000000000
1.0000000000000000 0.0000000000000000 0.0000000000000000
1.0000000000000000 0.0000000000000000 0.0000000000000000
1.0000000000000000 0.0000000000000000 0.0000000000000000
1.0000000000000000 0.0000000000000000 0.0000000000000000
1.0000000000000000 0.0000000000000000 0.0000000000000000
1.0000000000000000 0.0000000000000000 0.0000000000000000
1.0000000000000000 0.0000000000000000 0.0000000000000000
1.0000000000000000 0.0000000000000000 0.0000000000000000
1.0000000000000000 0.0000000000000000 0.0000000000000000
1.0000000000000000 0.0000000000000000 0.0000000000000000
1.0000000000000000 0.0000000000000000 0.0000000000000000
1.0000000000000000 0.0000000000000000 0.0000000000000000
1.0000000000000000 0.0000000000000000 0.0000000000000000
1.0000000000000000 0.0000000000000000 0.0000000000000000
1.0000000000000000 0.0000000000000000 0.0000000000000000
1.0000000000000000 0.0000000000000000 0.0000000000000000
1.0000000000000000 0.0000000000000000 0.0000000000000000
1.0000000000000000 0.0000000000000000 0.0000000000000000
1.0000000000000000 0.0000000000000000 0.0000000000000000
1.0000000000000000 0.0000000000000000 0.0000000000000000
1.0000000000000000 0.0000000000000000 0.0000000000000000
1.0000000000000000 0.0000000000000000 0.0000000000000000
1.0000000000000000 0.0000000000000000 0.0000000000000000
1.0000000000000000 0.0000000000000000 0.0000000000000000
1.0000000000000000 0.0000000000000000 0.0000000000000000
1.0000000000000000 0.0000000000000000 0.0000000000000000
1.0000000000000000 0.0000000000000000 0.0000000000000000
1.0000000000000000 0.0000000000000000 0.0000000000000000
1.0000000000000000 0.0000000000000000 0.0000000000000000
1.0000000000000000 0.0000000000000000 0.0000000000000000
1.0000000000000000 0.0000000000000000 0.0000000000000000
1.0000000000000000 0.0000000000000000 0.0000000000000000
1.0000000000000000 0.0000000000000000 0.0000000000000000
1.0000000000000000 0.0000000000000000 0.0000000000000000
1.0000000000000000 0.0000000000000000 0.0000000000000000
1.0000000000000000 0.0000000000000000 0.0000000000000000
1.0000000000000000 0.0000000000000000 0.0000000000000000
1.0000000000000000 0.0000000000000000 0.0000000000000000
1.0000000000000000 0.0000000000000000 0.0000000000000000
1.0000000000000000 0.0000000000000000 0.0000000000000000
1.0000000000000000 0.0000000000000000 0.0000000000000000
1.0000000000000000 0.0000000000000000 0.0000000000000000
1.0000000000000000 0.0000000000000000 0.0000000000000000
1.0000000000000000 0.0000000000000000 0.0000000000000000
1.0000000000000000 0.0000000000000000 0.0000000000000000
1.0000000000000000 0.0000000000000000 0.0000000000000000
1.0000000000000000 0.0000000000000000 0.0000000000000000
1.0000000000000000 0.0000000000000000 0.0000000000000000
1.0000000000000000 0.0000000000000000 0.0000000000000000
1.0000000000000000 0.0000000000000000 0.0000000000000000
1.0000000000000000 0.0000000000000000 0.0000000000000000
1.0000000000000000 0.0000000000000000 0.0000000000000000
1.0000000000000000 0.0000000000000000 0.0000000000000000
1.0000000000000000 0.0000000000000000 0.0000000000000000
1.0000000000000000 0.0000000000000000 0.0000000000000000
1.0000000000000000 0.0000000000000000 0.0000000000000000
1.0000000000000000 0.0000000000000000 0.0000000000000000
1.0000000000000000 0.0000000000000000 0.0000000000000000
1.0000000000000000 0.0000000000000000 0.0000000000000000
1.0000000000000000 0.0000000000000000 0.0000000000000000
1.0000000000000000 0.0000000000000000 0.0000000000000000
1.0000000000000000 0.0000000000000000 0.0000000000000000
1.0000000000000000 0.0000000000000000 0.0000000000000000
1.0000000000000000 0.0000000000000000 0.0000000000000000
1.0000000000000000 0.0000000000000000 0.0000000000000000
1.0000000000000000 0.0000000000000000 0.0000000000000000
1.0000000000000000 0.0000000000000000 0.0000000000000000
1.0000000000000000 0.0000000000000000 0.0000000000000000
1.0000000000000000 0.0000000000000000 0.0000000000000000
1.0000000000000000 0.0000000000000000 0.0000000000000000
1.0000000000000000 0.0000000000000000 0.0000000000000000
1.0000000000000000 0.0000000000000000 0.0000000000000000
1.0000000000000000 0.0000000000000000 0.0000000000000000
1.0000000000000000 0.0000000000000000 0.0000000000000000
1.0000000000000000 0.0000000000000000 0.0000000000000000
1.0000000000000000 0.0000000000000000 0.0000000000000000
1.0000000000000000 0.0000000000000000 0.0000000000000000
1.0000000000000000 0.0000000000000000 0.0000000000000000
1.0000000000000000 0.0000000000000000 0.0000000000000000
1.0000000000000000 0.0000000000000000 0.0000000000000000
1.0000000000000000 0.0000000000000000 0.0000000000000000
1.0000000000000000 0.0000000000000000 0.0000000000000000
1.0000000000000000 0.0000000000000000 0.0000000000000000
1.0000000000000000 0.0000000000000000 0.0000000000000000
1.0000000000000000 0.0000000000000000 0.0000000000000000
1.0000000000000000 0.0000000000000000 0.0000000000000000
1.0000000000000000 0.0000000000000000 0.0000000000000000
1.0000000000000000 0.0000000000000000 0.0000000000000000
1.0000000000000000 0.0000000000000000 0.0000000000000000
1.0000000000000000 0.0000000000000000 0.0000000000000000
1.0000000000000000 0.0000000000000000 0.0000000000000000
1.0000000000000000 0.0000000000000000 0.0000000000000000
1.0000000000000000 0.0000000000000000 0.0000000000000000
1.0000000000000000 0.0000000000000000 0.0000000000000000
1.0000000000000000 0.0000000000000000 0.0000000000000000
1.0000000000000000 0.0000000000000000 0.0000000000000000
1.0000000000000000 0.0000000000000000 0.0000000000000000
1.0000000000000000 0.0000000000000000 0.0000000000000000
1.0000000000000000 0.0000000000000000 0.0000000000000000
1.0000000000000000 0.0000000000000000 0.0000000000000000
1.0000000000000000 0.0000000000000000 0.0000000000000000
1.0000000000000000 0.0000000000000000 0.0000000000000000
1.0000000000000000 0.0000000000000000 0.0000000000000000
1.0000000000000000 0.0000000000000000 0.0000000000000000
1.0000000000000000 0.0000000000000000 0.0000000000000000
1.0000000000000000 0.0000000000000000 0.0000000000000000
1.0000000000000000 0.0000000000000000 0.0000000000000000
1.0000000000000000 0.0000000000000000 0.0000000000000000
1.0000000000000000 0.0000000000000000 0.0000000000000000
1.0000000000000000 0.0000000000000000 0.0000000000000000
1.0000000000000000 0.0000000000000000 0.0000000000000000
1.0000000000000000 0.0000000000000000 0.0000000000000000
1.0000000000000000 0.0000000000000000 0.0000000000000000
1.0000000000000000 0.0000000000000000 0.0000000000000000
1.0000000000000000 0.0000000000000000 0.0000000000000000
1.0000000000000000 0.0000000000000000 0.0000000000000000
1.0000000000000000 0.0000000000000000 0.0000000000000000
1.0000000000000000 0.0000000000000000 0.0000000000000000
1.0000000000000000 0.0000000000000000 0.0000000000000000
1.0000000000000000 0.0000000000000000 0.0000000000000000
1.0000000000000000 0.0000000000000000 0.0000000000000000
1.0000000000000000 0.0000000000000000 0.0000000000000000
1.0000000000000000 0.0000000000000000 0.0000000000000000
1.0000000000000000 0.0000000000000000 0.0000000000000000
1.0000000000000000 0.0000000000000000 0.0000000000000000
1.0000000000000000 0.0000000000000000 0.0000000000000000
1.0000000000000000 0.0000000000000000 0.0000000000000000
1.0000000000000000 0.0000000000000000 0.0000000000000000
1.0000000000000000 0.0000000000000000 0.0000000000000000
1.0000000000000000 0.0000000000000000 0.0000000000000000
1.0000000000000000 0.0000000000000000 0.0000000000000000
1.0000000000000000 0.0000000000000000 0.0000000000000000
1.0000000000000000 0.0000000000000000 0.0000000000000000
1.0000000000000000 0.0000000000000000 0.0000000000000000
1.0000000000000000 0.0000000000000000 0.0000000000000000
1.0000000000000000 0.0000000000000000 0.0000000000000000
1.0000000000000000 0.0000000000000000 0.0000000000000000
1.0000000000000000 0.0000000000000000 0.0000000000000000
1.0000000000000000 0.0000000000000000 0.0000000000000000
1.0000000000000000 0.0000000000000000 0.0000000000000000
1.0000000000000000 0.0000000000000000 0.0000000000000000
1.0000000000000000 0.0000000000000000 0.0000000000000000
1.0000000000000000 0.0000000000000000 0.0000000000000000
1.0000000000000000 0.0000000000000000 0.0000000000000000
1.0000000000000000 0.0000000000000000 0.0000000000000000
1.0000000000000000 0.0000000000000000 0.0000000000000000
1.0000000000000000 0.0000000000000000 0.0000000000000000
1.0000000000000000 0.0000000000000000 0.0000000000000000
1.0000000000000000 0.0000000000000000 0.0000000000000000
1.0000000000000000 0.0000000000000000 0.0000000000000000
1.0000000000000000 0.0000000000000000 0.0000000000000000
1.0000000000000000 0.0000000000000000 0.0000000000000000
1.0000000000000000 0.0000000000000000 0.0000000000000000
1.0000000000000000 0.0000000000000000 0.0000000000000000
1.0000000000000000 0.0000000000000000 0.0000000000000000
1.0000000000000000 0.0000000000000000 0.0000000000000000
1.0000000000000000 0.0000000000000000 0.0000000000000000
1.0000000000000000 0.0000000000000000 0.0000000000000000
1.0000000000000000 0.0000000000000000 0.0000000000000000
1.0000000000000000 0.0000000000000000 0.0000000000000000
1.0000000000000000 0.0000000000000000 0.0000000000000000
1.0000000000000000 0.0000000000000000 0.0000000000000000
1.0000000000000000 0.0000000000000000 0.0000000000000000
1.0000000000000000 0.0000000000000000 0.0000000000000000
1.0000000000000000 0.0000000000000000 0.0000000000000000
1.0000000000000000 0.0000000000000000 0.0000000000000000
1.0000000000000000 0.0000000000000000 0.0000000000000000
1.0000000000000000 0.0000000000000000 0.0000000000000000
1.0000000000000000 0.0000000000000000 0.0000000000000000
1.0000000000000000 0.0000000000000000 0.0000000000000000
1.0000000000000000 0.0000000000000000 0.0000000000000000
1.0000000000000000 0.0000000000000000 0.0000000000000000
1.0000000000000000 0.0000000000000000 0.0000000000000000
1.0000000000000000 0.0000000000000000 0.0000000000000000
1.0000000000000000 0.0000000000000000 0.0000000000000000
1.0000000000000000 0.0000000000000000 0.0000000000000000
1.0000000000000000 0.0000000000000000 0.0000000000000000
1.0000000000000000 0.0000000000000000 0.0000000000000000
1.0000000000000000 0.0000000000000000 0.0000000000000000
1.0000000000000000 0.0000000000000000 0.0000000000000000
1.0000000000000000 0.0000000000000000 0.0000000000000000
1.0000000000000000 0.0000000000000000 0.0000000000000000
1.0000000000000000 0.0000000000000000 0.0000000000000000
1.0000000000000000 0.0000000000000000 0.0000000000000000
1.0000000000000000 0.0000000000000000 0.0000000000000000
1.0000000000000000 0.0000000000000000 0.0000000000000000
1.0000000000000000 0.0000000000000000 0.0000000000000000
1.0000000000000000 0.0000000000000000 0.0000000000000000
1.0000000000000000 0.0000000000000000 0.0000000000000000
1.0000000000000000 0.0000000000000000 0.0000000000000000
1.0000000000000000 0.0000000000000000 0.0000000000000000
1.0000000000000000 0.0000000000000000 0.0000000000000000
1.0000000000000000 0.0000000000000000 0.0000000000000000
1.0000000000000000 0.0000000000000000 0.0000000000000000
1.0000000000000000 0.0000000000000000 0.0000000000000000
1.0000000000000000 0.0000000000000000 0.0000000000000000
1.0000000000000000 0.0000000000000000 0.0000000000000000
1.0000000000000000 0.0000000000000000 0.0000000000000000
1.0000000000000000 0.0000000000000000 0.0000000000000000
1.0000000000000000 0.0000000000000000 0.0000000000000000
1.0000000000000000 0.0000000000000000 0.0000000000000000
1.0000000000000000 0.0000000000000000 0.0000000000000000
1.0000000000000000 0.0000000000000000 0.0000000000000000
1.0000000000000000 0.0000000000000000 0.0000000000000000
1.0000000000000000 0.0000000000000000 0.0000000000000000
1.0000000000000000 0.0000000000000000 0.0000000000000000
1.0000000000000000 0.0000000000000000 0.0000000000000000
1.0000000000000000 0.0000000000000000 0.0000000000000000
1.0000000000000000 0.0000000000000000 0.0000000000000000
1.0000000000000000 0.0000000000000000 0.0000000000000000
1.0000000000000000 0.0000000000000000 0.0000000000000000
1.0000000000000000 0.0000000000000000 0.0000000000000000
1.0000000000000000 0.0000000000000000 0.0000000000000000
1.0000000000000000 0.0000000000000000 0.0000000000000000
1.0000000000000000 0.0000000000000000 0.0000000000000000
1.0000000000000000 0.0000000000000000 0.0000000000000000
1.0000000000000000 0.0000000000000000 0.0000000000000000
1.0000000000000000 0.0000000000000000 0.0000000000000000
1.0000000000000000 0.0000000000000000 0.0000000000000000
1.0000000000000000 0.0000000000000000 0.0000000000000000
1.0000000000000000 0.0000000000000000 0.0000000000000000
1.0000000000000000 0.0000000000000000 0.0000000000000000
1.0000000000000000 0.0000000000000000 0.0000000000000000
1.0000000000000000 0.0000000000000000 0.0000000000000000
1.0000000000000000 0.0000000000000000 0.0000000000000000
1.0000000000000000 0.0000000000000000 0.0000000000000000
1.0000000000000000 0.0000000000000000 0.0000000000000000
1.0000000000000000 0.0000000000000000 0.0000000000000000
1.0000000000000000 0.0000000000000000 0.0000000000000000
1.0000000000000000 0.0000000000000000 0.0000000000000000
1.0000000000000000 0.0000000000000000 0.0000000000000000
1.0000000000000000 0.0000000000000000 0.0000000000000000
1.0000000000000000 0.0000000000000000 0.0000000000000000
1.0000000000000000 0.0000000000000000 0.0000000000000000
1.0000000000000000 0.0000000000000000 0.0000000000000000
1.0000000000000000 0.0000000000000000 0.0000000000000000
1.0000000000000000 0.0000000000000000 0.0000000000000000
1.0000000000000000 0.0000000000000000 0.0000000000000000
1.0000000000000000 0.0000000000000000 0.0000000000000000
1.0000000000000000 0.0000000000000000 0.0000000000000000
1.0000000000000000 0.0000000000000000 0.0000000000000000
1.0000000000000000 0.0000000000000000 0.0000000000000000
1.0000000000000000 0.0000000000000000 0.0000000000000000
1.0000000000000000 0.0000000000000000 0.0000000000000000
1.0000000000000000 0.0000000000000000 0.0000000000000000
1.0000000000000000 0.0000000000000000 0.0000000000000000
1.0000000000000000 0.0000000000000000 0.0000000000000000
1.0000000000000000 0.0000000000000000 0.0000000000000000
1.0000000000000000 0.0000000000000000 0.0000000000000000
1.0000000000000000 0.0000000000000000 0.0000000000000000
1.0000000000000000 0.0000000000000000 0.0000000000000000
1.0000000000000000 0.0000000000000000 0.0000000000000000
1.0000000000000000 0.0000000000000000 0.0000000000000000
1.0000000000000000 0.0000000000000000 0.0000000000000000
1.0000000000000000 0.0000000000000000 0.0000000000000000
1.0000000000000000 0.0000000000000000 0.0000000000000000
1.0000000000000000 0.0000000000000000 0.0000000000000000
1.0000000000000000 0.0000000000000000 0.0000000000000000
1.0000000000000000 0.0000000000000000 0.0000000000000000
1.0000000000000000 0.0000000000000000 0.0000000000000000
1.0000000000000000 0.0000000000000000 0.0000000000000000
1.0000000000000000 0.0000000000000000 0.0000000000000000
1.0000000000000000 0.0000000000000000 0.0000000000000000
1.0000000000000000 0.0000000000000000 0.0000000000000000
1.0000000000000000 0.0000000000000000 0.0000000000000000
1.0000000000000000 0.0000000000000000 0.0000000000000000
1.0000000000000000 0.0000000000000000 0.0000000000000000
1.0000000000000000 0.0000000000000000 0.0000000000000000
1.0000000000000000 0.0000000000000000 0.0000000000000000
1.0000000000000000 0.0000000000000000 0.0000000000000000
1.0000000000000000 0.0000000000000000 0.0000000000000000
1.0000000000000000 0.0000000000000000 0.0000000000000000
1.0000000000000000 0.0000000000000000 0.0000000000000000
1.0000000000000000 0.0000000000000000 0.0000000000000000
1.0000000000000000 0.0000000000000000 0.0000000000000000
1.0000000000000000 0.0000000000000000 0.0000000000000000
1.0000000000000000 0.0000000000000000 0.0000000000000000
1.0000000000000000 0.0000000000000000 0.0000000000000000
1.0000000000000000 0.0000000000000000 0.0000000000000000
1.0000000000000000 0.0000000000000000 0.0000000000000000
1.0000000000000000 0.0000000000000000 0.0000000000000000
1.0000000000000000 0.0000000000000000 0.0000000000000000
1.0000000000000000 0.0000000000000000 0.0000000000000000
1.0000000000000000 0.0000000000000000 0.0000000000000000
1.0000000000000000 0.0000000000000000 0.0000000000000000
1.0000000000000000 0.0000000000000000 0.0000000000000000
1.0000000000000000 0.0000000000000000 0.0000000000000000
1.0000000000000000 0.0000000000000000 0.0000000000000000
1.0000000000000000 0.0000000000000000 0.0000000000000000
1.0000000000000000 0.0000000000000000 0.0000000000000000
1.0000000000000000 0.0000000000000000 0.0000000000000000
1.0000000000000000 0.0000000000000000 0.0000000000000000
1.0000000000000000 0.0000000000000000 0.0000000000000000
1.0000000000000000 0.0000000000000000 0.0000000000000000
1.0000000000000000 0.0000000000000000 0.0000000000000000
1.0000000000000000 0.0000000000000000 0.0000000000000000
1.0000000000000000 0.0000000000000000 0.0000000000000000
1.0000000000000000 0.0000000000000000 0.0000000000000000
1.0000000000000000 0.0000000000000000 0.0000000000000000
1.0000000000000000 0.0000000000000000 0.0000000000000000
1.0000000000000000 0.0000000000000000 0.0000000000000000
1.0000000000000000 0.0000000000000000 0.0000000000000000
1.0000000000000000 0.0000000000000000 0.0000000000000000
1.0000000000000000 0.0000000000000000 0.0000000000000000
1.0000000000000000 0.0000000000000000 0.0000000000000000
1.0000000000000000 0.0000000000000000 0.0000000000000000
1.0000000000000000 0.0000000000000000 0.0000000000000000
1.0000000000000000 0.0000000000000000 0.0000000000000000
1.0000000000000000 0.0000000000000000 0.0000000000000000
1.0000000000000000 0.0000000000000000 0.0000000000000000
1.0000000000000000 0.0000000000000000 0.0000000000000000
1.0000000000000000 0.0000000000000000 0.0000000000000000
1.0000000000000000 0.0000000000000000 0.0000000000000000
1.0000000000000000 0.0000000000000000 0.0000000000000000
1.0000000000000000 0.0000000000000000 0.0000000000000000
1.0000000000000000 0.0000000000000000 0.0000000000000000
1.0000000000000000 0.0000000000000000 0.0000000000000000
1.0000000000000000 0.0000000000000000 0.0000000000000000
1.0000000000000000 0.0000000000000000 0.0000000000000000
1.0000000000000000 0.0000000000000000 0.0000000000000000
1.0000000000000000 0.0000000000000000 0.0000000000000000
1.0000000000000000 0.0000000000000000 0.0000000000000000
1.0000000000000000 0.0000000000000000 0.0000000000000000
1.0000000000000000 0.0000000000000000 0.0000000000000000
1.0000000000000000 0.0000000000000000 0.0000000000000000
1.0000000000000000 0.0000000000000000 0.0000000000000000
1.0000000000000000 0.0000000000000000 0.0000000000000000
1.0000000000000000 0.0000000000000000 0.0000000000000000
1.0000000000000000 0.0000000000000000 0.0000000000000000
1.0000000000000000 0.0000000000000000 0.0000000000000000
1.0000000000000000 0.0000000000000000 0.0000000000000000
1.0000000000000000 0.0000000000000000 0.0000000000000000
1.0000000000000000 0.0000000000000000 0.0000000000000000
1.0000000000000000 0.0000000000000000 0.0000000000000000
1.0000000000000000 0.0000000000000000 0.0000000000000000
1.0000000000000000 0.0000000000000000 0.0000000000000000
1.0000000000000000 0.0000000000000000 0.0000000000000000
1.0000000000000000 0.0000000000000000 0.0000000000000000
1.0000000000000000 0.0000000000000000 0.0000000000000000
1.0000000000000000 0.0000000000000000 0.0000000000000000
1.0000000000000000 0.0000000000000000 0.0000000000000000
1.0000000000000000 0.0000000000000000 0.0000000000000000
1.0000000000000000 0.0000000000000000 0.0000000000000000
1.0000000000000000 0.0000000000000000 0.0000000000000000
1.0000000000000000 0.0000000000000000 0.0000000000000000
1.0000000000000000 0.0000000000000000 0.0000000000000000
1.0000000000000000 0.0000000000000000 0.0000000000000000
1.0000000000000000 0.0000000000000000 0.0000000000000000
1.0000000000000000 0.0000000000000000 0.0000000000000000
1.0000000000000000 0.0000000000000000 0.0000000000000000
1.0000000000000000 0.0000000000000000 0.0000000000000000
1.0000000000000000 0.0000000000000000 0.0000000000000000
1.0000000000000000 0.0000000000000000 0.0000000000000000
1.0000000000000000 0.0000000000000000 0.0000000000000000
1.0000000000000000 0.0000000000000000 0.0000000000000000
1.0000000000000000 0.0000000000000000 0.0000000000000000
1.0000000000000000 0.0000000000000000 0.0000000000000000
1.0000000000000000 0.0000000000000000 0.0000000000000000
1.0000000000000000 0.0000000000000000 0.0000000000000000
1.0000000000000000 0.0000000000000000 0.0000000000000000
1.0000000000000000 0.0000000000000000 0.0000000000000000
1.0000000000000000 0.0000000000000000 0.0000000000000000
1.0000000000000000 0.0000000000000000 0.0000000000000000
1.0000000000000000 0.0000000000000000 0.0000000000000000
1.0000000000000000 0.0000000000000000 0.0000000000000000
1.0000000000000000 0.0000000000000000 0.0000000000000000
1.0000000000000000 0.0000000000000000 0.0000000000000000
1.0000000000000000 0.0000000000000000 0.0000000000000000
1.0000000000000000 0.0000000000000000 0.0000000000000000
1.0000000000000000 0.0000000000000000 0.0000000000000000
1.0000000000000000 0.0000000000000000 0.0000000000000000
1.0000000000000000 0.0000000000000000 0.0000000000000000
1.0000000000000000 0.0000000000000000 0.0000000000000000
1.0000000000000000 0.0000000000000000 0.0000000000000000
1.0000000000000000 0.0000000000000000 0.0000000000000000
1.0000000000000000 0.0000000000000000 0.0000000000000000
1.0000000000000000 0.0000000000000000 0.0000000000000000
1.0000000000000000 0.0000000000000000 0.0000000000000000
1.0000000000000000 0.0000000000000000 0.0000000000000000
1.0000000000000000 0.0000000000000000 0.0000000000000000
1.0000000000000000 0.0000000000000000 0.0000000000000000
1.0000000000000000 0.0000000000000000 0.0000000000000000
1.0000000000000000 0.0000000000000000 0.0000000000000000
1.0000000000000000 0.0000000000000000 0.0000000000000000
1.0000000000000000 0.0000000000000000 0.0000000000000000
1.0000000000000000 0.0000000000000000 0.0000000000000000
1.0000000000000000 0.0000000000000000 0.0000000000000000
1.0000000000000000 0.0000000000000000 0.0000000000000000
1.0000000000000000 0.0000000000000000 0.0000000000000000
1.0000000000000000 0.0000000000000000 0.0000000000000000
1.0000000000000000 0.0000000000000000 0.0000000000000000
1.0000000000000000 0.0000000000000000 0.0000000000000000
1.0000000000000000 0.0000000000000000 0.0000000000000000
1.0000000000000000 0.0000000000000000 0.0000000000000000
1.0000000000000000 0.0000000000000000 0.0000000000000000
1.0000000000000000 0.0000000000000000 0.0000000000000000
1.0000000000000000 0.0000000000000000 0.0000000000000000
1.0000000000000000 0.0000000000000000 0.0000000000000000
1.0000000000000000 0.0000000000000000 0.0000000000000000
1.0000000000000000 0.0000000000000000 0.0000000000000000
1.0000000000000000 0.0000000000000000 0.0000000000000000
1.0000000000000000 0.0000000000000000 0.0000000000000000
1.0000000000000000 0.0000000000000000 0.0000000000000000
1.0000000000000000 0.0000000000000000 0.0000000000000000
1.0000000000000000 0.0000000000000000 0.0000000000000000
1.0000000000000000 0.0000000000000000 0.0000000000000000
1.0000000000000000 0.0000000000000000 0.0000000000000000
1.0000000000000000 0.0000000000000000 0.0000000000000000
1.0000000000000000 0.0000000000000000 0.0000000000000000
1.0000000000000000 0.0000000000000000 0.0000000000000000
1.0000000000000000 0.0000000000000000 0.0000000000000000
1.0000000000000000 0.0000000000000000 0.0000000000000000
1.0000000000000000 0.0000000000000000 0.0000000000000000
1.0000000000000000 0.0000000000000000 0.0000000000000000
1.0000000000000000 0.0000000000000000 0.0000000000000000
1.0000000000000000 0.0000000000000000 0.0000000000000000
1.0000000000000000 0.0000000000000000 0.0000000000000000
1.0000000000000000 0.0000000000000000 0.0000000000000000
1.0000000000000000 0.0000000000000000 0.0000000000000000
1.0000000000000000 0.0000000000000000 0.0000000000000000
1.0000000000000000 0.0000000000000000 0.0000000000000000
1.0000000000000000 0.0000000000000000 0.0000000000000000
1.0000000000000000 0.0000000000000000 0.0000000000000000
1.0000000000000000 0.0000000000000000 0.0000000000000000
1.0000000000000000 0.0000000000000000 0.0000000000000000
1.0000000000000000 0.0000000000000000 0.0000000000000000
1.0000000000000000 0.0000000000000000 0.0000000000000000
1.0000000000000000 0.0000000000000000 0.0000000000000000
1.0000000000000000 0.0000000000000000 0.0000000000000000
1.0000000000000000 0.0000000000000000 0.0000000000000000
1.0000000000000000 0.0000000000000000 0.0000000000000000
1.0000000000000000 0.0000000000000000 0.0000000000000000
1.0000000000000000 0.0000000000000000 0.0000000000000000
1.0000000000000000 0.0000000000000000 0.0000000000000000
1.0000000000000000 0.0000000000000000 0.0000000000000000
1.0000000000000000 0.0000000000000000 0.0000000000000000
1.0000000000000000 0.0000000000000000 0.0000000000000000
1.0000000000000000 0.0000000000000000 0.0000000000000000
1.0000000000000000 0.0000000000000000 0.0000000000000000
1.0000000000000000 0.0000000000000000 0.0000000000000000
1.0000000000000000 0.0000000000000000 0.0000000000000000
1.0000000000000000 0.0000000000000000 0.0000000000000000
1.0000000000000000 0.0000000000000000 0.0000000000000000
1.0000000000000000 0.0000000000000000 0.0000000000000000
1.0000000000000000 0.0000000000000000 0.0000000000000000
1.0000000000000000 0.0000000000000000 0.0000000000000000
1.0000000000000000 0.0000000000000000 0.0000000000000000
1.0000000000000000 0.0000000000000000 0.0000000000000000
1.0000000000000000 0.0000000000000000 0.0000000000000000
1.0000000000000000 0.0000000000000000 0.0000000000000000
1.0000000000000000 0.0000000000000000 0.0000000000000000
1.0000000000000000 0.0000000000000000 0.0000000000000000
1.0000000000000000 0.0000000000000000 0.0000000000000000
1.0000000000000000 0.0000000000000000 0.0000000000000000
1.0000000000000000 0.0000000000000000 0.0000000000000000
1.0000000000000000 0.0000000000000000 0.0000000000000000
1.0000000000000000 0.0000000000000000 0.0000000000000000
1.0000000000000000 0.0000000000000000 0.0000000000000000
1.0000000000000000 0.0000000000000000 0.0000000000000000
1.0000000000000000 0.0000000000000000 0.0000000000000000
1.0000000000000000 0.0000000000000000 0.0000000000000000
1.0000000000000000 0.0000000000000000 0.0000000000000000
1.0000000000000000 0.0000000000000000 0.0000000000000000
1.0000000000000000 0.0000000000000000 0.0000000000000000
1.0000000000000000 0.0000000000000000 0.0000000000000000
1.0000000000000000 0.0000000000000000 0.0000000000000000
1.0000000000000000 0.0000000000000000 0.0000000000000000
1.0000000000000000 0.0000000000000000 0.0000000000000000
1.0000000000000000 0.0000000000000000 0.0000000000000000
1.0000000000000000 0.0000000000000000 0.0000000000000000
1.0000000000000000 0.0000000000000000 0.0000000000000000
1.0000000000000000 0.0000000000000000 0.0000000000000000
1.0000000000000000 0.0000000000000000 0.0000000000000000
1.0000000000000000 0.0000000000000000 0.0000000000000000
1.0000000000000000 0.0000000000000000 0.0000000000000000
1.0000000000000000 0.0000000000000000 0.0000000000000000
1.0000000000000000 0.0000000000000000 0.0000000000000000
1.0000000000000000 0.0000000000000000 0.0000000000000000
1.0000000000000000 0.0000000000000000 0.0000000000000000
1.0000000000000000 0.0000000000000000 0.0000000000000000
1.0000000000000000 0.0000000000000000 0.0000000000000000
1.0000000000000000 0.0000000000000000 0.0000000000000000
1.0000000000000000 0.0000000000000000 0.0000000000000000
1.0000000000000000 0.0000000000000000 0.0000000000000000
1.0000000000000000 0.0000000000000000 0.0000000000000000
1.0000000000000000 0.0000000000000000 0.0000000000000000
1.0000000000000000 0.0000000000000000 0.0000000000000000
1.0000000000000000 0.0000000000000000 0.0000000000000000
1.0000000000000000 0.0000000000000000 0.0000000000000000
1.0000000000000000 0.0000000000000000 0.0000000000000000
1.0000000000000000 0.0000000000000000 0.0000000000000000
1.0000000000000000 0.0000000000000000 0.0000000000000000
1.0000000000000000 0.0000000000000000 0.0000000000000000
1.0000000000000000 0.0000000000000000 0.0000000000000000
1.0000000000000000 0.0000000000000000 0.0000000000000000
1.0000000000000000 0.0000000000000000 0.0000000000000000
1.0000000000000000 0.0000000000000000 0.0000000000000000
1.0000000000000000 0.0000000000000000 0.0000000000000000
1.0000000000000000 0.0000000000000000 0.0000000000000000
1.0000000000000000 0.0000000000000000 0.0000000000000000
1.0000000000000000 0.0000000000000000 0.0000000000000000
1.0000000000000000 0.0000000000000000 0.0000000000000000
1.0000000000000000 0.0000000000000000 0.0000000000000000
1.0000000000000000 0.0000000000000000 0.0000000000000000
1.0000000000000000 0.0000000000000000 0.0000000000000000
1.0000000000000000 0.0000000000000000 0.0000000000000000
1.0000000000000000 0.0000000000000000 0.0000000000000000
1.0000000000000000 0.0000000000000000 0.0000000000000000
1.0000000000000000 0.0000000000000000 0.0000000000000000
1.0000000000000000 0.0000000000000000 0.0000000000000000
1.0000000000000000 0.0000000000000000 0.0000000000000000
1.0000000000000000 0.0000000000000000 0.0000000000000000
1.0000000000000000 0.0000000000000000 0.0000000000000000
1.0000000000000000 0.0000000000000000 0.0000000000000000
1.0000000000000000 0.0000000000000000 0.0000000000000000
1.0000000000000000 0.0000000000000000 0.0000000000000000
1.0000000000000000 0.0000000000000000 0.0000000000000000
1.0000000000000000 0.0000000000000000 0.0000000000000000
1.0000000000000000 0.0000000000000000 0.0000000000000000
1.0000000000000000 0.0000000000000000 0.0000000000000000
1.0000000000000000 0.0000000000000000 0.0000000000000000
1.0000000000000000 0.0000000000000000 0.0000000000000000
1.0000000000000000 0.0000000000000000 0.0000000000000000
1.0000000000000000 0.0000000000000000 0.0000000000000000
1.0000000000000000 0.0000000000000000 0.0000000000000000
1.0000000000000000 0.0000000000000000 0.0000000000000000
1.0000000000000000 0.0000000000000000 0.0000000000000000
1.0000000000000000 0.0000000000000000 0.0000000000000000
1.0000000000000000 0.0000000000000000 0.0000000000000000
1.0000000000000000 0.0000000000000000 0.0000000000000000
1.0000000000000000 0.0000000000000000 0.0000000000000000
1.0000000000000000 0.0000000000000000 0.0000000000000000
1.0000000000000000 0.0000000000000000 0.0000000000000000
1.0000000000000000 0.0000000000000000 0.0000000000000000
1.0000000000000000 0.0000000000000000 0.0000000000000000
1.0000000000000000 0.0000000000000000 0.0000000000000000
1.0000000000000000 0.0000000000000000 0.0000000000000000
1.0000000000000000 0.0000000000000000 0.0000000000000000
1.0000000000000000 0.0000000000000000 0.0000000000000000
1.0000000000000000 0.0000000000000000 0.0000000000000000
1.0000000000000000 0.0000000000000000 0.0000000000000000
1.0000000000000000 0.0000000000000000 0.0000000000000000
1.0000000000000000 0.0000000000000000 0.0000000000000000
1.0000000000000000 0.0000000000000000 0.0000000000000000
1.0000000000000000 0.0000000000000000 0.0000000000000000
1.0000000000000000 0.0000000000000000 0.0000000000000000
1.0000000000000000 0.0000000000000000 0.0000000000000000
1.0000000000000000 0.0000000000000000 0.0000000000000000
1.0000000000000000 0.0000000000000000 0.0000000000000000
1.0000000000000000 0.0000000000000000 0.0000000000000000
1.0000000000000000 0.0000000000000000 0.0000000000000000
1.0000000000000000 0.0000000000000000 0.0000000000000000
1.0000000000000000 0.0000000000000000 0.0000000000000000
1.0000000000000000 0.0000000000000000 0.0000000000000000
1.0000000000000000 0.0000000000000000 0.0000000000000000
1.0000000000000000 0.0000000000000000 0.0000000000000000
1.0000000000000000 0.0000000000000000 0.0000000000000000
1.0000000000000000 0.0000000000000000 0.0000000000000000
1.0000000000000000 0.0000000000000000 0.0000000000000000
1.0000000000000000 0.0000000000000000 0.0000000000000000
1.0000000000000000 0.0000000000000000 0.0000000000000000
1.0000000000000000 0.0000000000000000 0.0000000000000000
1.0000000000000000 0.0000000000000000 0.0000000000000000
1.0000000000000000 0.0000000000000000 0.0000000000000000
1.0000000000000000 0.0000000000000000 0.0000000000000000
1.0000000000000000 0.0000000000000000 0.0000000000000000
1.0000000000000000 0.0000000000000000 0.0000000000000000
1.0000000000000000 0.0000000000000000 0.0000000000000000
1.0000000000000000 0.0000000000000000 0.0000000000000000
1.0000000000000000 0.0000000000000000 0.0000000000000000
1.0000000000000000 0.0000000000000000 0.0000000000000000
1.0000000000000000 0.0000000000000000 0.0000000000000000
1.0000000000000000 0.0000000000000000 0.0000000000000000
1.0000000000000000 0.0000000000000000 0.0000000000000000
1.0000000000000000 0.0000000000000000 0.0000000000000000
1.0000000000000000 0.0000000000000000 0.0000000000000000
1.0000000000000000 0.0000000000000000 0.0000000000000000
1.0000000000000000 0.0000000000000000 0.0000000000000000
1.0000000000000000 0.0000000000000000 0.0000000000000000
1.0000000000000000 0.0000000000000000 0.0000000000000000
1.0000000000000000 0.0000000000000000 0.0000000000000000
1.0000000000000000 0.0000000000000000 0.0000000000000000
1.0000000000000000 0.0000000000000000 0.0000000000000000
1.0000000000000000 0.0000000000000000 0.0000000000000000
1.0000000000000000 0.0000000000000000 0.0000000000000000
1.0000000000000000 0.0000000000000000 0.0000000000000000
1.0000000000000000 0.0000000000000000 0.0000000000000000
1.0000000000000000 0.0000000000000000 0.0000000000000000
1.0000000000000000 0.0000000000000000 0.0000000000000000
1.0000000000000000 0.0000000000000000 0.0000000000000000
1.0000000000000000 0.0000000000000000 0.0000000000000000
1.0000000000000000 0.0000000000000000 0.0000000000000000
1.0000000000000000 0.0000000000000000 0.0000000000000000
1.0000000000000000 0.0000000000000000 0.0000000000000000
1.0000000000000000 0.0000000000000000 0.0000000000000000
1.0000000000000000 0.0000000000000000 0.0000000000000000
1.0000000000000000 0.0000000000000000 0.0000000000000000
1.0000000000000000 0.0000000000000000 0.0000000000000000
1.0000000000000000 0.0000000000000000 0.0000000000000000
1.0000000000000000 0.0000000000000000 0.0000000000000000
1.0000000000000000 0.0000000000000000 0.0000000000000000
1.0000000000000000 0.0000000000000000 0.0000000000000000
1.0000000000000000 0.0000000000000000 0.0000000000000000
1.0000000000000000 0.0000000000000000 0.0000000000000000
1.0000000000000000 0.0000000000000000 0.0000000000000000
1.0000000000000000 0.0000000000000000 0.0000000000000000
1.0000000000000000 0.0000000000000000 0.0000000000000000
1.0000000000000000 0.0000000000000000 0.0000000000000000
1.0000000000000000 0.0000000000000000 0.0000000000000000
1.0000000000000000 0.0000000000000000 0.0000000000000000
1.0000000000000000 0.0000000000000000 0.0000000000000000
1.0000000000000000 0.0000000000000000 0.0000000000000000
1.0000000000000000 0.0000000000000000 0.0000000000000000
1.0000000000000000 0.0000000000000000 0.0000000000000000
1.0000000000000000 0.0000000000000000 0.0000000000000000
1.0000000000000000 0.0000000000000000 0.0000000000000000
1.0000000000000000 0.0000000000000000 0.0000000000000000
1.0000000000000000 0.0000000000000000 0.0000000000000000
1.0000000000000000 0.0000000000000000 0.0000000000000000
1.0000000000000000 0.0000000000000000 0.0000000000000000
1.0000000000000000 0.0000000000000000 0.0000000000000000
1.0000000000000000 0.0000000000000000 0.0000000000000000
1.0000000000000000 0.0000000000000000 0.0000000000000000
1.0000000000000000 0.0000000000000000 0.0000000000000000
1.0000000000000000 0.0000000000000000 0.0000000000000000
1.0000000000000000 0.0000000000000000 0.0000000000000000
1.0000000000000000 0.0000000000000000 0.0000000000000000
1.0000000000000000 0.0000000000000000 0.0000000000000000
1.0000000000000000 0.0000000000000000 0.0000000000000000
1.0000000000000000 0.0000000000000000 0.0000000000000000
1.0000000000000000 0.0000000000000000 0.0000000000000000
1.0000000000000000 0.0000000000000000 0.0000000000000000
1.0000000000000000 0.0000000000000000 0.0000000000000000
1.0000000000000000 0.0000000000000000 0.0000000000000000
1.0000000000000000 0.0000000000000000 0.0000000000000000
1.0000000000000000 0.0000000000000000 0.0000000000000000
1.0000000000000000 0.0000000000000000 0.0000000000000000
1.0000000000000000 0.0000000000000000 0.0000000000000000
1.0000000000000000 0.0000000000000000 0.0000000000000000
1.0000000000000000 0.0000000000000000 0.0000000000000000
1.0000000000000000 0.0000000000000000 0.0000000000000000
1.0000000000000000 0.0000000000000000 0.0000000000000000
1.0000000000000000 0.0000000000000000 0.0000000000000000
1.0000000000000000 0.0000000000000000 0.0000000000000000
1.0000000000000000 0.0000000000000000 0.0000000000000000
1.0000000000000000 0.0000000000000000 0.0000000000000000
1.0000000000000000 0.0000000000000000 0.0000000000000000
1.0000000000000000 0.0000000000000000 0.0000000000000000
1.0000000000000000 0.0000000000000000 0.0000000000000000
1.0000000000000000 0.0000000000000000 0.0000000000000000
1.0000000000000000 0.0000000000000000 0.0000000000000000
1.0000000000000000 0.0000000000000000 0.0000000000000000
1.0000000000000000 0.0000000000000000 0.0000000000000000
1.0000000000000000 0.0000000000000000 0.0000000000000000
1.0000000000000000 0.0000000000000000 0.0000000000000000
1.0000000000000000 0.0000000000000000 0.0000000000000000
1.0000000000000000 0.0000000000000000 0.0000000000000000
1.0000000000000000 0.0000000000000000 0.0000000000000000
1.0000000000000000 0.0000000000000000 0.0000000000000000
1.0000000000000000 0.0000000000000000 0.0000000000000000
1.0000000000000000 0.0000000000000000 0.0000000000000000
1.0000000000000000 0.0000000000000000 0.0000000000000000
1.0000000000000000 0.0000000000000000 0.0000000000000000
1.0000000000000000 0.0000000000000000 0.0000000000000000
1.0000000000000000 0.0000000000000000 0.0000000000000000
1.0000000000000000 0.0000000000000000 0.0000000000000000
1.0000000000000000 0.0000000000000000 0.0000000000000000
1.0000000000000000 0.0000000000000000 0.0000000000000000
1.0000000000000000 0.0000000000000000 0.0000000000000000
1.0000000000000000 0.0000000000000000 0.0000000000000000
1.0000000000000000 0.0000000000000000 0.0000000000000000
1.0000000000000000 0.0000000000000000 0.0000000000000000
1.0000000000000000 0.0000000000000000 0.0000000000000000
1.0000000000000000 0.0000000000000000 0.0000000000000000
1.0000000000000000 0.0000000000000000 0.0000000000000000
1.0000000000000000 0.0000000000000000 0.0000000000000000
1.0000000000000000 0.0000000000000000 0.0000000000000000
1.0000000000000000 0.0000000000000000 0.0000000000000000
1.0000000000000000 0.0000000000000000 0.0000000000000000
1.0000000000000000 0.0000000000000000 0.0000000000000000
1.0000000000000000 0.0000000000000000 0.0000000000000000
1.0000000000000000 0.0000000000000000 0.0000000000000000
1.0000000000000000 0.0000000000000000 0.0000000000000000
1.0000000000000000 0.0000000000000000 0.0000000000000000
1.0000000000000000 0.0000000000000000 0.0000000000000000
1.0000000000000000 0.0000000000000000 0.0000000000000000
1.0000000000000000 0.0000000000000000 0.0000000000000000
1.0000000000000000 0.0000000000000000 0.0000000000000000
1.0000000000000000 0.0000000000000000 0.0000000000000000
1.0000000000000000 0.0000000000000000 0.0000000000000000
1.0000000000000000 0.0000000000000000 0.0000000000000000
1.0000000000000000 0.0000000000000000 0.0000000000000000
1.0000000000000000 0.0000000000000000 0.0000000000000000
1.0000000000000000 0.0000000000000000 0.0000000000000000
1.0000000000000000 0.0000000000000000 0.0000000000000000
1.0000000000000000 0.0000000000000000 0.0000000000000000
1.0000000000000000 0.0000000000000000 0.0000000000000000
1.0000000000000000 0.0000000000000000 0.0000000000000000
1.0000000000000000 0.0000000000000000 0.0000000000000000
1.0000000000000000 0.0000000000000000 0.0000000000000000
1.0000000000000000 0.0000000000000000 0.0000000000000000
1.0000000000000000 0.0000000000000000 0.0000000000000000
1.0000000000000000 0.0000000000000000 0.0000000000000000
1.0000000000000000 0.0000000000000000 0.0000000000000000
1.0000000000000000 0.0000000000000000 0.0000000000000000
1.0000000000000000 0.0000000000000000 0.0000000000000000
1.0000000000000000 0.0000000000000000 0.0000000000000000
1.0000000000000000 0.0000000000000000 0.0000000000000000
1.0000000000000000 0.0000000000000000 0.0000000000000000
1.0000000000000000 0.0000000000000000 0.0000000000000000
1.0000000000000000 0.0000000000000000 0.0000000000000000
1.0000000000000000 0.0000000000000000 0.0000000000000000
1.0000000000000000 0.0000000000000000 0.0000000000000000
1.0000000000000000 0.0000000000000000 0.0000000000000000
1.0000000000000000 0.0000000000000000 0.0000000000000000
1.0000000000000000 0.0000000000000000 0.0000000000000000
1.0000000000000000 0.0000000000000000 0.0000000000000000
1.0000000000000000 0.0000000000000000 0.0000000000000000
1.0000000000000000 0.0000000000000000 0.0000000000000000
1.0000000000000000 0.0000000000000000 0.0000000000000000
1.0000000000000000 0.0000000000000000 0.0000000000000000
1.0000000000000000 0.0000000000000000 0.0000000000000000
1.0000000000000000 0.0000000000000000 0.0000000000000000
1.0000000000000000 0.0000000000000000 0.0000000000000000
1.0000000000000000 0.0000000000000000 0.0000000000000000
1.0000000000000000 0.0000000000000000 0.0000000000000000
1.0000000000000000 0.0000000000000000 0.0000000000000000
1.0000000000000000 0.0000000000000000 0.0000000000000000
1.0000000000000000 0.0000000000000000 0.0000000000000000
1.0000000000000000 0.0000000000000000 0.0000000000000000
1.0000000000000000 0.0000000000000000 0.0000000000000000
1.0000000000000000 0.0000000000000000 0.0000000000000000
1.0000000000000000 0.0000000000000000 0.0000000000000000
1.0000000000000000 0.0000000000000000 0.0000000000000000
1.0000000000000000 0.0000000000000000 0.0000000000000000
1.0000000000000000 0.0000000000000000 0.0000000000000000
1.0000000000000000 0.0000000000000000 0.0000000000000000
1.0000000000000000 0.0000000000000000 0.0000000000000000
1.0000000000000000 0.0000000000000000 0.0000000000000000
1.0000000000000000 0.0000000000000000 0.0000000000000000
1.0000000000000000 0.0000000000000000 0.0000000000000000
1.0000000000000000 0.0000000000000000 0.0000000000000000
1.0000000000000000 0.0000000000000000 0.0000000000000000
1.0000000000000000 0.0000000000000000 0.0000000000000000
1.0000000000000000 0.0000000000000000 0.0000000000000000
1.0000000000000000 0.0000000000000000 0.0000000000000000
1.0000000000000000 0.0000000000000000 0.0000000000000000
1.0000000000000000 0.0000000000000000 0.0000000000000000
1.0000000000000000 0.0000000000000000 0.0000000000000000
1.0000000000000000 0.0000000000000000 0.0000000000000000
1.0000000000000000 0.0000000000000000 0.0000000000000000
1.0000000000000000 0.0000000000000000 0.0000000000000000
1.0000000000000000 0.0000000000000000 0.0000000000000000
1.0000000000000000 0.0000000000000000 0.0000000000000000
1.0000000000000000 0.0000000000000000 0.0000000000000000
1.0000000000000000 0.0000000000000000 0.0000000000000000
1.0000000000000000 0.0000000000000000 0.0000000000000000
1.0000000000000000 0.0000000000000000 0.0000000000000000
1.0000000000000000 0.0000000000000000 0.0000000000000000
1.0000000000000000 0.0000000000000000 0.0000000000000000
1.0000000000000000 0.0000000000000000 0.0000000000000000
1.0000000000000000 0.0000000000000000 0.0000000000000000
1.0000000000000000 0.0000000000000000 0.0000000000000000
1.0000000000000000 0.0000000000000000 0.0000000000000000
1.0000000000000000 0.0000000000000000 0.0000000000000000
1.0000000000000000 0.0000000000000000 0.0000000000000000
1.0000000000000000 0.0000000000000000 0.0000000000000000
1.0000000000000000 0.0000000000000000 0.0000000000000000
1.0000000000000000 0.0000000000000000 0.0000000000000000
1.0000000000000000 0.0000000000000000 0.0000000000000000
1.0000000000000000 0.0000000000000000 0.0000000000000000
1.0000000000000000 0.0000000000000000 0.0000000000000000
1.0000000000000000 0.0000000000000000 0.0000000000000000
1.0000000000000000 0.0000000000000000 0.0000000000000000
1.0000000000000000 0.0000000000000000 0.0000000000000000
1.0000000000000000 0.0000000000000000 0.0000000000000000
1.0000000000000000 0.0000000000000000 0.0000000000000000
1.0000000000000000 0.0000000000000000 0.0000000000000000
1.0000000000000000 0.0000000000000000 0.0000000000000000
1.0000000000000000 0.0000000000000000 0.0000000000000000
1.0000000000000000 0.0000000000000000 0.0000000000000000
1.0000000000000000 0.0000000000000000 0.0000000000000000
1.0000000000000000 0.0000000000000000 0.0000000000000000
1.0000000000000000 0.0000000000000000 0.0000000000000000
1.0000000000000000 0.0000000000000000 0.0000000000000000
1.0000000000000000 0.0000000000000000 0.0000000000000000
1.0000000000000000 0.0000000000000000 0.0000000000000000
1.0000000000000000 0.0000000000000000 0.0000000000000000
1.0000000000000000 0.0000000000000000 0.0000000000000000
1.0000000000000000 0.0000000000000000 0.0000000000000000
1.0000000000000000 0.0000000000000000 0.0000000000000000
1.0000000000000000 0.0000000000000000 0.0000000000000000
1.0000000000000000 0.0000000000000000 0.0000000000000000
1.0000000000000000 0.0000000000000000 0.0000000000000000
1.0000000000000000 0.0000000000000000 0.0000000000000000
1.0000000000000000 0.0000000000000000 0.0000000000000000
1.0000000000000000 0.0000000000000000 0.0000000000000000
1.0000000000000000 0.0000000000000000 0.0000000000000000
1.0000000000000000 0.0000000000000000 0.0000000000000000
1.0000000000000000 0.0000000000000000 0.0000000000000000
1.0000000000000000 0.0000000000000000 0.0000000000000000
1.0000000000000000 0.0000000000000000 0.0000000000000000
1.0000000000000000 0.0000000000000000 0.0000000000000000
1.0000000000000000 0.0000000000000000 0.0000000000000000
1.0000000000000000 0.0000000000000000 0.0000000000000000
1.0000000000000000 0.0000000000000000 0.0000000000000000
1.0000000000000000 0.0000000000000000 0.0000000000000000
1.0000000000000000 0.0000000000000000 0.0000000000000000
1.0000000000000000 0.0000000000000000 0.0000000000000000
1.0000000000000000 0.0000000000000000 0.0000000000000000
1.0000000000000000 0.0000000000000000 0.0000000000000000
1.0000000000000000 0.0000000000000000 0.0000000000000000
1.0000000000000000 0.0000000000000000 0.0000000000000000
1.0000000000000000 0.0000000000000000 0.0000000000000000
1.0000000000000000 0.0000000000000000 0.0000000000000000
1.0000000000000000 0.0000000000000000 0.0000000000000000
1.0000000000000000 0.0000000000000000 0.0000000000000000
1.0000000000000000 0.0000000000000000 0.0000000000000000
1.0000000000000000 0.0000000000000000 0.0000000000000000
1.0000000000000000 0.0000000000000000 0.0000000000000000
1.0000000000000000 0.0000000000000000 0.0000000000000000
1.0000000000000000 0.0000000000000000 0.0000000000000000
1.0000000000000000 0.0000000000000000 0.0000000000000000
1.0000000000000000 0.0000000000000000 0.0000000000000000
1.0000000000000000 0.0000000000000000 0.0000000000000000
1.0000000000000000 0.0000000000000000 0.0000000000000000
1.0000000000000000 0.0000000000000000 0.0000000000000000
1.0000000000000000 0.0000000000000000 0.0000000000000000
1.0000000000000000 0.0000000000000000 0.0000000000000000
1.0000000000000000 0.0000000000000000 0.0000000000000000
1.0000000000000000 0.0000000000000000 0.0000000000000000
1.0000000000000000 0.0000000000000000 0.0000000000000000
1.0000000000000000 0.0000000000000000 0.0000000000000000
1.0000000000000000 0.0000000000000000 0.0000000000000000
1.0000000000000000 0.0000000000000000 0.0000000000000000
1.0000000000000000 0.0000000000000000 0.0000000000000000
1.0000000000000000 0.0000000000000000 0.0000000000000000
1.0000000000000000 0.0000000000000000 0.0000000000000000
1.0000000000000000 0.0000000000000000 0.0000000000000000
1.0000000000000000 0.0000000000000000 0.0000000000000000
1.0000000000000000 0.0000000000000000 0.0000000000000000
1.0000000000000000 0.0000000000000000 0.0000000000000000
1.0000000000000000 0.0000000000000000 0.0000000000000000
1.0000000000000000 0.0000000000000000 0.0000000000000000
1.0000000000000000 0.0000000000000000 0.0000000000000000
1.0000000000000000 0.0000000000000000 0.0000000000000000
1.0000000000000000 0.0000000000000000 0.0000000000000000
1.0000000000000000 0.0000000000000000 0.0000000000000000
1.0000000000000000 0.0000000000000000 0.0000000000000000
1.0000000000000000 0.0000000000000000 0.0000000000000000
1.0000000000000000 0.0000000000000000 0.0000000000000000
1.0000000000000000 0.0000000000000000 0.0000000000000000
1.0000000000000000 0.0000000000000000 0.0000000000000000
1.0000000000000000 0.0000000000000000 0.0000000000000000
1.0000000000000000 0.0000000000000000 0.0000000000000000
1.0000000000000000 0.0000000000000000 0.0000000000000000
1.0000000000000000 0.0000000000000000 0.0000000000000000
1.0000000000000000 0.0000000000000000 0.0000000000000000
1.0000000000000000 0.0000000000000000 0.0000000000000000
1.0000000000000000 0.0000000000000000 0.0000000000000000
1.0000000000000000 0.0000000000000000 0.0000000000000000
1.0000000000000000 0.0000000000000000 0.0000000000000000
1.0000000000000000 0.0000000000000000 0.0000000000000000
1.0000000000000000 0.0000000000000000 0.0000000000000000
1.0000000000000000 0.0000000000000000 0.0000000000000000
1.0000000000000000 0.0000000000000000 0.0000000000000000
1.0000000000000000 0.0000000000000000 0.0000000000000000
1.0000000000000000 0.0000000000000000 0.0000000000000000
1.0000000000000000 0.0000000000000000 0.0000000000000000
1.0000000000000000 0.0000000000000000 0.0000000000000000
1.0000000000000000 0.0000000000000000 0.0000000000000000
1.0000000000000000 0.0000000000000000 0.0000000000000000
1.0000000000000000 0.0000000000000000 0.0000000000000000
1.0000000000000000 0.0000000000000000 0.0000000000000000
1.0000000000000000 0.0000000000000000 0.0000000000000000
1.0000000000000000 0.0000000000000000 0.0000000000000000
1.0000000000000000 0.0000000000000000 0.0000000000000000
1.0000000000000000 0.0000000000000000 0.0000000000000000
1.0000000000000000 0.0000000000000000 0.0000000000000000
1.0000000000000000 0.0000000000000000 0.0000000000000000
1.0000000000000000 0.0000000000000000 0.0000000000000000
1.0000000000000000 0.0000000000000000 0.0000000000000000
1.0000000000000000 0.0000000000000000 0.0000000000000000
1.0000000000000000 0.0000000000000000 0.0000000000000000
1.0000000000000000 0.0000000000000000 0.0000000000000000
1.0000000000000000 0.0000000000000000 0.0000000000000000
1.0000000000000000 0.0000000000000000 0.0000000000000000
1.0000000000000000 0.0000000000000000 0.0000000000000000
1.0000000000000000 0.0000000000000000 0.0000000000000000
1.0000000000000000 0.0000000000000000 0.0000000000000000
1.0000000000000000 0.0000000000000000 0.0000000000000000
1.0000000000000000 0.0000000000000000 0.0000000000000000
1.0000000000000000 0.0000000000000000 0.0000000000000000
1.0000000000000000 0.0000000000000000 0.0000000000000000
1.0000000000000000 0.0000000000000000 0.0000000000000000
1.0000000000000000 0.0000000000000000 0.0000000000000000
1.0000000000000000 0.0000000000000000 0.0000000000000000
1.0000000000000000 0.0000000000000000 0.0000000000000000
1.0000000000000000 0.0000000000000000 0.0000000000000000
1.0000000000000000 0.0000000000000000 0.0000000000000000
1.0000000000000000 0.0000000000000000 0.0000000000000000
1.0000000000000000 0.0000000000000000 0.0000000000000000
1.0000000000000000 0.0000000000000000 0.0000000000000000
1.0000000000000000 0.0000000000000000 0.0000000000000000
1.0000000000000000 0.0000000000000000 0.0000000000000000
1.0000000000000000 0.0000000000000000 0.0000000000000000
1.0000000000000000 0.0000000000000000 0.0000000000000000
1.0000000000000000 0.0000000000000000 0.0000000000000000
1.0000000000000000 0.0000000000000000 0.0000000000000000
1.0000000000000000 0.0000000000000000 0.0000000000000000
1.0000000000000000 0.0000000000000000 0.0000000000000000
1.0000000000000000 0.0000000000000000 0.0000000000000000
1.0000000000000000 0.0000000000000000 0.0000000000000000
1.0000000000000000 0.0000000000000000 0.0000000000000000
1.0000000000000000 0.0000000000000000 0.0000000000000000
1.0000000000000000 0.0000000000000000 0.0000000000000000
1.0000000000000000 0.0000000000000000 0.0000000000000000
1.0000000000000000 0.0000000000000000 0.0000000000000000
1.0000000000000000 0.0000000000000000 0.0000000000000000
1.0000000000000000 0.0000000000000000 0.0000000000000000
1.0000000000000000 0.0000000000000000 0.0000000000000000
1.0000000000000000 0.0000000000000000 0.0000000000000000
1.0000000000000000 0.0000000000000000 0.0000000000000000
1.0000000000000000 0.0000000000000000 0.0000000000000000
1.0000000000000000 0.0000000000000000 0.0000000000000000
1.0000000000000000 0.0000000000000000 0.0000000000000000
1.0000000000000000 0.0000000000000000 0.0000000000000000
1.0000000000000000 0.0000000000000000 0.0000000000000000
1.0000000000000000 0.0000000000000000 0.0000000000000000
1.0000000000000000 0.0000000000000000 0.0000000000000000
1.0000000000000000 0.0000000000000000 0.0000000000000000
1.0000000000000000 0.0000000000000000 0.0000000000000000
1.0000000000000000 0.0000000000000000 0.0000000000000000
1.0000000000000000 0.0000000000000000 0.0000000000000000
1.0000000000000000 0.0000000000000000 0.0000000000000000
1.0000000000000000 0.0000000000000000 0.0000000000000000
1.0000000000000000 0.0000000000000000 0.0000000000000000
1.0000000000000000 0.0000000000000000 0.0000000000000000
1.0000000000000000 0.0000000000000000 0.0000000000000000
1.0000000000000000 0.0000000000000000 0.0000000000000000
1.0000000000000000 0.0000000000000000 0.0000000000000000
1.0000000000000000 0.0000000000000000 0.0000000000000000
1.0000000000000000 0.0000000000000000 0.0000000000000000
1.0000000000000000 0.0000000000000000 0.0000000000000000
1.0000000000000000 0.0000000000000000 0.0000000000000000
1.0000000000000000 0.0000000000000000 0.0000000000000000
1.0000000000000000 0.0000000000000000 0.0000000000000000
1.0000000000000000 0.0000000000000000 0.0000000000000000
1.0000000000000000 0.0000000000000000 0.0000000000000000
1.0000000000000000 0.0000000000000000 0.0000000000000000
1.0000000000000000 0.0000000000000000 0.0000000000000000
1.0000000000000000 0.0000000000000000 0.0000000000000000
1.0000000000000000 0.0000000000000000 0.0000000000000000
1.0000000000000000 0.0000000000000000 0.0000000000000000
1.0000000000000000 0.0000000000000000 0.0000000000000000
1.0000000000000000 0.0000000000000000 0.0000000000000000
1.0000000000000000 0.0000000000000000 0.0000000000000000
1.0000000000000000 0.0000000000000000 0.0000000000000000
1.0000000000000000 0.0000000000000000 0.0000000000000000
1.0000000000000000 0.0000000000000000 0.0000000000000000
1.0000000000000000 0.0000000000000000 0.0000000000000000
1.0000000000000000 0.0000000000000000 0.0000000000000000
1.0000000000000000 0.0000000000000000 0.0000000000000000
1.0000000000000000 0.0000000000000000 0.0000000000000000
1.0000000000000000 0.0000000000000000 0.0000000000000000
1.0000000000000000 0.0000000000000000 0.0000000000000000
1.0000000000000000 0.0000000000000000 0.0000000000000000
1.0000000000000000 0.0000000000000000 0.0000000000000000
1.0000000000000000 0.0000000000000000 0.0000000000000000
1.0000000000000000 0.0000000000000000 0.0000000000000000
1.0000000000000000 0.0000000000000000 0.0000000000000000
1.0000000000000000 0.0000000000000000 0.0000000000000000
1.0000000000000000 0.0000000000000000 0.0000000000000000
1.0000000000000000 0.0000000000000000 0.0000000000000000
1.0000000000000000 0.0000000000000000 0.0000000000000000
1.0000000000000000 0.0000000000000000 0.0000000000000000
1.0000000000000000 0.0000000000000000 0.0000000000000000
1.0000000000000000 0.0000000000000000 0.0000000000000000
1.0000000000000000 0.0000000000000000 0.0000000000000000
1.0000000000000000 0.0000000000000000 0.0000000000000000
1.0000000000000000 0.0000000000000000 0.0000000000000000
1.0000000000000000 0.0000000000000000 0.0000000000000000
1.0000000000000000 0.0000000000000000 0.0000000000000000
1.0000000000000000 0.0000000000000000 0.0000000000000000
1.0000000000000000 0.0000000000000000 0.0000000000000000
1.0000000000000000 0.0000000000000000 0.0000000000000000
1.0000000000000000 0.0000000000000000 0.0000000000000000
1.0000000000000000 0.0000000000000000 0.0000000000000000
1.0000000000000000 0.0000000000000000 0.0000000000000000
1.0000000000000000 0.0000000000000000 0.0000000000000000
1.0000000000000000 0.0000000000000000 0.0000000000000000
1.0000000000000000 0.0000000000000000 0.0000000000000000
1.0000000000000000 0.0000000000000000 0.0000000000000000
1.0000000000000000 0.0000000000000000 0.0000000000000000
1.0000000000000000 0.0000000000000000 0.0000000000000000
1.0000000000000000 0.0000000000000000 0.0000000000000000
1.0000000000000000 0.0000000000000000 0.0000000000000000
1.0000000000000000 0.0000000000000000 0.0000000000000000
1.0000000000000000 0.0000000000000000 0.0000000000000000
1.0000000000000000 0.0000000000000000 0.0000000000000000
1.0000000000000000 0.0000000000000000 0.0000000000000000
1.0000000000000000 0.0000000000000000 0.0000000000000000
1.0000000000000000 0.0000000000000000 0.0000000000000000
1.0000000000000000 0.0000000000000000 0.0000000000000000
1.0000000000000000 0.0000000000000000 0.0000000000000000
1.0000000000000000 0.0000000000000000 0.0000000000000000
1.0000000000000000 0.0000000000000000 0.0000000000000000
1.0000000000000000 0.0000000000000000 0.0000000000000000
1.0000000000000000 0.0000000000000000 0.0000000000000000
1.0000000000000000 0.0000000000000000 0.0000000000000000
1.0000000000000000 0.0000000000000000 0.0000000000000000
1.0000000000000000 0.0000000000000000 0.0000000000000000
1.0000000000000000 0.0000000000000000 0.0000000000000000
1.0000000000000000 0.0000000000000000 0.0000000000000000
1.0000000000000000 0.0000000000000000 0.0000000000000000
1.0000000000000000 0.0000000000000000 0.0000000000000000
1.0000000000000000 0.0000000000000000 0.0000000000000000
1.0000000000000000 0.0000000000000000 0.0000000000000000
1.0000000000000000 0.0000000000000000 0.0000000000000000
1.0000000000000000 0.0000000000000000 0.0000000000000000
1.0000000000000000 0.0000000000000000 0.0000000000000000
1.0000000000000000 0.0000000000000000 0.0000000000000000
1.0000000000000000 0.0000000000000000 0.0000000000000000
1.0000000000000000 0.0000000000000000 0.0000000000000000
1.0000000000000000 0.0000000000000000 0.0000000000000000
1.0000000000000000 0.0000000000000000 0.0000000000000000
1.0000000000000000 0.0000000000000000 0.0000000000000000
1.0000000000000000 0.0000000000000000 0.0000000000000000
1.0000000000000000 0.0000000000000000 0.0000000000000000
1.0000000000000000 0.0000000000000000 0.0000000000000000
1.0000000000000000 0.0000000000000000 0.0000000000000000
1.0000000000000000 0.0000000000000000 0.0000000000000000
1.0000000000000000 0.0000000000000000 0.0000000000000000
1.0000000000000000 0.0000000000000000 0.0000000000000000
1.0000000000000000 0.0000000000000000 0.0000000000000000
1.0000000000000000 0.0000000000000000 0.0000000000000000
1.0000000000000000 0.0000000000000000 0.0000000000000000
1.0000000000000000 0.0000000000000000 0.0000000000000000
1.0000000000000000 0.0000000000000000 0.0000000000000000
1.0000000000000000 0.0000000000000000 0.0000000000000000
1.0000000000000000 0.0000000000000000 0.0000000000000000
1.0000000000000000 0.0000000000000000 0.0000000000000000
1.0000000000000000 0.0000000000000000 0.0000000000000000
1.0000000000000000 0.0000000000000000 0.0000000000000000
1.0000000000000000 0.0000000000000000 0.0000000000000000
1.0000000000000000 0.0000000000000000 0.0000000000000000
1.0000000000000000 0.0000000000000000 0.0000000000000000
1.0000000000000000 0.0000000000000000 0.0000000000000000
1.0000000000000000 0.0000000000000000 0.0000000000000000
1.0000000000000000 0.0000000000000000 0.0000000000000000
1.0000000000000000 0.0000000000000000 0.0000000000000000
1.0000000000000000 0.0000000000000000 0.0000000000000000
1.0000000000000000 0.0000000000000000 0.0000000000000000
1.0000000000000000 0.0000000000000000 0.0000000000000000
1.0000000000000000 0.0000000000000000 0.0000000000000000
1.0000000000000000 0.0000000000000000 0.0000000000000000
1.0000000000000000 0.0000000000000000 0.0000000000000000
1.0000000000000000 0.0000000000000000 0.0000000000000000
1.0000000000000000 0.0000000000000000 0.0000000000000000
1.0000000000000000 0.0000000000000000 0.0000000000000000
1.0000000000000000 0.0000000000000000 0.0000000000000000
1.0000000000000000 0.0000000000000000 0.0000000000000000
1.0000000000000000 0.0000000000000000 0.0000000000000000
1.0000000000000000 0.0000000000000000 0.0000000000000000
1.0000000000000000 0.0000000000000000 0.0000000000000000
1.0000000000000000 0.0000000000000000 0.0000000000000000
1.0000000000000000 0.0000000000000000 0.0000000000000000
1.0000000000000000 0.0000000000000000 0.0000000000000000
1.0000000000000000 0.0000000000000000 0.0000000000000000
1.0000000000000000 0.0000000000000000 0.0000000000000000
1.0000000000000000 0.0000000000000000 0.0000000000000000
1.0000000000000000 0.0000000000000000 0.0000000000000000
1.0000000000000000 0.0000000000000000 0.0000000000000000
1.0000000000000000 0.0000000000000000 0.0000000000000000
1.0000000000000000 0.0000000000000000 0.0000000000000000
1.0000000000000000 0.0000000000000000 0.0000000000000000
1.0000000000000000 0.0000000000000000 0.0000000000000000
1.0000000000000000 0.0000000000000000 0.0000000000000000
1.0000000000000000 0.0000000000000000 0.0000000000000000
1.0000000000000000 0.0000000000000000 0.0000000000000000
1.0000000000000000 0.0000000000000000 0.0000000000000000
1.0000000000000000 0.0000000000000000 0.0000000000000000
1.0000000000000000 0.0000000000000000 0.0000000000000000
1.0000000000000000 0.0000000000000000 0.0000000000000000
1.0000000000000000 0.0000000000000000 0.0000000000000000
1.0000000000000000 0.0000000000000000 0.0000000000000000
1.0000000000000000 0.0000000000000000 0.0000000000000000
1.0000000000000000 0.0000000000000000 0.0000000000000000
1.0000000000000000 0.0000000000000000 0.0000000000000000
1.0000000000000000 0.0000000000000000 0.0000000000000000
1.0000000000000000 0.0000000000000000 0.0000000000000000
1.0000000000000000 0.0000000000000000 0.0000000000000000
1.0000000000000000 0.0000000000000000 0.0000000000000000
1.0000000000000000 0.0000000000000000 0.0000000000000000
1.0000000000000000 0.0000000000000000 0.0000000000000000
1.0000000000000000 0.0000000000000000 0.0000000000000000
1.0000000000000000 0.0000000000000000 0.0000000000000000
1.0000000000000000 0.0000000000000000 0.0000000000000000
1.0000000000000000 0.0000000000000000 0.0000000000000000
1.0000000000000000 0.0000000000000000 0.0000000000000000
1.0000000000000000 0.0000000000000000 0.0000000000000000
1.0000000000000000 0.0000000000000000 0.0000000000000000
1.0000000000000000 0.0000000000000000 0.0000000000000000
1.0000000000000000 0.0000000000000000 0.0000000000000000
1.0000000000000000 0.0000000000000000 0.0000000000000000
1.0000000000000000 0.0000000000000000 0.0000000000000000
1.0000000000000000 0.0000000000000000 0.0000000000000000
1.0000000000000000 0.0000000000000000 0.0000000000000000
1.0000000000000000 0.0000000000000000 0.0000000000000000
1.0000000000000000 0.0000000000000000 0.0000000000000000
1.0000000000000000 0.0000000000000000 0.0000000000000000
1.0000000000000000 0.0000000000000000 0.0000000000000000
1.0000000000000000 0.0000000000000000 0.0000000000000000
1.0000000000000000 0.0000000000000000 0.0000000000000000
1.0000000000000000 0.0000000000000000 0.0000000000000000
1.0000000000000000 0.0000000000000000 0.0000000000000000
1.0000000000000000 0.0000000000000000 0.0000000000000000
1.0000000000000000 0.0000000000000000 0.0000000000000000
1.0000000000000000 0.0000000000000000 0.0000000000000000
1.0000000000000000 0.0000000000000000 0.0000000000000000
1.0000000000000000 0.0000000000000000 0.0000000000000000
1.0000000000000000 0.0000000000000000 0.0000000000000000
1.0000000000000000 0.0000000000000000 0.0000000000000000
1.0000000000000000 0.0000000000000000 0.0000000000000000
1.0000000000000000 0.0000000000000000 0.0000000000000000
1.0000000000000000 0.0000000000000000 0.0000000000000000
1.0000000000000000 0.0000000000000000 0.0000000000000000
1.0000000000000000 0.0000000000000000 0.0000000000000000
1.0000000000000000 0.0000000000000000 0.0000000000000000
1.0000000000000000 0.0000000000000000 0.0000000000000000
1.0000000000000000 0.0000000000000000 0.0000000000000000
1.0000000000000000 0.0000000000000000 0.0000000000000000
1.0000000000000000 0.0000000000000000 0.0000000000000000
1.0000000000000000 0.0000000000000000 0.0000000000000000
1.0000000000000000 0.0000000000000000 0.0000000000000000
1.0000000000000000 0.0000000000000000 0.0000000000000000
1.0000000000000000 0.0000000000000000 0.0000000000000000
1.0000000000000000 0.0000000000000000 0.0000000000000000
1.0000000000000000 0.0000000000000000 0.0000000000000000
1.0000000000000000 0.0000000000000000 0.0000000000000000
1.0000000000000000 0.0000000000000000 0.0000000000000000
1.0000000000000000 0.0000000000000000 0.0000000000000000
1.0000000000000000 0.0000000000000000 0.0000000000000000
1.0000000000000000 0.0000000000000000 0.0000000000000000
1.0000000000000000 0.0000000000000000 0.0000000000000000
1.0000000000000000 0.0000000000000000 0.0000000000000000
1.0000000000000000 0.0000000000000000 0.0000000000000000
1.0000000000000000 0.0000000000000000 0.0000000000000000
1.0000000000000000 0.0000000000000000 0.0000000000000000
1.0000000000000000 0.0000000000000000 0.0000000000000000
1.0000000000000000 0.0000000000000000 0.0000000000000000
1.0000000000000000 0.0000000000000000 0.0000000000000000
1.0000000000000000 0.0000000000000000 0.0000000000000000
1.0000000000000000 0.0000000000000000 0.0000000000000000
1.0000000000000000 0.0000000000000000 0.0000000000000000
1.0000000000000000 0.0000000000000000 0.0000000000000000
1.0000000000000000 0.0000000000000000 0.0000000000000000
1.0000000000000000 0.0000000000000000 0.0000000000000000
1.0000000000000000 0.0000000000000000 0.0000000000000000
1.0000000000000000 0.0000000000000000 0.0000000000000000
1.0000000000000000 0.0000000000000000 0.0000000000000000
1.0000000000000000 0.0000000000000000 0.0000000000000000
1.0000000000000000 0.0000000000000000 0.0000000000000000
1.0000000000000000 0.0000000000000000 0.0000000000000000
1.0000000000000000 0.0000000000000000 0.0000000000000000
1.0000000000000000 0.0000000000000000 0.0000000000000000
1.0000000000000000 0.0000000000000000 0.0000000000000000
1.0000000000000000 0.0000000000000000 0.0000000000000000
1.0000000000000000 0.0000000000000000 0.0000000000000000
1.0000000000000000 0.0000000000000000 0.0000000000000000
1.0000000000000000 0.0000000000000000 0.0000000000000000
1.0000000000000000 0.0000000000000000 0.0000000000000000
1.0000000000000000 0.0000000000000000 0.0000000000000000
1.0000000000000000 0.0000000000000000 0.0000000000000000
1.0000000000000000 0.0000000000000000 0.0000000000000000
1.0000000000000000 0.0000000000000000 0.0000000000000000
1.0000000000000000 0.0000000000000000 0.0000000000000000
1.0000000000000000 0.0000000000000000 0.0000000000000000
1.0000000000000000 0.0000000000000000 0.0000000000000000
1.0000000000000000 0.0000000000000000 0.0000000000000000
1.0000000000000000 0.0000000000000000 0.0000000000000000
1.0000000000000000 0.0000000000000000 0.0000000000000000
1.0000000000000000 0.0000000000000000 0.0000000000000000
1.0000000000000000 0.0000000000000000 0.0000000000000000
1.0000000000000000 0.0000000000000000 0.0000000000000000
1.0000000000000000 0.0000000000000000 0.0000000000000000
1.0000000000000000 0.0000000000000000 0.0000000000000000
1.0000000000000000 0.0000000000000000 0.0000000000000000
1.0000000000000000 0.0000000000000000 0.0000000000000000
1.0000000000000000 0.0000000000000000 0.0000000000000000
1.0000000000000000 0.0000000000000000 0.0000000000000000
1.0000000000000000 0.0000000000000000 0.0000000000000000
1.0000000000000000 0.0000000000000000 0.0000000000000000
1.0000000000000000 0.0000000000000000 0.0000000000000000
1.0000000000000000 0.0000000000000000 0.0000000000000000
1.0000000000000000 0.0000000000000000 0.0000000000000000
1.0000000000000000 0.0000000000000000 0.0000000000000000
1.0000000000000000 0.0000000000000000 0.0000000000000000
1.0000000000000000 0.0000000000000000 0.0000000000000000
1.0000000000000000 0.0000000000000000 0.0000000000000000
1.0000000000000000 0.0000000000000000 0.0000000000000000
1.0000000000000000 0.0000000000000000 0.0000000000000000
1.0000000000000000 0.0000000000000000 0.0000000000000000
1.0000000000000000 0.0000000000000000 0.0000000000000000
1.0000000000000000 0.0000000000000000 0.0000000000000000
1.0000000000000000 0.0000000000000000 0.0000000000000000
1.0000000000000000 0.0000000000000000 0.0000000000000000
1.0000000000000000 0.0000000000000000 0.0000000000000000
1.0000000000000000 0.0000000000000000 0.0000000000000000
1.0000000000000000 0.0000000000000000 0.0000000000000000
1.0000000000000000 0.0000000000000000 0.0000000000000000
1.0000000000000000 0.0000000000000000 0.0000000000000000
1.0000000000000000 0.0000000000000000 0.0000000000000000
1.0000000000000000 0.0000000000000000 0.0000000000000000
1.0000000000000000 0.0000000000000000 0.0000000000000000
1.0000000000000000 0.0000000000000000 0.0000000000000000
1.0000000000000000 0.0000000000000000 0.0000000000000000
1.0000000000000000 0.0000000000000000 0.0000000000000000
1.0000000000000000 0.0000000000000000 0.0000000000000000
1.0000000000000000 0.0000000000000000 0.0000000000000000
1.0000000000000000 0.0000000000000000 0.0000000000000000
1.0000000000000000 0.0000000000000000 0.0000000000000000
1.0000000000000000 0.0000000000000000 0.0000000000000000
1.0000000000000000 0.0000000000000000 0.0000000000000000
1.0000000000000000 0.0000000000000000 0.0000000000000000
1.0000000000000000 0.0000000000000000 0.0000000000000000
1.0000000000000000 0.0000000000000000 0.0000000000000000
1.0000000000000000 0.0000000000000000 0.0000000000000000
1.0000000000000000 0.0000000000000000 0.0000000000000000
1.0000000000000000 0.0000000000000000 0.0000000000000000
1.0000000000000000 0.0000000000000000 0.0000000000000000
1.0000000000000000 0.0000000000000000 0.0000000000000000
1.0000000000000000 0.0000000000000000 0.0000000000000000
1.0000000000000000 0.0000000000000000 0.0000000000000000
1.0000000000000000 0.0000000000000000 0.0000000000000000
1.0000000000000000 0.0000000000000000 0.0000000000000000
1.0000000000000000 0.0000000000000000 0.0000000000000000
1.0000000000000000 0.0000000000000000 0.0000000000000000
1.0000000000000000 0.0000000000000000 0.0000000000000000
1.0000000000000000 0.0000000000000000 0.0000000000000000
1.0000000000000000 0.0000000000000000 0.0000000000000000
1.0000000000000000 0.0000000000000000 0.0000000000000000
1.0000000000000000 0.0000000000000000 0.0000000000000000
1.0000000000000000 0.0000000000000000 0.0000000000000000
1.0000000000000000 0.0000000000000000 0.0000000000000000
1.0000000000000000 0.0000000000000000 0.0000000000000000
1.0000000000000000 0.0000000000000000 0.0000000000000000
1.0000000000000000 0.0000000000000000 0.0000000000000000
1.0000000000000000 0.0000000000000000 0.0000000000000000
1.0000000000000000 0.0000000000000000 0.0000000000000000
1.0000000000000000 0.0000000000000000 0.0000000000000000
1.0000000000000000 0.0000000000000000 0.0000000000000000
1.0000000000000000 0.0000000000000000 0.0000000000000000
1.0000000000000000 0.0000000000000000 0.0000000000000000
1.0000000000000000 0.0000000000000000 0.0000000000000000
1.0000000000000000 0.0000000000000000 0.0000000000000000
1.0000000000000000 0.0000000000000000 0.0000000000000000
1.0000000000000000 0.0000000000000000 0.0000000000000000
1.0000000000000000 0.0000000000000000 0.0000000000000000
1.0000000000000000 0.0000000000000000 0.0000000000000000
1.0000000000000000 0.0000000000000000 0.0000000000000000
1.0000000000000000 0.0000000000000000 0.0000000000000000
1.0000000000000000 0.0000000000000000 0.0000000000000000
1.0000000000000000 0.0000000000000000 0.0000000000000000
1.0000000000000000 0.0000000000000000 0.0000000000000000
1.0000000000000000 0.0000000000000000 0.0000000000000000
1.0000000000000000 0.0000000000000000 0.0000000000000000
1.0000000000000000 0.0000000000000000 0.0000000000000000
1.0000000000000000 0.0000000000000000 0.0000000000000000
1.0000000000000000 0.0000000000000000 0.0000000000000000
1.0000000000000000 0.0000000000000000 0.0000000000000000
1.0000000000000000 0.0000000000000000 0.0000000000000000
1.0000000000000000 0.0000000000000000 0.0000000000000000
1.0000000000000000 0.0000000000000000 0.0000000000000000
1.0000000000000000 0.0000000000000000 0.0000000000000000
1.0000000000000000 0.0000000000000000 0.0000000000000000
1.0000000000000000 0.0000000000000000 0.0000000000000000
1.0000000000000000 0.0000000000000000 0.0000000000000000
1.0000000000000000 0.0000000000000000 0.0000000000000000
1.0000000000000000 0.0000000000000000 0.0000000000000000
1.0000000000000000 0.0000000000000000 0.0000000000000000
1.0000000000000000 0.0000000000000000 0.0000000000000000
1.0000000000000000 0.0000000000000000 0.0000000000000000
1.0000000000000000 0.0000000000000000 0.0000000000000000
1.0000000000000000 0.0000000000000000 0.0000000000000000
1.0000000000000000 0.0000000000000000 0.0000000000000000
1.0000000000000000 0.0000000000000000 0.0000000000000000
1.0000000000000000 0.0000000000000000 0.0000000000000000
1.0000000000000000 0.0000000000000000 0.0000000000000000
1.0000000000000000 0.0000000000000000 0.0000000000000000
1.0000000000000000 0.0000000000000000 0.0000000000000000
1.0000000000000000 0.0000000000000000 0.0000000000000000
1.0000000000000000 0.0000000000000000 0.0000000000000000
1.0000000000000000 0.0000000000000000 0.0000000000000000
1.0000000000000000 0.0000000000000000 0.0000000000000000
1.0000000000000000 0.0000000000000000 0.0000000000000000
1.0000000000000000 0.0000000000000000 0.0000000000000000
1.0000000000000000 0.0000000000000000 0.0000000000000000
1.0000000000000000 0.0000000000000000 0.0000000000000000
1.0000000000000000 0.0000000000000000 0.0000000000000000
1.0000000000000000 0.0000000000000000 0.0000000000000000
1.0000000000000000 0.0000000000000000 0.0000000000000000
1.0000000000000000 0.0000000000000000 0.0000000000000000
1.0000000000000000 0.0000000000000000 0.0000000000000000
1.0000000000000000 0.0000000000000000 0.0000000000000000
1.0000000000000000 0.0000000000000000 0.0000000000000000
1.0000000000000000 0.0000000000000000 0.0000000000000000
1.0000000000000000 0.0000000000000000 0.0000000000000000
1.0000000000000000 0.0000000000000000 0.0000000000000000
1.0000000000000000 0.0000000000000000 0.0000000000000000
1.0000000000000000 0.0000000000000000 0.0000000000000000
1.0000000000000000 0.0000000000000000 0.0000000000000000
1.0000000000000000 0.0000000000000000 0.0000000000000000
1.0000000000000000 0.0000000000000000 0.0000000000000000
1.0000000000000000 0.0000000000000000 0.0000000000000000
1.0000000000000000 0.0000000000000000 0.0000000000000000
1.0000000000000000 0.0000000000000000 0.0000000000000000
1.0000000000000000 0.0000000000000000 0.0000000000000000
1.0000000000000000 0.0000000000000000 0.0000000000000000
1.0000000000000000 0.0000000000000000 0.0000000000000000
1.0000000000000000 0.0000000000000000 0.0000000000000000
1.0000000000000000 0.0000000000000000 0.0000000000000000
1.0000000000000000 0.0000000000000000 0.0000000000000000
1.0000000000000000 0.0000000000000000 0.0000000000000000
1.0000000000000000 0.0000000000000000 0.0000000000000000
1.0000000000000000 0.0000000000000000 0.0000000000000000
1.0000000000000000 0.0000000000000000 0.0000000000000000
1.0000000000000000 0.0000000000000000 0.0000000000000000
1.0000000000000000 0.0000000000000000 0.0000000000000000
1.0000000000000000 0.0000000000000000 0.0000000000000000
1.0000000000000000 0.0000000000000000 0.0000000000000000
1.0000000000000000 0.0000000000000000 0.0000000000000000
1.0000000000000000 0.0000000000000000 0.0000000000000000
1.0000000000000000 0.0000000000000000 0.0000000000000000
1.0000000000000000 0.0000000000000000 0.0000000000000000
1.0000000000000000 0.0000000000000000 0.0000000000000000
1.0000000000000000 0.0000000000000000 0.0000000000000000
1.0000000000000000 0.0000000000000000 0.0000000000000000
1.0000000000000000 0.0000000000000000 0.0000000000000000
1.0000000000000000 0.0000000000000000 0.0000000000000000
1.0000000000000000 0.0000000000000000 0.0000000000000000
1.0000000000000000 0.0000000000000000 0.0000000000000000
1.0000000000000000 0.0000000000000000 0.0000000000000000
1.0000000000000000 0.0000000000000000 0.0000000000000000
1.0000000000000000 0.0000000000000000 0.0000000000000000
1.0000000000000000 0.0000000000000000 0.0000000000000000
1.0000000000000000 0.0000000000000000 0.0000000000000000
1.0000000000000000 0.0000000000000000 0.0000000000000000
1.0000000000000000 0.0000000000000000 0.0000000000000000
1.0000000000000000 0.0000000000000000 0.0000000000000000
1.0000000000000000 0.0000000000000000 0.0000000000000000
1.0000000000000000 0.0000000000000000 0.0000000000000000
1.0000000000000000 0.0000000000000000 0.0000000000000000
1.0000000000000000 0.0000000000000000 0.0000000000000000
1.0000000000000000 0.0000000000000000 0.0000000000000000
1.0000000000000000 0.0000000000000000 0.0000000000000000
1.0000000000000000 0.0000000000000000 0.0000000000000000
1.0000000000000000 0.0000000000000000 0.0000000000000000
1.0000000000000000 0.0000000000000000 0.0000000000000000
1.0000000000000000 0.0000000000000000 0.0000000000000000
1.0000000000000000 0.0000000000000000 0.0000000000000000
1.0000000000000000 0.0000000000000000 0.0000000000000000
1.0000000000000000 0.0000000000000000 0.0000000000000000
1.0000000000000000 0.0000000000000000 0.0000000000000000
1.0000000000000000 0.0000000000000000 0.0000000000000000
1.0000000000000000 0.0000000000000000 0.0000000000000000
1.0000000000000000 0.0000000000000000 0.0000000000000000
1.0000000000000000 0.0000000000000000 0.0000000000000000
1.0000000000000000 0.0000000000000000 0.0000000000000000
1.0000000000000000 0.0000000000000000 0.0000000000000000
1.0000000000000000 0.0000000000000000 0.0000000000000000
1.0000000000000000 0.0000000000000000 0.0000000000000000
1.0000000000000000 0.0000000000000000 0.0000000000000000
1.0000000000000000 0.0000000000000000 0.0000000000000000
1.0000000000000000 0.0000000000000000 0.0000000000000000
1.0000000000000000 0.0000000000000000 0.0000000000000000
1.0000000000000000 0.0000000000000000 0.0000000000000000
1.0000000000000000 0.0000000000000000 0.0000000000000000
1.0000000000000000 0.0000000000000000 0.0000000000000000
1.0000000000000000 0.0000000000000000 0.0000000000000000
1.0000000000000000 0.0000000000000000 0.0000000000000000
1.0000000000000000 0.0000000000000000 0.0000000000000000
1.0000000000000000 0.0000000000000000 0.0000000000000000
1.0000000000000000 0.0000000000000000 0.0000000000000000
1.0000000000000000 0.0000000000000000 0.0000000000000000
1.0000000000000000 0.0000000000000000 0.0000000000000000
1.0000000000000000 0.0000000000000000 0.0000000000000000
1.0000000000000000 0.0000000000000000 0.0000000000000000
1.0000000000000000 0.0000000000000000 0.0000000000000000
1.0000000000000000 0.0000000000000000 0.0000000000000000
1.0000000000000000 0.0000000000000000 0.0000000000000000
1.0000000000000000 0.0000000000000000 0.0000000000000000
1.0000000000000000 0.0000000000000000 0.0000000000000000
1.0000000000000000 0.0000000000000000 0.0000000000000000
1.0000000000000000 0.0000000000000000 0.0000000000000000
1.0000000000000000 0.0000000000000000 0.0000000000000000
1.0000000000000000 0.0000000000000000 0.0000000000000000
1.0000000000000000 0.0000000000000000 0.0000000000000000
1.0000000000000000 0.0000000000000000 0.0000000000000000
1.0000000000000000 0.0000000000000000 0.0000000000000000
1.0000000000000000 0.0000000000000000 0.0000000000000000
1.0000000000000000 0.0000000000000000 0.0000000000000000
1.0000000000000000 0.0000000000000000 0.0000000000000000
1.0000000000000000 0.0000000000000000 0.0000000000000000
1.0000000000000000 0.0000000000000000 0.0000000000000000
1.0000000000000000 0.0000000000000000 0.0000000000000000
1.0000000000000000 0.0000000000000000 0.0000000000000000
1.0000000000000000 0.0000000000000000 0.0000000000000000
1.0000000000000000 0.0000000000000000 0.0000000000000000
1.0000000000000000 0.0000000000000000 0.0000000000000000
1.0000000000000000 0.0000000000000000 0.0000000000000000
1.0000000000000000 0.0000000000000000 0.0000000000000000
1.0000000000000000 0.0000000000000000 0.0000000000000000
1.0000000000000000 0.0000000000000000 0.0000000000000000
1.0000000000000000 0.0000000000000000 0.0000000000000000
1.0000000000000000 0.0000000000000000 0.0000000000000000
1.0000000000000000 0.0000000000000000 0.0000000000000000
1.0000000000000000 0.0000000000000000 0.0000000000000000
1.0000000000000000 0.0000000000000000 0.0000000000000000
1.0000000000000000 0.0000000000000000 0.0000000000000000
1.0000000000000000 0.0000000000000000 0.0000000000000000
1.0000000000000000 0.0000000000000000 0.0000000000000000
1.0000000000000000 0.0000000000000000 0.0000000000000000
1.0000000000000000 0.0000000000000000 0.0000000000000000
1.0000000000000000 0.0000000000000000 0.0000000000000000
1.0000000000000000 0.0000000000000000 0.0000000000000000
1.0000000000000000 0.0000000000000000 0.0000000000000000
1.0000000000000000 0.0000000000000000 0.0000000000000000
1.0000000000000000 0.0000000000000000 0.0000000000000000
1.0000000000000000 0.0000000000000000 0.0000000000000000
1.0000000000000000 0.0000000000000000 0.0000000000000000
1.0000000000000000 0.0000000000000000 0.0000000000000000
1.0000000000000000 0.0000000000000000 0.0000000000000000
1.0000000000000000 0.0000000000000000 0.0000000000000000
1.0000000000000000 0.0000000000000000 0.0000000000000000
1.0000000000000000 0.0000000000000000 0.0000000000000000
1.0000000000000000 0.0000000000000000 0.0000000000000000
1.0000000000000000 0.0000000000000000 0.0000000000000000
1.0000000000000000 0.0000000000000000 0.0000000000000000
1.0000000000000000 0.0000000000000000 0.0000000000000000
1.0000000000000000 0.0000000000000000 0.0000000000000000
1.0000000000000000 0.0000000000000000 0.0000000000000000
1.0000000000000000 0.0000000000000000 0.0000000000000000
1.0000000000000000 0.0000000000000000 0.0000000000000000
1.0000000000000000 0.0000000000000000 0.0000000000000000
1.0000000000000000 0.0000000000000000 0.0000000000000000
1.0000000000000000 0.0000000000000000 0.0000000000000000
1.0000000000000000 0.0000000000000000 0.0000000000000000
1.0000000000000000 0.0000000000000000 0.0000000000000000
1.0000000000000000 0.0000000000000000 0.0000000000000000
1.0000000000000000 0.0000000000000000 0.0000000000000000
1.0000000000000000 0.0000000000000000 0.0000000000000000
1.0000000000000000 0.0000000000000000 0.0000000000000000
1.0000000000000000 0.0000000000000000 0.0000000000000000
1.0000000000000000 0.0000000000000000 0.0000000000000000
1.0000000000000000 0.0000000000000000 0.0000000000000000
1.0000000000000000 0.0000000000000000 0.0000000000000000
1.0000000000000000 0.0000000000000000 0.0000000000000000
1.0000000000000000 0.0000000000000000 0.0000000000000000
1.0000000000000000 0.0000000000000000 0.0000000000000000
1.0000000000000000 0.0000000000000000 0.0000000000000000
1.0000000000000000 0.0000000000000000 0.0000000000000000
1.0000000000000000 0.0000000000000000 0.0000000000000000
1.0000000000000000 0.0000000000000000 0.0000000000000000
1.0000000000000000 0.0000000000000000 0.0000000000000000
1.0000000000000000 0.0000000000000000 0.0000000000000000
1.0000000000000000 0.0000000000000000 0.0000000000000000
1.0000000000000000 0.0000000000000000 0.0000000000000000
1.0000000000000000 0.0000000000000000 0.0000000000000000
1.0000000000000000 0.0000000000000000 0.0000000000000000
1.0000000000000000 0.0000000000000000 0.0000000000000000
1.0000000000000000 0.0000000000000000 0.0000000000000000
1.0000000000000000 0.0000000000000000 0.0000000000000000
1.0000000000000000 0.0000000000000000 0.0000000000000000
1.0000000000000000 0.0000000000000000 0.0000000000000000
1.0000000000000000 0.0000000000000000 0.0000000000000000
1.0000000000000000 0.0000000000000000 0.0000000000000000
1.0000000000000000 0.0000000000000000 0.0000000000000000
1.0000000000000000 0.0000000000000000 0.0000000000000000
1.0000000000000000 0.0000000000000000 0.0000000000000000
1.0000000000000000 0.0000000000000000 0.0000000000000000
1.0000000000000000 0.0000000000000000 0.0000000000000000
1.0000000000000000 0.0000000000000000 0.0000000000000000
1.0000000000000000 0.0000000000000000 0.0000000000000000
1.0000000000000000 0.0000000000000000 0.0000000000000000
1.0000000000000000 0.0000000000000000 0.0000000000000000
1.0000000000000000 0.0000000000000000 0.0000000000000000
1.0000000000000000 0.0000000000000000 0.0000000000000000
1.0000000000000000 0.0000000000000000 0.0000000000000000
1.0000000000000000 0.0000000000000000 0.0000000000000000
1.0000000000000000 0.0000000000000000 0.0000000000000000
1.0000000000000000 0.0000000000000000 0.0000000000000000
1.0000000000000000 0.0000000000000000 0.0000000000000000
1.0000000000000000 0.0000000000000000 0.0000000000000000
1.0000000000000000 0.0000000000000000 0.0000000000000000
1.0000000000000000 0.0000000000000000 0.0000000000000000
1.0000000000000000 0.0000000000000000 0.0000000000000000
1.0000000000000000 0.0000000000000000 0.0000000000000000
1.0000000000000000 0.0000000000000000 0.0000000000000000
1.0000000000000000 0.0000000000000000 0.0000000000000000
1.0000000000000000 0.0000000000000000 0.0000000000000000
1.0000000000000000 0.0000000000000000 0.0000000000000000
1.0000000000000000 0.0000000000000000 0.0000000000000000
1.0000000000000000 0.0000000000000000 0.0000000000000000
1.0000000000000000 0.0000000000000000 0.0000000000000000
1.0000000000000000 0.0000000000000000 0.0000000000000000
1.0000000000000000 0.0000000000000000 0.0000000000000000
1.0000000000000000 0.0000000000000000 0.0000000000000000
1.0000000000000000 0.0000000000000000 0.0000000000000000
1.0000000000000000 0.0000000000000000 0.0000000000000000
1.0000000000000000 0.0000000000000000 0.0000000000000000
1.0000000000000000 0.0000000000000000 0.0000000000000000
1.0000000000000000 0.0000000000000000 0.0000000000000000
1.0000000000000000 0.0000000000000000 0.0000000000000000
1.0000000000000000 0.0000000000000000 0.0000000000000000
1.0000000000000000 0.0000000000000000 0.0000000000000000
1.0000000000000000 0.0000000000000000 0.0000000000000000
1.0000000000000000 0.0000000000000000 0.0000000000000000
1.0000000000000000 0.0000000000000000 0.0000000000000000
1.0000000000000000 0.0000000000000000 0.0000000000000000
1.0000000000000000 0.0000000000000000 0.0000000000000000
1.0000000000000000 0.0000000000000000 0.0000000000000000
1.0000000000000000 0.0000000000000000 0.0000000000000000
1.0000000000000000 0.0000000000000000 0.0000000000000000
1.0000000000000000 0.0000000000000000 0.0000000000000000
1.0000000000000000 0.0000000000000000 0.0000000000000000
1.0000000000000000 0.0000000000000000 0.0000000000000000
1.0000000000000000 0.0000000000000000 0.0000000000000000
1.0000000000000000 0.0000000000000000 0.0000000000000000
1.0000000000000000 0.0000000000000000 0.0000000000000000
1.0000000000000000 0.0000000000000000 0.0000000000000000
1.0000000000000000 0.0000000000000000 0.0000000000000000
1.0000000000000000 0.0000000000000000 0.0000000000000000
1.0000000000000000 0.0000000000000000 0.0000000000000000
1.0000000000000000 0.0000000000000000 0.0000000000000000
1.0000000000000000 0.0000000000000000 0.0000000000000000
1.0000000000000000 0.0000000000000000 0.0000000000000000
1.0000000000000000 0.0000000000000000 0.0000000000000000
1.0000000000000000 0.0000000000000000 0.0000000000000000
1.0000000000000000 0.0000000000000000 0.0000000000000000
1.0000000000000000 0.0000000000000000 0.0000000000000000
1.0000000000000000 0.0000000000000000 0.0000000000000000
1.0000000000000000 0.0000000000000000 0.0000000000000000
1.0000000000000000 0.0000000000000000 0.0000000000000000
1.0000000000000000 0.0000000000000000 0.0000000000000000
1.0000000000000000 0.0000000000000000 0.0000000000000000
1.0000000000000000 0.0000000000000000 0.0000000000000000
1.0000000000000000 0.0000000000000000 0.0000000000000000
1.0000000000000000 0.0000000000000000 0.0000000000000000
1.0000000000000000 0.0000000000000000 0.0000000000000000
1.0000000000000000 0.0000000000000000 0.0000000000000000
1.0000000000000000 0.0000000000000000 0.0000000000000000
1.0000000000000000 0.0000000000000000 0.0000000000000000
1.0000000000000000 0.0000000000000000 0.0000000000000000
1.0000000000000000 0.0000000000000000 0.0000000000000000
1.0000000000000000 0.0000000000000000 0.0000000000000000
1.0000000000000000 0.0000000000000000 0.0000000000000000
1.0000000000000000 0.0000000000000000 0.0000000000000000
1.0000000000000000 0.0000000000000000 0.0000000000000000
1.0000000000000000 0.0000000000000000 0.0000000000000000
1.0000000000000000 0.0000000000000000 0.0000000000000000
1.0000000000000000 0.0000000000000000 0.0000000000000000
1.0000000000000000 0.0000000000000000 0.0000000000000000
1.0000000000000000 0.0000000000000000 0.0000000000000000
1.0000000000000000 0.0000000000000000 0.0000000000000000
1.0000000000000000 0.0000000000000000 0.0000000000000000
1.0000000000000000 0.0000000000000000 0.0000000000000000
1.0000000000000000 0.0000000000000000 0.0000000000000000
1.0000000000000000 0.0000000000000000 0.0000000000000000
1.0000000000000000 0.0000000000000000 0.0000000000000000
1.0000000000000000 0.0000000000000000 0.0000000000000000
1.0000000000000000 0.0000000000000000 0.0000000000000000
1.0000000000000000 0.0000000000000000 0.0000000000000000
1.0000000000000000 0.0000000000000000 0.0000000000000000
1.0000000000000000 0.0000000000000000 0.0000000000000000
1.0000000000000000 0.0000000000000000 0.0000000000000000
1.0000000000000000 0.0000000000000000 0.0000000000000000
1.0000000000000000 0.0000000000000000 0.0000000000000000
1.0000000000000000 0.0000000000000000 0.0000000000000000
1.0000000000000000 0.0000000000000000 0.0000000000000000
1.0000000000000000 0.0000000000000000 0.0000000000000000
1.0000000000000000 0.0000000000000000 0.0000000000000000
1.0000000000000000 0.0000000000000000 0.0000000000000000
1.0000000000000000 0.0000000000000000 0.0000000000000000
1.0000000000000000 0.0000000000000000 0.0000000000000000
1.0000000000000000 0.0000000000000000 0.0000000000000000
1.0000000000000000 0.0000000000000000 0.0000000000000000
1.0000000000000000 0.0000000000000000 0.0000000000000000
1.0000000000000000 0.0000000000000000 0.0000000000000000
1.0000000000000000 0.0000000000000000 0.0000000000000000
1.0000000000000000 0.0000000000000000 0.0000000000000000
1.0000000000000000 0.0000000000000000 0.0000000000000000
1.0000000000000000 0.0000000000000000 0.0000000000000000
1.0000000000000000 0.0000000000000000 0.0000000000000000
1.0000000000000000 0.0000000000000000 0.0000000000000000
1.0000000000000000 0.0000000000000000 0.0000000000000000
1.0000000000000000 0.0000000000000000 0.0000000000000000
1.0000000000000000 0.0000000000000000 0.0000000000000000
1.0000000000000000 0.0000000000000000 0.0000000000000000
1.0000000000000000 0.0000000000000000 0.0000000000000000
1.0000000000000000 0.0000000000000000 0.0000000000000000
1.0000000000000000 0.0000000000000000 0.0000000000000000
1.0000000000000000 0.0000000000000000 0.0000000000000000
1.0000000000000000 0.0000000000000000 0.0000000000000000
1.0000000000000000 0.0000000000000000 0.0000000000000000
1.0000000000000000 0.0000000000000000 0.0000000000000000
1.0000000000000000 0.0000000000000000 0.0000000000000000
1.0000000000000000 0.0000000000000000 0.0000000000000000
1.0000000000000000 0.0000000000000000 0.0000000000000000
1.0000000000000000 0.0000000000000000 0.0000000000000000
1.0000000000000000 0.0000000000000000 0.0000000000000000
1.0000000000000000 0.0000000000000000 0.0000000000000000
1.0000000000000000 0.0000000000000000 0.0000000000000000
1.0000000000000000 0.0000000000000000 0.0000000000000000
1.0000000000000000 0.0000000000000000 0.0000000000000000
1.0000000000000000 0.0000000000000000 0.0000000000000000
1.0000000000000000 0.0000000000000000 0.0000000000000000
1.0000000000000000 0.0000000000000000 0.0000000000000000
1.0000000000000000 0.0000000000000000 0.0000000000000000
1.0000000000000000 0.0000000000000000 0.0000000000000000
1.0000000000000000 0.0000000000000000 0.0000000000000000
1.0000000000000000 0.0000000000000000 0.0000000000000000
1.0000000000000000 0.0000000000000000 0.0000000000000000
1.0000000000000000 0.0000000000000000 0.0000000000000000
1.0000000000000000 0.0000000000000000 0.0000000000000000
1.0000000000000000 0.0000000000000000 0.0000000000000000
1.0000000000000000 0.0000000000000000 0.0000000000000000
1.0000000000000000 0.0000000000000000 0.0000000000000000
1.0000000000000000 0.0000000000000000 0.0000000000000000
1.0000000000000000 0.0000000000000000 0.0000000000000000
1.0000000000000000 0.0000000000000000 0.0000000000000000
1.0000000000000000 0.0000000000000000 0.0000000000000000
1.0000000000000000 0.0000000000000000 0.0000000000000000
1.0000000000000000 0.0000000000000000 0.0000000000000000
1.0000000000000000 0.0000000000000000 0.0000000000000000
1.0000000000000000 0.0000000000000000 0.0000000000000000
1.0000000000000000 0.0000000000000000 0.0000000000000000
1.0000000000000000 0.0000000000000000 0.0000000000000000
1.0000000000000000 0.0000000000000000 0.0000000000000000
1.0000000000000000 0.0000000000000000 0.0000000000000000
1.0000000000000000 0.0000000000000000 0.0000000000000000
1.0000000000000000 0.0000000000000000 0.0000000000000000
1.0000000000000000 0.0000000000000000 0.0000000000000000
1.0000000000000000 0.0000000000000000 0.0000000000000000
1.0000000000000000 0.0000000000000000 0.0000000000000000
1.0000000000000000 0.0000000000000000 0.0000000000000000
1.0000000000000000 0.0000000000000000 0.0000000000000000
1.0000000000000000 0.0000000000000000 0.0000000000000000
1.0000000000000000 0.0000000000000000 0.0000000000000000
1.0000000000000000 0.0000000000000000 0.0000000000000000
1.0000000000000000 0.0000000000000000 0.0000000000000000
1.0000000000000000 0.0000000000000000 0.0000000000000000
1.0000000000000000 0.0000000000000000 0.0000000000000000
1.0000000000000000 0.0000000000000000 0.0000000000000000
1.0000000000000000 0.0000000000000000 0.0000000000000000
1.0000000000000000 0.0000000000000000 0.0000000000000000
1.0000000000000000 0.0000000000000000 0.0000000000000000
1.0000000000000000 0.0000000000000000 0.0000000000000000
1.0000000000000000 0.0000000000000000 0.0000000000000000
1.0000000000000000 0.0000000000000000 0.0000000000000000
1.0000000000000000 0.0000000000000000 0.0000000000000000
1.0000000000000000 0.0000000000000000 0.0000000000000000
1.0000000000000000 0.0000000000000000 0.0000000000000000
1.0000000000000000 0.0000000000000000 0.0000000000000000
1.0000000000000000 0.0000000000000000 0.0000000000000000
1.0000000000000000 0.0000000000000000 0.0000000000000000
1.0000000000000000 0.0000000000000000 0.0000000000000000
1.0000000000000000 0.0000000000000000 0.0000000000000000
1.0000000000000000 0.0000000000000000 0.0000000000000000
1.0000000000000000 0.0000000000000000 0.0000000000000000
1.0000000000000000 0.0000000000000000 0.0000000000000000
1.0000000000000000 0.0000000000000000 0.0000000000000000
1.0000000000000000 0.0000000000000000 0.0000000000000000
1.0000000000000000 0.0000000000000000 0.0000000000000000
1.0000000000000000 0.0000000000000000 0.0000000000000000
1.0000000000000000 0.0000000000000000 0.0000000000000000
1.0000000000000000 0.0000000000000000 0.0000000000000000
1.0000000000000000 0.0000000000000000 0.0000000000000000
1.0000000000000000 0.0000000000000000 0.0000000000000000
1.0000000000000000 0.0000000000000000 0.0000000000000000
1.0000000000000000 0.0000000000000000 0.0000000000000000
1.0000000000000000 0.0000000000000000 0.0000000000000000
1.0000000000000000 0.0000000000000000 0.0000000000000000
1.0000000000000000 0.0000000000000000 0.0000000000000000
1.0000000000000000 0.0000000000000000 0.0000000000000000
1.0000000000000000 0.0000000000000000 0.0000000000000000
1.0000000000000000 0.0000000000000000 0.0000000000000000
1.0000000000000000 0.0000000000000000 0.0000000000000000
1.0000000000000000 0.0000000000000000 0.0000000000000000
1.0000000000000000 0.0000000000000000 0.0000000000000000
1.0000000000000000 0.0000000000000000 0.0000000000000000
1.0000000000000000 0.0000000000000000 0.0000000000000000
1.0000000000000000 0.0000000000000000 0.0000000000000000
1.0000000000000000 0.0000000000000000 0.0000000000000000
1.0000000000000000 0.0000000000000000 0.0000000000000000
1.0000000000000000 0.0000000000000000 0.0000000000000000
1.0000000000000000 0.0000000000000000 0.0000000000000000
1.0000000000000000 0.0000000000000000 0.0000000000000000
1.0000000000000000 0.0000000000000000 0.0000000000000000
1.0000000000000000 0.0000000000000000 0.0000000000000000
1.0000000000000000 0.0000000000000000 0.0000000000000000
1.0000000000000000 0.0000000000000000 0.0000000000000000
1.0000000000000000 0.0000000000000000 0.0000000000000000
1.0000000000000000 0.0000000000000000 0.0000000000000000
1.0000000000000000 0.0000000000000000 0.0000000000000000
1.0000000000000000 0.0000000000000000 0.0000000000000000
1.0000000000000000 0.0000000000000000 0.0000000000000000
1.0000000000000000 0.0000000000000000 0.0000000000000000
1.0000000000000000 0.0000000000000000 0.0000000000000000
1.0000000000000000 0.0000000000000000 0.0000000000000000
1.0000000000000000 0.0000000000000000 0.0000000000000000
1.0000000000000000 0.0000000000000000 0.0000000000000000
1.0000000000000000 0.0000000000000000 0.0000000000000000
1.0000000000000000 0.0000000000000000 0.0000000000000000
1.0000000000000000 0.0000000000000000 0.0000000000000000
1.0000000000000000 0.0000000000000000 0.0000000000000000
1.0000000000000000 0.0000000000000000 0.0000000000000000
1.0000000000000000 0.0000000000000000 0.0000000000000000
1.0000000000000000 0.0000000000000000 0.0000000000000000
1.0000000000000000 0.0000000000000000 0.0000000000000000
1.0000000000000000 0.0000000000000000 0.0000000000000000
1.0000000000000000 0.0000000000000000 0.0000000000000000
1.0000000000000000 0.0000000000000000 0.0000000000000000
1.0000000000000000 0.0000000000000000 0.0000000000000000
1.0000000000000000 0.0000000000000000 0.0000000000000000
1.0000000000000000 0.0000000000000000 0.0000000000000000
1.0000000000000000 0.0000000000000000 0.0000000000000000
1.0000000000000000 0.0000000000000000 0.0000000000000000
1.0000000000000000 0.0000000000000000 0.0000000000000000
1.0000000000000000 0.0000000000000000 0.0000000000000000
1.0000000000000000 0.0000000000000000 0.0000000000000000
1.0000000000000000 0.0000000000000000 0.0000000000000000
1.0000000000000000 0.0000000000000000 0.0000000000000000
1.0000000000000000 0.0000000000000000 0.0000000000000000
1.0000000000000000 0.0000000000000000 0.0000000000000000
1.0000000000000000 0.0000000000000000 0.0000000000000000
1.0000000000000000 0.0000000000000000 0.0000000000000000
1.0000000000000000 0.0000000000000000 0.0000000000000000
1.0000000000000000 0.0000000000000000 0.0000000000000000
1.0000000000000000 0.0000000000000000 0.0000000000000000
1.0000000000000000 0.0000000000000000 0.0000000000000000
1.0000000000000000 0.0000000000000000 0.0000000000000000
1.0000000000000000 0.0000000000000000 0.0000000000000000
1.0000000000000000 0.0000000000000000 0.0000000000000000
1.0000000000000000 0.0000000000000000 0.0000000000000000
1.0000000000000000 0.0000000000000000 0.0000000000000000
1.0000000000000000 0.0000000000000000 0.0000000000000000
1.0000000000000000 0.0000000000000000 0.0000000000000000
1.0000000000000000 0.0000000000000000 0.0000000000000000
1.0000000000000000 0.0000000000000000 0.0000000000000000
1.0000000000000000 0.0000000000000000 0.0000000000000000
1.0000000000000000 0.0000000000000000 0.0000000000000000
1.0000000000000000 0.0000000000000000 0.0000000000000000
1.0000000000000000 0.0000000000000000 0.0000000000000000
1.0000000000000000 0.0000000000000000 0.0000000000000000
1.0000000000000000 0.0000000000000000 0.0000000000000000
1.0000000000000000 0.0000000000000000 0.0000000000000000
1.0000000000000000 0.0000000000000000 0.0000000000000000
1.0000000000000000 0.0000000000000000 0.0000000000000000
1.0000000000000000 0.0000000000000000 0.0000000000000000
1.0000000000000000 0.0000000000000000 0.0000000000000000
1.0000000000000000 0.0000000000000000 0.0000000000000000
1.0000000000000000 0.0000000000000000 0.0000000000000000
1.0000000000000000 0.0000000000000000 0.0000000000000000
1.0000000000000000 0.0000000000000000 0.0000000000000000
1.0000000000000000 0.0000000000000000 0.0000000000000000
1.0000000000000000 0.0000000000000000 0.0000000000000000
1.0000000000000000 0.0000000000000000 0.0000000000000000
1.0000000000000000 0.0000000000000000 0.0000000000000000
1.0000000000000000 0.0000000000000000 0.0000000000000000
1.0000000000000000 0.0000000000000000 0.0000000000000000
1.0000000000000000 0.0000000000000000 0.0000000000000000
1.0000000000000000 0.0000000000000000 0.0000000000000000
1.0000000000000000 0.0000000000000000 0.0000000000000000
1.0000000000000000 0.0000000000000000 0.0000000000000000
1.0000000000000000 0.0000000000000000 0.0000000000000000
1.0000000000000000 0.0000000000000000 0.0000000000000000
1.0000000000000000 0.0000000000000000 0.0000000000000000
1.0000000000000000 0.0000000000000000 0.0000000000000000
1.0000000000000000 0.0000000000000000 0.0000000000000000
1.0000000000000000 0.0000000000000000 0.0000000000000000
1.0000000000000000 0.0000000000000000 0.0000000000000000
1.0000000000000000 0.0000000000000000 0.0000000000000000
1.0000000000000000 0.0000000000000000 0.0000000000000000
1.0000000000000000 0.0000000000000000 0.0000000000000000
1.0000000000000000 0.0000000000000000 0.0000000000000000
1.0000000000000000 0.0000000000000000 0.0000000000000000
1.0000000000000000 0.0000000000000000 0.0000000000000000
1.0000000000000000 0.0000000000000000 0.0000000000000000
1.0000000000000000 0.0000000000000000 0.0000000000000000
1.0000000000000000 0.0000000000000000 0.0000000000000000
1.0000000000000000 0.0000000000000000 0.0000000000000000
1.0000000000000000 0.0000000000000000 0.0000000000000000
1.0000000000000000 0.0000000000000000 0.0000000000000000
1.0000000000000000 0.0000000000000000 0.0000000000000000
1.0000000000000000 0.0000000000000000 0.0000000000000000
1.0000000000000000 0.0000000000000000 0.0000000000000000
1.0000000000000000 0.0000000000000000 0.0000000000000000
1.0000000000000000 0.0000000000000000 0.0000000000000000
1.0000000000000000 0.0000000000000000 0.0000000000000000
1.0000000000000000 0.0000000000000000 0.0000000000000000
1.0000000000000000 0.0000000000000000 0.0000000000000000
1.0000000000000000 0.0000000000000000 0.0000000000000000
1.0000000000000000 0.0000000000000000 0.0000000000000000
1.0000000000000000 0.0000000000000000 0.0000000000000000
1.0000000000000000 0.0000000000000000 0.0000000000000000
1.0000000000000000 0.0000000000000000 0.0000000000000000
1.0000000000000000 0.0000000000000000 0.0000000000000000
1.0000000000000000 0.0000000000000000 0.0000000000000000
1.0000000000000000 0.0000000000000000 0.0000000000000000
1.0000000000000000 0.0000000000000000 0.0000000000000000
1.0000000000000000 0.0000000000000000 0.0000000000000000
1.0000000000000000 0.0000000000000000 0.0000000000000000
1.0000000000000000 0.0000000000000000 0.0000000000000000
1.0000000000000000 0.0000000000000000 0.0000000000000000
1.0000000000000000 0.0000000000000000 0.0000000000000000
1.0000000000000000 0.0000000000000000 0.0000000000000000
1.0000000000000000 0.0000000000000000 0.0000000000000000
1.0000000000000000 0.0000000000000000 0.0000000000000000
1.0000000000000000 0.0000000000000000 0.0000000000000000
1.0000000000000000 0.0000000000000000 0.0000000000000000
1.0000000000000000 0.0000000000000000 0.0000000000000000
1.0000000000000000 0.0000000000000000 0.0000000000000000
1.0000000000000000 0.0000000000000000 0.0000000000000000
1.0000000000000000 0.0000000000000000 0.0000000000000000
1.0000000000000000 0.0000000000000000 0.0000000000000000
1.0000000000000000 0.0000000000000000 0.0000000000000000
1.0000000000000000 0.0000000000000000 0.0000000000000000
1.0000000000000000 0.0000000000000000 0.0000000000000000
1.0000000000000000 0.0000000000000000 0.0000000000000000
1.0000000000000000 0.0000000000000000 0.0000000000000000
1.0000000000000000 0.0000000000000000 0.0000000000000000
1.0000000000000000 0.0000000000000000 0.0000000000000000
1.0000000000000000 0.0000000000000000 0.0000000000000000
1.0000000000000000 0.0000000000000000 0.0000000000000000
1.0000000000000000 0.0000000000000000 0.0000000000000000
1.0000000000000000 0.0000000000000000 0.0000000000000000
1.0000000000000000 0.0000000000000000 0.0000000000000000
1.0000000000000000 0.0000000000000000 0.0000000000000000
1.0000000000000000 0.0000000000000000 0.0000000000000000
1.0000000000000000 0.0000000000000000 0.0000000000000000
1.0000000000000000 0.0000000000000000 0.0000000000000000
1.0000000000000000 0.0000000000000000 0.0000000000000000
1.0000000000000000 0.0000000000000000 0.0000000000000000
1.0000000000000000 0.0000000000000000 0.0000000000000000
1.0000000000000000 0.0000000000000000 0.0000000000000000
1.0000000000000000 0.0000000000000000 0.0000000000000000
1.0000000000000000 0.0000000000000000 0.0000000000000000
1.0000000000000000 0.0000000000000000 0.0000000000000000
1.0000000000000000 0.0000000000000000 0.0000000000000000
1.0000000000000000 0.0000000000000000 0.0000000000000000
1.0000000000000000 0.0000000000000000 0.0000000000000000
1.0000000000000000 0.0000000000000000 0.0000000000000000
1.0000000000000000 0.0000000000000000 0.0000000000000000
1.0000000000000000 0.0000000000000000 0.0000000000000000
1.0000000000000000 0.0000000000000000 0.0000000000000000
1.0000000000000000 0.0000000000000000 0.0000000000000000
1.0000000000000000 0.0000000000000000 0.0000000000000000
1.0000000000000000 0.0000000000000000 0.0000000000000000
1.0000000000000000 0.0000000000000000 0.0000000000000000
1.0000000000000000 0.0000000000000000 0.0000000000000000
1.0000000000000000 0.0000000000000000 0.0000000000000000
1.0000000000000000 0.0000000000000000 0.0000000000000000
1.0000000000000000 0.0000000000000000 0.0000000000000000
1.0000000000000000 0.0000000000000000 0.0000000000000000
1.0000000000000000 0.0000000000000000 0.0000000000000000
1.0000000000000000 0.0000000000000000 0.0000000000000000
1.0000000000000000 0.0000000000000000 0.0000000000000000
1.0000000000000000 0.0000000000000000 0.0000000000000000
1.0000000000000000 0.0000000000000000 0.0000000000000000
1.0000000000000000 0.0000000000000000 0.0000000000000000
1.0000000000000000 0.0000000000000000 0.0000000000000000
1.0000000000000000 0.0000000000000000 0.0000000000000000
1.0000000000000000 0.0000000000000000 0.0000000000000000
1.0000000000000000 0.0000000000000000 0.0000000000000000
1.0000000000000000 0.0000000000000000 0.0000000000000000
1.0000000000000000 0.0000000000000000 0.0000000000000000
1.0000000000000000 0.0000000000000000 0.0000000000000000
1.0000000000000000 0.0000000000000000 0.0000000000000000
1.0000000000000000 0.0000000000000000 0.0000000000000000
1.0000000000000000 0.0000000000000000 0.0000000000000000
1.0000000000000000 0.0000000000000000 0.0000000000000000
1.0000000000000000 0.0000000000000000 0.0000000000000000
1.0000000000000000 0.0000000000000000 0.0000000000000000
1.0000000000000000 0.0000000000000000 0.0000000000000000
1.0000000000000000 0.0000000000000000 0.0000000000000000
1.0000000000000000 0.0000000000000000 0.0000000000000000
1.0000000000000000 0.0000000000000000 0.0000000000000000
1.0000000000000000 0.0000000000000000 0.0000000000000000
1.0000000000000000 0.0000000000000000 0.0000000000000000
1.0000000000000000 0.0000000000000000 0.0000000000000000
1.0000000000000000 0.0000000000000000 0.0000000000000000
1.0000000000000000 0.0000000000000000 0.0000000000000000
1.0000000000000000 0.0000000000000000 0.0000000000000000
1.0000000000000000 0.0000000000000000 0.0000000000000000
1.0000000000000000 0.0000000000000000 0.0000000000000000
1.0000000000000000 0.0000000000000000 0.0000000000000000
1.0000000000000000 0.0000000000000000 0.0000000000000000
1.0000000000000000 0.0000000000000000 0.0000000000000000
1.0000000000000000 0.0000000000000000 0.0000000000000000
1.0000000000000000 0.0000000000000000 0.0000000000000000
1.0000000000000000 0.0000000000000000 0.0000000000000000
1.0000000000000000 0.0000000000000000 0.0000000000000000
1.0000000000000000 0.0000000000000000 0.0000000000000000
1.0000000000000000 0.0000000000000000 0.0000000000000000
1.0000000000000000 0.0000000000000000 0.0000000000000000
1.0000000000000000 0.0000000000000000 0.0000000000000000
1.0000000000000000 0.0000000000000000 0.0000000000000000
1.0000000000000000 0.0000000000000000 0.0000000000000000
1.0000000000000000 0.0000000000000000 0.0000000000000000
1.0000000000000000 0.0000000000000000 0.0000000000000000
1.0000000000000000 0.0000000000000000 0.0000000000000000
1.0000000000000000 0.0000000000000000 0.0000000000000000
1.0000000000000000 0.0000000000000000 0.0000000000000000
1.0000000000000000 0.0000000000000000 0.0000000000000000
1.0000000000000000 0.0000000000000000 0.0000000000000000
1.0000000000000000 0.0000000000000000 0.0000000000000000
1.0000000000000000 0.0000000000000000 0.0000000000000000
1.0000000000000000 0.0000000000000000 0.0000000000000000
1.0000000000000000 0.0000000000000000 0.0000000000000000
1.0000000000000000 0.0000000000000000 0.0000000000000000
1.0000000000000000 0.0000000000000000 0.0000000000000000
1.0000000000000000 0.0000000000000000 0.0000000000000000
1.0000000000000000 0.0000000000000000 0.0000000000000000
1.0000000000000000 0.0000000000000000 0.0000000000000000
1.0000000000000000 0.0000000000000000 0.0000000000000000
1.0000000000000000 0.0000000000000000 0.0000000000000000
1.0000000000000000 0.0000000000000000 0.0000000000000000
1.0000000000000000 0.0000000000000000 0.0000000000000000
1.0000000000000000 0.0000000000000000 0.0000000000000000
1.0000000000000000 0.0000000000000000 0.0000000000000000
1.0000000000000000 0.0000000000000000 0.0000000000000000
1.0000000000000000 0.0000000000000000 0.0000000000000000
1.0000000000000000 0.0000000000000000 0.0000000000000000
1.0000000000000000 0.0000000000000000 0.0000000000000000
1.0000000000000000 0.0000000000000000 0.0000000000000000
1.0000000000000000 0.0000000000000000 0.0000000000000000
1.0000000000000000 0.0000000000000000 0.0000000000000000
1.0000000000000000 0.0000000000000000 0.0000000000000000
1.0000000000000000 0.0000000000000000 0.0000000000000000
1.0000000000000000 0.0000000000000000 0.0000000000000000
1.0000000000000000 0.0000000000000000 0.0000000000000000
1.0000000000000000 0.0000000000000000 0.0000000000000000
1.0000000000000000 0.0000000000000000 0.0000000000000000
1.0000000000000000 0.0000000000000000 0.0000000000000000
1.0000000000000000 0.0000000000000000 0.0000000000000000
1.0000000000000000 0.0000000000000000 0.0000000000000000
1.0000000000000000 0.0000000000000000 0.0000000000000000
1.0000000000000000 0.0000000000000000 0.0000000000000000
1.0000000000000000 0.0000000000000000 0.0000000000000000
1.0000000000000000 0.0000000000000000 0.0000000000000000
1.0000000000000000 0.0000000000000000 0.0000000000000000
1.0000000000000000 0.0000000000000000 0.0000000000000000
1.0000000000000000 0.0000000000000000 0.0000000000000000
1.0000000000000000 0.0000000000000000 0.0000000000000000
1.0000000000000000 0.0000000000000000 0.0000000000000000
1.0000000000000000 0.0000000000000000 0.0000000000000000
1.0000000000000000 0.0000000000000000 0.0000000000000000
1.0000000000000000 0.0000000000000000 0.0000000000000000
1.0000000000000000 0.0000000000000000 0.0000000000000000
1.0000000000000000 0.0000000000000000 0.0000000000000000
1.0000000000000000 0.0000000000000000 0.0000000000000000
1.0000000000000000 0.0000000000000000 0.0000000000000000
1.0000000000000000 0.0000000000000000 0.0000000000000000
1.0000000000000000 0.0000000000000000 0.0000000000000000
1.0000000000000000 0.0000000000000000 0.0000000000000000
1.0000000000000000 0.0000000000000000 0.0000000000000000
1.0000000000000000 0.0000000000000000 0.0000000000000000
1.0000000000000000 0.0000000000000000 0.0000000000000000
1.0000000000000000 0.0000000000000000 0.0000000000000000
1.0000000000000000 0.0000000000000000 0.0000000000000000
1.0000000000000000 0.0000000000000000 0.0000000000000000
1.0000000000000000 0.0000000000000000 0.0000000000000000
1.0000000000000000 0.0000000000000000 0.0000000000000000
1.0000000000000000 0.0000000000000000 0.0000000000000000
1.0000000000000000 0.0000000000000000 0.0000000000000000
1.0000000000000000 0.0000000000000000 0.0000000000000000
1.0000000000000000 0.0000000000000000 0.0000000000000000
1.0000000000000000 0.0000000000000000 0.0000000000000000
1.0000000000000000 0.0000000000000000 0.0000000000000000
1.0000000000000000 0.0000000000000000 0.0000000000000000
1.0000000000000000 0.0000000000000000 0.0000000000000000
1.0000000000000000 0.0000000000000000 0.0000000000000000
1.0000000000000000 0.0000000000000000 0.0000000000000000
1.0000000000000000 0.0000000000000000 0.0000000000000000
1.0000000000000000 0.0000000000000000 0.0000000000000000
1.0000000000000000 0.0000000000000000 0.0000000000000000
1.0000000000000000 0.0000000000000000 0.0000000000000000
1.0000000000000000 0.0000000000000000 0.0000000000000000
1.0000000000000000 0.0000000000000000 0.0000000000000000
1.0000000000000000 0.0000000000000000 0.0000000000000000
1.0000000000000000 0.0000000000000000 0.0000000000000000
1.0000000000000000 0.0000000000000000 0.0000000000000000
1.0000000000000000 0.0000000000000000 0.0000000000000000
1.0000000000000000 0.0000000000000000 0.0000000000000000
1.0000000000000000 0.0000000000000000 0.0000000000000000
1.0000000000000000 0.0000000000000000 0.0000000000000000
1.0000000000000000 0.0000000000000000 0.0000000000000000
1.0000000000000000 0.0000000000000000 0.0000000000000000
1.0000000000000000 0.0000000000000000 0.0000000000000000
1.0000000000000000 0.0000000000000000 0.0000000000000000
1.0000000000000000 0.0000000000000000 0.0000000000000000
1.0000000000000000 0.0000000000000000 0.0000000000000000
1.0000000000000000 0.0000000000000000 0.0000000000000000
1.0000000000000000 0.0000000000000000 0.0000000000000000
1.0000000000000000 0.0000000000000000 0.0000000000000000
1.0000000000000000 0.0000000000000000 0.0000000000000000
1.0000000000000000 0.0000000000000000 0.0000000000000000
1.0000000000000000 0.0000000000000000 0.0000000000000000
1.0000000000000000 0.0000000000000000 0.0000000000000000
1.0000000000000000 0.0000000000000000 0.0000000000000000
1.0000000000000000 0.0000000000000000 0.0000000000000000
1.0000000000000000 0.0000000000000000 0.0000000000000000
1.0000000000000000 0.0000000000000000 0.0000000000000000
1.0000000000000000 0.0000000000000000 0.0000000000000000
1.0000000000000000 0.0000000000000000 0.0000000000000000
1.0000000000000000 0.0000000000000000 0.0000000000000000
1.0000000000000000 0.0000000000000000 0.0000000000000000
1.0000000000000000 0.0000000000000000 0.0000000000000000
1.0000000000000000 0.0000000000000000 0.0000000000000000
1.0000000000000000 0.0000000000000000 0.0000000000000000
1.0000000000000000 0.0000000000000000 0.0000000000000000
1.0000000000000000 0.0000000000000000 0.0000000000000000
1.0000000000000000 0.0000000000000000 0.0000000000000000
1.0000000000000000 0.0000000000000000 0.0000000000000000
1.0000000000000000 0.0000000000000000 0.0000000000000000
1.0000000000000000 0.0000000000000000 0.0000000000000000
1.0000000000000000 0.0000000000000000 0.0000000000000000
1.0000000000000000 0.0000000000000000 0.0000000000000000
1.0000000000000000 0.0000000000000000 0.0000000000000000
1.0000000000000000 0.0000000000000000 0.0000000000000000
1.0000000000000000 0.0000000000000000 0.0000000000000000
1.0000000000000000 0.0000000000000000 0.0000000000000000
1.0000000000000000 0.0000000000000000 0.0000000000000000
1.0000000000000000 0.0000000000000000 0.0000000000000000
1.0000000000000000 0.0000000000000000 0.0000000000000000
1.0000000000000000 0.0000000000000000 0.0000000000000000
1.0000000000000000 0.0000000000000000 0.0000000000000000
1.0000000000000000 0.0000000000000000 0.0000000000000000
1.0000000000000000 0.0000000000000000 0.0000000000000000
1.0000000000000000 0.0000000000000000 0.0000000000000000
1.0000000000000000 0.0000000000000000 0.0000000000000000
1.0000000000000000 0.0000000000000000 0.0000000000000000
1.0000000000000000 0.0000000000000000 0.0000000000000000
1.0000000000000000 0.0000000000000000 0.0000000000000000
1.0000000000000000 0.0000000000000000 0.0000000000000000
1.0000000000000000 0.0000000000000000 0.0000000000000000
1.0000000000000000 0.0000000000000000 0.0000000000000000
1.0000000000000000 0.0000000000000000 0.0000000000000000
1.0000000000000000 0.0000000000000000 0.0000000000000000
1.0000000000000000 0.0000000000000000 0.0000000000000000
1.0000000000000000 0.0000000000000000 0.0000000000000000
1.0000000000000000 0.0000000000000000 0.0000000000000000
1.0000000000000000 0.0000000000000000 0.0000000000000000
1.0000000000000000 0.0000000000000000 0.0000000000000000
1.0000000000000000 0.0000000000000000 0.0000000000000000
1.0000000000000000 0.0000000000000000 0.0000000000000000
1.0000000000000000 0.0000000000000000 0.0000000000000000
1.0000000000000000 0.0000000000000000 0.0000000000000000
1.0000000000000000 0.0000000000000000 0.0000000000000000
1.0000000000000000 0.0000000000000000 0.0000000000000000
1.0000000000000000 0.0000000000000000 0.0000000000000000
1.0000000000000000 0.0000000000000000 0.0000000000000000
1.0000000000000000 0.0000000000000000 0.0000000000000000
1.0000000000000000 0.0000000000000000 0.0000000000000000
1.0000000000000000 0.0000000000000000 0.0000000000000000
1.0000000000000000 0.0000000000000000 0.0000000000000000
1.0000000000000000 0.0000000000000000 0.0000000000000000
1.0000000000000000 0.0000000000000000 0.0000000000000000
1.0000000000000000 0.0000000000000000 0.0000000000000000
1.0000000000000000 0.0000000000000000 0.0000000000000000
1.0000000000000000 0.0000000000000000 0.0000000000000000
1.0000000000000000 0.0000000000000000 0.0000000000000000
1.0000000000000000 0.0000000000000000 0.0000000000000000
1.0000000000000000 0.0000000000000000 0.0000000000000000
1.0000000000000000 0.0000000000000000 0.0000000000000000
1.0000000000000000 0.0000000000000000 0.0000000000000000
1.0000000000000000 0.0000000000000000 0.0000000000000000
1.0000000000000000 0.0000000000000000 0.0000000000000000
1.0000000000000000 0.0000000000000000 0.0000000000000000
1.0000000000000000 0.0000000000000000 0.0000000000000000
1.0000000000000000 0.0000000000000000 0.0000000000000000
1.0000000000000000 0.0000000000000000 0.0000000000000000
1.0000000000000000 0.0000000000000000 0.0000000000000000
1.0000000000000000 0.0000000000000000 0.0000000000000000
1.0000000000000000 0.0000000000000000 0.0000000000000000
1.0000000000000000 0.0000000000000000 0.0000000000000000
1.0000000000000000 0.0000000000000000 0.0000000000000000
1.0000000000000000 0.0000000000000000 0.0000000000000000
1.0000000000000000 0.0000000000000000 0.0000000000000000
1.0000000000000000 0.0000000000000000 0.0000000000000000
1.0000000000000000 0.0000000000000000 0.0000000000000000
1.0000000000000000 0.0000000000000000 0.0000000000000000
1.0000000000000000 0.0000000000000000 0.0000000000000000
1.0000000000000000 0.0000000000000000 0.0000000000000000
1.0000000000000000 0.0000000000000000 0.0000000000000000
1.0000000000000000 0.0000000000000000 0.0000000000000000
1.0000000000000000 0.0000000000000000 0.0000000000000000
1.0000000000000000 0.0000000000000000 0.0000000000000000
1.0000000000000000 0.0000000000000000 0.0000000000000000
1.0000000000000000 0.0000000000000000 0.0000000000000000
1.0000000000000000 0.0000000000000000 0.0000000000000000
1.0000000000000000 0.0000000000000000 0.0000000000000000
1.0000000000000000 0.0000000000000000 0.0000000000000000
1.0000000000000000 0.0000000000000000 0.0000000000000000
1.0000000000000000 0.0000000000000000 0.0000000000000000
1.0000000000000000 0.0000000000000000 0.0000000000000000
1.0000000000000000 0.0000000000000000 0.0000000000000000
1.0000000000000000 0.0000000000000000 0.0000000000000000
1.0000000000000000 0.0000000000000000 0.0000000000000000
1.0000000000000000 0.0000000000000000 0.0000000000000000
1.0000000000000000 0.0000000000000000 0.0000000000000000
1.0000000000000000 0.0000000000000000 0.0000000000000000
1.0000000000000000 0.0000000000000000 0.0000000000000000
1.0000000000000000 0.0000000000000000 0.0000000000000000
1.0000000000000000 0.0000000000000000 0.0000000000000000
1.0000000000000000 0.0000000000000000 0.0000000000000000
1.0000000000000000 0.0000000000000000 0.0000000000000000
1.0000000000000000 0.0000000000000000 0.0000000000000000
1.0000000000000000 0.0000000000000000 0.0000000000000000
1.0000000000000000 0.0000000000000000 0.0000000000000000
1.0000000000000000 0.0000000000000000 0.0000000000000000
1.0000000000000000 0.0000000000000000 0.0000000000000000
1.0000000000000000 0.0000000000000000 0.0000000000000000
1.0000000000000000 0.0000000000000000 0.0000000000000000
1.0000000000000000 0.0000000000000000 0.0000000000000000
1.0000000000000000 0.0000000000000000 0.0000000000000000
1.0000000000000000 0.0000000000000000 0.0000000000000000
1.0000000000000000 0.0000000000000000 0.0000000000000000
1.0000000000000000 0.0000000000000000 0.0000000000000000
1.0000000000000000 0.0000000000000000 0.0000000000000000
1.0000000000000000 0.0000000000000000 0.0000000000000000
1.0000000000000000 0.0000000000000000 0.0000000000000000
1.0000000000000000 0.0000000000000000 0.0000000000000000
1.0000000000000000 0.0000000000000000 0.0000000000000000
1.0000000000000000 0.0000000000000000 0.0000000000000000
1.0000000000000000 0.0000000000000000 0.0000000000000000
1.0000000000000000 0.0000000000000000 0.0000000000000000
1.0000000000000000 0.0000000000000000 0.0000000000000000
1.0000000000000000 0.0000000000000000 0.0000000000000000
1.0000000000000000 0.0000000000000000 0.0000000000000000
1.0000000000000000 0.0000000000000000 0.0000000000000000
1.0000000000000000 0.0000000000000000 0.0000000000000000
1.0000000000000000 0.0000000000000000 0.0000000000000000
1.0000000000000000 0.0000000000000000 0.0000000000000000
1.0000000000000000 0.0000000000000000 0.0000000000000000
1.0000000000000000 0.0000000000000000 0.0000000000000000
1.0000000000000000 0.0000000000000000 0.0000000000000000
1.0000000000000000 0.0000000000000000 0.0000000000000000
1.0000000000000000 0.0000000000000000 0.0000000000000000
1.0000000000000000 0.0000000000000000 0.0000000000000000
1.0000000000000000 0.0000000000000000 0.0000000000000000
1.0000000000000000 0.0000000000000000 0.0000000000000000
1.0000000000000000 0.0000000000000000 0.0000000000000000
1.0000000000000000 0.0000000000000000 0.0000000000000000
1.0000000000000000 0.0000000000000000 0.0000000000000000
1.0000000000000000 0.0000000000000000 0.0000000000000000
1.0000000000000000 0.0000000000000000 0.0000000000000000
1.0000000000000000 0.0000000000000000 0.0000000000000000
1.0000000000000000 0.0000000000000000 0.0000000000000000
1.0000000000000000 0.0000000000000000 0.0000000000000000
1.0000000000000000 0.0000000000000000 0.0000000000000000
1.0000000000000000 0.0000000000000000 0.0000000000000000
1.0000000000000000 0.0000000000000000 0.0000000000000000
1.0000000000000000 0.0000000000000000 0.0000000000000000
1.0000000000000000 0.0000000000000000 0.0000000000000000
1.0000000000000000 0.0000000000000000 0.0000000000000000
1.0000000000000000 0.0000000000000000 0.0000000000000000
1.0000000000000000 0.0000000000000000 0.0000000000000000
1.0000000000000000 0.0000000000000000 0.0000000000000000
1.0000000000000000 0.0000000000000000 0.0000000000000000
1.0000000000000000 0.0000000000000000 0.0000000000000000
1.0000000000000000 0.0000000000000000 0.0000000000000000
1.0000000000000000 0.0000000000000000 0.0000000000000000
1.0000000000000000 0.0000000000000000 0.0000000000000000
1.0000000000000000 0.0000000000000000 0.0000000000000000
1.0000000000000000 0.0000000000000000 0.0000000000000000
1.0000000000000000 0.0000000000000000 0.0000000000000000
1.0000000000000000 0.0000000000000000 0.0000000000000000
1.0000000000000000 0.0000000000000000 0.0000000000000000
1.0000000000000000 0.0000000000000000 0.0000000000000000
1.0000000000000000 0.0000000000000000 0.0000000000000000
1.0000000000000000 0.0000000000000000 0.0000000000000000
1.0000000000000000 0.0000000000000000 0.0000000000000000
1.0000000000000000 0.0000000000000000 0.0000000000000000
1.0000000000000000 0.0000000000000000 0.0000000000000000
1.0000000000000000 0.0000000000000000 0.0000000000000000
1.0000000000000000 0.0000000000000000 0.0000000000000000
1.0000000000000000 0.0000000000000000 0.0000000000000000
1.0000000000000000 0.0000000000000000 0.0000000000000000
1.0000000000000000 0.0000000000000000 0.0000000000000000
1.0000000000000000 0.0000000000000000 0.0000000000000000
1.0000000000000000 0.0000000000000000 0.0000000000000000
1.0000000000000000 0.0000000000000000 0.0000000000000000
1.0000000000000000 0.0000000000000000 0.0000000000000000
1.0000000000000000 0.0000000000000000 0.0000000000000000
1.0000000000000000 0.0000000000000000 0.0000000000000000
1.0000000000000000 0.0000000000000000 0.0000000000000000
1.0000000000000000 0.0000000000000000 0.0000000000000000
1.0000000000000000 0.0000000000000000 0.0000000000000000
1.0000000000000000 0.0000000000000000 0.0000000000000000
1.0000000000000000 0.0000000000000000 0.0000000000000000
1.0000000000000000 0.0000000000000000 0.0000000000000000
1.0000000000000000 0.0000000000000000 0.0000000000000000
1.0000000000000000 0.0000000000000000 0.0000000000000000
1.0000000000000000 0.0000000000000000 0.0000000000000000
1.0000000000000000 0.0000000000000000 0.0000000000000000
1.0000000000000000 0.0000000000000000 0.0000000000000000
1.0000000000000000 0.0000000000000000 0.0000000000000000
1.0000000000000000 0.0000000000000000 0.0000000000000000
1.0000000000000000 0.0000000000000000 0.0000000000000000
1.0000000000000000 0.0000000000000000 0.0000000000000000
1.0000000000000000 0.0000000000000000 0.0000000000000000
1.0000000000000000 0.0000000000000000 0.0000000000000000
1.0000000000000000 0.0000000000000000 0.0000000000000000
1.0000000000000000 0.0000000000000000 0.0000000000000000
1.0000000000000000 0.0000000000000000 0.0000000000000000
1.0000000000000000 0.0000000000000000 0.0000000000000000
1.0000000000000000 0.0000000000000000 0.0000000000000000
1.0000000000000000 0.0000000000000000 0.0000000000000000
1.0000000000000000 0.0000000000000000 0.0000000000000000
1.0000000000000000 0.0000000000000000 0.0000000000000000
1.0000000000000000 0.0000000000000000 0.0000000000000000
1.0000000000000000 0.0000000000000000 0.0000000000000000
1.0000000000000000 0.0000000000000000 0.0000000000000000
1.0000000000000000 0.0000000000000000 0.0000000000000000
1.0000000000000000 0.0000000000000000 0.0000000000000000
1.0000000000000000 0.0000000000000000 0.0000000000000000
1.0000000000000000 0.0000000000000000 0.0000000000000000
1.0000000000000000 0.0000000000000000 0.0000000000000000
1.0000000000000000 0.0000000000000000 0.0000000000000000
1.0000000000000000 0.0000000000000000 0.0000000000000000
1.0000000000000000 0.0000000000000000 0.0000000000000000
1.0000000000000000 0.0000000000000000 0.0000000000000000
1.0000000000000000 0.0000000000000000 0.0000000000000000
1.0000000000000000 0.0000000000000000 0.0000000000000000
1.0000000000000000 0.0000000000000000 0.0000000000000000
1.0000000000000000 0.0000000000000000 0.0000000000000000
1.0000000000000000 0.0000000000000000 0.0000000000000000
1.0000000000000000 0.0000000000000000 0.0000000000000000
1.0000000000000000 0.0000000000000000 0.0000000000000000
1.0000000000000000 0.0000000000000000 0.0000000000000000
1.0000000000000000 0.0000000000000000 0.0000000000000000
1.0000000000000000 0.0000000000000000 0.0000000000000000
1.0000000000000000 0.0000000000000000 0.0000000000000000
1.0000000000000000 0.0000000000000000 0.0000000000000000
1.0000000000000000 0.0000000000000000 0.0000000000000000
1.0000000000000000 0.0000000000000000 0.0000000000000000
1.0000000000000000 0.0000000000000000 0.0000000000000000
1.0000000000000000 0.0000000000000000 0.0000000000000000
1.0000000000000000 0.0000000000000000 0.0000000000000000
1.0000000000000000 0.0000000000000000 0.0000000000000000
1.0000000000000000 0.0000000000000000 0.0000000000000000
1.0000000000000000 0.0000000000000000 0.0000000000000000
1.0000000000000000 0.0000000000000000 0.0000000000000000
1.0000000000000000 0.0000000000000000 0.0000000000000000
1.0000000000000000 0.0000000000000000 0.0000000000000000
1.0000000000000000 0.0000000000000000 0.0000000000000000
1.0000000000000000 0.0000000000000000 0.0000000000000000
1.0000000000000000 0.0000000000000000 0.0000000000000000
1.0000000000000000 0.0000000000000000 0.0000000000000000
1.0000000000000000 0.0000000000000000 0.0000000000000000
1.0000000000000000 0.0000000000000000 0.0000000000000000
1.0000000000000000 0.0000000000000000 0.0000000000000000
1.0000000000000000 0.0000000000000000 0.0000000000000000
1.0000000000000000 0.0000000000000000 0.0000000000000000
1.0000000000000000 0.0000000000000000 0.0000000000000000
1.0000000000000000 0.0000000000000000 0.0000000000000000
1.0000000000000000 0.0000000000000000 0.0000000000000000
1.0000000000000000 0.0000000000000000 0.0000000000000000
1.0000000000000000 0.0000000000000000 0.0000000000000000
1.0000000000000000 0.0000000000000000 0.0000000000000000
1.0000000000000000 0.0000000000000000 0.0000000000000000
1.0000000000000000 0.0000000000000000 0.0000000000000000
1.0000000000000000 0.0000000000000000 0.0000000000000000
1.0000000000000000 0.0000000000000000 0.0000000000000000
1.0000000000000000 0.0000000000000000 0.0000000000000000
1.0000000000000000 0.0000000000000000 0.0000000000000000
1.0000000000000000 0.0000000000000000 0.0000000000000000
1.0000000000000000 0.0000000000000000 0.0000000000000000
1.0000000000000000 0.0000000000000000 0.0000000000000000
1.0000000000000000 0.0000000000000000 0.0000000000000000
1.0000000000000000 0.0000000000000000 0.0000000000000000
1.0000000000000000 0.0000000000000000 0.0000000000000000
1.0000000000000000 0.0000000000000000 0.0000000000000000
1.0000000000000000 0.0000000000000000 0.0000000000000000
1.0000000000000000 0.0000000000000000 0.0000000000000000
1.0000000000000000 0.0000000000000000 0.0000000000000000
1.0000000000000000 0.0000000000000000 0.0000000000000000
1.0000000000000000 0.0000000000000000 0.0000000000000000
1.0000000000000000 0.0000000000000000 0.0000000000000000
1.0000000000000000 0.0000000000000000 0.0000000000000000
1.0000000000000000 0.0000000000000000 0.0000000000000000
1.0000000000000000 0.0000000000000000 0.0000000000000000
1.0000000000000000 0.0000000000000000 0.0000000000000000
1.0000000000000000 0.0000000000000000 0.0000000000000000
1.0000000000000000 0.0000000000000000 0.0000000000000000
1.0000000000000000 0.0000000000000000 0.0000000000000000
1.0000000000000000 0.0000000000000000 0.0000000000000000
1.0000000000000000 0.0000000000000000 0.0000000000000000
1.0000000000000000 0.0000000000000000 0.0000000000000000
1.0000000000000000 0.0000000000000000 0.0000000000000000
1.0000000000000000 0.0000000000000000 0.0000000000000000
1.0000000000000000 0.0000000000000000 0.0000000000000000
1.0000000000000000 0.0000000000000000 0.0000000000000000
1.0000000000000000 0.0000000000000000 0.0000000000000000
1.0000000000000000 0.0000000000000000 0.0000000000000000
1.0000000000000000 0.0000000000000000 0.0000000000000000
1.0000000000000000 0.0000000000000000 0.0000000000000000
1.0000000000000000 0.0000000000000000 0.0000000000000000
1.0000000000000000 0.0000000000000000 0.0000000000000000
1.0000000000000000 0.0000000000000000 0.0000000000000000
1.0000000000000000 0.0000000000000000 0.0000000000000000
1.0000000000000000 0.0000000000000000 0.0000000000000000
1.0000000000000000 0.0000000000000000 0.0000000000000000
1.0000000000000000 0.0000000000000000 0.0000000000000000
1.0000000000000000 0.0000000000000000 0.0000000000000000
1.0000000000000000 0.0000000000000000 0.0000000000000000
1.0000000000000000 0.0000000000000000 0.0000000000000000
1.0000000000000000 0.0000000000000000 0.0000000000000000
1.0000000000000000 0.0000000000000000 0.0000000000000000
1.0000000000000000 0.0000000000000000 0.0000000000000000
1.0000000000000000 0.0000000000000000 0.0000000000000000
1.0000000000000000 0.0000000000000000 0.0000000000000000
1.0000000000000000 0.0000000000000000 0.0000000000000000
1.0000000000000000 0.0000000000000000 0.0000000000000000
1.0000000000000000 0.0000000000000000 0.0000000000000000
1.0000000000000000 0.0000000000000000 0.0000000000000000
1.0000000000000000 0.0000000000000000 0.0000000000000000
1.0000000000000000 0.0000000000000000 0.0000000000000000
1.0000000000000000 0.0000000000000000 0.0000000000000000
1.0000000000000000 0.0000000000000000 0.0000000000000000
1.0000000000000000 0.0000000000000000 0.0000000000000000
1.0000000000000000 0.0000000000000000 0.0000000000000000
1.0000000000000000 0.0000000000000000 0.0000000000000000
1.0000000000000000 0.0000000000000000 0.0000000000000000
1.0000000000000000 0.0000000000000000 0.0000000000000000
1.0000000000000000 0.0000000000000000 0.0000000000000000
1.0000000000000000 0.0000000000000000 0.0000000000000000
1.0000000000000000 0.0000000000000000 0.0000000000000000
1.0000000000000000 0.0000000000000000 0.0000000000000000
1.0000000000000000 0.0000000000000000 0.0000000000000000
1.0000000000000000 0.0000000000000000 0.0000000000000000
1.0000000000000000 0.0000000000000000 0.0000000000000000
1.0000000000000000 0.0000000000000000 0.0000000000000000
1.0000000000000000 0.0000000000000000 0.0000000000000000
1.0000000000000000 0.0000000000000000 0.0000000000000000
1.0000000000000000 0.0000000000000000 0.0000000000000000
1.0000000000000000 0.0000000000000000 0.0000000000000000
1.0000000000000000 0.0000000000000000 0.0000000000000000
1.0000000000000000 0.0000000000000000 0.0000000000000000
1.0000000000000000 0.0000000000000000 0.0000000000000000
1.0000000000000000 0.0000000000000000 0.0000000000000000
1.0000000000000000 0.0000000000000000 0.0000000000000000
1.0000000000000000 0.0000000000000000 0.0000000000000000
1.0000000000000000 0.0000000000000000 0.0000000000000000
1.0000000000000000 0.0000000000000000 0.0000000000000000
1.0000000000000000 0.0000000000000000 0.0000000000000000
1.0000000000000000 0.0000000000000000 0.0000000000000000
1.0000000000000000 0.0000000000000000 0.0000000000000000
1.0000000000000000 0.0000000000000000 0.0000000000000000
1.0000000000000000 0.0000000000000000 0.0000000000000000
1.0000000000000000 0.0000000000000000 0.0000000000000000
1.0000000000000000 0.0000000000000000 0.0000000000000000
1.0000000000000000 0.0000000000000000 0.0000000000000000
1.0000000000000000 0.0000000000000000 0.0000000000000000
1.0000000000000000 0.0000000000000000 0.0000000000000000
1.0000000000000000 0.0000000000000000 0.0000000000000000
1.0000000000000000 0.0000000000000000 0.0000000000000000
1.0000000000000000 0.0000000000000000 0.0000000000000000
1.0000000000000000 0.0000000000000000 0.0000000000000000
1.0000000000000000 0.0000000000000000 0.0000000000000000
1.0000000000000000 0.0000000000000000 0.0000000000000000
1.0000000000000000 0.0000000000000000 0.0000000000000000
1.0000000000000000 0.0000000000000000 0.0000000000000000
1.0000000000000000 0.0000000000000000 0.0000000000000000
1.0000000000000000 0.0000000000000000 0.0000000000000000
1.0000000000000000 0.0000000000000000 0.0000000000000000
1.0000000000000000 0.0000000000000000 0.0000000000000000
1.0000000000000000 0.0000000000000000 0.0000000000000000
1.0000000000000000 0.0000000000000000 0.0000000000000000
1.0000000000000000 0.0000000000000000 0.0000000000000000
1.0000000000000000 0.0000000000000000 0.0000000000000000
1.0000000000000000 0.0000000000000000 0.0000000000000000
1.0000000000000000 0.0000000000000000 0.0000000000000000
1.0000000000000000 0.0000000000000000 0.0000000000000000
1.0000000000000000 0.0000000000000000 0.0000000000000000
1.0000000000000000 0.0000000000000000 0.0000000000000000
1.0000000000000000 0.0000000000000000 0.0000000000000000
1.0000000000000000 0.0000000000000000 0.0000000000000000
1.0000000000000000 0.0000000000000000 0.0000000000000000
1.0000000000000000 0.0000000000000000 0.0000000000000000
1.0000000000000000 0.0000000000000000 0.0000000000000000
1.0000000000000000 0.0000000000000000 0.0000000000000000
1.0000000000000000 0.0000000000000000 0.0000000000000000
1.0000000000000000 0.0000000000000000 0.0000000000000000
1.0000000000000000 0.0000000000000000 0.0000000000000000
1.0000000000000000 0.0000000000000000 0.0000000000000000
1.0000000000000000 0.0000000000000000 0.0000000000000000
1.0000000000000000 0.0000000000000000 0.0000000000000000
1.0000000000000000 0.0000000000000000 0.0000000000000000
1.0000000000000000 0.0000000000000000 0.0000000000000000
1.0000000000000000 0.0000000000000000 0.0000000000000000
1.0000000000000000 0.0000000000000000 0.0000000000000000
1.0000000000000000 0.0000000000000000 0.0000000000000000
1.0000000000000000 0.0000000000000000 0.0000000000000000
1.0000000000000000 0.0000000000000000 0.0000000000000000
1.0000000000000000 0.0000000000000000 0.0000000000000000
1.0000000000000000 0.0000000000000000 0.0000000000000000
1.0000000000000000 0.0000000000000000 0.0000000000000000
1.0000000000000000 0.0000000000000000 0.0000000000000000
1.0000000000000000 0.0000000000000000 0.0000000000000000
1.0000000000000000 0.0000000000000000 0.0000000000000000
1.0000000000000000 0.0000000000000000 0.0000000000000000
1.0000000000000000 0.0000000000000000 0.0000000000000000
1.0000000000000000 0.0000000000000000 0.0000000000000000
1.0000000000000000 0.0000000000000000 0.0000000000000000
1.0000000000000000 0.0000000000000000 0.0000000000000000
1.0000000000000000 0.0000000000000000 0.0000000000000000
1.0000000000000000 0.0000000000000000 0.0000000000000000
1.0000000000000000 0.0000000000000000 0.0000000000000000
1.0000000000000000 0.0000000000000000 0.0000000000000000
1.0000000000000000 0.0000000000000000 0.0000000000000000
1.0000000000000000 0.0000000000000000 0.0000000000000000
1.0000000000000000 0.0000000000000000 0.0000000000000000
1.0000000000000000 0.0000000000000000 0.0000000000000000
1.0000000000000000 0.0000000000000000 0.0000000000000000
1.0000000000000000 0.0000000000000000 0.0000000000000000
1.0000000000000000 0.0000000000000000 0.0000000000000000
1.0000000000000000 0.0000000000000000 0.0000000000000000
1.0000000000000000 0.0000000000000000 0.0000000000000000
1.0000000000000000 0.0000000000000000 0.0000000000000000
1.0000000000000000 0.0000000000000000 0.0000000000000000
1.0000000000000000 0.0000000000000000 0.0000000000000000
1.0000000000000000 0.0000000000000000 0.0000000000000000
1.0000000000000000 0.0000000000000000 0.0000000000000000
1.0000000000000000 0.0000000000000000 0.0000000000000000
1.0000000000000000 0.0000000000000000 0.0000000000000000
1.0000000000000000 0.0000000000000000 0.0000000000000000
1.0000000000000000 0.0000000000000000 0.0000000000000000
1.0000000000000000 0.0000000000000000 0.0000000000000000
1.0000000000000000 0.0000000000000000 0.0000000000000000
1.0000000000000000 0.0000000000000000 0.0000000000000000
1.0000000000000000 0.0000000000000000 0.0000000000000000
1.0000000000000000 0.0000000000000000 0.0000000000000000
1.0000000000000000 0.0000000000000000 0.0000000000000000
1.0000000000000000 0.0000000000000000 0.0000000000000000
1.0000000000000000 0.0000000000000000 0.0000000000000000
1.0000000000000000 0.0000000000000000 0.0000000000000000
1.0000000000000000 0.0000000000000000 0.0000000000000000
1.0000000000000000 0.0000000000000000 0.0000000000000000
1.0000000000000000 0.0000000000000000 0.0000000000000000
1.0000000000000000 0.0000000000000000 0.0000000000000000
1.0000000000000000 0.0000000000000000 0.0000000000000000
1.0000000000000000 0.0000000000000000 0.0000000000000000
1.0000000000000000 0.0000000000000000 0.0000000000000000
1.0000000000000000 0.0000000000000000 0.0000000000000000
1.0000000000000000 0.0000000000000000 0.0000000000000000
1.0000000000000000 0.0000000000000000 0.0000000000000000
1.0000000000000000 0.0000000000000000 0.0000000000000000
1.0000000000000000 0.0000000000000000 0.0000000000000000
1.0000000000000000 0.0000000000000000 0.0000000000000000
1.0000000000000000 0.0000000000000000 0.0000000000000000
1.0000000000000000 0.0000000000000000 0.0000000000000000
1.0000000000000000 0.0000000000000000 0.0000000000000000
1.0000000000000000 0.0000000000000000 0.0000000000000000
1.0000000000000000 0.0000000000000000 0.0000000000000000
1.0000000000000000 0.0000000000000000 0.0000000000000000
1.0000000000000000 0.0000000000000000 0.0000000000000000
1.0000000000000000 0.0000000000000000 0.0000000000000000
1.0000000000000000 0.0000000000000000 0.0000000000000000
1.0000000000000000 0.0000000000000000 0.0000000000000000
1.0000000000000000 0.0000000000000000 0.0000000000000000
1.0000000000000000 0.0000000000000000 0.0000000000000000
1.0000000000000000 0.0000000000000000 0.0000000000000000
1.0000000000000000 0.0000000000000000 0.0000000000000000
1.0000000000000000 0.0000000000000000 0.0000000000000000
1.0000000000000000 0.0000000000000000 0.0000000000000000
1.0000000000000000 0.0000000000000000 0.0000000000000000
1.0000000000000000 0.0000000000000000 0.0000000000000000
1.0000000000000000 0.0000000000000000 0.0000000000000000
1.0000000000000000 0.0000000000000000 0.0000000000000000
1.0000000000000000 0.0000000000000000 0.0000000000000000
1.0000000000000000 0.0000000000000000 0.0000000000000000
1.0000000000000000 0.0000000000000000 0.0000000000000000
1.0000000000000000 0.0000000000000000 0.0000000000000000
1.0000000000000000 0.0000000000000000 0.0000000000000000
1.0000000000000000 0.0000000000000000 0.0000000000000000
1.0000000000000000 0.0000000000000000 0.0000000000000000
1.0000000000000000 0.0000000000000000 0.0000000000000000
1.0000000000000000 0.0000000000000000 0.0000000000000000
1.0000000000000000 0.0000000000000000 0.0000000000000000
1.0000000000000000 0.0000000000000000 0.0000000000000000
1.0000000000000000 0.0000000000000000 0.0000000000000000
1.0000000000000000 0.0000000000000000 0.0000000000000000
1.0000000000000000 0.0000000000000000 0.0000000000000000
1.0000000000000000 0.0000000000000000 0.0000000000000000
1.0000000000000000 0.0000000000000000 0.0000000000000000
1.0000000000000000 0.0000000000000000 0.0000000000000000
1.0000000000000000 0.0000000000000000 0.0000000000000000
1.0000000000000000 0.0000000000000000 0.0000000000000000
1.0000000000000000 0.0000000000000000 0.0000000000000000
1.0000000000000000 0.0000000000000000 0.0000000000000000
1.0000000000000000 0.0000000000000000 0.0000000000000000
1.0000000000000000 0.0000000000000000 0.0000000000000000
1.0000000000000000 0.0000000000000000 0.0000000000000000
1.0000000000000000 0.0000000000000000 0.0000000000000000
1.0000000000000000 0.0000000000000000 0.0000000000000000
1.0000000000000000 0.0000000000000000 0.0000000000000000
1.0000000000000000 0.0000000000000000 0.0000000000000000
1.0000000000000000 0.0000000000000000 0.0000000000000000
1.0000000000000000 0.0000000000000000 0.0000000000000000
1.0000000000000000 0.0000000000000000 0.0000000000000000
1.0000000000000000 0.0000000000000000 0.0000000000000000
1.0000000000000000 0.0000000000000000 0.0000000000000000
1.0000000000000000 0.0000000000000000 0.0000000000000000
1.0000000000000000 0.0000000000000000 0.0000000000000000
1.0000000000000000 0.0000000000000000 0.0000000000000000
1.0000000000000000 0.0000000000000000 0.0000000000000000
1.0000000000000000 0.0000000000000000 0.0000000000000000
1.0000000000000000 0.0000000000000000 0.0000000000000000
1.0000000000000000 0.0000000000000000 0.0000000000000000
1.0000000000000000 0.0000000000000000 0.0000000000000000
1.0000000000000000 0.0000000000000000 0.0000000000000000
1.0000000000000000 0.0000000000000000 0.0000000000000000
1.0000000000000000 0.0000000000000000 0.0000000000000000
1.0000000000000000 0.0000000000000000 0.0000000000000000
1.0000000000000000 0.0000000000000000 0.0000000000000000
1.0000000000000000 0.0000000000000000 0.0000000000000000
1.0000000000000000 0.0000000000000000 0.0000000000000000
1.0000000000000000 0.0000000000000000 0.0000000000000000
1.0000000000000000 0.0000000000000000 0.0000000000000000
1.0000000000000000 0.0000000000000000 0.0000000000000000
1.0000000000000000 0.0000000000000000 0.0000000000000000
1.0000000000000000 0.0000000000000000 0.0000000000000000
1.0000000000000000 0.0000000000000000 0.0000000000000000
1.0000000000000000 0.0000000000000000 0.0000000000000000
1.0000000000000000 0.0000000000000000 0.0000000000000000
1.0000000000000000 0.0000000000000000 0.0000000000000000
1.0000000000000000 0.0000000000000000 0.0000000000000000
1.0000000000000000 0.0000000000000000 0.0000000000000000
1.0000000000000000 0.0000000000000000 0.0000000000000000
1.0000000000000000 0.0000000000000000 0.0000000000000000
1.0000000000000000 0.0000000000000000 0.0000000000000000
1.0000000000000000 0.0000000000000000 0.0000000000000000
1.0000000000000000 0.0000000000000000 0.0000000000000000
1.0000000000000000 0.0000000000000000 0.0000000000000000
1.0000000000000000 0.0000000000000000 0.0000000000000000
1.0000000000000000 0.0000000000000000 0.0000000000000000
1.0000000000000000 0.0000000000000000 0.0000000000000000
1.0000000000000000 0.0000000000000000 0.0000000000000000
1.0000000000000000 0.0000000000000000 0.0000000000000000
1.0000000000000000 0.0000000000000000 0.0000000000000000
1.0000000000000000 0.0000000000000000 0.0000000000000000
1.0000000000000000 0.0000000000000000 0.0000000000000000
1.0000000000000000 0.0000000000000000 0.0000000000000000
1.0000000000000000 0.0000000000000000 0.0000000000000000
1.0000000000000000 0.0000000000000000 0.0000000000000000
1.0000000000000000 0.0000000000000000 0.0000000000000000
1.0000000000000000 0.0000000000000000 0.0000000000000000
1.0000000000000000 0.0000000000000000 0.0000000000000000
1.0000000000000000 0.0000000000000000 0.0000000000000000
1.0000000000000000 0.0000000000000000 0.0000000000000000
1.0000000000000000 0.0000000000000000 0.0000000000000000
1.0000000000000000 0.0000000000000000 0.0000000000000000
1.0000000000000000 0.0000000000000000 0.0000000000000000
1.0000000000000000 0.0000000000000000 0.0000000000000000
1.0000000000000000 0.0000000000000000 0.0000000000000000
1.0000000000000000 0.0000000000000000 0.0000000000000000
1.0000000000000000 0.0000000000000000 0.0000000000000000
1.0000000000000000 0.0000000000000000 0.0000000000000000
1.0000000000000000 0.0000000000000000 0.0000000000000000
1.0000000000000000 0.0000000000000000 0.0000000000000000
1.0000000000000000 0.0000000000000000 0.0000000000000000
1.0000000000000000 0.0000000000000000 0.0000000000000000
1.0000000000000000 0.0000000000000000 0.0000000000000000
1.0000000000000000 0.0000000000000000 0.0000000000000000
1.0000000000000000 0.0000000000000000 0.0000000000000000
1.0000000000000000 0.0000000000000000 0.0000000000000000
1.0000000000000000 0.0000000000000000 0.0000000000000000
1.0000000000000000 0.0000000000000000 0.0000000000000000
1.0000000000000000 0.0000000000000000 0.0000000000000000
1.0000000000000000 0.0000000000000000 0.0000000000000000
1.0000000000000000 0.0000000000000000 0.0000000000000000
1.0000000000000000 0.0000000000000000 0.0000000000000000
1.0000000000000000 0.0000000000000000 0.0000000000000000
1.0000000000000000 0.0000000000000000 0.0000000000000000
1.0000000000000000 0.0000000000000000 0.0000000000000000
1.0000000000000000 0.0000000000000000 0.0000000000000000
1.0000000000000000 0.0000000000000000 0.0000000000000000
1.0000000000000000 0.0000000000000000 0.0000000000000000
1.0000000000000000 0.0000000000000000 0.0000000000000000
1.0000000000000000 0.0000000000000000 0.0000000000000000
1.0000000000000000 0.0000000000000000 0.0000000000000000
1.0000000000000000 0.0000000000000000 0.0000000000000000
1.0000000000000000 0.0000000000000000 0.0000000000000000
1.0000000000000000 0.0000000000000000 0.0000000000000000
1.0000000000000000 0.0000000000000000 0.0000000000000000
1.0000000000000000 0.0000000000000000 0.0000000000000000
1.0000000000000000 0.0000000000000000 0.0000000000000000
1.0000000000000000 0.0000000000000000 0.0000000000000000
1.0000000000000000 0.0000000000000000 0.0000000000000000
1.0000000000000000 0.0000000000000000 0.0000000000000000
1.0000000000000000 0.0000000000000000 0.0000000000000000
1.0000000000000000 0.0000000000000000 0.0000000000000000
1.0000000000000000 0.0000000000000000 0.0000000000000000
1.0000000000000000 0.0000000000000000 0.0000000000000000
1.0000000000000000 0.0000000000000000 0.0000000000000000
1.0000000000000000 0.0000000000000000 0.0000000000000000
1.0000000000000000 0.0000000000000000 0.0000000000000000
1.0000000000000000 0.0000000000000000 0.0000000000000000
1.0000000000000000 0.0000000000000000 0.0000000000000000
1.0000000000000000 0.0000000000000000 0.0000000000000000
1.0000000000000000 0.0000000000000000 0.0000000000000000
1.0000000000000000 0.0000000000000000 0.0000000000000000
1.0000000000000000 0.0000000000000000 0.0000000000000000
1.0000000000000000 0.0000000000000000 0.0000000000000000
1.0000000000000000 0.0000000000000000 0.0000000000000000
1.0000000000000000 0.0000000000000000 0.0000000000000000
1.0000000000000000 0.0000000000000000 0.0000000000000000
1.0000000000000000 0.0000000000000000 0.0000000000000000
1.0000000000000000 0.0000000000000000 0.0000000000000000
1.0000000000000000 0.0000000000000000 0.0000000000000000
1.0000000000000000 0.0000000000000000 0.0000000000000000
1.0000000000000000 0.0000000000000000 0.0000000000000000
1.0000000000000000 0.0000000000000000 0.0000000000000000
1.0000000000000000 0.0000000000000000 0.0000000000000000
1.0000000000000000 0.0000000000000000 0.0000000000000000
1.0000000000000000 0.0000000000000000 0.0000000000000000
1.0000000000000000 0.0000000000000000 0.0000000000000000
1.0000000000000000 0.0000000000000000 0.0000000000000000
1.0000000000000000 0.0000000000000000 0.0000000000000000
1.0000000000000000 0.0000000000000000 0.0000000000000000
1.0000000000000000 0.0000000000000000 0.0000000000000000
1.0000000000000000 0.0000000000000000 0.0000000000000000
1.0000000000000000 0.0000000000000000 0.0000000000000000
1.0000000000000000 0.0000000000000000 0.0000000000000000
1.0000000000000000 0.0000000000000000 0.0000000000000000
1.0000000000000000 0.0000000000000000 0.0000000000000000
1.0000000000000000 0.0000000000000000 0.0000000000000000
1.0000000000000000 0.0000000000000000 0.0000000000000000
1.0000000000000000 0.0000000000000000 0.0000000000000000
1.0000000000000000 0.0000000000000000 0.0000000000000000
1.0000000000000000 0.0000000000000000 0.0000000000000000
1.0000000000000000 0.0000000000000000 0.0000000000000000
1.0000000000000000 0.0000000000000000 0.0000000000000000
1.0000000000000000 0.0000000000000000 0.0000000000000000
1.0000000000000000 0.0000000000000000 0.0000000000000000
1.0000000000000000 0.0000000000000000 0.0000000000000000
1.0000000000000000 0.0000000000000000 0.0000000000000000
1.0000000000000000 0.0000000000000000 0.0000000000000000
1.0000000000000000 0.0000000000000000 0.0000000000000000
1.0000000000000000 0.0000000000000000 0.0000000000000000
1.0000000000000000 0.0000000000000000 0.0000000000000000
1.0000000000000000 0.0000000000000000 0.0000000000000000
1.0000000000000000 0.0000000000000000 0.0000000000000000
1.0000000000000000 0.0000000000000000 0.0000000000000000
1.0000000000000000 0.0000000000000000 0.0000000000000000
1.0000000000000000 0.0000000000000000 0.0000000000000000
1.0000000000000000 0.0000000000000000 0.0000000000000000
1.0000000000000000 0.0000000000000000 0.0000000000000000
1.0000000000000000 0.0000000000000000 0.0000000000000000
1.0000000000000000 0.0000000000000000 0.0000000000000000
1.0000000000000000 0.0000000000000000 0.0000000000000000
1.0000000000000000 0.0000000000000000 0.0000000000000000
1.0000000000000000 0.0000000000000000 0.0000000000000000
1.0000000000000000 0.0000000000000000 0.0000000000000000
1.0000000000000000 0.0000000000000000 0.0000000000000000
1.0000000000000000 0.0000000000000000 0.0000000000000000
1.0000000000000000 0.0000000000000000 0.0000000000000000
1.0000000000000000 0.0000000000000000 0.0000000000000000
1.0000000000000000 0.0000000000000000 0.0000000000000000
1.0000000000000000 0.0000000000000000 0.0000000000000000
1.0000000000000000 0.0000000000000000 0.0000000000000000
1.0000000000000000 0.0000000000000000 0.0000000000000000
1.0000000000000000 0.0000000000000000 0.0000000000000000
1.0000000000000000 0.0000000000000000 0.0000000000000000
1.0000000000000000 0.0000000000000000 0.0000000000000000
1.0000000000000000 0.0000000000000000 0.0000000000000000
1.0000000000000000 0.0000000000000000 0.0000000000000000
1.0000000000000000 0.0000000000000000 0.0000000000000000
1.0000000000000000 0.0000000000000000 0.0000000000000000
1.0000000000000000 0.0000000000000000 0.0000000000000000
1.0000000000000000 0.0000000000000000 0.0000000000000000
1.0000000000000000 0.0000000000000000 0.0000000000000000
1.0000000000000000 0.0000000000000000 0.0000000000000000
1.0000000000000000 0.0000000000000000 0.0000000000000000
1.0000000000000000 0.0000000000000000 0.0000000000000000
1.0000000000000000 0.0000000000000000 0.0000000000000000
1.0000000000000000 0.0000000000000000 0.0000000000000000
1.0000000000000000 0.0000000000000000 0.0000000000000000
1.0000000000000000 0.0000000000000000 0.0000000000000000
1.0000000000000000 0.0000000000000000 0.0000000000000000
1.0000000000000000 0.0000000000000000 0.0000000000000000
1.0000000000000000 0.0000000000000000 0.0000000000000000
1.0000000000000000 0.0000000000000000 0.0000000000000000
1.0000000000000000 0.0000000000000000 0.0000000000000000
1.0000000000000000 0.0000000000000000 0.0000000000000000
1.0000000000000000 0.0000000000000000 0.0000000000000000
1.0000000000000000 0.0000000000000000 0.0000000000000000
1.0000000000000000 0.0000000000000000 0.0000000000000000
1.0000000000000000 0.0000000000000000 0.0000000000000000
1.0000000000000000 0.0000000000000000 0.0000000000000000
1.0000000000000000 0.0000000000000000 0.0000000000000000
1.0000000000000000 0.0000000000000000 0.0000000000000000
1.0000000000000000 0.0000000000000000 0.0000000000000000
1.0000000000000000 0.0000000000000000 0.0000000000000000
1.0000000000000000 0.0000000000000000 0.0000000000000000
1.0000000000000000 0.0000000000000000 0.0000000000000000
1.0000000000000000 0.0000000000000000 0.0000000000000000
1.0000000000000000 0.0000000000000000 0.0000000000000000
1.0000000000000000 0.0000000000000000 0.0000000000000000
1.0000000000000000 0.0000000000000000 0.0000000000000000
1.0000000000000000 0.0000000000000000 0.0000000000000000
1.0000000000000000 0.0000000000000000 0.0000000000000000
1.0000000000000000 0.0000000000000000 0.0000000000000000
1.0000000000000000 0.0000000000000000 0.0000000000000000
1.0000000000000000 0.0000000000000000 0.0000000000000000
1.0000000000000000 0.0000000000000000 0.0000000000000000
1.0000000000000000 0.0000000000000000 0.0000000000000000
1.0000000000000000 0.0000000000000000 0.0000000000000000
1.0000000000000000 0.0000000000000000 0.0000000000000000
1.0000000000000000 0.0000000000000000 0.0000000000000000
1.0000000000000000 0.0000000000000000 0.0000000000000000
1.0000000000000000 0.0000000000000000 0.0000000000000000
1.0000000000000000 0.0000000000000000 0.0000000000000000
1.0000000000000000 0.0000000000000000 0.0000000000000000
1.0000000000000000 0.0000000000000000 0.0000000000000000
1.0000000000000000 0.0000000000000000 0.0000000000000000
1.0000000000000000 0.0000000000000000 0.0000000000000000
1.0000000000000000 0.0000000000000000 0.0000000000000000
1.0000000000000000 0.0000000000000000 0.0000000000000000
1.0000000000000000 0.0000000000000000 0.0000000000000000
1.0000000000000000 0.0000000000000000 0.0000000000000000
1.0000000000000000 0.0000000000000000 0.0000000000000000
1.0000000000000000 0.0000000000000000 0.0000000000000000
1.0000000000000000 0.0000000000000000 0.0000000000000000
1.0000000000000000 0.0000000000000000 0.0000000000000000
1.0000000000000000 0.0000000000000000 0.0000000000000000
1.0000000000000000 0.0000000000000000 0.0000000000000000
1.0000000000000000 0.0000000000000000 0.0000000000000000
1.0000000000000000 0.0000000000000000 0.0000000000000000
1.0000000000000000 0.0000000000000000 0.0000000000000000
1.0000000000000000 0.0000000000000000 0.0000000000000000
1.0000000000000000 0.0000000000000000 0.0000000000000000
1.0000000000000000 0.0000000000000000 0.0000000000000000
1.0000000000000000 0.0000000000000000 0.0000000000000000
1.0000000000000000 0.0000000000000000 0.0000000000000000
1.0000000000000000 0.0000000000000000 0.0000000000000000
1.0000000000000000 0.0000000000000000 0.0000000000000000
1.0000000000000000 0.0000000000000000 0.0000000000000000
1.0000000000000000 0.0000000000000000 0.0000000000000000
1.0000000000000000 0.0000000000000000 0.0000000000000000
1.0000000000000000 0.0000000000000000 0.0000000000000000
1.0000000000000000 0.0000000000000000 0.0000000000000000
1.0000000000000000 0.0000000000000000 0.0000000000000000
1.0000000000000000 0.0000000000000000 0.0000000000000000
1.0000000000000000 0.0000000000000000 0.0000000000000000
1.0000000000000000 0.0000000000000000 0.0000000000000000
1.0000000000000000 0.0000000000000000 0.0000000000000000
1.0000000000000000 0.0000000000000000 0.0000000000000000
1.0000000000000000 0.0000000000000000 0.0000000000000000
1.0000000000000000 0.0000000000000000 0.0000000000000000
1.0000000000000000 0.0000000000000000 0.0000000000000000
1.0000000000000000 0.0000000000000000 0.0000000000000000
1.0000000000000000 0.0000000000000000 0.0000000000000000
1.0000000000000000 0.0000000000000000 0.0000000000000000
1.0000000000000000 0.0000000000000000 0.0000000000000000
1.0000000000000000 0.0000000000000000 0.0000000000000000
1.0000000000000000 0.0000000000000000 0.0000000000000000
1.0000000000000000 0.0000000000000000 0.0000000000000000
1.0000000000000000 0.0000000000000000 0.0000000000000000
1.0000000000000000 0.0000000000000000 0.0000000000000000
1.0000000000000000 0.0000000000000000 0.0000000000000000
1.0000000000000000 0.0000000000000000 0.0000000000000000
1.0000000000000000 0.0000000000000000 0.0000000000000000
1.0000000000000000 0.0000000000000000 0.0000000000000000
1.0000000000000000 0.0000000000000000 0.0000000000000000
1.0000000000000000 0.0000000000000000 0.0000000000000000
1.0000000000000000 0.0000000000000000 0.0000000000000000
1.0000000000000000 0.0000000000000000 0.0000000000000000
1.0000000000000000 0.0000000000000000 0.0000000000000000
1.0000000000000000 0.0000000000000000 0.0000000000000000
1.0000000000000000 0.0000000000000000 0.0000000000000000
1.0000000000000000 0.0000000000000000 0.0000000000000000
1.0000000000000000 0.0000000000000000 0.0000000000000000
1.0000000000000000 0.0000000000000000 0.0000000000000000
1.0000000000000000 0.0000000000000000 0.0000000000000000
1.0000000000000000 0.0000000000000000 0.0000000000000000
1.0000000000000000 0.0000000000000000 0.0000000000000000
1.0000000000000000 0.0000000000000000 0.0000000000000000
1.0000000000000000 0.0000000000000000 0.0000000000000000
1.0000000000000000 0.0000000000000000 0.0000000000000000
1.0000000000000000 0.0000000000000000 0.0000000000000000
1.0000000000000000 0.0000000000000000 0.0000000000000000
1.0000000000000000 0.0000000000000000 0.0000000000000000
1.0000000000000000 0.0000000000000000 0.0000000000000000
1.0000000000000000 0.0000000000000000 0.0000000000000000
1.0000000000000000 0.0000000000000000 0.0000000000000000
1.0000000000000000 0.0000000000000000 0.0000000000000000
1.0000000000000000 0.0000000000000000 0.0000000000000000
1.0000000000000000 0.0000000000000000 0.0000000000000000
1.0000000000000000 0.0000000000000000 0.0000000000000000
1.0000000000000000 0.0000000000000000 0.0000000000000000
1.0000000000000000 0.0000000000000000 0.0000000000000000
1.0000000000000000 0.0000000000000000 0.0000000000000000
1.0000000000000000 0.0000000000000000 0.0000000000000000
1.0000000000000000 0.0000000000000000 0.0000000000000000
1.0000000000000000 0.0000000000000000 0.0000000000000000
1.0000000000000000 0.0000000000000000 0.0000000000000000
1.0000000000000000 0.0000000000000000 0.0000000000000000
1.0000000000000000 0.0000000000000000 0.0000000000000000
1.0000000000000000 0.0000000000000000 0.0000000000000000
1.0000000000000000 0.0000000000000000 0.0000000000000000
1.0000000000000000 0.0000000000000000 0.0000000000000000
1.0000000000000000 0.0000000000000000 0.0000000000000000
1.0000000000000000 0.0000000000000000 0.0000000000000000
1.0000000000000000 0.0000000000000000 0.0000000000000000
1.0000000000000000 0.0000000000000000 0.0000000000000000
1.0000000000000000 0.0000000000000000 0.0000000000000000
1.0000000000000000 0.0000000000000000 0.0000000000000000
1.0000000000000000 0.0000000000000000 0.0000000000000000
1.0000000000000000 0.0000000000000000 0.0000000000000000
1.0000000000000000 0.0000000000000000 0.0000000000000000
1.0000000000000000 0.0000000000000000 0.0000000000000000
1.0000000000000000 0.0000000000000000 0.0000000000000000
1.0000000000000000 0.0000000000000000 0.0000000000000000
1.0000000000000000 0.0000000000000000 0.0000000000000000
1.0000000000000000 0.0000000000000000 0.0000000000000000
1.0000000000000000 0.0000000000000000 0.0000000000000000
1.0000000000000000 0.0000000000000000 0.0000000000000000
1.0000000000000000 0.0000000000000000 0.0000000000000000
1.0000000000000000 0.0000000000000000 0.0000000000000000
1.0000000000000000 0.0000000000000000 0.0000000000000000
1.0000000000000000 0.0000000000000000 0.0000000000000000
1.0000000000000000 0.0000000000000000 0.0000000000000000
1.0000000000000000 0.0000000000000000 0.0000000000000000
1.0000000000000000 0.0000000000000000 0.0000000000000000
1.0000000000000000 0.0000000000000000 0.0000000000000000
1.0000000000000000 0.0000000000000000 0.0000000000000000
1.0000000000000000 0.0000000000000000 0.0000000000000000
1.0000000000000000 0.0000000000000000 0.0000000000000000
1.0000000000000000 0.0000000000000000 0.0000000000000000
1.0000000000000000 0.0000000000000000 0.0000000000000000
1.0000000000000000 0.0000000000000000 0.0000000000000000
1.0000000000000000 0.0000000000000000 0.0000000000000000
1.0000000000000000 0.0000000000000000 0.0000000000000000
1.0000000000000000 0.0000000000000000 0.0000000000000000
1.0000000000000000 0.0000000000000000 0.0000000000000000
1.0000000000000000 0.0000000000000000 0.0000000000000000
1.0000000000000000 0.0000000000000000 0.0000000000000000
1.0000000000000000 0.0000000000000000 0.0000000000000000
1.0000000000000000 0.0000000000000000 0.0000000000000000
1.0000000000000000 0.0000000000000000 0.0000000000000000
1.0000000000000000 0.0000000000000000 0.0000000000000000
1.0000000000000000 0.0000000000000000 0.0000000000000000
1.0000000000000000 0.0000000000000000 0.0000000000000000
1.0000000000000000 0.0000000000000000 0.0000000000000000
1.0000000000000000 0.0000000000000000 0.0000000000000000
1.0000000000000000 0.0000000000000000 0.0000000000000000
1.0000000000000000 0.0000000000000000 0.0000000000000000
1.0000000000000000 0.0000000000000000 0.0000000000000000
1.0000000000000000 0.0000000000000000 0.0000000000000000
1.0000000000000000 0.0000000000000000 0.0000000000000000
1.0000000000000000 0.0000000000000000 0.0000000000000000
1.0000000000000000 0.0000000000000000 0.0000000000000000
1.0000000000000000 0.0000000000000000 0.0000000000000000
1.0000000000000000 0.0000000000000000 0.0000000000000000
1.0000000000000000 0.0000000000000000 0.0000000000000000
1.0000000000000000 0.0000000000000000 0.0000000000000000
1.0000000000000000 0.0000000000000000 0.0000000000000000
1.0000000000000000 0.0000000000000000 0.0000000000000000
1.0000000000000000 0.0000000000000000 0.0000000000000000
1.0000000000000000 0.0000000000000000 0.0000000000000000
1.0000000000000000 0.0000000000000000 0.0000000000000000
1.0000000000000000 0.0000000000000000 0.0000000000000000
1.0000000000000000 0.0000000000000000 0.0000000000000000
1.0000000000000000 0.0000000000000000 0.0000000000000000
1.0000000000000000 0.0000000000000000 0.0000000000000000
1.0000000000000000 0.0000000000000000 0.0000000000000000
1.0000000000000000 0.0000000000000000 0.0000000000000000
1.0000000000000000 0.0000000000000000 0.0000000000000000
1.0000000000000000 0.0000000000000000 0.0000000000000000
1.0000000000000000 0.0000000000000000 0.0000000000000000
1.0000000000000000 0.0000000000000000 0.0000000000000000
1.0000000000000000 0.0000000000000000 0.0000000000000000
1.0000000000000000 0.0000000000000000 0.0000000000000000
1.0000000000000000 0.0000000000000000 0.0000000000000000
1.0000000000000000 0.0000000000000000 0.0000000000000000
1.0000000000000000 0.0000000000000000 0.0000000000000000
1.0000000000000000 0.0000000000000000 0.0000000000000000
1.0000000000000000 0.0000000000000000 0.0000000000000000
1.0000000000000000 0.0000000000000000 0.0000000000000000
1.0000000000000000 0.0000000000000000 0.0000000000000000
1.0000000000000000 0.0000000000000000 0.0000000000000000
1.0000000000000000 0.0000000000000000 0.0000000000000000
1.0000000000000000 0.0000000000000000 0.0000000000000000
1.0000000000000000 0.0000000000000000 0.0000000000000000
1.0000000000000000 0.0000000000000000 0.0000000000000000
1.0000000000000000 0.0000000000000000 0.0000000000000000
1.0000000000000000 0.0000000000000000 0.0000000000000000
1.0000000000000000 0.0000000000000000 0.0000000000000000
1.0000000000000000 0.0000000000000000 0.0000000000000000
1.0000000000000000 0.0000000000000000 0.0000000000000000
1.0000000000000000 0.0000000000000000 0.0000000000000000
1.0000000000000000 0.0000000000000000 0.0000000000000000
1.0000000000000000 0.0000000000000000 0.0000000000000000
1.0000000000000000 0.0000000000000000 0.0000000000000000
1.0000000000000000 0.0000000000000000 0.0000000000000000
1.0000000000000000 0.0000000000000000 0.0000000000000000
1.0000000000000000 0.0000000000000000 0.0000000000000000
1.0000000000000000 0.0000000000000000 0.0000000000000000
1.0000000000000000 0.0000000000000000 0.0000000000000000
1.0000000000000000 0.0000000000000000 0.0000000000000000
1.0000000000000000 0.0000000000000000 0.0000000000000000
1.0000000000000000 0.0000000000000000 0.0000000000000000
1.0000000000000000 0.0000000000000000 0.0000000000000000
1.0000000000000000 0.0000000000000000 0.0000000000000000
1.0000000000000000 0.0000000000000000 0.0000000000000000
1.0000000000000000 0.0000000000000000 0.0000000000000000
1.0000000000000000 0.0000000000000000 0.0000000000000000
1.0000000000000000 0.0000000000000000 0.0000000000000000
1.0000000000000000 0.0000000000000000 0.0000000000000000
1.0000000000000000 0.0000000000000000 0.0000000000000000
1.0000000000000000 0.0000000000000000 0.0000000000000000
1.0000000000000000 0.0000000000000000 0.0000000000000000
1.0000000000000000 0.0000000000000000 0.0000000000000000
1.0000000000000000 0.0000000000000000 0.0000000000000000
1.0000000000000000 0.0000000000000000 0.0000000000000000
1.0000000000000000 0.0000000000000000 0.0000000000000000
1.0000000000000000 0.0000000000000000 0.0000000000000000
1.0000000000000000 0.0000000000000000 0.0000000000000000
1.0000000000000000 0.0000000000000000 0.0000000000000000
1.0000000000000000 0.0000000000000000 0.0000000000000000
1.0000000000000000 0.0000000000000000 0.0000000000000000
1.0000000000000000 0.0000000000000000 0.0000000000000000
1.0000000000000000 0.0000000000000000 0.0000000000000000
1.0000000000000000 0.0000000000000000 0.0000000000000000
1.0000000000000000 0.0000000000000000 0.0000000000000000
1.0000000000000000 0.0000000000000000 0.0000000000000000
1.0000000000000000 0.0000000000000000 0.0000000000000000
1.0000000000000000 0.0000000000000000 0.0000000000000000
1.0000000000000000 0.0000000000000000 0.0000000000000000
1.0000000000000000 0.0000000000000000 0.0000000000000000
1.0000000000000000 0.0000000000000000 0.0000000000000000
1.0000000000000000 0.0000000000000000 0.0000000000000000
1.0000000000000000 0.0000000000000000 0.0000000000000000
1.0000000000000000 0.0000000000000000 0.0000000000000000
1.0000000000000000 0.0000000000000000 0.0000000000000000
1.0000000000000000 0.0000000000000000 0.0000000000000000
1.0000000000000000 0.0000000000000000 0.0000000000000000
1.0000000000000000 0.0000000000000000 0.0000000000000000
1.0000000000000000 0.0000000000000000 0.0000000000000000
1.0000000000000000 0.0000000000000000 0.0000000000000000
1.0000000000000000 0.0000000000000000 0.0000000000000000
1.0000000000000000 0.0000000000000000 0.0000000000000000
1.0000000000000000 0.0000000000000000 0.0000000000000000
1.0000000000000000 0.0000000000000000 0.0000000000000000
1.0000000000000000 0.0000000000000000 0.0000000000000000
1.0000000000000000 0.0000000000000000 0.0000000000000000
1.0000000000000000 0.0000000000000000 0.0000000000000000
1.0000000000000000 0.0000000000000000 0.0000000000000000
1.0000000000000000 0.0000000000000000 0.0000000000000000
1.0000000000000000 0.0000000000000000 0.0000000000000000
1.0000000000000000 0.0000000000000000 0.0000000000000000
1.0000000000000000 0.0000000000000000 0.0000000000000000
1.0000000000000000 0.0000000000000000 0.0000000000000000
1.0000000000000000 0.0000000000000000 0.0000000000000000
1.0000000000000000 0.0000000000000000 0.0000000000000000
1.0000000000000000 0.0000000000000000 0.0000000000000000
1.0000000000000000 0.0000000000000000 0.0000000000000000
1.0000000000000000 0.0000000000000000 0.0000000000000000
1.0000000000000000 0.0000000000000000 0.0000000000000000
1.0000000000000000 0.0000000000000000 0.0000000000000000
1.0000000000000000 0.0000000000000000 0.0000000000000000
1.0000000000000000 0.0000000000000000 0.0000000000000000
1.0000000000000000 0.0000000000000000 0.0000000000000000
1.0000000000000000 0.0000000000000000 0.0000000000000000
1.0000000000000000 0.0000000000000000 0.0000000000000000
1.0000000000000000 0.0000000000000000 0.0000000000000000
1.0000000000000000 0.0000000000000000 0.0000000000000000
1.0000000000000000 0.0000000000000000 0.0000000000000000
1.0000000000000000 0.0000000000000000 0.0000000000000000
1.0000000000000000 0.0000000000000000 0.0000000000000000
1.0000000000000000 0.0000000000000000 0.0000000000000000
1.0000000000000000 0.0000000000000000 0.0000000000000000
1.0000000000000000 0.0000000000000000 0.0000000000000000
1.0000000000000000 0.0000000000000000 0.0000000000000000
1.0000000000000000 0.0000000000000000 0.0000000000000000
1.0000000000000000 0.0000000000000000 0.0000000000000000
1.0000000000000000 0.0000000000000000 0.0000000000000000
1.0000000000000000 0.0000000000000000 0.0000000000000000
1.0000000000000000 0.0000000000000000 0.0000000000000000
1.0000000000000000 0.0000000000000000 0.0000000000000000
1.0000000000000000 0.0000000000000000 0.0000000000000000
1.0000000000000000 0.0000000000000000 0.0000000000000000
1.0000000000000000 0.0000000000000000 0.0000000000000000
1.0000000000000000 0.0000000000000000 0.0000000000000000
1.0000000000000000 0.0000000000000000 0.0000000000000000
1.0000000000000000 0.0000000000000000 0.0000000000000000
1.0000000000000000 0.0000000000000000 0.0000000000000000
1.0000000000000000 0.0000000000000000 0.0000000000000000
1.0000000000000000 0.0000000000000000 0.0000000000000000
1.0000000000000000 0.0000000000000000 0.0000000000000000
1.0000000000000000 0.0000000000000000 0.0000000000000000
1.0000000000000000 0.0000000000000000 0.0000000000000000
1.0000000000000000 0.0000000000000000 0.0000000000000000
1.0000000000000000 0.0000000000000000 0.0000000000000000
1.0000000000000000 0.0000000000000000 0.0000000000000000
1.0000000000000000 0.0000000000000000 0.0000000000000000
1.0000000000000000 0.0000000000000000 0.0000000000000000
1.0000000000000000 0.0000000000000000 0.0000000000000000
1.0000000000000000 0.0000000000000000 0.0000000000000000
1.0000000000000000 0.0000000000000000 0.0000000000000000
1.0000000000000000 0.0000000000000000 0.0000000000000000
1.0000000000000000 0.0000000000000000 0.0000000000000000
1.0000000000000000 0.0000000000000000 0.0000000000000000
1.0000000000000000 0.0000000000000000 0.0000000000000000
1.0000000000000000 0.0000000000000000 0.0000000000000000
1.0000000000000000 0.0000000000000000 0.0000000000000000
1.0000000000000000 0.0000000000000000 0.0000000000000000
1.0000000000000000 0.0000000000000000 0.0000000000000000
1.0000000000000000 0.0000000000000000 0.0000000000000000
1.0000000000000000 0.0000000000000000 0.0000000000000000
1.0000000000000000 0.0000000000000000 0.0000000000000000
1.0000000000000000 0.0000000000000000 0.0000000000000000
1.0000000000000000 0.0000000000000000 0.0000000000000000
1.0000000000000000 0.0000000000000000 0.0000000000000000
1.0000000000000000 0.0000000000000000 0.0000000000000000
1.0000000000000000 0.0000000000000000 0.0000000000000000
1.0000000000000000 0.0000000000000000 0.0000000000000000
1.0000000000000000 0.0000000000000000 0.0000000000000000
1.0000000000000000 0.0000000000000000 0.0000000000000000
1.0000000000000000 0.0000000000000000 0.0000000000000000
1.0000000000000000 0.0000000000000000 0.0000000000000000
1.0000000000000000 0.0000000000000000 0.0000000000000000
1.0000000000000000 0.0000000000000000 0.0000000000000000
1.0000000000000000 0.0000000000000000 0.0000000000000000
1.0000000000000000 0.0000000000000000 0.0000000000000000
1.0000000000000000 0.0000000000000000 0.0000000000000000
1.0000000000000000 0.0000000000000000 0.0000000000000000
1.0000000000000000 0.0000000000000000 0.0000000000000000
1.0000000000000000 0.0000000000000000 0.0000000000000000
1.0000000000000000 0.0000000000000000 0.0000000000000000
1.0000000000000000 0.0000000000000000 0.0000000000000000
1.0000000000000000 0.0000000000000000 0.0000000000000000
1.0000000000000000 0.0000000000000000 0.0000000000000000
1.0000000000000000 0.0000000000000000 0.0000000000000000
1.0000000000000000 0.0000000000000000 0.0000000000000000
1.0000000000000000 0.0000000000000000 0.0000000000000000
1.0000000000000000 0.0000000000000000 0.0000000000000000
1.0000000000000000 0.0000000000000000 0.0000000000000000
1.0000000000000000 0.0000000000000000 0.0000000000000000
1.0000000000000000 0.0000000000000000 0.0000000000000000
1.0000000000000000 0.0000000000000000 0.0000000000000000
1.0000000000000000 0.0000000000000000 0.0000000000000000
1.0000000000000000 0.0000000000000000 0.0000000000000000
1.0000000000000000 0.0000000000000000 0.0000000000000000
1.0000000000000000 0.0000000000000000 0.0000000000000000
1.0000000000000000 0.0000000000000000 0.0000000000000000
1.0000000000000000 0.0000000000000000 0.0000000000000000
1.0000000000000000 0.0000000000000000 0.0000000000000000
1.0000000000000000 0.0000000000000000 0.0000000000000000
1.0000000000000000 0.0000000000000000 0.0000000000000000
1.0000000000000000 0.0000000000000000 0.0000000000000000
1.0000000000000000 0.0000000000000000 0.0000000000000000
1.0000000000000000 0.0000000000000000 0.0000000000000000
1.0000000000000000 0.0000000000000000 0.0000000000000000
1.0000000000000000 0.0000000000000000 0.0000000000000000
1.0000000000000000 0.0000000000000000 0.0000000000000000
1.0000000000000000 0.0000000000000000 0.0000000000000000
1.0000000000000000 0.0000000000000000 0.0000000000000000
1.0000000000000000 0.0000000000000000 0.0000000000000000
1.0000000000000000 0.0000000000000000 0.0000000000000000
1.0000000000000000 0.0000000000000000 0.0000000000000000
1.0000000000000000 0.0000000000000000 0.0000000000000000
1.0000000000000000 0.0000000000000000 0.0000000000000000
1.0000000000000000 0.0000000000000000 0.0000000000000000
1.0000000000000000 0.0000000000000000 0.0000000000000000
1.0000000000000000 0.0000000000000000 0.0000000000000000
1.0000000000000000 0.0000000000000000 0.0000000000000000
1.0000000000000000 0.0000000000000000 0.0000000000000000
1.0000000000000000 0.0000000000000000 0.0000000000000000
1.0000000000000000 0.0000000000000000 0.0000000000000000
1.0000000000000000 0.0000000000000000 0.0000000000000000
1.0000000000000000 0.0000000000000000 0.0000000000000000
1.0000000000000000 0.0000000000000000 0.0000000000000000
1.0000000000000000 0.0000000000000000 0.0000000000000000
1.0000000000000000 0.0000000000000000 0.0000000000000000
1.0000000000000000 0.0000000000000000 0.0000000000000000
1.0000000000000000 0.0000000000000000 0.0000000000000000
1.0000000000000000 0.0000000000000000 0.0000000000000000
1.0000000000000000 0.0000000000000000 0.0000000000000000
1.0000000000000000 0.0000000000000000 0.0000000000000000
1.0000000000000000 0.0000000000000000 0.0000000000000000
1.0000000000000000 0.0000000000000000 0.0000000000000000
1.0000000000000000 0.0000000000000000 0.0000000000000000
1.0000000000000000 0.0000000000000000 0.0000000000000000
1.0000000000000000 0.0000000000000000 0.0000000000000000
1.0000000000000000 0.0000000000000000 0.0000000000000000
1.0000000000000000 0.0000000000000000 0.0000000000000000
1.0000000000000000 0.0000000000000000 0.0000000000000000
1.0000000000000000 0.0000000000000000 0.0000000000000000
1.0000000000000000 0.0000000000000000 0.0000000000000000
1.0000000000000000 0.0000000000000000 0.0000000000000000
1.0000000000000000 0.0000000000000000 0.0000000000000000
1.0000000000000000 0.0000000000000000 0.0000000000000000
1.0000000000000000 0.0000000000000000 0.0000000000000000
1.0000000000000000 0.0000000000000000 0.0000000000000000
1.0000000000000000 0.0000000000000000 0.0000000000000000
1.0000000000000000 0.0000000000000000 0.0000000000000000
1.0000000000000000 0.0000000000000000 0.0000000000000000
1.0000000000000000 0.0000000000000000 0.0000000000000000
1.0000000000000000 0.0000000000000000 0.0000000000000000
1.0000000000000000 0.0000000000000000 0.0000000000000000
1.0000000000000000 0.0000000000000000 0.0000000000000000
1.0000000000000000 0.0000000000000000 0.0000000000000000
1.0000000000000000 0.0000000000000000 0.0000000000000000
1.0000000000000000 0.0000000000000000 0.0000000000000000
1.0000000000000000 0.0000000000000000 0.0000000000000000
1.0000000000000000 0.0000000000000000 0.0000000000000000
1.0000000000000000 0.0000000000000000 0.0000000000000000
1.0000000000000000 0.0000000000000000 0.0000000000000000
1.0000000000000000 0.0000000000000000 0.0000000000000000
1.0000000000000000 0.0000000000000000 0.0000000000000000
1.0000000000000000 0.0000000000000000 0.0000000000000000
1.0000000000000000 0.0000000000000000 0.0000000000000000
1.0000000000000000 0.0000000000000000 0.0000000000000000
1.0000000000000000 0.0000000000000000 0.0000000000000000
1.0000000000000000 0.0000000000000000 0.0000000000000000
1.0000000000000000 0.0000000000000000 0.0000000000000000
1.0000000000000000 0.0000000000000000 0.0000000000000000
1.0000000000000000 0.0000000000000000 0.0000000000000000
1.0000000000000000 0.0000000000000000 0.0000000000000000
1.0000000000000000 0.0000000000000000 0.0000000000000000
1.0000000000000000 0.0000000000000000 0.0000000000000000
1.0000000000000000 0.0000000000000000 0.0000000000000000
1.0000000000000000 0.0000000000000000 0.0000000000000000
1.0000000000000000 0.0000000000000000 0.0000000000000000
1.0000000000000000 0.0000000000000000 0.0000000000000000
1.0000000000000000 0.0000000000000000 0.0000000000000000
1.0000000000000000 0.0000000000000000 0.0000000000000000
1.0000000000000000 0.0000000000000000 0.0000000000000000
1.0000000000000000 0.0000000000000000 0.0000000000000000
1.0000000000000000 0.0000000000000000 0.0000000000000000
1.0000000000000000 0.0000000000000000 0.0000000000000000
1.0000000000000000 0.0000000000000000 0.0000000000000000
1.0000000000000000 0.0000000000000000 0.0000000000000000
1.0000000000000000 0.0000000000000000 0.0000000000000000
1.0000000000000000 0.0000000000000000 0.0000000000000000
1.0000000000000000 0.0000000000000000 0.0000000000000000
1.0000000000000000 0.0000000000000000 0.0000000000000000
1.0000000000000000 0.0000000000000000 0.0000000000000000
1.0000000000000000 0.0000000000000000 0.0000000000000000
1.0000000000000000 0.0000000000000000 0.0000000000000000
1.0000000000000000 0.0000000000000000 0.0000000000000000
1.0000000000000000 0.0000000000000000 0.0000000000000000
1.0000000000000000 0.0000000000000000 0.0000000000000000
1.0000000000000000 0.0000000000000000 0.0000000000000000
1.0000000000000000 0.0000000000000000 0.0000000000000000
1.0000000000000000 0.0000000000000000 0.0000000000000000
1.0000000000000000 0.0000000000000000 0.0000000000000000
1.0000000000000000 0.0000000000000000 0.0000000000000000
1.0000000000000000 0.0000000000000000 0.0000000000000000
1.0000000000000000 0.0000000000000000 0.0000000000000000
1.0000000000000000 0.0000000000000000 0.0000000000000000
1.0000000000000000 0.0000000000000000 0.0000000000000000
1.0000000000000000 0.0000000000000000 0.0000000000000000
1.0000000000000000 0.0000000000000000 0.0000000000000000
1.0000000000000000 0.0000000000000000 0.0000000000000000
1.0000000000000000 0.0000000000000000 0.0000000000000000
1.0000000000000000 0.0000000000000000 0.0000000000000000
1.0000000000000000 0.0000000000000000 0.0000000000000000
1.0000000000000000 0.0000000000000000 0.0000000000000000
1.0000000000000000 0.0000000000000000 0.0000000000000000
1.0000000000000000 0.0000000000000000 0.0000000000000000
1.0000000000000000 0.0000000000000000 0.0000000000000000
1.0000000000000000 0.0000000000000000 0.0000000000000000
1.0000000000000000 0.0000000000000000 0.0000000000000000
1.0000000000000000 0.0000000000000000 0.0000000000000000
1.0000000000000000 0.0000000000000000 0.0000000000000000
1.0000000000000000 0.0000000000000000 0.0000000000000000
1.0000000000000000 0.0000000000000000 0.0000000000000000
1.0000000000000000 0.0000000000000000 0.0000000000000000
1.0000000000000000 0.0000000000000000 0.0000000000000000
1.0000000000000000 0.0000000000000000 0.0000000000000000
1.0000000000000000 0.0000000000000000 0.0000000000000000
1.0000000000000000 0.0000000000000000 0.0000000000000000
1.0000000000000000 0.0000000000000000 0.0000000000000000
1.0000000000000000 0.0000000000000000 0.0000000000000000
1.0000000000000000 0.0000000000000000 0.0000000000000000
1.0000000000000000 0.0000000000000000 0.0000000000000000
1.0000000000000000 0.0000000000000000 0.0000000000000000
1.0000000000000000 0.0000000000000000 0.0000000000000000
1.0000000000000000 0.0000000000000000 0.0000000000000000
1.0000000000000000 0.0000000000000000 0.0000000000000000
1.0000000000000000 0.0000000000000000 0.0000000000000000
1.0000000000000000 0.0000000000000000 0.0000000000000000
1.0000000000000000 0.0000000000000000 0.0000000000000000
1.0000000000000000 0.0000000000000000 0.0000000000000000
1.0000000000000000 0.0000000000000000 0.0000000000000000
1.0000000000000000 0.0000000000000000 0.0000000000000000
1.0000000000000000 0.0000000000000000 0.0000000000000000
1.0000000000000000 0.0000000000000000 0.0000000000000000
1.0000000000000000 0.0000000000000000 0.0000000000000000
1.0000000000000000 0.0000000000000000 0.0000000000000000
1.0000000000000000 0.0000000000000000 0.0000000000000000
1.0000000000000000 0.0000000000000000 0.0000000000000000
1.0000000000000000 0.0000000000000000 0.0000000000000000
1.0000000000000000 0.0000000000000000 0.0000000000000000
1.0000000000000000 0.0000000000000000 0.0000000000000000
1.0000000000000000 0.0000000000000000 0.0000000000000000
1.0000000000000000 0.0000000000000000 0.0000000000000000
1.0000000000000000 0.0000000000000000 0.0000000000000000
1.0000000000000000 0.0000000000000000 0.0000000000000000
1.0000000000000000 0.0000000000000000 0.0000000000000000
1.0000000000000000 0.0000000000000000 0.0000000000000000
1.0000000000000000 0.0000000000000000 0.0000000000000000
1.0000000000000000 0.0000000000000000 0.0000000000000000
1.0000000000000000 0.0000000000000000 0.0000000000000000
1.0000000000000000 0.0000000000000000 0.0000000000000000
1.0000000000000000 0.0000000000000000 0.0000000000000000
1.0000000000000000 0.0000000000000000 0.0000000000000000
1.0000000000000000 0.0000000000000000 0.0000000000000000
1.0000000000000000 0.0000000000000000 0.0000000000000000
1.0000000000000000 0.0000000000000000 0.0000000000000000
1.0000000000000000 0.0000000000000000 0.0000000000000000
1.0000000000000000 0.0000000000000000 0.0000000000000000
1.0000000000000000 0.0000000000000000 0.0000000000000000
1.0000000000000000 0.0000000000000000 0.0000000000000000
1.0000000000000000 0.0000000000000000 0.0000000000000000
1.0000000000000000 0.0000000000000000 0.0000000000000000
1.0000000000000000 0.0000000000000000 0.0000000000000000
1.0000000000000000 0.0000000000000000 0.0000000000000000
1.0000000000000000 0.0000000000000000 0.0000000000000000
1.0000000000000000 0.0000000000000000 0.0000000000000000
1.0000000000000000 0.0000000000000000 0.0000000000000000
1.0000000000000000 0.0000000000000000 0.0000000000000000
1.0000000000000000 0.0000000000000000 0.0000000000000000
1.0000000000000000 0.0000000000000000 0.0000000000000000
1.0000000000000000 0.0000000000000000 0.0000000000000000
1.0000000000000000 0.0000000000000000 0.0000000000000000
1.0000000000000000 0.0000000000000000 0.0000000000000000
1.0000000000000000 0.0000000000000000 0.0000000000000000
1.0000000000000000 0.0000000000000000 0.0000000000000000
1.0000000000000000 0.0000000000000000 0.0000000000000000
1.0000000000000000 0.0000000000000000 0.0000000000000000
1.0000000000000000 0.0000000000000000 0.0000000000000000
1.0000000000000000 0.0000000000000000 0.0000000000000000
1.0000000000000000 0.0000000000000000 0.0000000000000000
1.0000000000000000 0.0000000000000000 0.0000000000000000
1.0000000000000000 0.0000000000000000 0.0000000000000000
1.0000000000000000 0.0000000000000000 0.0000000000000000
1.0000000000000000 0.0000000000000000 0.0000000000000000
1.0000000000000000 0.0000000000000000 0.0000000000000000
1.0000000000000000 0.0000000000000000 0.0000000000000000
1.0000000000000000 0.0000000000000000 0.0000000000000000
1.0000000000000000 0.0000000000000000 0.0000000000000000
1.0000000000000000 0.0000000000000000 0.0000000000000000
1.0000000000000000 0.0000000000000000 0.0000000000000000
1.0000000000000000 0.0000000000000000 0.0000000000000000
1.0000000000000000 0.0000000000000000 0.0000000000000000
1.0000000000000000 0.0000000000000000 0.0000000000000000
1.0000000000000000 0.0000000000000000 0.0000000000000000
1.0000000000000000 0.0000000000000000 0.0000000000000000
1.0000000000000000 0.0000000000000000 0.0000000000000000
1.0000000000000000 0.0000000000000000 0.0000000000000000
1.0000000000000000 0.0000000000000000 0.0000000000000000
1.0000000000000000 0.0000000000000000 0.0000000000000000
1.0000000000000000 0.0000000000000000 0.0000000000000000
1.0000000000000000 0.0000000000000000 0.0000000000000000
1.0000000000000000 0.0000000000000000 0.0000000000000000
1.0000000000000000 0.0000000000000000 0.0000000000000000
1.0000000000000000 0.0000000000000000 0.0000000000000000
1.0000000000000000 0.0000000000000000 0.0000000000000000
1.0000000000000000 0.0000000000000000 0.0000000000000000
1.0000000000000000 0.0000000000000000 0.0000000000000000
1.0000000000000000 0.0000000000000000 0.0000000000000000
1.0000000000000000 0.0000000000000000 0.0000000000000000
1.0000000000000000 0.0000000000000000 0.0000000000000000
1.0000000000000000 0.0000000000000000 0.0000000000000000
1.0000000000000000 0.0000000000000000 0.0000000000000000
1.0000000000000000 0.0000000000000000 0.0000000000000000
1.0000000000000000 0.0000000000000000 0.0000000000000000
1.0000000000000000 0.0000000000000000 0.0000000000000000
1.0000000000000000 0.0000000000000000 0.0000000000000000
1.0000000000000000 0.0000000000000000 0.0000000000000000
1.0000000000000000 0.0000000000000000 0.0000000000000000
1.0000000000000000 0.0000000000000000 0.0000000000000000
1.0000000000000000 0.0000000000000000 0.0000000000000000
1.0000000000000000 0.0000000000000000 0.0000000000000000
1.0000000000000000 0.0000000000000000 0.0000000000000000
1.0000000000000000 0.0000000000000000 0.0000000000000000
1.0000000000000000 0.0000000000000000 0.0000000000000000
1.0000000000000000 0.0000000000000000 0.0000000000000000
1.0000000000000000 0.0000000000000000 0.0000000000000000
1.0000000000000000 0.0000000000000000 0.0000000000000000
1.0000000000000000 0.0000000000000000 0.0000000000000000
1.0000000000000000 0.0000000000000000 0.0000000000000000
1.0000000000000000 0.0000000000000000 0.0000000000000000
1.0000000000000000 0.0000000000000000 0.0000000000000000
1.0000000000000000 0.0000000000000000 0.0000000000000000
1.0000000000000000 0.0000000000000000 0.0000000000000000
1.0000000000000000 0.0000000000000000 0.0000000000000000
1.0000000000000000 0.0000000000000000 0.0000000000000000
1.0000000000000000 0.0000000000000000 0.0000000000000000
1.0000000000000000 0.0000000000000000 0.0000000000000000
1.0000000000000000 0.0000000000000000 0.0000000000000000
1.0000000000000000 0.0000000000000000 0.0000000000000000
1.0000000000000000 0.0000000000000000 0.0000000000000000
1.0000000000000000 0.0000000000000000 0.0000000000000000
1.0000000000000000 0.0000000000000000 0.0000000000000000
1.0000000000000000 0.0000000000000000 0.0000000000000000
1.0000000000000000 0.0000000000000000 0.0000000000000000
1.0000000000000000 0.0000000000000000 0.0000000000000000
1.0000000000000000 0.0000000000000000 0.0000000000000000
1.0000000000000000 0.0000000000000000 0.0000000000000000
1.0000000000000000 0.0000000000000000 0.0000000000000000
1.0000000000000000 0.0000000000000000 0.0000000000000000
1.0000000000000000 0.0000000000000000 0.0000000000000000
1.0000000000000000 0.0000000000000000 0.0000000000000000
1.0000000000000000 0.0000000000000000 0.0000000000000000
1.0000000000000000 0.0000000000000000 0.0000000000000000
1.0000000000000000 0.0000000000000000 0.0000000000000000
1.0000000000000000 0.0000000000000000 0.0000000000000000
1.0000000000000000 0.0000000000000000 0.0000000000000000
1.0000000000000000 0.0000000000000000 0.0000000000000000
1.0000000000000000 0.0000000000000000 0.0000000000000000
1.0000000000000000 0.0000000000000000 0.0000000000000000
1.0000000000000000 0.0000000000000000 0.0000000000000000
1.0000000000000000 0.0000000000000000 0.0000000000000000
1.0000000000000000 0.0000000000000000 0.0000000000000000
1.0000000000000000 0.0000000000000000 0.0000000000000000
1.0000000000000000 0.0000000000000000 0.0000000000000000
1.0000000000000000 0.0000000000000000 0.0000000000000000
1.0000000000000000 0.0000000000000000 0.0000000000000000
1.0000000000000000 0.0000000000000000 0.0000000000000000
1.0000000000000000 0.0000000000000000 0.0000000000000000
1.0000000000000000 0.0000000000000000 0.0000000000000000
1.0000000000000000 0.0000000000000000 0.0000000000000000
1.0000000000000000 0.0000000000000000 0.0000000000000000
1.0000000000000000 0.0000000000000000 0.0000000000000000
1.0000000000000000 0.0000000000000000 0.0000000000000000
1.0000000000000000 0.0000000000000000 0.0000000000000000
1.0000000000000000 0.0000000000000000 0.0000000000000000
1.0000000000000000 0.0000000000000000 0.0000000000000000
1.0000000000000000 0.0000000000000000 0.0000000000000000
1.0000000000000000 0.0000000000000000 0.0000000000000000
1.0000000000000000 0.0000000000000000 0.0000000000000000
1.0000000000000000 0.0000000000000000 0.0000000000000000
1.0000000000000000 0.0000000000000000 0.0000000000000000
1.0000000000000000 0.0000000000000000 0.0000000000000000
1.0000000000000000 0.0000000000000000 0.0000000000000000
1.0000000000000000 0.0000000000000000 0.0000000000000000
1.0000000000000000 0.0000000000000000 0.0000000000000000
1.0000000000000000 0.0000000000000000 0.0000000000000000
1.0000000000000000 0.0000000000000000 0.0000000000000000
1.0000000000000000 0.0000000000000000 0.0000000000000000
1.0000000000000000 0.0000000000000000 0.0000000000000000
1.0000000000000000 0.0000000000000000 0.0000000000000000
1.0000000000000000 0.0000000000000000 0.0000000000000000
1.0000000000000000 0.0000000000000000 0.0000000000000000
1.0000000000000000 0.0000000000000000 0.0000000000000000
1.0000000000000000 0.0000000000000000 0.0000000000000000
1.0000000000000000 0.0000000000000000 0.0000000000000000
1.0000000000000000 0.0000000000000000 0.0000000000000000
1.0000000000000000 0.0000000000000000 0.0000000000000000
1.0000000000000000 0.0000000000000000 0.0000000000000000
1.0000000000000000 0.0000000000000000 0.0000000000000000
1.0000000000000000 0.0000000000000000 0.0000000000000000
1.0000000000000000 0.0000000000000000 0.0000000000000000
1.0000000000000000 0.0000000000000000 0.0000000000000000
1.0000000000000000 0.0000000000000000 0.0000000000000000
1.0000000000000000 0.0000000000000000 0.0000000000000000
1.0000000000000000 0.0000000000000000 0.0000000000000000
1.0000000000000000 0.0000000000000000 0.0000000000000000
1.0000000000000000 0.0000000000000000 0.0000000000000000
1.0000000000000000 0.0000000000000000 0.0000000000000000
1.0000000000000000 0.0000000000000000 0.0000000000000000
1.0000000000000000 0.0000000000000000 0.0000000000000000
1.0000000000000000 0.0000000000000000 0.0000000000000000
1.0000000000000000 0.0000000000000000 0.0000000000000000
1.0000000000000000 0.0000000000000000 0.0000000000000000
1.0000000000000000 0.0000000000000000 0.0000000000000000
1.0000000000000000 0.0000000000000000 0.0000000000000000
1.0000000000000000 0.0000000000000000 0.0000000000000000
1.0000000000000000 0.0000000000000000 0.0000000000000000
1.0000000000000000 0.0000000000000000 0.0000000000000000
1.0000000000000000 0.0000000000000000 0.0000000000000000
1.0000000000000000 0.0000000000000000 0.0000000000000000
1.0000000000000000 0.0000000000000000 0.0000000000000000
1.0000000000000000 0.0000000000000000 0.0000000000000000
1.0000000000000000 0.0000000000000000 0.0000000000000000
1.0000000000000000 0.0000000000000000 0.0000000000000000
1.0000000000000000 0.0000000000000000 0.0000000000000000
1.0000000000000000 0.0000000000000000 0.0000000000000000
1.0000000000000000 0.0000000000000000 0.0000000000000000
1.0000000000000000 0.0000000000000000 0.0000000000000000
1.0000000000000000 0.0000000000000000 0.0000000000000000
1.0000000000000000 0.0000000000000000 0.0000000000000000
1.0000000000000000 0.0000000000000000 0.0000000000000000
1.0000000000000000 0.0000000000000000 0.0000000000000000
1.0000000000000000 0.0000000000000000 0.0000000000000000
1.0000000000000000 0.0000000000000000 0.0000000000000000
1.0000000000000000 0.0000000000000000 0.0000000000000000
1.0000000000000000 0.0000000000000000 0.0000000000000000
1.0000000000000000 0.0000000000000000 0.0000000000000000
1.0000000000000000 0.0000000000000000 0.0000000000000000
1.0000000000000000 0.0000000000000000 0.0000000000000000
1.0000000000000000 0.0000000000000000 0.0000000000000000
1.0000000000000000 0.0000000000000000 0.0000000000000000
1.0000000000000000 0.0000000000000000 0.0000000000000000
1.0000000000000000 0.0000000000000000 0.0000000000000000
1.0000000000000000 0.0000000000000000 0.0000000000000000
1.0000000000000000 0.0000000000000000 0.0000000000000000
1.0000000000000000 0.0000000000000000 0.0000000000000000
1.0000000000000000 0.0000000000000000 0.0000000000000000
1.0000000000000000 0.0000000000000000 0.0000000000000000
1.0000000000000000 0.0000000000000000 0.0000000000000000
1.0000000000000000 0.0000000000000000 0.0000000000000000
1.0000000000000000 0.0000000000000000 0.0000000000000000
1.0000000000000000 0.0000000000000000 0.0000000000000000
1.0000000000000000 0.0000000000000000 0.0000000000000000
1.0000000000000000 0.0000000000000000 0.0000000000000000
1.0000000000000000 0.0000000000000000 0.0000000000000000
1.0000000000000000 0.0000000000000000 0.0000000000000000
1.0000000000000000 0.0000000000000000 0.0000000000000000
1.0000000000000000 0.0000000000000000 0.0000000000000000
1.0000000000000000 0.0000000000000000 0.0000000000000000
1.0000000000000000 0.0000000000000000 0.0000000000000000
1.0000000000000000 0.0000000000000000 0.0000000000000000
1.0000000000000000 0.0000000000000000 0.0000000000000000
1.0000000000000000 0.0000000000000000 0.0000000000000000
1.0000000000000000 0.0000000000000000 0.0000000000000000
1.0000000000000000 0.0000000000000000 0.0000000000000000
1.0000000000000000 0.0000000000000000 0.0000000000000000
1.0000000000000000 0.0000000000000000 0.0000000000000000
1.0000000000000000 0.0000000000000000 0.0000000000000000
1.0000000000000000 0.0000000000000000 0.0000000000000000
1.0000000000000000 0.0000000000000000 0.0000000000000000
1.0000000000000000 0.0000000000000000 0.0000000000000000
1.0000000000000000 0.0000000000000000 0.0000000000000000
1.0000000000000000 0.0000000000000000 0.0000000000000000
1.0000000000000000 0.0000000000000000 0.0000000000000000
1.0000000000000000 0.0000000000000000 0.0000000000000000
1.0000000000000000 0.0000000000000000 0.0000000000000000
1.0000000000000000 0.0000000000000000 0.0000000000000000
1.0000000000000000 0.0000000000000000 0.0000000000000000
1.0000000000000000 0.0000000000000000 0.0000000000000000
1.0000000000000000 0.0000000000000000 0.0000000000000000
1.0000000000000000 0.0000000000000000 0.0000000000000000
1.0000000000000000 0.0000000000000000 0.0000000000000000
1.0000000000000000 0.0000000000000000 0.0000000000000000
1.0000000000000000 0.0000000000000000 0.0000000000000000
1.0000000000000000 0.0000000000000000 0.0000000000000000
1.0000000000000000 0.0000000000000000 0.0000000000000000
1.0000000000000000 0.0000000000000000 0.0000000000000000
1.0000000000000000 0.0000000000000000 0.0000000000000000
1.0000000000000000 0.0000000000000000 0.0000000000000000
1.0000000000000000 0.0000000000000000 0.0000000000000000
1.0000000000000000 0.0000000000000000 0.0000000000000000
1.0000000000000000 0.0000000000000000 0.0000000000000000
1.0000000000000000 0.0000000000000000 0.0000000000000000
1.0000000000000000 0.0000000000000000 0.0000000000000000
1.0000000000000000 0.0000000000000000 0.0000000000000000
1.0000000000000000 0.0000000000000000 0.0000000000000000
1.0000000000000000 0.0000000000000000 0.0000000000000000
1.0000000000000000 0.0000000000000000 0.0000000000000000
1.0000000000000000 0.0000000000000000 0.0000000000000000
1.0000000000000000 0.0000000000000000 0.0000000000000000
1.0000000000000000 0.0000000000000000 0.0000000000000000
1.0000000000000000 0.0000000000000000 0.0000000000000000
1.0000000000000000 0.0000000000000000 0.0000000000000000
1.0000000000000000 0.0000000000000000 0.0000000000000000
1.0000000000000000 0.0000000000000000 0.0000000000000000
1.0000000000000000 0.0000000000000000 0.0000000000000000
1.0000000000000000 0.0000000000000000 0.0000000000000000
1.0000000000000000 0.0000000000000000 0.0000000000000000
1.0000000000000000 0.0000000000000000 0.0000000000000000
1.0000000000000000 0.0000000000000000 0.0000000000000000
1.0000000000000000 0.0000000000000000 0.0000000000000000
1.0000000000000000 0.0000000000000000 0.0000000000000000
1.0000000000000000 0.0000000000000000 0.0000000000000000
1.0000000000000000 0.0000000000000000 0.0000000000000000
1.0000000000000000 0.0000000000000000 0.0000000000000000
1.0000000000000000 0.0000000000000000 0.0000000000000000
1.0000000000000000 0.0000000000000000 0.0000000000000000
1.0000000000000000 0.0000000000000000 0.0000000000000000
1.0000000000000000 0.0000000000000000 0.0000000000000000
1.0000000000000000 0.0000000000000000 0.0000000000000000
1.0000000000000000 0.0000000000000000 0.0000000000000000
1.0000000000000000 0.0000000000000000 0.0000000000000000
1.0000000000000000 0.0000000000000000 0.0000000000000000
1.0000000000000000 0.0000000000000000 0.0000000000000000
1.0000000000000000 0.0000000000000000 0.0000000000000000
1.0000000000000000 0.0000000000000000 0.0000000000000000
1.0000000000000000 0.0000000000000000 0.0000000000000000
1.0000000000000000 0.0000000000000000 0.0000000000000000
1.0000000000000000 0.0000000000000000 0.0000000000000000
1.0000000000000000 0.0000000000000000 0.0000000000000000
1.0000000000000000 0.0000000000000000 0.0000000000000000
1.0000000000000000 0.0000000000000000 0.0000000000000000
1.0000000000000000 0.0000000000000000 0.0000000000000000
1.0000000000000000 0.0000000000000000 0.0000000000000000
1.0000000000000000 0.0000000000000000 0.0000000000000000
1.0000000000000000 0.0000000000000000 0.0000000000000000
1.0000000000000000 0.0000000000000000 0.0000000000000000
1.0000000000000000 0.0000000000000000 0.0000000000000000
1.0000000000000000 0.0000000000000000 0.0000000000000000
1.0000000000000000 0.0000000000000000 0.0000000000000000
1.0000000000000000 0.0000000000000000 0.0000000000000000
1.0000000000000000 0.0000000000000000 0.0000000000000000
1.0000000000000000 0.0000000000000000 0.0000000000000000
1.0000000000000000 0.0000000000000000 0.0000000000000000
1.0000000000000000 0.0000000000000000 0.0000000000000000
1.0000000000000000 0.0000000000000000 0.0000000000000000
1.0000000000000000 0.0000000000000000 0.0000000000000000
1.0000000000000000 0.0000000000000000 0.0000000000000000
1.0000000000000000 0.0000000000000000 0.0000000000000000
1.0000000000000000 0.0000000000000000 0.0000000000000000
1.0000000000000000 0.0000000000000000 0.0000000000000000
1.0000000000000000 0.0000000000000000 0.0000000000000000
1.0000000000000000 0.0000000000000000 0.0000000000000000
1.0000000000000000 0.0000000000000000 0.0000000000000000
1.0000000000000000 0.0000000000000000 0.0000000000000000
1.0000000000000000 0.0000000000000000 0.0000000000000000
1.0000000000000000 0.0000000000000000 0.0000000000000000
1.0000000000000000 0.0000000000000000 0.0000000000000000
1.0000000000000000 0.0000000000000000 0.0000000000000000
1.0000000000000000 0.0000000000000000 0.0000000000000000
1.0000000000000000 0.0000000000000000 0.0000000000000000
1.0000000000000000 0.0000000000000000 0.0000000000000000
1.0000000000000000 0.0000000000000000 0.0000000000000000
1.0000000000000000 0.0000000000000000 0.0000000000000000
1.0000000000000000 0.0000000000000000 0.0000000000000000
1.0000000000000000 0.0000000000000000 0.0000000000000000
1.0000000000000000 0.0000000000000000 0.0000000000000000
1.0000000000000000 0.0000000000000000 0.0000000000000000
1.0000000000000000 0.0000000000000000 0.0000000000000000
1.0000000000000000 0.0000000000000000 0.0000000000000000
1.0000000000000000 0.0000000000000000 0.0000000000000000
1.0000000000000000 0.0000000000000000 0.0000000000000000
1.0000000000000000 0.0000000000000000 0.0000000000000000
1.0000000000000000 0.0000000000000000 0.0000000000000000
1.0000000000000000 0.0000000000000000 0.0000000000000000
1.0000000000000000 0.0000000000000000 0.0000000000000000
1.0000000000000000 0.0000000000000000 0.0000000000000000
1.0000000000000000 0.0000000000000000 0.0000000000000000
1.0000000000000000 0.0000000000000000 0.0000000000000000
1.0000000000000000 0.0000000000000000 0.0000000000000000
1.0000000000000000 0.0000000000000000 0.0000000000000000
1.0000000000000000 0.0000000000000000 0.0000000000000000
1.0000000000000000 0.0000000000000000 0.0000000000000000
1.0000000000000000 0.0000000000000000 0.0000000000000000
1.0000000000000000 0.0000000000000000 0.0000000000000000
1.0000000000000000 0.0000000000000000 0.0000000000000000
1.0000000000000000 0.0000000000000000 0.0000000000000000
1.0000000000000000 0.0000000000000000 0.0000000000000000
1.0000000000000000 0.0000000000000000 0.0000000000000000
1.0000000000000000 0.0000000000000000 0.0000000000000000
1.0000000000000000 0.0000000000000000 0.0000000000000000
1.0000000000000000 0.0000000000000000 0.0000000000000000
1.0000000000000000 0.0000000000000000 0.0000000000000000
1.0000000000000000 0.0000000000000000 0.0000000000000000
1.0000000000000000 0.0000000000000000 0.0000000000000000
1.0000000000000000 0.0000000000000000 0.0000000000000000
1.0000000000000000 0.0000000000000000 0.0000000000000000
1.0000000000000000 0.0000000000000000 0.0000000000000000
1.0000000000000000 0.0000000000000000 0.0000000000000000
1.0000000000000000 0.0000000000000000 0.0000000000000000
1.0000000000000000 0.0000000000000000 0.0000000000000000
1.0000000000000000 0.0000000000000000 0.0000000000000000
1.0000000000000000 0.0000000000000000 0.0000000000000000
1.0000000000000000 0.0000000000000000 0.0000000000000000
1.0000000000000000 0.0000000000000000 0.0000000000000000
1.0000000000000000 0.0000000000000000 0.0000000000000000
1.0000000000000000 0.0000000000000000 0.0000000000000000
1.0000000000000000 0.0000000000000000 0.0000000000000000
1.0000000000000000 0.0000000000000000 0.0000000000000000
1.0000000000000000 0.0000000000000000 0.0000000000000000
1.0000000000000000 0.0000000000000000 0.0000000000000000
1.0000000000000000 0.0000000000000000 0.0000000000000000
1.0000000000000000 0.0000000000000000 0.0000000000000000
1.0000000000000000 0.0000000000000000 0.0000000000000000
1.0000000000000000 0.0000000000000000 0.0000000000000000
1.0000000000000000 0.0000000000000000 0.0000000000000000
1.0000000000000000 0.0000000000000000 0.0000000000000000
1.0000000000000000 0.0000000000000000 0.0000000000000000
1.0000000000000000 0.0000000000000000 0.0000000000000000
1.0000000000000000 0.0000000000000000 0.0000000000000000
1.0000000000000000 0.0000000000000000 0.0000000000000000
1.0000000000000000 0.0000000000000000 0.0000000000000000
1.0000000000000000 0.0000000000000000 0.0000000000000000
1.0000000000000000 0.0000000000000000 0.0000000000000000
1.0000000000000000 0.0000000000000000 0.0000000000000000
1.0000000000000000 0.0000000000000000 0.0000000000000000
1.0000000000000000 0.0000000000000000 0.0000000000000000
1.0000000000000000 0.0000000000000000 0.0000000000000000
1.0000000000000000 0.0000000000000000 0.0000000000000000
1.0000000000000000 0.0000000000000000 0.0000000000000000
1.0000000000000000 0.0000000000000000 0.0000000000000000
1.0000000000000000 0.0000000000000000 0.0000000000000000
1.0000000000000000 0.0000000000000000 0.0000000000000000
1.0000000000000000 0.0000000000000000 0.0000000000000000
1.0000000000000000 0.0000000000000000 0.0000000000000000
1.0000000000000000 0.0000000000000000 0.0000000000000000
1.0000000000000000 0.0000000000000000 0.0000000000000000
1.0000000000000000 0.0000000000000000 0.0000000000000000
1.0000000000000000 0.0000000000000000 0.0000000000000000
1.0000000000000000 0.0000000000000000 0.0000000000000000
1.0000000000000000 0.0000000000000000 0.0000000000000000
1.0000000000000000 0.0000000000000000 0.0000000000000000
1.0000000000000000 0.0000000000000000 0.0000000000000000
1.0000000000000000 0.0000000000000000 0.0000000000000000
1.0000000000000000 0.0000000000000000 0.0000000000000000
1.0000000000000000 0.0000000000000000 0.0000000000000000
1.0000000000000000 0.0000000000000000 0.0000000000000000
1.0000000000000000 0.0000000000000000 0.0000000000000000
1.0000000000000000 0.0000000000000000 0.0000000000000000
1.0000000000000000 0.0000000000000000 0.0000000000000000
1.0000000000000000 0.0000000000000000 0.0000000000000000
1.0000000000000000 0.0000000000000000 0.0000000000000000
1.0000000000000000 0.0000000000000000 0.0000000000000000
1.0000000000000000 0.0000000000000000 0.0000000000000000
1.0000000000000000 0.0000000000000000 0.0000000000000000
1.0000000000000000 0.0000000000000000 0.0000000000000000
1.0000000000000000 0.0000000000000000 0.0000000000000000
1.0000000000000000 0.0000000000000000 0.0000000000000000
1.0000000000000000 0.0000000000000000 0.0000000000000000
1.0000000000000000 0.0000000000000000 0.0000000000000000
1.0000000000000000 0.0000000000000000 0.0000000000000000
1.0000000000000000 0.0000000000000000 0.0000000000000000
1.0000000000000000 0.0000000000000000 0.0000000000000000
1.0000000000000000 0.0000000000000000 0.0000000000000000
1.0000000000000000 0.0000000000000000 0.0000000000000000
1.0000000000000000 0.0000000000000000 0.0000000000000000
1.0000000000000000 0.0000000000000000 0.0000000000000000
1.0000000000000000 0.0000000000000000 0.0000000000000000
1.0000000000000000 0.0000000000000000 0.0000000000000000
1.0000000000000000 0.0000000000000000 0.0000000000000000
1.0000000000000000 0.0000000000000000 0.0000000000000000
1.0000000000000000 0.0000000000000000 0.0000000000000000
1.0000000000000000 0.0000000000000000 0.0000000000000000
1.0000000000000000 0.0000000000000000 0.0000000000000000
1.0000000000000000 0.0000000000000000 0.0000000000000000
1.0000000000000000 0.0000000000000000 0.0000000000000000
1.0000000000000000 0.0000000000000000 0.0000000000000000
1.0000000000000000 0.0000000000000000 0.0000000000000000
1.0000000000000000 0.0000000000000000 0.0000000000000000
1.0000000000000000 0.0000000000000000 0.0000000000000000
1.0000000000000000 0.0000000000000000 0.0000000000000000
1.0000000000000000 0.0000000000000000 0.0000000000000000
1.0000000000000000 0.0000000000000000 0.0000000000000000
1.0000000000000000 0.0000000000000000 0.0000000000000000
1.0000000000000000 0.0000000000000000 0.0000000000000000
1.0000000000000000 0.0000000000000000 0.0000000000000000
1.0000000000000000 0.0000000000000000 0.0000000000000000
1.0000000000000000 0.0000000000000000 0.0000000000000000
1.0000000000000000 0.0000000000000000 0.0000000000000000
1.0000000000000000 0.0000000000000000 0.0000000000000000
1.0000000000000000 0.0000000000000000 0.0000000000000000
1.0000000000000000 0.0000000000000000 0.0000000000000000
1.0000000000000000 0.0000000000000000 0.0000000000000000
1.0000000000000000 0.0000000000000000 0.0000000000000000
1.0000000000000000 0.0000000000000000 0.0000000000000000
1.0000000000000000 0.0000000000000000 0.0000000000000000
1.0000000000000000 0.0000000000000000 0.0000000000000000
1.0000000000000000 0.0000000000000000 0.0000000000000000
1.0000000000000000 0.0000000000000000 0.0000000000000000
1.0000000000000000 0.0000000000000000 0.0000000000000000
1.0000000000000000 0.0000000000000000 0.0000000000000000
1.0000000000000000 0.0000000000000000 0.0000000000000000
1.0000000000000000 0.0000000000000000 0.0000000000000000
1.0000000000000000 0.0000000000000000 0.0000000000000000
1.0000000000000000 0.0000000000000000 0.0000000000000000
1.0000000000000000 0.0000000000000000 0.0000000000000000
1.0000000000000000 0.0000000000000000 0.0000000000000000
1.0000000000000000 0.0000000000000000 0.0000000000000000
1.0000000000000000 0.0000000000000000 0.0000000000000000
1.0000000000000000 0.0000000000000000 0.0000000000000000
1.0000000000000000 0.0000000000000000 0.0000000000000000
1.0000000000000000 0.0000000000000000 0.0000000000000000
1.0000000000000000 0.0000000000000000 0.0000000000000000
1.0000000000000000 0.0000000000000000 0.0000000000000000
1.0000000000000000 0.0000000000000000 0.0000000000000000
1.0000000000000000 0.0000000000000000 0.0000000000000000
1.0000000000000000 0.0000000000000000 0.0000000000000000
1.0000000000000000 0.0000000000000000 0.0000000000000000
1.0000000000000000 0.0000000000000000 0.0000000000000000
1.0000000000000000 0.0000000000000000 0.0000000000000000
1.0000000000000000 0.0000000000000000 0.0000000000000000
1.0000000000000000 0.0000000000000000 0.0000000000000000
1.0000000000000000 0.0000000000000000 0.0000000000000000
1.0000000000000000 0.0000000000000000 0.0000000000000000
1.0000000000000000 0.0000000000000000 0.0000000000000000
1.0000000000000000 0.0000000000000000 0.0000000000000000
1.0000000000000000 0.0000000000000000 0.0000000000000000
1.0000000000000000 0.0000000000000000 0.0000000000000000
1.0000000000000000 0.0000000000000000 0.0000000000000000
1.0000000000000000 0.0000000000000000 0.0000000000000000
1.0000000000000000 0.0000000000000000 0.0000000000000000
1.0000000000000000 0.0000000000000000 0.0000000000000000
1.0000000000000000 0.0000000000000000 0.0000000000000000
1.0000000000000000 0.0000000000000000 0.0000000000000000
1.0000000000000000 0.0000000000000000 0.0000000000000000
1.0000000000000000 0.0000000000000000 0.0000000000000000
1.0000000000000000 0.0000000000000000 0.0000000000000000
1.0000000000000000 0.0000000000000000 0.0000000000000000
1.0000000000000000 0.0000000000000000 0.0000000000000000
1.0000000000000000 0.0000000000000000 0.0000000000000000
1.0000000000000000 0.0000000000000000 0.0000000000000000
1.0000000000000000 0.0000000000000000 0.0000000000000000
1.0000000000000000 0.0000000000000000 0.0000000000000000
1.0000000000000000 0.0000000000000000 0.0000000000000000
1.0000000000000000 0.0000000000000000 0.0000000000000000
1.0000000000000000 0.0000000000000000 0.0000000000000000
1.0000000000000000 0.0000000000000000 0.0000000000000000
1.0000000000000000 0.0000000000000000 0.0000000000000000
1.0000000000000000 0.0000000000000000 0.0000000000000000
1.0000000000000000 0.0000000000000000 0.0000000000000000
1.0000000000000000 0.0000000000000000 0.0000000000000000
1.0000000000000000 0.0000000000000000 0.0000000000000000
1.0000000000000000 0.0000000000000000 0.0000000000000000
1.0000000000000000 0.0000000000000000 0.0000000000000000
1.0000000000000000 0.0000000000000000 0.0000000000000000
1.0000000000000000 0.0000000000000000 0.0000000000000000
1.0000000000000000 0.0000000000000000 0.0000000000000000
1.0000000000000000 0.0000000000000000 0.0000000000000000
1.0000000000000000 0.0000000000000000 0.0000000000000000
1.0000000000000000 0.0000000000000000 0.0000000000000000
1.0000000000000000 0.0000000000000000 0.0000000000000000
1.0000000000000000 0.0000000000000000 0.0000000000000000
1.0000000000000000 0.0000000000000000 0.0000000000000000
1.0000000000000000 0.0000000000000000 0.0000000000000000
1.0000000000000000 0.0000000000000000 0.0000000000000000
1.0000000000000000 0.0000000000000000 0.0000000000000000
1.0000000000000000 0.0000000000000000 0.0000000000000000
1.0000000000000000 0.0000000000000000 0.0000000000000000
1.0000000000000000 0.0000000000000000 0.0000000000000000
1.0000000000000000 0.0000000000000000 0.0000000000000000
1.0000000000000000 0.0000000000000000 0.0000000000000000
1.0000000000000000 0.0000000000000000 0.0000000000000000
1.0000000000000000 0.0000000000000000 0.0000000000000000
1.0000000000000000 0.0000000000000000 0.0000000000000000
1.0000000000000000 0.0000000000000000 0.0000000000000000
1.0000000000000000 0.0000000000000000 0.0000000000000000
1.0000000000000000 0.0000000000000000 0.0000000000000000
1.0000000000000000 0.0000000000000000 0.0000000000000000
1.0000000000000000 0.0000000000000000 0.0000000000000000
1.0000000000000000 0.0000000000000000 0.0000000000000000
1.0000000000000000 0.0000000000000000 0.0000000000000000
1.0000000000000000 0.0000000000000000 0.0000000000000000
1.0000000000000000 0.0000000000000000 0.0000000000000000
1.0000000000000000 0.0000000000000000 0.0000000000000000
1.0000000000000000 0.0000000000000000 0.0000000000000000
1.0000000000000000 0.0000000000000000 0.0000000000000000
1.0000000000000000 0.0000000000000000 0.0000000000000000
1.0000000000000000 0.0000000000000000 0.0000000000000000
1.0000000000000000 0.0000000000000000 0.0000000000000000
1.0000000000000000 0.0000000000000000 0.0000000000000000
1.0000000000000000 0.0000000000000000 0.0000000000000000
1.0000000000000000 0.0000000000000000 0.0000000000000000
1.0000000000000000 0.0000000000000000 0.0000000000000000
1.0000000000000000 0.0000000000000000 0.0000000000000000
1.0000000000000000 0.0000000000000000 0.0000000000000000
1.0000000000000000 0.0000000000000000 0.0000000000000000
1.0000000000000000 0.0000000000000000 0.0000000000000000
1.0000000000000000 0.0000000000000000 0.0000000000000000
1.0000000000000000 0.0000000000000000 0.0000000000000000
1.0000000000000000 0.0000000000000000 0.0000000000000000
1.0000000000000000 0.0000000000000000 0.0000000000000000
1.0000000000000000 0.0000000000000000 0.0000000000000000
1.0000000000000000 0.0000000000000000 0.0000000000000000
1.0000000000000000 0.0000000000000000 0.0000000000000000
1.0000000000000000 0.0000000000000000 0.0000000000000000
1.0000000000000000 0.0000000000000000 0.0000000000000000
1.0000000000000000 0.0000000000000000 0.0000000000000000
1.0000000000000000 0.0000000000000000 0.0000000000000000
1.0000000000000000 0.0000000000000000 0.0000000000000000
1.0000000000000000 0.0000000000000000 0.0000000000000000
1.0000000000000000 0.0000000000000000 0.0000000000000000
1.0000000000000000 0.0000000000000000 0.0000000000000000
1.0000000000000000 0.0000000000000000 0.0000000000000000
1.0000000000000000 0.0000000000000000 0.0000000000000000
1.0000000000000000 0.0000000000000000 0.0000000000000000
1.0000000000000000 0.0000000000000000 0.0000000000000000
1.0000000000000000 0.0000000000000000 0.0000000000000000
1.0000000000000000 0.0000000000000000 0.0000000000000000
1.0000000000000000 0.0000000000000000 0.0000000000000000
1.0000000000000000 0.0000000000000000 0.0000000000000000
1.0000000000000000 0.0000000000000000 0.0000000000000000
1.0000000000000000 0.0000000000000000 0.0000000000000000
1.0000000000000000 0.0000000000000000 0.0000000000000000
1.0000000000000000 0.0000000000000000 0.0000000000000000
1.0000000000000000 0.0000000000000000 0.0000000000000000
1.0000000000000000 0.0000000000000000 0.0000000000000000
1.0000000000000000 0.0000000000000000 0.0000000000000000
1.0000000000000000 0.0000000000000000 0.0000000000000000
1.0000000000000000 0.0000000000000000 0.0000000000000000
1.0000000000000000 0.0000000000000000 0.0000000000000000
1.0000000000000000 0.0000000000000000 0.0000000000000000
1.0000000000000000 0.0000000000000000 0.0000000000000000
1.0000000000000000 0.0000000000000000 0.0000000000000000
1.0000000000000000 0.0000000000000000 0.0000000000000000
1.0000000000000000 0.0000000000000000 0.0000000000000000
1.0000000000000000 0.0000000000000000 0.0000000000000000
1.0000000000000000 0.0000000000000000 0.0000000000000000
1.0000000000000000 0.0000000000000000 0.0000000000000000
1.0000000000000000 0.0000000000000000 0.0000000000000000
1.0000000000000000 0.0000000000000000 0.0000000000000000
1.0000000000000000 0.0000000000000000 0.0000000000000000
1.0000000000000000 0.0000000000000000 0.0000000000000000
1.0000000000000000 0.0000000000000000 0.0000000000000000
1.0000000000000000 0.0000000000000000 0.0000000000000000
1.0000000000000000 0.0000000000000000 0.0000000000000000
1.0000000000000000 0.0000000000000000 0.0000000000000000
1.0000000000000000 0.0000000000000000 0.0000000000000000
1.0000000000000000 0.0000000000000000 0.0000000000000000
1.0000000000000000 0.0000000000000000 0.0000000000000000
1.0000000000000000 0.0000000000000000 0.0000000000000000
1.0000000000000000 0.0000000000000000 0.0000000000000000
1.0000000000000000 0.0000000000000000 0.0000000000000000
1.0000000000000000 0.0000000000000000 0.0000000000000000
1.0000000000000000 0.0000000000000000 0.0000000000000000
1.0000000000000000 0.0000000000000000 0.0000000000000000
1.0000000000000000 0.0000000000000000 0.0000000000000000
1.0000000000000000 0.0000000000000000 0.0000000000000000
1.0000000000000000 0.0000000000000000 0.0000000000000000
1.0000000000000000 0.0000000000000000 0.0000000000000000
1.0000000000000000 0.0000000000000000 0.0000000000000000
1.0000000000000000 0.0000000000000000 0.0000000000000000
1.0000000000000000 0.0000000000000000 0.0000000000000000
1.0000000000000000 0.0000000000000000 0.0000000000000000
1.0000000000000000 0.0000000000000000 0.0000000000000000
1.0000000000000000 0.0000000000000000 0.0000000000000000
1.0000000000000000 0.0000000000000000 0.0000000000000000
1.0000000000000000 0.0000000000000000 0.0000000000000000
1.0000000000000000 0.0000000000000000 0.0000000000000000
1.0000000000000000 0.0000000000000000 0.0000000000000000
1.0000000000000000 0.0000000000000000 0.0000000000000000
1.0000000000000000 0.0000000000000000 0.0000000000000000
1.0000000000000000 0.0000000000000000 0.0000000000000000
1.0000000000000000 0.0000000000000000 0.0000000000000000
1.0000000000000000 0.0000000000000000 0.0000000000000000
1.0000000000000000 0.0000000000000000 0.0000000000000000
1.0000000000000000 0.0000000000000000 0.0000000000000000
1.0000000000000000 0.0000000000000000 0.0000000000000000
1.0000000000000000 0.0000000000000000 0.0000000000000000
1.0000000000000000 0.0000000000000000 0.0000000000000000
1.0000000000000000 0.0000000000000000 0.0000000000000000
1.0000000000000000 0.0000000000000000 0.0000000000000000
1.0000000000000000 0.0000000000000000 0.0000000000000000
1.0000000000000000 0.0000000000000000 0.0000000000000000
1.0000000000000000 0.0000000000000000 0.0000000000000000
1.0000000000000000 0.0000000000000000 0.0000000000000000
1.0000000000000000 0.0000000000000000 0.0000000000000000
1.0000000000000000 0.0000000000000000 0.0000000000000000
1.0000000000000000 0.0000000000000000 0.0000000000000000
1.0000000000000000 0.0000000000000000 0.0000000000000000
1.0000000000000000 0.0000000000000000 0.0000000000000000
1.0000000000000000 0.0000000000000000 0.0000000000000000
1.0000000000000000 0.0000000000000000 0.0000000000000000
1.0000000000000000 0.0000000000000000 0.0000000000000000
1.0000000000000000 0.0000000000000000 0.0000000000000000
1.0000000000000000 0.0000000000000000 0.0000000000000000
1.0000000000000000 0.0000000000000000 0.0000000000000000
1.0000000000000000 0.0000000000000000 0.0000000000000000
1.0000000000000000 0.0000000000000000 0.0000000000000000
1.0000000000000000 0.0000000000000000 0.0000000000000000
1.0000000000000000 0.0000000000000000 0.0000000000000000
1.0000000000000000 0.0000000000000000 0.0000000000000000
1.0000000000000000 0.0000000000000000 0.0000000000000000
1.0000000000000000 0.0000000000000000 0.0000000000000000
1.0000000000000000 0.0000000000000000 0.0000000000000000
1.0000000000000000 0.0000000000000000 0.0000000000000000
1.0000000000000000 0.0000000000000000 0.0000000000000000
1.0000000000000000 0.0000000000000000 0.0000000000000000
1.0000000000000000 0.0000000000000000 0.0000000000000000
1.0000000000000000 0.0000000000000000 0.0000000000000000
1.0000000000000000 0.0000000000000000 0.0000000000000000
1.0000000000000000 0.0000000000000000 0.0000000000000000
1.0000000000000000 0.0000000000000000 0.0000000000000000
1.0000000000000000 0.0000000000000000 0.0000000000000000
1.0000000000000000 0.0000000000000000 0.0000000000000000
1.0000000000000000 0.0000000000000000 0.0000000000000000
1.0000000000000000 0.0000000000000000 0.0000000000000000
1.0000000000000000 0.0000000000000000 0.0000000000000000
1.0000000000000000 0.0000000000000000 0.0000000000000000
1.0000000000000000 0.0000000000000000 0.0000000000000000
1.0000000000000000 0.0000000000000000 0.0000000000000000
1.0000000000000000 0.0000000000000000 0.0000000000000000
1.0000000000000000 0.0000000000000000 0.0000000000000000
1.0000000000000000 0.0000000000000000 0.0000000000000000
1.0000000000000000 0.0000000000000000 0.0000000000000000
1.0000000000000000 0.0000000000000000 0.0000000000000000
1.0000000000000000 0.0000000000000000 0.0000000000000000
1.0000000000000000 0.0000000000000000 0.0000000000000000
1.0000000000000000 0.0000000000000000 0.0000000000000000
1.0000000000000000 0.0000000000000000 0.0000000000000000
1.0000000000000000 0.0000000000000000 0.0000000000000000
1.0000000000000000 0.0000000000000000 0.0000000000000000
1.0000000000000000 0.0000000000000000 0.0000000000000000
1.0000000000000000 0.0000000000000000 0.0000000000000000
1.0000000000000000 0.0000000000000000 0.0000000000000000
1.0000000000000000 0.0000000000000000 0.0000000000000000
1.0000000000000000 0.0000000000000000 0.0000000000000000
1.0000000000000000 0.0000000000000000 0.0000000000000000
1.0000000000000000 0.0000000000000000 0.0000000000000000
1.0000000000000000 0.0000000000000000 0.0000000000000000
1.0000000000000000 0.0000000000000000 0.0000000000000000
1.0000000000000000 0.0000000000000000 0.0000000000000000
1.0000000000000000 0.0000000000000000 0.0000000000000000
1.0000000000000000 0.0000000000000000 0.0000000000000000
1.0000000000000000 0.0000000000000000 0.0000000000000000
1.0000000000000000 0.0000000000000000 0.0000000000000000
1.0000000000000000 0.0000000000000000 0.0000000000000000
1.0000000000000000 0.0000000000000000 0.0000000000000000
1.0000000000000000 0.0000000000000000 0.0000000000000000
1.0000000000000000 0.0000000000000000 0.0000000000000000
1.0000000000000000 0.0000000000000000 0.0000000000000000
1.0000000000000000 0.0000000000000000 0.0000000000000000
1.0000000000000000 0.0000000000000000 0.0000000000000000
1.0000000000000000 0.0000000000000000 0.0000000000000000
1.0000000000000000 0.0000000000000000 0.0000000000000000
1.0000000000000000 0.0000000000000000 0.0000000000000000
1.0000000000000000 0.0000000000000000 0.0000000000000000
1.0000000000000000 0.0000000000000000 0.0000000000000000
1.0000000000000000 0.0000000000000000 0.0000000000000000
1.0000000000000000 0.0000000000000000 0.0000000000000000
1.0000000000000000 0.0000000000000000 0.0000000000000000
1.0000000000000000 0.0000000000000000 0.0000000000000000
1.0000000000000000 0.0000000000000000 0.0000000000000000
1.0000000000000000 0.0000000000000000 0.0000000000000000
1.0000000000000000 0.0000000000000000 0.0000000000000000
1.0000000000000000 0.0000000000000000 0.0000000000000000
1.0000000000000000 0.0000000000000000 0.0000000000000000
1.0000000000000000 0.0000000000000000 0.0000000000000000
1.0000000000000000 0.0000000000000000 0.0000000000000000
1.0000000000000000 0.0000000000000000 0.0000000000000000
1.0000000000000000 0.0000000000000000 0.0000000000000000
1.0000000000000000 0.0000000000000000 0.0000000000000000
1.0000000000000000 0.0000000000000000 0.0000000000000000
1.0000000000000000 0.0000000000000000 0.0000000000000000
1.0000000000000000 0.0000000000000000 0.0000000000000000
1.0000000000000000 0.0000000000000000 0.0000000000000000
1.0000000000000000 0.0000000000000000 0.0000000000000000
1.0000000000000000 0.0000000000000000 0.0000000000000000
1.0000000000000000 0.0000000000000000 0.0000000000000000
1.0000000000000000 0.0000000000000000 0.0000000000000000
1.0000000000000000 0.0000000000000000 0.0000000000000000
1.0000000000000000 0.0000000000000000 0.0000000000000000
1.0000000000000000 0.0000000000000000 0.0000000000000000
1.0000000000000000 0.0000000000000000 0.0000000000000000
1.0000000000000000 0.0000000000000000 0.0000000000000000
1.0000000000000000 0.0000000000000000 0.0000000000000000
1.0000000000000000 0.0000000000000000 0.0000000000000000
1.0000000000000000 0.0000000000000000 0.0000000000000000
1.0000000000000000 0.0000000000000000 0.0000000000000000
1.0000000000000000 0.0000000000000000 0.0000000000000000
1.0000000000000000 0.0000000000000000 0.0000000000000000
1.0000000000000000 0.0000000000000000 0.0000000000000000
1.0000000000000000 0.0000000000000000 0.0000000000000000
1.0000000000000000 0.0000000000000000 0.0000000000000000
1.0000000000000000 0.0000000000000000 0.0000000000000000
1.0000000000000000 0.0000000000000000 0.0000000000000000
1.0000000000000000 0.0000000000000000 0.0000000000000000
1.0000000000000000 0.0000000000000000 0.0000000000000000
1.0000000000000000 0.0000000000000000 0.0000000000000000
1.0000000000000000 0.0000000000000000 0.0000000000000000
1.0000000000000000 0.0000000000000000 0.0000000000000000
1.0000000000000000 0.0000000000000000 0.0000000000000000
1.0000000000000000 0.0000000000000000 0.0000000000000000
1.0000000000000000 0.0000000000000000 0.0000000000000000
1.0000000000000000 0.0000000000000000 0.0000000000000000
1.0000000000000000 0.0000000000000000 0.0000000000000000
1.0000000000000000 0.0000000000000000 0.0000000000000000
1.0000000000000000 0.0000000000000000 0.0000000000000000
1.0000000000000000 0.0000000000000000 0.0000000000000000
1.0000000000000000 0.0000000000000000 0.0000000000000000
1.0000000000000000 0.0000000000000000 0.0000000000000000
1.0000000000000000 0.0000000000000000 0.0000000000000000
1.0000000000000000 0.0000000000000000 0.0000000000000000
1.0000000000000000 0.0000000000000000 0.0000000000000000
1.0000000000000000 0.0000000000000000 0.0000000000000000
1.0000000000000000 0.0000000000000000 0.0000000000000000
1.0000000000000000 0.0000000000000000 0.0000000000000000
1.0000000000000000 0.0000000000000000 0.0000000000000000
1.0000000000000000 0.0000000000000000 0.0000000000000000
1.0000000000000000 0.0000000000000000 0.0000000000000000
1.0000000000000000 0.0000000000000000 0.0000000000000000
1.0000000000000000 0.0000000000000000 0.0000000000000000
1.0000000000000000 0.0000000000000000 0.0000000000000000
1.0000000000000000 0.0000000000000000 0.0000000000000000
1.0000000000000000 0.0000000000000000 0.0000000000000000
1.0000000000000000 0.0000000000000000 0.0000000000000000
1.0000000000000000 0.0000000000000000 0.0000000000000000
1.0000000000000000 0.0000000000000000 0.0000000000000000
1.0000000000000000 0.0000000000000000 0.0000000000000000
1.0000000000000000 0.0000000000000000 0.0000000000000000
1.0000000000000000 0.0000000000000000 0.0000000000000000
1.0000000000000000 0.0000000000000000 0.0000000000000000
1.0000000000000000 0.0000000000000000 0.0000000000000000
1.0000000000000000 0.0000000000000000 0.0000000000000000
1.0000000000000000 0.0000000000000000 0.0000000000000000
1.0000000000000000 0.0000000000000000 0.0000000000000000
1.0000000000000000 0.0000000000000000 0.0000000000000000
1.0000000000000000 0.0000000000000000 0.0000000000000000
1.0000000000000000 0.0000000000000000 0.0000000000000000
1.0000000000000000 0.0000000000000000 0.0000000000000000
1.0000000000000000 0.0000000000000000 0.0000000000000000
1.0000000000000000 0.0000000000000000 0.0000000000000000
1.0000000000000000 0.0000000000000000 0.0000000000000000
1.0000000000000000 0.0000000000000000 0.0000000000000000
1.0000000000000000 0.0000000000000000 0.0000000000000000
1.0000000000000000 0.0000000000000000 0.0000000000000000
1.0000000000000000 0.0000000000000000 0.0000000000000000
1.0000000000000000 0.0000000000000000 0.0000000000000000
1.0000000000000000 0.0000000000000000 0.0000000000000000
1.0000000000000000 0.0000000000000000 0.0000000000000000
1.0000000000000000 0.0000000000000000 0.0000000000000000
1.0000000000000000 0.0000000000000000 0.0000000000000000
1.0000000000000000 0.0000000000000000 0.0000000000000000
1.0000000000000000 0.0000000000000000 0.0000000000000000
1.0000000000000000 0.0000000000000000 0.0000000000000000
1.0000000000000000 0.0000000000000000 0.0000000000000000
1.0000000000000000 0.0000000000000000 0.0000000000000000
1.0000000000000000 0.0000000000000000 0.0000000000000000
1.0000000000000000 0.0000000000000000 0.0000000000000000
1.0000000000000000 0.0000000000000000 0.0000000000000000
1.0000000000000000 0.0000000000000000 0.0000000000000000
1.0000000000000000 0.0000000000000000 0.0000000000000000
1.0000000000000000 0.0000000000000000 0.0000000000000000
1.0000000000000000 0.0000000000000000 0.0000000000000000
1.0000000000000000 0.0000000000000000 0.0000000000000000
1.0000000000000000 0.0000000000000000 0.0000000000000000
1.0000000000000000 0.0000000000000000 0.0000000000000000
1.0000000000000000 0.0000000000000000 0.0000000000000000
1.0000000000000000 0.0000000000000000 0.0000000000000000
1.0000000000000000 0.0000000000000000 0.0000000000000000
1.0000000000000000 0.0000000000000000 0.0000000000000000
1.0000000000000000 0.0000000000000000 0.0000000000000000
1.0000000000000000 0.0000000000000000 0.0000000000000000
1.0000000000000000 0.0000000000000000 0.0000000000000000
1.0000000000000000 0.0000000000000000 0.0000000000000000
1.0000000000000000 0.0000000000000000 0.0000000000000000
1.0000000000000000 0.0000000000000000 0.0000000000000000
1.0000000000000000 0.0000000000000000 0.0000000000000000
1.0000000000000000 0.0000000000000000 0.0000000000000000
1.0000000000000000 0.0000000000000000 0.0000000000000000
1.0000000000000000 0.0000000000000000 0.0000000000000000
1.0000000000000000 0.0000000000000000 0.0000000000000000
1.0000000000000000 0.0000000000000000 0.0000000000000000
1.0000000000000000 0.0000000000000000 0.0000000000000000
1.0000000000000000 0.0000000000000000 0.0000000000000000
1.0000000000000000 0.0000000000000000 0.0000000000000000
1.0000000000000000 0.0000000000000000 0.0000000000000000
1.0000000000000000 0.0000000000000000 0.0000000000000000
1.0000000000000000 0.0000000000000000 0.0000000000000000
1.0000000000000000 0.0000000000000000 0.0000000000000000
1.0000000000000000 0.0000000000000000 0.0000000000000000
1.0000000000000000 0.0000000000000000 0.0000000000000000
1.0000000000000000 0.0000000000000000 0.0000000000000000
1.0000000000000000 0.0000000000000000 0.0000000000000000
1.0000000000000000 0.0000000000000000 0.0000000000000000
1.0000000000000000 0.0000000000000000 0.0000000000000000
1.0000000000000000 0.0000000000000000 0.0000000000000000
1.0000000000000000 0.0000000000000000 0.0000000000000000
1.0000000000000000 0.0000000000000000 0.0000000000000000
1.0000000000000000 0.0000000000000000 0.0000000000000000
1.0000000000000000 0.0000000000000000 0.0000000000000000
1.0000000000000000 0.0000000000000000 0.0000000000000000
1.0000000000000000 0.0000000000000000 0.0000000000000000
1.0000000000000000 0.0000000000000000 0.0000000000000000
1.0000000000000000 0.0000000000000000 0.0000000000000000
1.0000000000000000 0.0000000000000000 0.0000000000000000
1.0000000000000000 0.0000000000000000 0.0000000000000000
1.0000000000000000 0.0000000000000000 0.0000000000000000
1.0000000000000000 0.0000000000000000 0.0000000000000000
1.0000000000000000 0.0000000000000000 0.0000000000000000
1.0000000000000000 0.0000000000000000 0.0000000000000000
1.0000000000000000 0.0000000000000000 0.0000000000000000
1.0000000000000000 0.0000000000000000 0.0000000000000000
1.0000000000000000 0.0000000000000000 0.0000000000000000
1.0000000000000000 0.0000000000000000 0.0000000000000000
1.0000000000000000 0.0000000000000000 0.0000000000000000
1.0000000000000000 0.0000000000000000 0.0000000000000000
1.0000000000000000 0.0000000000000000 0.0000000000000000
1.0000000000000000 0.0000000000000000 0.0000000000000000
1.0000000000000000 0.0000000000000000 0.0000000000000000
1.0000000000000000 0.0000000000000000 0.0000000000000000
1.0000000000000000 0.0000000000000000 0.0000000000000000
1.0000000000000000 0.0000000000000000 0.0000000000000000
1.0000000000000000 0.0000000000000000 0.0000000000000000
1.0000000000000000 0.0000000000000000 0.0000000000000000
1.0000000000000000 0.0000000000000000 0.0000000000000000
1.0000000000000000 0.0000000000000000 0.0000000000000000
1.0000000000000000 0.0000000000000000 0.0000000000000000
1.0000000000000000 0.0000000000000000 0.0000000000000000
1.0000000000000000 0.0000000000000000 0.0000000000000000
1.0000000000000000 0.0000000000000000 0.0000000000000000
1.0000000000000000 0.0000000000000000 0.0000000000000000
1.0000000000000000 0.0000000000000000 0.0000000000000000
1.0000000000000000 0.0000000000000000 0.0000000000000000
1.0000000000000000 0.0000000000000000 0.0000000000000000
1.0000000000000000 0.0000000000000000 0.0000000000000000
1.0000000000000000 0.0000000000000000 0.0000000000000000
1.0000000000000000 0.0000000000000000 0.0000000000000000
1.0000000000000000 0.0000000000000000 0.0000000000000000
1.0000000000000000 0.0000000000000000 0.0000000000000000
1.0000000000000000 0.0000000000000000 0.0000000000000000
1.0000000000000000 0.0000000000000000 0.0000000000000000
1.0000000000000000 0.0000000000000000 0.0000000000000000
1.0000000000000000 0.0000000000000000 0.0000000000000000
1.0000000000000000 0.0000000000000000 0.0000000000000000
1.0000000000000000 0.0000000000000000 0.0000000000000000
1.0000000000000000 0.0000000000000000 0.0000000000000000
1.0000000000000000 0.0000000000000000 0.0000000000000000
1.0000000000000000 0.0000000000000000 0.0000000000000000
1.0000000000000000 0.0000000000000000 0.0000000000000000
1.0000000000000000 0.0000000000000000 0.0000000000000000
1.0000000000000000 0.0000000000000000 0.0000000000000000
1.0000000000000000 0.0000000000000000 0.0000000000000000
1.0000000000000000 0.0000000000000000 0.0000000000000000
1.0000000000000000 0.0000000000000000 0.0000000000000000
1.0000000000000000 0.0000000000000000 0.0000000000000000
1.0000000000000000 0.0000000000000000 0.0000000000000000
1.0000000000000000 0.0000000000000000 0.0000000000000000
1.0000000000000000 0.0000000000000000 0.0000000000000000
1.0000000000000000 0.0000000000000000 0.0000000000000000
1.0000000000000000 0.0000000000000000 0.0000000000000000
1.0000000000000000 0.0000000000000000 0.0000000000000000
1.0000000000000000 0.0000000000000000 0.0000000000000000
1.0000000000000000 0.0000000000000000 0.0000000000000000
1.0000000000000000 0.0000000000000000 0.0000000000000000
1.0000000000000000 0.0000000000000000 0.0000000000000000
1.0000000000000000 0.0000000000000000 0.0000000000000000
1.0000000000000000 0.0000000000000000 0.0000000000000000
1.0000000000000000 0.0000000000000000 0.0000000000000000
1.0000000000000000 0.0000000000000000 0.0000000000000000
1.0000000000000000 0.0000000000000000 0.0000000000000000
1.0000000000000000 0.0000000000000000 0.0000000000000000
1.0000000000000000 0.0000000000000000 0.0000000000000000
1.0000000000000000 0.0000000000000000 0.0000000000000000
1.0000000000000000 0.0000000000000000 0.0000000000000000
1.0000000000000000 0.0000000000000000 0.0000000000000000
1.0000000000000000 0.0000000000000000 0.0000000000000000
1.0000000000000000 0.0000000000000000 0.0000000000000000
1.0000000000000000 0.0000000000000000 0.0000000000000000
1.0000000000000000 0.0000000000000000 0.0000000000000000
1.0000000000000000 0.0000000000000000 0.0000000000000000
1.0000000000000000 0.0000000000000000 0.0000000000000000
1.0000000000000000 0.0000000000000000 0.0000000000000000
1.0000000000000000 0.0000000000000000 0.0000000000000000
1.0000000000000000 0.0000000000000000 0.0000000000000000
1.0000000000000000 0.0000000000000000 0.0000000000000000
1.0000000000000000 0.0000000000000000 0.0000000000000000
1.0000000000000000 0.0000000000000000 0.0000000000000000
1.0000000000000000 0.0000000000000000 0.0000000000000000
1.0000000000000000 0.0000000000000000 0.0000000000000000
1.0000000000000000 0.0000000000000000 0.0000000000000000
1.0000000000000000 0.0000000000000000 0.0000000000000000
1.0000000000000000 0.0000000000000000 0.0000000000000000
1.0000000000000000 0.0000000000000000 0.0000000000000000
1.0000000000000000 0.0000000000000000 0.0000000000000000
1.0000000000000000 0.0000000000000000 0.0000000000000000
1.0000000000000000 0.0000000000000000 0.0000000000000000
1.0000000000000000 0.0000000000000000 0.0000000000000000
1.0000000000000000 0.0000000000000000 0.0000000000000000
1.0000000000000000 0.0000000000000000 0.0000000000000000
1.0000000000000000 0.0000000000000000 0.0000000000000000
1.0000000000000000 0.0000000000000000 0.0000000000000000
1.0000000000000000 0.0000000000000000 0.0000000000000000
1.0000000000000000 0.0000000000000000 0.0000000000000000
1.0000000000000000 0.0000000000000000 0.0000000000000000
1.0000000000000000 0.0000000000000000 0.0000000000000000
1.0000000000000000 0.0000000000000000 0.0000000000000000
1.0000000000000000 0.0000000000000000 0.0000000000000000
1.0000000000000000 0.0000000000000000 0.0000000000000000
1.0000000000000000 0.0000000000000000 0.0000000000000000
1.0000000000000000 0.0000000000000000 0.0000000000000000
1.0000000000000000 0.0000000000000000 0.0000000000000000
1.0000000000000000 0.0000000000000000 0.0000000000000000
1.0000000000000000 0.0000000000000000 0.0000000000000000
1.0000000000000000 0.0000000000000000 0.0000000000000000
1.0000000000000000 0.0000000000000000 0.0000000000000000
1.0000000000000000 0.0000000000000000 0.0000000000000000
1.0000000000000000 0.0000000000000000 0.0000000000000000
1.0000000000000000 0.0000000000000000 0.0000000000000000
1.0000000000000000 0.0000000000000000 0.0000000000000000
1.0000000000000000 0.0000000000000000 0.0000000000000000
1.0000000000000000 0.0000000000000000 0.0000000000000000
1.0000000000000000 0.0000000000000000 0.0000000000000000
1.0000000000000000 0.0000000000000000 0.0000000000000000
1.0000000000000000 0.0000000000000000 0.0000000000000000
1.0000000000000000 0.0000000000000000 0.0000000000000000
1.0000000000000000 0.0000000000000000 0.0000000000000000
1.0000000000000000 0.0000000000000000 0.0000000000000000
1.0000000000000000 0.0000000000000000 0.0000000000000000
1.0000000000000000 0.0000000000000000 0.0000000000000000
1.0000000000000000 0.0000000000000000 0.0000000000000000
1.0000000000000000 0.0000000000000000 0.0000000000000000
1.0000000000000000 0.0000000000000000 0.0000000000000000
1.0000000000000000 0.0000000000000000 0.0000000000000000
1.0000000000000000 0.0000000000000000 0.0000000000000000
1.0000000000000000 0.0000000000000000 0.0000000000000000
1.0000000000000000 0.0000000000000000 0.0000000000000000
1.0000000000000000 0.0000000000000000 0.0000000000000000
1.0000000000000000 0.0000000000000000 0.0000000000000000
1.0000000000000000 0.0000000000000000 0.0000000000000000
1.0000000000000000 0.0000000000000000 0.0000000000000000
1.0000000000000000 0.0000000000000000 0.0000000000000000
1.0000000000000000 0.0000000000000000 0.0000000000000000
1.0000000000000000 0.0000000000000000 0.0000000000000000
1.0000000000000000 0.0000000000000000 0.0000000000000000
1.0000000000000000 0.0000000000000000 0.0000000000000000
1.0000000000000000 0.0000000000000000 0.0000000000000000
1.0000000000000000 0.0000000000000000 0.0000000000000000
1.0000000000000000 0.0000000000000000 0.0000000000000000
1.0000000000000000 0.0000000000000000 0.0000000000000000
1.0000000000000000 0.0000000000000000 0.0000000000000000
1.0000000000000000 0.0000000000000000 0.0000000000000000
1.0000000000000000 0.0000000000000000 0.0000000000000000
1.0000000000000000 0.0000000000000000 0.0000000000000000
1.0000000000000000 0.0000000000000000 0.0000000000000000
1.0000000000000000 0.0000000000000000 0.0000000000000000
1.0000000000000000 0.0000000000000000 0.0000000000000000
1.0000000000000000 0.0000000000000000 0.0000000000000000
1.0000000000000000 0.0000000000000000 0.0000000000000000
1.0000000000000000 0.0000000000000000 0.0000000000000000
1.0000000000000000 0.0000000000000000 0.0000000000000000
1.0000000000000000 0.0000000000000000 0.0000000000000000
1.0000000000000000 0.0000000000000000 0.0000000000000000
1.0000000000000000 0.0000000000000000 0.0000000000000000
1.0000000000000000 0.0000000000000000 0.0000000000000000
1.0000000000000000 0.0000000000000000 0.0000000000000000
1.0000000000000000 0.0000000000000000 0.0000000000000000
1.0000000000000000 0.0000000000000000 0.0000000000000000
1.0000000000000000 0.0000000000000000 0.0000000000000000
1.0000000000000000 0.0000000000000000 0.0000000000000000
1.0000000000000000 0.0000000000000000 0.0000000000000000
1.0000000000000000 0.0000000000000000 0.0000000000000000
1.0000000000000000 0.0000000000000000 0.0000000000000000
1.0000000000000000 0.0000000000000000 0.0000000000000000
1.0000000000000000 0.0000000000000000 0.0000000000000000
1.0000000000000000 0.0000000000000000 0.0000000000000000
1.0000000000000000 0.0000000000000000 0.0000000000000000
1.0000000000000000 0.0000000000000000 0.0000000000000000
1.0000000000000000 0.0000000000000000 0.0000000000000000
1.0000000000000000 0.0000000000000000 0.0000000000000000
1.0000000000000000 0.0000000000000000 0.0000000000000000
1.0000000000000000 0.0000000000000000 0.0000000000000000
1.0000000000000000 0.0000000000000000 0.0000000000000000
1.0000000000000000 0.0000000000000000 0.0000000000000000
1.0000000000000000 0.0000000000000000 0.0000000000000000
1.0000000000000000 0.0000000000000000 0.0000000000000000
1.0000000000000000 0.0000000000000000 0.0000000000000000
1.0000000000000000 0.0000000000000000 0.0000000000000000
1.0000000000000000 0.0000000000000000 0.0000000000000000
1.0000000000000000 0.0000000000000000 0.0000000000000000
1.0000000000000000 0.0000000000000000 0.0000000000000000
1.0000000000000000 0.0000000000000000 0.0000000000000000
1.0000000000000000 0.0000000000000000 0.0000000000000000
1.0000000000000000 0.0000000000000000 0.0000000000000000
1.0000000000000000 0.0000000000000000 0.0000000000000000
1.0000000000000000 0.0000000000000000 0.0000000000000000
1.0000000000000000 0.0000000000000000 0.0000000000000000
1.0000000000000000 0.0000000000000000 0.0000000000000000
1.0000000000000000 0.0000000000000000 0.0000000000000000
1.0000000000000000 0.0000000000000000 0.0000000000000000
1.0000000000000000 0.0000000000000000 0.0000000000000000
1.0000000000000000 0.0000000000000000 0.0000000000000000
1.0000000000000000 0.0000000000000000 0.0000000000000000
1.0000000000000000 0.0000000000000000 0.0000000000000000
1.0000000000000000 0.0000000000000000 0.0000000000000000
1.0000000000000000 0.0000000000000000 0.0000000000000000
1.0000000000000000 0.0000000000000000 0.0000000000000000
1.0000000000000000 0.0000000000000000 0.0000000000000000
1.0000000000000000 0.0000000000000000 0.0000000000000000
1.0000000000000000 0.0000000000000000 0.0000000000000000
1.0000000000000000 0.0000000000000000 0.0000000000000000
1.0000000000000000 0.0000000000000000 0.0000000000000000
1.0000000000000000 0.0000000000000000 0.0000000000000000
1.0000000000000000 0.0000000000000000 0.0000000000000000
1.0000000000000000 0.0000000000000000 0.0000000000000000
1.0000000000000000 0.0000000000000000 0.0000000000000000
1.0000000000000000 0.0000000000000000 0.0000000000000000
1.0000000000000000 0.0000000000000000 0.0000000000000000
1.0000000000000000 0.0000000000000000 0.0000000000000000
1.0000000000000000 0.0000000000000000 0.0000000000000000
1.0000000000000000 0.0000000000000000 0.0000000000000000
1.0000000000000000 0.0000000000000000 0.0000000000000000
1.0000000000000000 0.0000000000000000 0.0000000000000000
1.0000000000000000 0.0000000000000000 0.0000000000000000
1.0000000000000000 0.0000000000000000 0.0000000000000000
1.0000000000000000 0.0000000000000000 0.0000000000000000
1.0000000000000000 0.0000000000000000 0.0000000000000000
1.0000000000000000 0.0000000000000000 0.0000000000000000
1.0000000000000000 0.0000000000000000 0.0000000000000000
1.0000000000000000 0.0000000000000000 0.0000000000000000
1.0000000000000000 0.0000000000000000 0.0000000000000000
1.0000000000000000 0.0000000000000000 0.0000000000000000
1.0000000000000000 0.0000000000000000 0.0000000000000000
1.0000000000000000 0.0000000000000000 0.0000000000000000
1.0000000000000000 0.0000000000000000 0.0000000000000000
1.0000000000000000 0.0000000000000000 0.0000000000000000
1.0000000000000000 0.0000000000000000 0.0000000000000000
1.0000000000000000 0.0000000000000000 0.0000000000000000
1.0000000000000000 0.0000000000000000 0.0000000000000000
1.0000000000000000 0.0000000000000000 0.0000000000000000
1.0000000000000000 0.0000000000000000 0.0000000000000000
1.0000000000000000 0.0000000000000000 0.0000000000000000
1.0000000000000000 0.0000000000000000 0.0000000000000000
1.0000000000000000 0.0000000000000000 0.0000000000000000
1.0000000000000000 0.0000000000000000 0.0000000000000000
1.0000000000000000 0.0000000000000000 0.0000000000000000
1.0000000000000000 0.0000000000000000 0.0000000000000000
1.0000000000000000 0.0000000000000000 0.0000000000000000
1.0000000000000000 0.0000000000000000 0.0000000000000000
1.0000000000000000 0.0000000000000000 0.0000000000000000
1.0000000000000000 0.0000000000000000 0.0000000000000000
1.0000000000000000 0.0000000000000000 0.0000000000000000
1.0000000000000000 0.0000000000000000 0.0000000000000000
1.0000000000000000 0.0000000000000000 0.0000000000000000
1.0000000000000000 0.0000000000000000 0.0000000000000000
1.0000000000000000 0.0000000000000000 0.0000000000000000
1.0000000000000000 0.0000000000000000 0.0000000000000000
1.0000000000000000 0.0000000000000000 0.0000000000000000
1.0000000000000000 0.0000000000000000 0.0000000000000000
1.0000000000000000 0.0000000000000000 0.0000000000000000
1.0000000000000000 0.0000000000000000 0.0000000000000000
1.0000000000000000 0.0000000000000000 0.0000000000000000
1.0000000000000000 0.0000000000000000 0.0000000000000000
1.0000000000000000 0.0000000000000000 0.0000000000000000
1.0000000000000000 0.0000000000000000 0.0000000000000000
1.0000000000000000 0.0000000000000000 0.0000000000000000
1.0000000000000000 0.0000000000000000 0.0000000000000000
1.0000000000000000 0.0000000000000000 0.0000000000000000
1.0000000000000000 0.0000000000000000 0.0000000000000000
1.0000000000000000 0.0000000000000000 0.0000000000000000
1.0000000000000000 0.0000000000000000 0.0000000000000000
1.0000000000000000 0.0000000000000000 0.0000000000000000
1.0000000000000000 0.0000000000000000 0.0000000000000000
1.0000000000000000 0.0000000000000000 0.0000000000000000
1.0000000000000000 0.0000000000000000 0.0000000000000000
1.0000000000000000 0.0000000000000000 0.0000000000000000
1.0000000000000000 0.0000000000000000 0.0000000000000000
1.0000000000000000 0.0000000000000000 0.0000000000000000
1.0000000000000000 0.0000000000000000 0.0000000000000000
1.0000000000000000 0.0000000000000000 0.0000000000000000
1.0000000000000000 0.0000000000000000 0.0000000000000000
1.0000000000000000 0.0000000000000000 0.0000000000000000
1.0000000000000000 0.0000000000000000 0.0000000000000000
1.0000000000000000 0.0000000000000000 0.0000000000000000
1.0000000000000000 0.0000000000000000 0.0000000000000000
1.0000000000000000 0.0000000000000000 0.0000000000000000
1.0000000000000000 0.0000000000000000 0.0000000000000000
1.0000000000000000 0.0000000000000000 0.0000000000000000
1.0000000000000000 0.0000000000000000 0.0000000000000000
1.0000000000000000 0.0000000000000000 0.0000000000000000
1.0000000000000000 0.0000000000000000 0.0000000000000000
1.0000000000000000 0.0000000000000000 0.0000000000000000
1.0000000000000000 0.0000000000000000 0.0000000000000000
1.0000000000000000 0.0000000000000000 0.0000000000000000
1.0000000000000000 0.0000000000000000 0.0000000000000000
1.0000000000000000 0.0000000000000000 0.0000000000000000
1.0000000000000000 0.0000000000000000 0.0000000000000000
1.0000000000000000 0.0000000000000000 0.0000000000000000
1.0000000000000000 0.0000000000000000 0.0000000000000000
1.0000000000000000 0.0000000000000000 0.0000000000000000
1.0000000000000000 0.0000000000000000 0.0000000000000000
1.0000000000000000 0.0000000000000000 0.0000000000000000
1.0000000000000000 0.0000000000000000 0.0000000000000000
1.0000000000000000 0.0000000000000000 0.0000000000000000
1.0000000000000000 0.0000000000000000 0.0000000000000000
1.0000000000000000 0.0000000000000000 0.0000000000000000
1.0000000000000000 0.0000000000000000 0.0000000000000000
1.0000000000000000 0.0000000000000000 0.0000000000000000
1.0000000000000000 0.0000000000000000 0.0000000000000000
1.0000000000000000 0.0000000000000000 0.0000000000000000
1.0000000000000000 0.0000000000000000 0.0000000000000000
1.0000000000000000 0.0000000000000000 0.0000000000000000
1.0000000000000000 0.0000000000000000 0.0000000000000000
1.0000000000000000 0.0000000000000000 0.0000000000000000
1.0000000000000000 0.0000000000000000 0.0000000000000000
1.0000000000000000 0.0000000000000000 0.0000000000000000
1.0000000000000000 0.0000000000000000 0.0000000000000000
1.0000000000000000 0.0000000000000000 0.0000000000000000
1.0000000000000000 0.0000000000000000 0.0000000000000000
1.0000000000000000 0.0000000000000000 0.0000000000000000
1.0000000000000000 0.0000000000000000 0.0000000000000000
1.0000000000000000 0.0000000000000000 0.0000000000000000
1.0000000000000000 0.0000000000000000 0.0000000000000000
1.0000000000000000 0.0000000000000000 0.0000000000000000
1.0000000000000000 0.0000000000000000 0.0000000000000000
1.0000000000000000 0.0000000000000000 0.0000000000000000
1.0000000000000000 0.0000000000000000 0.0000000000000000
1.0000000000000000 0.0000000000000000 0.0000000000000000
1.0000000000000000 0.0000000000000000 0.0000000000000000
1.0000000000000000 0.0000000000000000 0.0000000000000000
1.0000000000000000 0.0000000000000000 0.0000000000000000
1.0000000000000000 0.0000000000000000 0.0000000000000000
1.0000000000000000 0.0000000000000000 0.0000000000000000
1.0000000000000000 0.0000000000000000 0.0000000000000000
1.0000000000000000 0.0000000000000000 0.0000000000000000
1.0000000000000000 0.0000000000000000 0.0000000000000000
1.0000000000000000 0.0000000000000000 0.0000000000000000
1.0000000000000000 0.0000000000000000 0.0000000000000000
1.0000000000000000 0.0000000000000000 0.0000000000000000
1.0000000000000000 0.0000000000000000 0.0000000000000000
1.0000000000000000 0.0000000000000000 0.0000000000000000
1.0000000000000000 0.0000000000000000 0.0000000000000000
1.0000000000000000 0.0000000000000000 0.0000000000000000
1.0000000000000000 0.0000000000000000 0.0000000000000000
1.0000000000000000 0.0000000000000000 0.0000000000000000
1.0000000000000000 0.0000000000000000 0.0000000000000000
1.0000000000000000 0.0000000000000000 0.0000000000000000
1.0000000000000000 0.0000000000000000 0.0000000000000000
1.0000000000000000 0.0000000000000000 0.0000000000000000
1.0000000000000000 0.0000000000000000 0.0000000000000000
1.0000000000000000 0.0000000000000000 0.0000000000000000
1.0000000000000000 0.0000000000000000 0.0000000000000000
1.0000000000000000 0.0000000000000000 0.0000000000000000
1.0000000000000000 0.0000000000000000 0.0000000000000000
1.0000000000000000 0.0000000000000000 0.0000000000000000
1.0000000000000000 0.0000000000000000 0.0000000000000000
1.0000000000000000 0.0000000000000000 0.0000000000000000
1.0000000000000000 0.0000000000000000 0.0000000000000000
1.0000000000000000 0.0000000000000000 0.0000000000000000
1.0000000000000000 0.0000000000000000 0.0000000000000000
1.0000000000000000 0.0000000000000000 0.0000000000000000
1.0000000000000000 0.0000000000000000 0.0000000000000000
1.0000000000000000 0.0000000000000000 0.0000000000000000
1.0000000000000000 0.0000000000000000 0.0000000000000000
1.0000000000000000 0.0000000000000000 0.0000000000000000
1.0000000000000000 0.0000000000000000 0.0000000000000000
1.0000000000000000 0.0000000000000000 0.0000000000000000
1.0000000000000000 0.0000000000000000 0.0000000000000000
1.0000000000000000 0.0000000000000000 0.0000000000000000
1.0000000000000000 0.0000000000000000 0.0000000000000000
1.0000000000000000 0.0000000000000000 0.0000000000000000
1.0000000000000000 0.0000000000000000 0.0000000000000000
1.0000000000000000 0.0000000000000000 0.0000000000000000
1.0000000000000000 0.0000000000000000 0.0000000000000000
1.0000000000000000 0.0000000000000000 0.0000000000000000
1.0000000000000000 0.0000000000000000 0.0000000000000000
1.0000000000000000 0.0000000000000000 0.0000000000000000
1.0000000000000000 0.0000000000000000 0.0000000000000000
1.0000000000000000 0.0000000000000000 0.0000000000000000
1.0000000000000000 0.0000000000000000 0.0000000000000000
1.0000000000000000 0.0000000000000000 0.0000000000000000
1.0000000000000000 0.0000000000000000 0.0000000000000000
1.0000000000000000 0.0000000000000000 0.0000000000000000
1.0000000000000000 0.0000000000000000 0.0000000000000000
1.0000000000000000 0.0000000000000000 0.0000000000000000
1.0000000000000000 0.0000000000000000 0.0000000000000000
1.0000000000000000 0.0000000000000000 0.0000000000000000
1.0000000000000000 0.0000000000000000 0.0000000000000000
1.0000000000000000 0.0000000000000000 0.0000000000000000
1.0000000000000000 0.0000000000000000 0.0000000000000000
1.0000000000000000 0.0000000000000000 0.0000000000000000
1.0000000000000000 0.0000000000000000 0.0000000000000000
1.0000000000000000 0.0000000000000000 0.0000000000000000
1.0000000000000000 0.0000000000000000 0.0000000000000000
1.0000000000000000 0.0000000000000000 0.0000000000000000
1.0000000000000000 0.0000000000000000 0.0000000000000000
1.0000000000000000 0.0000000000000000 0.0000000000000000
1.0000000000000000 0.0000000000000000 0.0000000000000000
1.0000000000000000 0.0000000000000000 0.0000000000000000
1.0000000000000000 0.0000000000000000 0.0000000000000000
1.0000000000000000 0.0000000000000000 0.0000000000000000
1.0000000000000000 0.0000000000000000 0.0000000000000000
1.0000000000000000 0.0000000000000000 0.0000000000000000
1.0000000000000000 0.0000000000000000 0.0000000000000000
1.0000000000000000 0.0000000000000000 0.0000000000000000
1.0000000000000000 0.0000000000000000 0.0000000000000000
1.0000000000000000 0.0000000000000000 0.0000000000000000
1.0000000000000000 0.0000000000000000 0.0000000000000000
1.0000000000000000 0.0000000000000000 0.0000000000000000
1.0000000000000000 0.0000000000000000 0.0000000000000000
1.0000000000000000 0.0000000000000000 0.0000000000000000
1.0000000000000000 0.0000000000000000 0.0000000000000000
1.0000000000000000 0.0000000000000000 0.0000000000000000
1.0000000000000000 0.0000000000000000 0.0000000000000000
1.0000000000000000 0.0000000000000000 0.0000000000000000
1.0000000000000000 0.0000000000000000 0.0000000000000000
1.0000000000000000 0.0000000000000000 0.0000000000000000
1.0000000000000000 0.0000000000000000 0.0000000000000000
1.0000000000000000 0.0000000000000000 0.0000000000000000
1.0000000000000000 0.0000000000000000 0.0000000000000000
1.0000000000000000 0.0000000000000000 0.0000000000000000
1.0000000000000000 0.0000000000000000 0.0000000000000000
1.0000000000000000 0.0000000000000000 0.0000000000000000
1.0000000000000000 0.0000000000000000 0.0000000000000000
1.0000000000000000 0.0000000000000000 0.0000000000000000
1.0000000000000000 0.0000000000000000 0.0000000000000000
1.0000000000000000 0.0000000000000000 0.0000000000000000
1.0000000000000000 0.0000000000000000 0.0000000000000000
1.0000000000000000 0.0000000000000000 0.0000000000000000
1.0000000000000000 0.0000000000000000 0.0000000000000000
1.0000000000000000 0.0000000000000000 0.0000000000000000
1.0000000000000000 0.0000000000000000 0.0000000000000000
1.0000000000000000 0.0000000000000000 0.0000000000000000
1.0000000000000000 0.0000000000000000 0.0000000000000000
1.0000000000000000 0.0000000000000000 0.0000000000000000
1.0000000000000000 0.0000000000000000 0.0000000000000000
1.0000000000000000 0.0000000000000000 0.0000000000000000
1.0000000000000000 0.0000000000000000 0.0000000000000000
1.0000000000000000 0.0000000000000000 0.0000000000000000
1.0000000000000000 0.0000000000000000 0.0000000000000000
1.0000000000000000 0.0000000000000000 0.0000000000000000
1.0000000000000000 0.0000000000000000 0.0000000000000000
1.0000000000000000 0.0000000000000000 0.0000000000000000
1.0000000000000000 0.0000000000000000 0.0000000000000000
1.0000000000000000 0.0000000000000000 0.0000000000000000
1.0000000000000000 0.0000000000000000 0.0000000000000000
1.0000000000000000 0.0000000000000000 0.0000000000000000
1.0000000000000000 0.0000000000000000 0.0000000000000000
1.0000000000000000 0.0000000000000000 0.0000000000000000
1.0000000000000000 0.0000000000000000 0.0000000000000000
1.0000000000000000 0.0000000000000000 0.0000000000000000
1.0000000000000000 0.0000000000000000 0.0000000000000000
1.0000000000000000 0.0000000000000000 0.0000000000000000
1.0000000000000000 0.0000000000000000 0.0000000000000000
1.0000000000000000 0.0000000000000000 0.0000000000000000
1.0000000000000000 0.0000000000000000 0.0000000000000000
1.0000000000000000 0.0000000000000000 0.0000000000000000
1.0000000000000000 0.0000000000000000 0.0000000000000000
1.0000000000000000 0.0000000000000000 0.0000000000000000
1.0000000000000000 0.0000000000000000 0.0000000000000000
1.0000000000000000 0.0000000000000000 0.0000000000000000
1.0000000000000000 0.0000000000000000 0.0000000000000000
1.0000000000000000 0.0000000000000000 0.0000000000000000
1.0000000000000000 0.0000000000000000 0.0000000000000000
1.0000000000000000 0.0000000000000000 0.0000000000000000
1.0000000000000000 0.0000000000000000 0.0000000000000000
1.0000000000000000 0.0000000000000000 0.0000000000000000
1.0000000000000000 0.0000000000000000 0.0000000000000000
1.0000000000000000 0.0000000000000000 0.0000000000000000
1.0000000000000000 0.0000000000000000 0.0000000000000000
1.0000000000000000 0.0000000000000000 0.0000000000000000
1.0000000000000000 0.0000000000000000 0.0000000000000000
1.0000000000000000 0.0000000000000000 0.0000000000000000
1.0000000000000000 0.0000000000000000 0.0000000000000000
1.0000000000000000 0.0000000000000000 0.0000000000000000
1.0000000000000000 0.0000000000000000 0.0000000000000000
1.0000000000000000 0.0000000000000000 0.0000000000000000
1.0000000000000000 0.0000000000000000 0.0000000000000000
1.0000000000000000 0.0000000000000000 0.0000000000000000
1.0000000000000000 0.0000000000000000 0.0000000000000000
1.0000000000000000 0.0000000000000000 0.0000000000000000
1.0000000000000000 0.0000000000000000 0.0000000000000000
1.0000000000000000 0.0000000000000000 0.0000000000000000
1.0000000000000000 0.0000000000000000 0.0000000000000000
1.0000000000000000 0.0000000000000000 0.0000000000000000
1.0000000000000000 0.0000000000000000 0.0000000000000000
1.0000000000000000 0.0000000000000000 0.0000000000000000
1.0000000000000000 0.0000000000000000 0.0000000000000000
1.0000000000000000 0.0000000000000000 0.0000000000000000
1.0000000000000000 0.0000000000000000 0.0000000000000000
1.0000000000000000 0.0000000000000000 0.0000000000000000
1.0000000000000000 0.0000000000000000 0.0000000000000000
1.0000000000000000 0.0000000000000000 0.0000000000000000
1.0000000000000000 0.0000000000000000 0.0000000000000000
1.0000000000000000 0.0000000000000000 0.0000000000000000
1.0000000000000000 0.0000000000000000 0.0000000000000000
1.0000000000000000 0.0000000000000000 0.0000000000000000
1.0000000000000000 0.0000000000000000 0.0000000000000000
1.0000000000000000 0.0000000000000000 0.0000000000000000
1.0000000000000000 0.0000000000000000 0.0000000000000000
1.0000000000000000 0.0000000000000000 0.0000000000000000
1.0000000000000000 0.0000000000000000 0.0000000000000000
1.0000000000000000 0.0000000000000000 0.0000000000000000
1.0000000000000000 0.0000000000000000 0.0000000000000000
1.0000000000000000 0.0000000000000000 0.0000000000000000
1.0000000000000000 0.0000000000000000 0.0000000000000000
1.0000000000000000 0.0000000000000000 0.0000000000000000
1.0000000000000000 0.0000000000000000 0.0000000000000000
1.0000000000000000 0.0000000000000000 0.0000000000000000
1.0000000000000000 0.0000000000000000 0.0000000000000000
1.0000000000000000 0.0000000000000000 0.0000000000000000
1.0000000000000000 0.0000000000000000 0.0000000000000000
1.0000000000000000 0.0000000000000000 0.0000000000000000
1.0000000000000000 0.0000000000000000 0.0000000000000000
1.0000000000000000 0.0000000000000000 0.0000000000000000
1.0000000000000000 0.0000000000000000 0.0000000000000000
1.0000000000000000 0.0000000000000000 0.0000000000000000
1.0000000000000000 0.0000000000000000 0.0000000000000000
1.0000000000000000 0.0000000000000000 0.0000000000000000
1.0000000000000000 0.0000000000000000 0.0000000000000000
1.0000000000000000 0.0000000000000000 0.0000000000000000
1.0000000000000000 0.0000000000000000 0.0000000000000000
1.0000000000000000 0.0000000000000000 0.0000000000000000
1.0000000000000000 0.0000000000000000 0.0000000000000000
1.0000000000000000 0.0000000000000000 0.0000000000000000
1.0000000000000000 0.0000000000000000 0.0000000000000000
1.0000000000000000 0.0000000000000000 0.0000000000000000
1.0000000000000000 0.0000000000000000 0.0000000000000000
1.0000000000000000 0.0000000000000000 0.0000000000000000
1.0000000000000000 0.0000000000000000 0.0000000000000000
1.0000000000000000 0.0000000000000000 0.0000000000000000
1.0000000000000000 0.0000000000000000 0.0000000000000000
1.0000000000000000 0.0000000000000000 0.0000000000000000
1.0000000000000000 0.0000000000000000 0.0000000000000000
1.0000000000000000 0.0000000000000000 0.0000000000000000
1.0000000000000000 0.0000000000000000 0.0000000000000000
1.0000000000000000 0.0000000000000000 0.0000000000000000
1.0000000000000000 0.0000000000000000 0.0000000000000000
1.0000000000000000 0.0000000000000000 0.0000000000000000
1.0000000000000000 0.0000000000000000 0.0000000000000000
1.0000000000000000 0.0000000000000000 0.0000000000000000
1.0000000000000000 0.0000000000000000 0.0000000000000000
1.0000000000000000 0.0000000000000000 0.0000000000000000
1.0000000000000000 0.0000000000000000 0.0000000000000000
1.0000000000000000 0.0000000000000000 0.0000000000000000
1.0000000000000000 0.0000000000000000 0.0000000000000000
1.0000000000000000 0.0000000000000000 0.0000000000000000
1.0000000000000000 0.0000000000000000 0.0000000000000000
1.0000000000000000 0.0000000000000000 0.0000000000000000
1.0000000000000000 0.0000000000000000 0.0000000000000000
1.0000000000000000 0.0000000000000000 0.0000000000000000
1.0000000000000000 0.0000000000000000 0.0000000000000000
1.0000000000000000 0.0000000000000000 0.0000000000000000
1.0000000000000000 0.0000000000000000 0.0000000000000000
1.0000000000000000 0.0000000000000000 0.0000000000000000
1.0000000000000000 0.0000000000000000 0.0000000000000000
1.0000000000000000 0.0000000000000000 0.0000000000000000
1.0000000000000000 0.0000000000000000 0.0000000000000000
1.0000000000000000 0.0000000000000000 0.0000000000000000
1.0000000000000000 0.0000000000000000 0.0000000000000000
1.0000000000000000 0.0000000000000000 0.0000000000000000
1.0000000000000000 0.0000000000000000 0.0000000000000000
1.0000000000000000 0.0000000000000000 0.0000000000000000
1.0000000000000000 0.0000000000000000 0.0000000000000000
1.0000000000000000 0.0000000000000000 0.0000000000000000
1.0000000000000000 0.0000000000000000 0.0000000000000000
1.0000000000000000 0.0000000000000000 0.0000000000000000
1.0000000000000000 0.0000000000000000 0.0000000000000000
1.0000000000000000 0.0000000000000000 0.0000000000000000
1.0000000000000000 0.0000000000000000 0.0000000000000000
1.0000000000000000 0.0000000000000000 0.0000000000000000
1.0000000000000000 0.0000000000000000 0.0000000000000000
1.0000000000000000 0.0000000000000000 0.0000000000000000
1.0000000000000000 0.0000000000000000 0.0000000000000000
1.0000000000000000 0.0000000000000000 0.0000000000000000
1.0000000000000000 0.0000000000000000 0.0000000000000000
1.0000000000000000 0.0000000000000000 0.0000000000000000
1.0000000000000000 0.0000000000000000 0.0000000000000000
1.0000000000000000 0.0000000000000000 0.0000000000000000
1.0000000000000000 0.0000000000000000 0.0000000000000000
1.0000000000000000 0.0000000000000000 0.0000000000000000
1.0000000000000000 0.0000000000000000 0.0000000000000000
1.0000000000000000 0.0000000000000000 0.0000000000000000
1.0000000000000000 0.0000000000000000 0.0000000000000000
1.0000000000000000 0.0000000000000000 0.0000000000000000
1.0000000000000000 0.0000000000000000 0.0000000000000000
1.0000000000000000 0.0000000000000000 0.0000000000000000
1.0000000000000000 0.0000000000000000 0.0000000000000000
1.0000000000000000 0.0000000000000000 0.0000000000000000
1.0000000000000000 0.0000000000000000 0.0000000000000000
1.0000000000000000 0.0000000000000000 0.0000000000000000
1.0000000000000000 0.0000000000000000 0.0000000000000000
1.0000000000000000 0.0000000000000000 0.0000000000000000
1.0000000000000000 0.0000000000000000 0.0000000000000000
1.0000000000000000 0.0000000000000000 0.0000000000000000
1.0000000000000000 0.0000000000000000 0.0000000000000000
1.0000000000000000 0.0000000000000000 0.0000000000000000
1.0000000000000000 0.0000000000000000 0.0000000000000000
1.0000000000000000 0.0000000000000000 0.0000000000000000
1.0000000000000000 0.0000000000000000 0.0000000000000000
1.0000000000000000 0.0000000000000000 0.0000000000000000
1.0000000000000000 0.0000000000000000 0.0000000000000000
1.0000000000000000 0.0000000000000000 0.0000000000000000
1.0000000000000000 0.0000000000000000 0.0000000000000000
1.0000000000000000 0.0000000000000000 0.0000000000000000
1.0000000000000000 0.0000000000000000 0.0000000000000000
1.0000000000000000 0.0000000000000000 0.0000000000000000
1.0000000000000000 0.0000000000000000 0.0000000000000000
1.0000000000000000 0.0000000000000000 0.0000000000000000
1.0000000000000000 0.0000000000000000 0.0000000000000000
1.0000000000000000 0.0000000000000000 0.0000000000000000
1.0000000000000000 0.0000000000000000 0.0000000000000000
1.0000000000000000 0.0000000000000000 0.0000000000000000
1.0000000000000000 0.0000000000000000 0.0000000000000000
1.0000000000000000 0.0000000000000000 0.0000000000000000
1.0000000000000000 0.0000000000000000 0.0000000000000000
1.0000000000000000 0.0000000000000000 0.0000000000000000
1.0000000000000000 0.0000000000000000 0.0000000000000000
1.0000000000000000 0.0000000000000000 0.0000000000000000
1.0000000000000000 0.0000000000000000 0.0000000000000000
1.0000000000000000 0.0000000000000000 0.0000000000000000
1.0000000000000000 0.0000000000000000 0.0000000000000000
1.0000000000000000 0.0000000000000000 0.0000000000000000
1.0000000000000000 0.0000000000000000 0.0000000000000000
1.0000000000000000 0.0000000000000000 0.0000000000000000
1.0000000000000000 0.0000000000000000 0.0000000000000000
1.0000000000000000 0.0000000000000000 0.0000000000000000
1.0000000000000000 0.0000000000000000 0.0000000000000000
1.0000000000000000 0.0000000000000000 0.0000000000000000
1.0000000000000000 0.0000000000000000 0.0000000000000000
1.0000000000000000 0.0000000000000000 0.0000000000000000
1.0000000000000000 0.0000000000000000 0.0000000000000000
1.0000000000000000 0.0000000000000000 0.0000000000000000
1.0000000000000000 0.0000000000000000 0.0000000000000000
1.0000000000000000 0.0000000000000000 0.0000000000000000
1.0000000000000000 0.0000000000000000 0.0000000000000000
1.0000000000000000 0.0000000000000000 0.0000000000000000
1.0000000000000000 0.0000000000000000 0.0000000000000000
1.0000000000000000 0.0000000000000000 0.0000000000000000
1.0000000000000000 0.0000000000000000 0.0000000000000000
1.0000000000000000 0.0000000000000000 0.0000000000000000
1.0000000000000000 0.0000000000000000 0.0000000000000000
1.0000000000000000 0.0000000000000000 0.0000000000000000
1.0000000000000000 0.0000000000000000 0.0000000000000000
1.0000000000000000 0.0000000000000000 0.0000000000000000
1.0000000000000000 0.0000000000000000 0.0000000000000000
1.0000000000000000 0.0000000000000000 0.0000000000000000
1.0000000000000000 0.0000000000000000 0.0000000000000000
1.0000000000000000 0.0000000000000000 0.0000000000000000
1.0000000000000000 0.0000000000000000 0.0000000000000000
1.0000000000000000 0.0000000000000000 0.0000000000000000
1.0000000000000000 0.0000000000000000 0.0000000000000000
1.0000000000000000 0.0000000000000000 0.0000000000000000
1.0000000000000000 0.0000000000000000 0.0000000000000000
1.0000000000000000 0.0000000000000000 0.0000000000000000
1.0000000000000000 0.0000000000000000 0.0000000000000000
1.0000000000000000 0.0000000000000000 0.0000000000000000
1.0000000000000000 0.0000000000000000 0.0000000000000000
1.0000000000000000 0.0000000000000000 0.0000000000000000
1.0000000000000000 0.0000000000000000 0.0000000000000000
1.0000000000000000 0.0000000000000000 0.0000000000000000
1.0000000000000000 0.0000000000000000 0.0000000000000000
1.0000000000000000 0.0000000000000000 0.0000000000000000
1.0000000000000000 0.0000000000000000 0.0000000000000000
1.0000000000000000 0.0000000000000000 0.0000000000000000
1.0000000000000000 0.0000000000000000 0.0000000000000000
1.0000000000000000 0.0000000000000000 0.0000000000000000
1.0000000000000000 0.0000000000000000 0.0000000000000000
1.0000000000000000 0.0000000000000000 0.0000000000000000
1.0000000000000000 0.0000000000000000 0.0000000000000000
1.0000000000000000 0.0000000000000000 0.0000000000000000
1.0000000000000000 0.0000000000000000 0.0000000000000000
1.0000000000000000 0.0000000000000000 0.0000000000000000
1.0000000000000000 0.0000000000000000 0.0000000000000000
1.0000000000000000 0.0000000000000000 0.0000000000000000
1.0000000000000000 0.0000000000000000 0.0000000000000000
1.0000000000000000 0.0000000000000000 0.0000000000000000
1.0000000000000000 0.0000000000000000 0.0000000000000000
1.0000000000000000 0.0000000000000000 0.0000000000000000
1.0000000000000000 0.0000000000000000 0.0000000000000000
1.0000000000000000 0.0000000000000000 0.0000000000000000
1.0000000000000000 0.0000000000000000 0.0000000000000000
1.0000000000000000 0.0000000000000000 0.0000000000000000
1.0000000000000000 0.0000000000000000 0.0000000000000000
1.0000000000000000 0.0000000000000000 0.0000000000000000
1.0000000000000000 0.0000000000000000 0.0000000000000000
1.0000000000000000 0.0000000000000000 0.0000000000000000
1.0000000000000000 0.0000000000000000 0.0000000000000000
1.0000000000000000 0.0000000000000000 0.0000000000000000
1.0000000000000000 0.0000000000000000 0.0000000000000000
1.0000000000000000 0.0000000000000000 0.0000000000000000
1.0000000000000000 0.0000000000000000 0.0000000000000000
1.0000000000000000 0.0000000000000000 0.0000000000000000
1.0000000000000000 0.0000000000000000 0.0000000000000000
1.0000000000000000 0.0000000000000000 0.0000000000000000
1.0000000000000000 0.0000000000000000 0.0000000000000000
1.0000000000000000 0.0000000000000000 0.0000000000000000
1.0000000000000000 0.0000000000000000 0.0000000000000000
1.0000000000000000 0.0000000000000000 0.0000000000000000
1.0000000000000000 0.0000000000000000 0.0000000000000000
1.0000000000000000 0.0000000000000000 0.0000000000000000
1.0000000000000000 0.0000000000000000 0.0000000000000000
1.0000000000000000 0.0000000000000000 0.0000000000000000
1.0000000000000000 0.0000000000000000 0.0000000000000000
1.0000000000000000 0.0000000000000000 0.0000000000000000
1.0000000000000000 0.0000000000000000 0.0000000000000000
1.0000000000000000 0.0000000000000000 0.0000000000000000
1.0000000000000000 0.0000000000000000 0.0000000000000000
1.0000000000000000 0.0000000000000000 0.0000000000000000
1.0000000000000000 0.0000000000000000 0.0000000000000000
1.0000000000000000 0.0000000000000000 0.0000000000000000
1.0000000000000000 0.0000000000000000 0.0000000000000000
1.0000000000000000 0.0000000000000000 0.0000000000000000
1.0000000000000000 0.0000000000000000 0.0000000000000000
1.0000000000000000 0.0000000000000000 0.0000000000000000
1.0000000000000000 0.0000000000000000 0.0000000000000000
1.0000000000000000 0.0000000000000000 0.0000000000000000
1.0000000000000000 0.0000000000000000 0.0000000000000000
1.0000000000000000 0.0000000000000000 0.0000000000000000
1.0000000000000000 0.0000000000000000 0.0000000000000000
1.0000000000000000 0.0000000000000000 0.0000000000000000
1.0000000000000000 0.0000000000000000 0.0000000000000000
1.0000000000000000 0.0000000000000000 0.0000000000000000
1.0000000000000000 0.0000000000000000 0.0000000000000000
1.0000000000000000 0.0000000000000000 0.0000000000000000
1.0000000000000000 0.0000000000000000 0.0000000000000000
1.0000000000000000 0.0000000000000000 0.0000000000000000
1.0000000000000000 0.0000000000000000 0.0000000000000000
1.0000000000000000 0.0000000000000000 0.0000000000000000
1.0000000000000000 0.0000000000000000 0.0000000000000000
1.0000000000000000 0.0000000000000000 0.0000000000000000
1.0000000000000000 0.0000000000000000 0.0000000000000000
1.0000000000000000 0.0000000000000000 0.0000000000000000
1.0000000000000000 0.0000000000000000 0.0000000000000000
1.0000000000000000 0.0000000000000000 0.0000000000000000
1.0000000000000000 0.0000000000000000 0.0000000000000000
1.0000000000000000 0.0000000000000000 0.0000000000000000
1.0000000000000000 0.0000000000000000 0.0000000000000000
1.0000000000000000 0.0000000000000000 0.0000000000000000
1.0000000000000000 0.0000000000000000 0.0000000000000000
1.0000000000000000 0.0000000000000000 0.0000000000000000
1.0000000000000000 0.0000000000000000 0.0000000000000000
1.0000000000000000 0.0000000000000000 0.0000000000000000
1.0000000000000000 0.0000000000000000 0.0000000000000000
1.0000000000000000 0.0000000000000000 0.0000000000000000
1.0000000000000000 0.0000000000000000 0.0000000000000000
1.0000000000000000 0.0000000000000000 0.0000000000000000
1.0000000000000000 0.0000000000000000 0.0000000000000000
1.0000000000000000 0.0000000000000000 0.0000000000000000
1.0000000000000000 0.0000000000000000 0.0000000000000000
1.0000000000000000 0.0000000000000000 0.0000000000000000
1.0000000000000000 0.0000000000000000 0.0000000000000000
1.0000000000000000 0.0000000000000000 0.0000000000000000
1.0000000000000000 0.0000000000000000 0.0000000000000000
1.0000000000000000 0.0000000000000000 0.0000000000000000
1.0000000000000000 0.0000000000000000 0.0000000000000000
1.0000000000000000 0.0000000000000000 0.0000000000000000
1.0000000000000000 0.0000000000000000 0.0000000000000000
1.0000000000000000 0.0000000000000000 0.0000000000000000
1.0000000000000000 0.0000000000000000 0.0000000000000000
1.0000000000000000 0.0000000000000000 0.0000000000000000
1.0000000000000000 0.0000000000000000 0.0000000000000000
1.0000000000000000 0.0000000000000000 0.0000000000000000
1.0000000000000000 0.0000000000000000 0.0000000000000000
1.0000000000000000 0.0000000000000000 0.0000000000000000
1.0000000000000000 0.0000000000000000 0.0000000000000000
1.0000000000000000 0.0000000000000000 0.0000000000000000
1.0000000000000000 0.0000000000000000 0.0000000000000000
1.0000000000000000 0.0000000000000000 0.0000000000000000
1.0000000000000000 0.0000000000000000 0.0000000000000000
1.0000000000000000 0.0000000000000000 0.0000000000000000
1.0000000000000000 0.0000000000000000 0.0000000000000000
1.0000000000000000 0.0000000000000000 0.0000000000000000
1.0000000000000000 0.0000000000000000 0.0000000000000000
1.0000000000000000 0.0000000000000000 0.0000000000000000
1.0000000000000000 0.0000000000000000 0.0000000000000000
1.0000000000000000 0.0000000000000000 0.0000000000000000
1.0000000000000000 0.0000000000000000 0.0000000000000000
1.0000000000000000 0.0000000000000000 0.0000000000000000
1.0000000000000000 0.0000000000000000 0.0000000000000000
1.0000000000000000 0.0000000000000000 0.0000000000000000
1.0000000000000000 0.0000000000000000 0.0000000000000000
1.0000000000000000 0.0000000000000000 0.0000000000000000
1.0000000000000000 0.0000000000000000 0.0000000000000000
1.0000000000000000 0.0000000000000000 0.0000000000000000
1.0000000000000000 0.0000000000000000 0.0000000000000000
1.0000000000000000 0.0000000000000000 0.0000000000000000
1.0000000000000000 0.0000000000000000 0.0000000000000000
1.0000000000000000 0.0000000000000000 0.0000000000000000
1.0000000000000000 0.0000000000000000 0.0000000000000000
1.0000000000000000 0.0000000000000000 0.0000000000000000
1.0000000000000000 0.0000000000000000 0.0000000000000000
1.0000000000000000 0.0000000000000000 0.0000000000000000
1.0000000000000000 0.0000000000000000 0.0000000000000000
1.0000000000000000 0.0000000000000000 0.0000000000000000
1.0000000000000000 0.0000000000000000 0.0000000000000000
1.0000000000000000 0.0000000000000000 0.0000000000000000
1.0000000000000000 0.0000000000000000 0.0000000000000000
1.0000000000000000 0.0000000000000000 0.0000000000000000
1.0000000000000000 0.0000000000000000 0.0000000000000000
1.0000000000000000 0.0000000000000000 0.0000000000000000
1.0000000000000000 0.0000000000000000 0.0000000000000000
1.0000000000000000 0.0000000000000000 0.0000000000000000
1.0000000000000000 0.0000000000000000 0.0000000000000000
1.0000000000000000 0.0000000000000000 0.0000000000000000
1.0000000000000000 0.0000000000000000 0.0000000000000000
1.0000000000000000 0.0000000000000000 0.0000000000000000
1.0000000000000000 0.0000000000000000 0.0000000000000000
1.0000000000000000 0.0000000000000000 0.0000000000000000
1.0000000000000000 0.0000000000000000 0.0000000000000000
1.0000000000000000 0.0000000000000000 0.0000000000000000
1.0000000000000000 0.0000000000000000 0.0000000000000000
1.0000000000000000 0.0000000000000000 0.0000000000000000
1.0000000000000000 0.0000000000000000 0.0000000000000000
1.0000000000000000 0.0000000000000000 0.0000000000000000
1.0000000000000000 0.0000000000000000 0.0000000000000000
1.0000000000000000 0.0000000000000000 0.0000000000000000
1.0000000000000000 0.0000000000000000 0.0000000000000000
1.0000000000000000 0.0000000000000000 0.0000000000000000
1.0000000000000000 0.0000000000000000 0.0000000000000000
1.0000000000000000 0.0000000000000000 0.0000000000000000
1.0000000000000000 0.0000000000000000 0.0000000000000000
1.0000000000000000 0.0000000000000000 0.0000000000000000
1.0000000000000000 0.0000000000000000 0.0000000000000000
1.0000000000000000 0.0000000000000000 0.0000000000000000
1.0000000000000000 0.0000000000000000 0.0000000000000000
1.0000000000000000 0.0000000000000000 0.0000000000000000
1.0000000000000000 0.0000000000000000 0.0000000000000000
1.0000000000000000 0.0000000000000000 0.0000000000000000
1.0000000000000000 0.0000000000000000 0.0000000000000000
1.0000000000000000 0.0000000000000000 0.0000000000000000
1.0000000000000000 0.0000000000000000 0.0000000000000000
1.0000000000000000 0.0000000000000000 0.0000000000000000
1.0000000000000000 0.0000000000000000 0.0000000000000000
1.0000000000000000 0.0000000000000000 0.0000000000000000
1.0000000000000000 0.0000000000000000 0.0000000000000000
1.0000000000000000 0.0000000000000000 0.0000000000000000
1.0000000000000000 0.0000000000000000 0.0000000000000000
1.0000000000000000 0.0000000000000000 0.0000000000000000
1.0000000000000000 0.0000000000000000 0.0000000000000000
1.0000000000000000 0.0000000000000000 0.0000000000000000
1.0000000000000000 0.0000000000000000 0.0000000000000000
1.0000000000000000 0.0000000000000000 0.0000000000000000
1.0000000000000000 0.0000000000000000 0.0000000000000000
1.0000000000000000 0.0000000000000000 0.0000000000000000
1.0000000000000000 0.0000000000000000 0.0000000000000000
1.0000000000000000 0.0000000000000000 0.0000000000000000
1.0000000000000000 0.0000000000000000 0.0000000000000000
1.0000000000000000 0.0000000000000000 0.0000000000000000
1.0000000000000000 0.0000000000000000 0.0000000000000000
1.0000000000000000 0.0000000000000000 0.0000000000000000
1.0000000000000000 0.0000000000000000 0.0000000000000000
1.0000000000000000 0.0000000000000000 0.0000000000000000
1.0000000000000000 0.0000000000000000 0.0000000000000000
1.0000000000000000 0.0000000000000000 0.0000000000000000
1.0000000000000000 0.0000000000000000 0.0000000000000000
1.0000000000000000 0.0000000000000000 0.0000000000000000
1.0000000000000000 0.0000000000000000 0.0000000000000000
1.0000000000000000 0.0000000000000000 0.0000000000000000
1.0000000000000000 0.0000000000000000 0.0000000000000000
1.0000000000000000 0.0000000000000000 0.0000000000000000
1.0000000000000000 0.0000000000000000 0.0000000000000000
1.0000000000000000 0.0000000000000000 0.0000000000000000
1.0000000000000000 0.0000000000000000 0.0000000000000000
1.0000000000000000 0.0000000000000000 0.0000000000000000
1.0000000000000000 0.0000000000000000 0.0000000000000000
1.0000000000000000 0.0000000000000000 0.0000000000000000
1.0000000000000000 0.0000000000000000 0.0000000000000000
1.0000000000000000 0.0000000000000000 0.0000000000000000
1.0000000000000000 0.0000000000000000 0.0000000000000000
1.0000000000000000 0.0000000000000000 0.0000000000000000
1.0000000000000000 0.0000000000000000 0.0000000000000000
1.0000000000000000 0.0000000000000000 0.0000000000000000
1.0000000000000000 0.0000000000000000 0.0000000000000000
1.0000000000000000 0.0000000000000000 0.0000000000000000
1.0000000000000000 0.0000000000000000 0.0000000000000000
1.0000000000000000 0.0000000000000000 0.0000000000000000
1.0000000000000000 0.0000000000000000 0.0000000000000000
1.0000000000000000 0.0000000000000000 0.0000000000000000
1.0000000000000000 0.0000000000000000 0.0000000000000000
1.0000000000000000 0.0000000000000000 0.0000000000000000
1.0000000000000000 0.0000000000000000 0.0000000000000000
1.0000000000000000 0.0000000000000000 0.0000000000000000
1.0000000000000000 0.0000000000000000 0.0000000000000000
1.0000000000000000 0.0000000000000000 0.0000000000000000
1.0000000000000000 0.0000000000000000 0.0000000000000000
1.0000000000000000 0.0000000000000000 0.0000000000000000
1.0000000000000000 0.0000000000000000 0.0000000000000000
1.0000000000000000 0.0000000000000000 0.0000000000000000
1.0000000000000000 0.0000000000000000 0.0000000000000000
1.0000000000000000 0.0000000000000000 0.0000000000000000
1.0000000000000000 0.0000000000000000 0.0000000000000000
1.0000000000000000 0.0000000000000000 0.0000000000000000
1.0000000000000000 0.0000000000000000 0.0000000000000000
1.0000000000000000 0.0000000000000000 0.0000000000000000
1.0000000000000000 0.0000000000000000 0.0000000000000000
1.0000000000000000 0.0000000000000000 0.0000000000000000
1.0000000000000000 0.0000000000000000 0.0000000000000000
1.0000000000000000 0.0000000000000000 0.0000000000000000
1.0000000000000000 0.0000000000000000 0.0000000000000000
1.0000000000000000 0.0000000000000000 0.0000000000000000
1.0000000000000000 0.0000000000000000 0.0000000000000000
1.0000000000000000 0.0000000000000000 0.0000000000000000
1.0000000000000000 0.0000000000000000 0.0000000000000000
1.0000000000000000 0.0000000000000000 0.0000000000000000
1.0000000000000000 0.0000000000000000 0.0000000000000000
1.0000000000000000 0.0000000000000000 0.0000000000000000
1.0000000000000000 0.0000000000000000 0.0000000000000000
1.0000000000000000 0.0000000000000000 0.0000000000000000
1.0000000000000000 0.0000000000000000 0.0000000000000000
1.0000000000000000 0.0000000000000000 0.0000000000000000
1.0000000000000000 0.0000000000000000 0.0000000000000000
1.0000000000000000 0.0000000000000000 0.0000000000000000
1.0000000000000000 0.0000000000000000 0.0000000000000000
1.0000000000000000 0.0000000000000000 0.0000000000000000
1.0000000000000000 0.0000000000000000 0.0000000000000000
1.0000000000000000 0.0000000000000000 0.0000000000000000
1.0000000000000000 0.0000000000000000 0.0000000000000000
1.0000000000000000 0.0000000000000000 0.0000000000000000
1.0000000000000000 0.0000000000000000 0.0000000000000000
1.0000000000000000 0.0000000000000000 0.0000000000000000
1.0000000000000000 0.0000000000000000 0.0000000000000000
1.0000000000000000 0.0000000000000000 0.0000000000000000
1.0000000000000000 0.0000000000000000 0.0000000000000000
1.0000000000000000 0.0000000000000000 0.0000000000000000
1.0000000000000000 0.0000000000000000 0.0000000000000000
1.0000000000000000 0.0000000000000000 0.0000000000000000
1.0000000000000000 0.0000000000000000 0.0000000000000000
1.0000000000000000 0.0000000000000000 0.0000000000000000
1.0000000000000000 0.0000000000000000 0.0000000000000000
1.0000000000000000 0.0000000000000000 0.0000000000000000
1.0000000000000000 0.0000000000000000 0.0000000000000000
1.0000000000000000 0.0000000000000000 0.0000000000000000
1.0000000000000000 0.0000000000000000 0.0000000000000000
1.0000000000000000 0.0000000000000000 0.0000000000000000
1.0000000000000000 0.0000000000000000 0.0000000000000000
1.0000000000000000 0.0000000000000000 0.0000000000000000
1.0000000000000000 0.0000000000000000 0.0000000000000000
1.0000000000000000 0.0000000000000000 0.0000000000000000
1.0000000000000000 0.0000000000000000 0.0000000000000000
1.0000000000000000 0.0000000000000000 0.0000000000000000
1.0000000000000000 0.0000000000000000 0.0000000000000000
1.0000000000000000 0.0000000000000000 0.0000000000000000
1.0000000000000000 0.0000000000000000 0.0000000000000000
1.0000000000000000 0.0000000000000000 0.0000000000000000
1.0000000000000000 0.0000000000000000 0.0000000000000000
1.0000000000000000 0.0000000000000000 0.0000000000000000
1.0000000000000000 0.0000000000000000 0.0000000000000000
1.0000000000000000 0.0000000000000000 0.0000000000000000
1.0000000000000000 0.0000000000000000 0.0000000000000000
1.0000000000000000 0.0000000000000000 0.0000000000000000
1.0000000000000000 0.0000000000000000 0.0000000000000000
1.0000000000000000 0.0000000000000000 0.0000000000000000
1.0000000000000000 0.0000000000000000 0.0000000000000000
1.0000000000000000 0.0000000000000000 0.0000000000000000
1.0000000000000000 0.0000000000000000 0.0000000000000000
1.0000000000000000 0.0000000000000000 0.0000000000000000
1.0000000000000000 0.0000000000000000 0.0000000000000000
1.0000000000000000 0.0000000000000000 0.0000000000000000
1.0000000000000000 0.0000000000000000 0.0000000000000000
1.0000000000000000 0.0000000000000000 0.0000000000000000
1.0000000000000000 0.0000000000000000 0.0000000000000000
1.0000000000000000 0.0000000000000000 0.0000000000000000
1.0000000000000000 0.0000000000000000 0.0000000000000000
1.0000000000000000 0.0000000000000000 0.0000000000000000
1.0000000000000000 0.0000000000000000 0.0000000000000000
1.0000000000000000 0.0000000000000000 0.0000000000000000
1.0000000000000000 0.0000000000000000 0.0000000000000000
1.0000000000000000 0.0000000000000000 0.0000000000000000
1.0000000000000000 0.0000000000000000 0.0000000000000000
1.0000000000000000 0.0000000000000000 0.0000000000000000
1.0000000000000000 0.0000000000000000 0.0000000000000000
1.0000000000000000 0.0000000000000000 0.0000000000000000
1.0000000000000000 0.0000000000000000 0.0000000000000000
1.0000000000000000 0.0000000000000000 0.0000000000000000
1.0000000000000000 0.0000000000000000 0.0000000000000000
1.0000000000000000 0.0000000000000000 0.0000000000000000
1.0000000000000000 0.0000000000000000 0.0000000000000000
1.0000000000000000 0.0000000000000000 0.0000000000000000
1.0000000000000000 0.0000000000000000 0.0000000000000000
1.0000000000000000 0.0000000000000000 0.0000000000000000
1.0000000000000000 0.0000000000000000 0.0000000000000000
1.0000000000000000 0.0000000000000000 0.0000000000000000
1.0000000000000000 0.0000000000000000 0.0000000000000000
1.0000000000000000 0.0000000000000000 0.0000000000000000
1.0000000000000000 0.0000000000000000 0.0000000000000000
1.0000000000000000 0.0000000000000000 0.0000000000000000
1.0000000000000000 0.0000000000000000 0.0000000000000000
1.0000000000000000 0.0000000000000000 0.0000000000000000
1.0000000000000000 0.0000000000000000 0.0000000000000000
1.0000000000000000 0.0000000000000000 0.0000000000000000
1.0000000000000000 0.0000000000000000 0.0000000000000000
1.0000000000000000 0.0000000000000000 0.0000000000000000
1.0000000000000000 0.0000000000000000 0.0000000000000000
1.0000000000000000 0.0000000000000000 0.0000000000000000
1.0000000000000000 0.0000000000000000 0.0000000000000000
1.0000000000000000 0.0000000000000000 0.0000000000000000
1.0000000000000000 0.0000000000000000 0.0000000000000000
1.0000000000000000 0.0000000000000000 0.0000000000000000
1.0000000000000000 0.0000000000000000 0.0000000000000000
1.0000000000000000 0.0000000000000000 0.0000000000000000
1.0000000000000000 0.0000000000000000 0.0000000000000000
1.0000000000000000 0.0000000000000000 0.0000000000000000
1.0000000000000000 0.0000000000000000 0.0000000000000000
1.0000000000000000 0.0000000000000000 0.0000000000000000
1.0000000000000000 0.0000000000000000 0.0000000000000000
1.0000000000000000 0.0000000000000000 0.0000000000000000
1.0000000000000000 0.0000000000000000 0.0000000000000000
1.0000000000000000 0.0000000000000000 0.0000000000000000
1.0000000000000000 0.0000000000000000 0.0000000000000000
1.0000000000000000 0.0000000000000000 0.0000000000000000
1.0000000000000000 0.0000000000000000 0.0000000000000000
1.0000000000000000 0.0000000000000000 0.0000000000000000
1.0000000000000000 0.0000000000000000 0.0000000000000000
1.0000000000000000 0.0000000000000000 0.0000000000000000
1.0000000000000000 0.0000000000000000 0.0000000000000000
1.0000000000000000 0.0000000000000000 0.0000000000000000
1.0000000000000000 0.0000000000000000 0.0000000000000000
1.0000000000000000 0.0000000000000000 0.0000000000000000
1.0000000000000000 0.0000000000000000 0.0000000000000000
1.0000000000000000 0.0000000000000000 0.0000000000000000
1.0000000000000000 0.0000000000000000 0.0000000000000000
1.0000000000000000 0.0000000000000000 0.0000000000000000
1.0000000000000000 0.0000000000000000 0.0000000000000000
1.0000000000000000 0.0000000000000000 0.0000000000000000
1.0000000000000000 0.0000000000000000 0.0000000000000000
1.0000000000000000 0.0000000000000000 0.0000000000000000
1.0000000000000000 0.0000000000000000 0.0000000000000000
1.0000000000000000 0.0000000000000000 0.0000000000000000
1.0000000000000000 0.0000000000000000 0.0000000000000000
1.0000000000000000 0.0000000000000000 0.0000000000000000
1.0000000000000000 0.0000000000000000 0.0000000000000000
1.0000000000000000 0.0000000000000000 0.0000000000000000
1.0000000000000000 0.0000000000000000 0.0000000000000000
1.0000000000000000 0.0000000000000000 0.0000000000000000
1.0000000000000000 0.0000000000000000 0.0000000000000000
1.0000000000000000 0.0000000000000000 0.0000000000000000
1.0000000000000000 0.0000000000000000 0.0000000000000000
1.0000000000000000 0.0000000000000000 0.0000000000000000
1.0000000000000000 0.0000000000000000 0.0000000000000000
1.0000000000000000 0.0000000000000000 0.0000000000000000
1.0000000000000000 0.0000000000000000 0.0000000000000000
1.0000000000000000 0.0000000000000000 0.0000000000000000
1.0000000000000000 0.0000000000000000 0.0000000000000000
1.0000000000000000 0.0000000000000000 0.0000000000000000
1.0000000000000000 0.0000000000000000 0.0000000000000000
1.0000000000000000 0.0000000000000000 0.0000000000000000
1.0000000000000000 0.0000000000000000 0.0000000000000000
1.0000000000000000 0.0000000000000000 0.0000000000000000
1.0000000000000000 0.0000000000000000 0.0000000000000000
1.0000000000000000 0.0000000000000000 0.0000000000000000
1.0000000000000000 0.0000000000000000 0.0000000000000000
1.0000000000000000 0.0000000000000000 0.0000000000000000
1.0000000000000000 0.0000000000000000 0.0000000000000000
1.0000000000000000 0.0000000000000000 0.0000000000000000
1.0000000000000000 0.0000000000000000 0.0000000000000000
1.0000000000000000 0.0000000000000000 0.0000000000000000
1.0000000000000000 0.0000000000000000 0.0000000000000000
1.0000000000000000 0.0000000000000000 0.0000000000000000
1.0000000000000000 0.0000000000000000 0.0000000000000000
1.0000000000000000 0.0000000000000000 0.0000000000000000
1.0000000000000000 0.0000000000000000 0.0000000000000000
1.0000000000000000 0.0000000000000000 0.0000000000000000
1.0000000000000000 0.0000000000000000 0.0000000000000000
1.0000000000000000 0.0000000000000000 0.0000000000000000
1.0000000000000000 0.0000000000000000 0.0000000000000000
1.0000000000000000 0.0000000000000000 0.0000000000000000
1.0000000000000000 0.0000000000000000 0.0000000000000000
1.0000000000000000 0.0000000000000000 0.0000000000000000
1.0000000000000000 0.0000000000000000 0.0000000000000000
1.0000000000000000 0.0000000000000000 0.0000000000000000
1.0000000000000000 0.0000000000000000 0.0000000000000000
1.0000000000000000 0.0000000000000000 0.0000000000000000
1.0000000000000000 0.0000000000000000 0.0000000000000000
1.0000000000000000 0.0000000000000000 0.0000000000000000
1.0000000000000000 0.0000000000000000 0.0000000000000000
1.0000000000000000 0.0000000000000000 0.0000000000000000
1.0000000000000000 0.0000000000000000 0.0000000000000000
1.0000000000000000 0.0000000000000000 0.0000000000000000
1.0000000000000000 0.0000000000000000 0.0000000000000000
1.0000000000000000 0.0000000000000000 0.0000000000000000
1.0000000000000000 0.0000000000000000 0.0000000000000000
1.0000000000000000 0.0000000000000000 0.0000000000000000
1.0000000000000000 0.0000000000000000 0.0000000000000000
1.0000000000000000 0.0000000000000000 0.0000000000000000
1.0000000000000000 0.0000000000000000 0.0000000000000000
1.0000000000000000 0.0000000000000000 0.0000000000000000
1.0000000000000000 0.0000000000000000 0.0000000000000000
1.0000000000000000 0.0000000000000000 0.0000000000000000
1.0000000000000000 0.0000000000000000 0.0000000000000000
1.0000000000000000 0.0000000000000000 0.0000000000000000
1.0000000000000000 0.0000000000000000 0.0000000000000000
1.0000000000000000 0.0000000000000000 0.0000000000000000
1.0000000000000000 0.0000000000000000 0.0000000000000000
1.0000000000000000 0.0000000000000000 0.0000000000000000
1.0000000000000000 0.0000000000000000 0.0000000000000000
1.0000000000000000 0.0000000000000000 0.0000000000000000
1.0000000000000000 0.0000000000000000 0.0000000000000000
1.0000000000000000 0.0000000000000000 0.0000000000000000
1.0000000000000000 0.0000000000000000 0.0000000000000000
1.0000000000000000 0.0000000000000000 0.0000000000000000
1.0000000000000000 0.0000000000000000 0.0000000000000000
1.0000000000000000 0.0000000000000000 0.0000000000000000
1.0000000000000000 0.0000000000000000 0.0000000000000000
1.0000000000000000 0.0000000000000000 0.0000000000000000
1.0000000000000000 0.0000000000000000 0.0000000000000000
1.0000000000000000 0.0000000000000000 0.0000000000000000
1.0000000000000000 0.0000000000000000 0.0000000000000000
1.0000000000000000 0.0000000000000000 0.0000000000000000
1.0000000000000000 0.0000000000000000 0.0000000000000000
1.0000000000000000 0.0000000000000000 0.0000000000000000
1.0000000000000000 0.0000000000000000 0.0000000000000000
1.0000000000000000 0.0000000000000000 0.0000000000000000
1.0000000000000000 0.0000000000000000 0.0000000000000000
1.0000000000000000 0.0000000000000000 0.0000000000000000
1.0000000000000000 0.0000000000000000 0.0000000000000000
1.0000000000000000 0.0000000000000000 0.0000000000000000
1.0000000000000000 0.0000000000000000 0.0000000000000000
1.0000000000000000 0.0000000000000000 0.0000000000000000
1.0000000000000000 0.0000000000000000 0.0000000000000000
1.0000000000000000 0.0000000000000000 0.0000000000000000
1.0000000000000000 0.0000000000000000 0.0000000000000000
1.0000000000000000 0.0000000000000000 0.0000000000000000
1.0000000000000000 0.0000000000000000 0.0000000000000000
1.0000000000000000 0.0000000000000000 0.0000000000000000
1.0000000000000000 0.0000000000000000 0.0000000000000000
1.0000000000000000 0.0000000000000000 0.0000000000000000
1.0000000000000000 0.0000000000000000 0.0000000000000000
1.0000000000000000 0.0000000000000000 0.0000000000000000
1.0000000000000000 0.0000000000000000 0.0000000000000000
1.0000000000000000 0.0000000000000000 0.0000000000000000
1.0000000000000000 0.0000000000000000 0.0000000000000000
1.0000000000000000 0.0000000000000000 0.0000000000000000
1.0000000000000000 0.0000000000000000 0.0000000000000000
1.0000000000000000 0.0000000000000000 0.0000000000000000
1.0000000000000000 0.0000000000000000 0.0000000000000000
1.0000000000000000 0.0000000000000000 0.0000000000000000
1.0000000000000000 0.0000000000000000 0.0000000000000000
1.0000000000000000 0.0000000000000000 0.0000000000000000
1.0000000000000000 0.0000000000000000 0.0000000000000000
1.0000000000000000 0.0000000000000000 0.0000000000000000
1.0000000000000000 0.0000000000000000 0.0000000000000000
1.0000000000000000 0.0000000000000000 0.0000000000000000
1.0000000000000000 0.0000000000000000 0.0000000000000000
1.0000000000000000 0.0000000000000000 0.0000000000000000
1.0000000000000000 0.0000000000000000 0.0000000000000000
1.0000000000000000 0.0000000000000000 0.0000000000000000
1.0000000000000000 0.0000000000000000 0.0000000000000000
1.0000000000000000 0.0000000000000000 0.0000000000000000
1.0000000000000000 0.0000000000000000 0.0000000000000000
1.0000000000000000 0.0000000000000000 0.0000000000000000
1.0000000000000000 0.0000000000000000 0.0000000000000000
1.0000000000000000 0.0000000000000000 0.0000000000000000
1.0000000000000000 0.0000000000000000 0.0000000000000000
1.0000000000000000 0.0000000000000000 0.0000000000000000
1.0000000000000000 0.0000000000000000 0.0000000000000000
1.0000000000000000 0.0000000000000000 0.0000000000000000
1.0000000000000000 0.0000000000000000 0.0000000000000000
1.0000000000000000 0.0000000000000000 0.0000000000000000
1.0000000000000000 0.0000000000000000 0.0000000000000000
1.0000000000000000 0.0000000000000000 0.0000000000000000
1.0000000000000000 0.0000000000000000 0.0000000000000000
1.0000000000000000 0.0000000000000000 0.0000000000000000
1.0000000000000000 0.0000000000000000 0.0000000000000000
1.0000000000000000 0.0000000000000000 0.0000000000000000
1.0000000000000000 0.0000000000000000 0.0000000000000000
1.0000000000000000 0.0000000000000000 0.0000000000000000
1.0000000000000000 0.0000000000000000 0.0000000000000000
1.0000000000000000 0.0000000000000000 0.0000000000000000
1.0000000000000000 0.0000000000000000 0.0000000000000000
1.0000000000000000 0.0000000000000000 0.0000000000000000
1.0000000000000000 0.0000000000000000 0.0000000000000000
1.0000000000000000 0.0000000000000000 0.0000000000000000
1.0000000000000000 0.0000000000000000 0.0000000000000000
1.0000000000000000 0.0000000000000000 0.0000000000000000
1.0000000000000000 0.0000000000000000 0.0000000000000000
1.0000000000000000 0.0000000000000000 0.0000000000000000
1.0000000000000000 0.0000000000000000 0.0000000000000000
1.0000000000000000 0.0000000000000000 0.0000000000000000
1.0000000000000000 0.0000000000000000 0.0000000000000000
1.0000000000000000 0.0000000000000000 0.0000000000000000
1.0000000000000000 0.0000000000000000 0.0000000000000000
1.0000000000000000 0.0000000000000000 0.0000000000000000
1.0000000000000000 0.0000000000000000 0.0000000000000000
1.0000000000000000 0.0000000000000000 0.0000000000000000
1.0000000000000000 0.0000000000000000 0.0000000000000000
1.0000000000000000 0.0000000000000000 0.0000000000000000
1.0000000000000000 0.0000000000000000 0.0000000000000000
1.0000000000000000 0.0000000000000000 0.0000000000000000
1.0000000000000000 0.0000000000000000 0.0000000000000000
1.0000000000000000 0.0000000000000000 0.0000000000000000
1.0000000000000000 0.0000000000000000 0.0000000000000000
1.0000000000000000 0.0000000000000000 0.0000000000000000
1.0000000000000000 0.0000000000000000 0.0000000000000000
1.0000000000000000 0.0000000000000000 0.0000000000000000
1.0000000000000000 0.0000000000000000 0.0000000000000000
1.0000000000000000 0.0000000000000000 0.0000000000000000
1.0000000000000000 0.0000000000000000 0.0000000000000000
1.0000000000000000 0.0000000000000000 0.0000000000000000
1.0000000000000000 0.0000000000000000 0.0000000000000000
1.0000000000000000 0.0000000000000000 0.0000000000000000
1.0000000000000000 0.0000000000000000 0.0000000000000000
1.0000000000000000 0.0000000000000000 0.0000000000000000
1.0000000000000000 0.0000000000000000 0.0000000000000000
1.0000000000000000 0.0000000000000000 0.0000000000000000
1.0000000000000000 0.0000000000000000 0.0000000000000000
1.0000000000000000 0.0000000000000000 0.0000000000000000
1.0000000000000000 0.0000000000000000 0.0000000000000000
1.0000000000000000 0.0000000000000000 0.0000000000000000
1.0000000000000000 0.0000000000000000 0.0000000000000000
1.0000000000000000 0.0000000000000000 0.0000000000000000
1.0000000000000000 0.0000000000000000 0.0000000000000000
1.0000000000000000 0.0000000000000000 0.0000000000000000
1.0000000000000000 0.0000000000000000 0.0000000000000000
1.0000000000000000 0.0000000000000000 0.0000000000000000
1.0000000000000000 0.0000000000000000 0.0000000000000000
1.0000000000000000 0.0000000000000000 0.0000000000000000
1.0000000000000000 0.0000000000000000 0.0000000000000000
1.0000000000000000 0.0000000000000000 0.0000000000000000
1.0000000000000000 0.0000000000000000 0.0000000000000000
1.0000000000000000 0.0000000000000000 0.0000000000000000
1.0000000000000000 0.0000000000000000 0.0000000000000000
1.0000000000000000 0.0000000000000000 0.0000000000000000
1.0000000000000000 0.0000000000000000 0.0000000000000000
1.0000000000000000 0.0000000000000000 0.0000000000000000
1.0000000000000000 0.0000000000000000 0.0000000000000000
1.0000000000000000 0.0000000000000000 0.0000000000000000
1.0000000000000000 0.0000000000000000 0.0000000000000000
1.0000000000000000 0.0000000000000000 0.0000000000000000
1.0000000000000000 0.0000000000000000 0.0000000000000000
1.0000000000000000 0.0000000000000000 0.0000000000000000
1.0000000000000000 0.0000000000000000 0.0000000000000000
1.0000000000000000 0.0000000000000000 0.0000000000000000
1.0000000000000000 0.0000000000000000 0.0000000000000000
1.0000000000000000 0.0000000000000000 0.0000000000000000
1.0000000000000000 0.0000000000000000 0.0000000000000000
1.0000000000000000 0.0000000000000000 0.0000000000000000
1.0000000000000000 0.0000000000000000 0.0000000000000000
1.0000000000000000 0.0000000000000000 0.0000000000000000
1.0000000000000000 0.0000000000000000 0.0000000000000000
1.0000000000000000 0.0000000000000000 0.0000000000000000
1.0000000000000000 0.0000000000000000 0.0000000000000000
1.0000000000000000 0.0000000000000000 0.0000000000000000
1.0000000000000000 0.0000000000000000 0.0000000000000000
1.0000000000000000 0.0000000000000000 0.0000000000000000
1.0000000000000000 0.0000000000000000 0.0000000000000000
1.0000000000000000 0.0000000000000000 0.0000000000000000
1.0000000000000000 0.0000000000000000 0.0000000000000000
1.0000000000000000 0.0000000000000000 0.0000000000000000
1.0000000000000000 0.0000000000000000 0.0000000000000000
1.0000000000000000 0.0000000000000000 0.0000000000000000
1.0000000000000000 0.0000000000000000 0.0000000000000000
1.0000000000000000 0.0000000000000000 0.0000000000000000
1.0000000000000000 0.0000000000000000 0.0000000000000000
1.0000000000000000 0.0000000000000000 0.0000000000000000
1.0000000000000000 0.0000000000000000 0.0000000000000000
1.0000000000000000 0.0000000000000000 0.0000000000000000
1.0000000000000000 0.0000000000000000 0.0000000000000000
1.0000000000000000 0.0000000000000000 0.0000000000000000
1.0000000000000000 0.0000000000000000 0.0000000000000000
1.0000000000000000 0.0000000000000000 0.0000000000000000
1.0000000000000000 0.0000000000000000 0.0000000000000000
1.0000000000000000 0.0000000000000000 0.0000000000000000
1.0000000000000000 0.0000000000000000 0.0000000000000000
1.0000000000000000 0.0000000000000000 0.0000000000000000
1.0000000000000000 0.0000000000000000 0.0000000000000000
1.0000000000000000 0.0000000000000000 0.0000000000000000
1.0000000000000000 0.0000000000000000 0.0000000000000000
1.0000000000000000 0.0000000000000000 0.0000000000000000
1.0000000000000000 0.0000000000000000 0.0000000000000000
1.0000000000000000 0.0000000000000000 0.0000000000000000
1.0000000000000000 0.0000000000000000 0.0000000000000000
1.0000000000000000 0.0000000000000000 0.0000000000000000
1.0000000000000000 0.0000000000000000 0.0000000000000000
1.0000000000000000 0.0000000000000000 0.0000000000000000
1.0000000000000000 0.0000000000000000 0.0000000000000000
1.0000000000000000 0.0000000000000000 0.0000000000000000
1.0000000000000000 0.0000000000000000 0.0000000000000000
1.0000000000000000 0.0000000000000000 0.0000000000000000
1.0000000000000000 0.0000000000000000 0.0000000000000000
1.0000000000000000 0.0000000000000000 0.0000000000000000
1.0000000000000000 0.0000000000000000 0.0000000000000000
1.0000000000000000 0.0000000000000000 0.0000000000000000
1.0000000000000000 0.0000000000000000 0.0000000000000000
1.0000000000000000 0.0000000000000000 0.0000000000000000
1.0000000000000000 0.0000000000000000 0.0000000000000000
1.0000000000000000 0.0000000000000000 0.0000000000000000
1.0000000000000000 0.0000000000000000 0.0000000000000000
1.0000000000000000 0.0000000000000000 0.0000000000000000
1.0000000000000000 0.0000000000000000 0.0000000000000000
1.0000000000000000 0.0000000000000000 0.0000000000000000
1.0000000000000000 0.0000000000000000 0.0000000000000000
1.0000000000000000 0.0000000000000000 0.0000000000000000
1.0000000000000000 0.0000000000000000 0.0000000000000000
1.0000000000000000 0.0000000000000000 0.0000000000000000
1.0000000000000000 0.0000000000000000 0.0000000000000000
1.0000000000000000 0.0000000000000000 0.0000000000000000
1.0000000000000000 0.0000000000000000 0.0000000000000000
1.0000000000000000 0.0000000000000000 0.0000000000000000
1.0000000000000000 0.0000000000000000 0.0000000000000000
1.0000000000000000 0.0000000000000000 0.0000000000000000
1.0000000000000000 0.0000000000000000 0.0000000000000000
1.0000000000000000 0.0000000000000000 0.0000000000000000
1.0000000000000000 0.0000000000000000 0.0000000000000000
1.0000000000000000 0.0000000000000000 0.0000000000000000
1.0000000000000000 0.0000000000000000 0.0000000000000000
1.0000000000000000 0.0000000000000000 0.0000000000000000
1.0000000000000000 0.0000000000000000 0.0000000000000000
1.0000000000000000 0.0000000000000000 0.0000000000000000
1.0000000000000000 0.0000000000000000 0.0000000000000000
1.0000000000000000 0.0000000000000000 0.0000000000000000
1.0000000000000000 0.0000000000000000 0.0000000000000000
1.0000000000000000 0.0000000000000000 0.0000000000000000
1.0000000000000000 0.0000000000000000 0.0000000000000000
1.0000000000000000 0.0000000000000000 0.0000000000000000
1.0000000000000000 0.0000000000000000 0.0000000000000000
1.0000000000000000 0.0000000000000000 0.0000000000000000
1.0000000000000000 0.0000000000000000 0.0000000000000000
1.0000000000000000 0.0000000000000000 0.0000000000000000
1.0000000000000000 0.0000000000000000 0.0000000000000000
1.0000000000000000 0.0000000000000000 0.0000000000000000
1.0000000000000000 0.0000000000000000 0.0000000000000000
1.0000000000000000 0.0000000000000000 0.0000000000000000
1.0000000000000000 0.0000000000000000 0.0000000000000000
1.0000000000000000 0.0000000000000000 0.0000000000000000
1.0000000000000000 0.0000000000000000 0.0000000000000000
1.0000000000000000 0.0000000000000000 0.0000000000000000
1.0000000000000000 0.0000000000000000 0.0000000000000000
1.0000000000000000 0.0000000000000000 0.0000000000000000
1.0000000000000000 0.0000000000000000 0.0000000000000000
1.0000000000000000 0.0000000000000000 0.0000000000000000
1.0000000000000000 0.0000000000000000 0.0000000000000000
1.0000000000000000 0.0000000000000000 0.0000000000000000
1.0000000000000000 0.0000000000000000 0.0000000000000000
1.0000000000000000 0.0000000000000000 0.0000000000000000
1.0000000000000000 0.0000000000000000 0.0000000000000000
1.0000000000000000 0.0000000000000000 0.0000000000000000
1.0000000000000000 0.0000000000000000 0.0000000000000000
1.0000000000000000 0.0000000000000000 0.0000000000000000
1.0000000000000000 0.0000000000000000 0.0000000000000000
1.0000000000000000 0.0000000000000000 0.0000000000000000
1.0000000000000000 0.0000000000000000 0.0000000000000000
1.0000000000000000 0.0000000000000000 0.0000000000000000
1.0000000000000000 0.0000000000000000 0.0000000000000000
1.0000000000000000 0.0000000000000000 0.0000000000000000
1.0000000000000000 0.0000000000000000 0.0000000000000000
1.0000000000000000 0.0000000000000000 0.0000000000000000
1.0000000000000000 0.0000000000000000 0.0000000000000000
1.0000000000000000 0.0000000000000000 0.0000000000000000
1.0000000000000000 0.0000000000000000 0.0000000000000000
1.0000000000000000 0.0000000000000000 0.0000000000000000
1.0000000000000000 0.0000000000000000 0.0000000000000000
1.0000000000000000 0.0000000000000000 0.0000000000000000
1.0000000000000000 0.0000000000000000 0.0000000000000000
1.0000000000000000 0.0000000000000000 0.0000000000000000
1.0000000000000000 0.0000000000000000 0.0000000000000000
1.0000000000000000 0.0000000000000000 0.0000000000000000
1.0000000000000000 0.0000000000000000 0.0000000000000000
1.0000000000000000 0.0000000000000000 0.0000000000000000
1.0000000000000000 0.0000000000000000 0.0000000000000000
1.0000000000000000 0.0000000000000000 0.0000000000000000
1.0000000000000000 0.0000000000000000 0.0000000000000000
1.0000000000000000 0.0000000000000000 0.0000000000000000
1.0000000000000000 0.0000000000000000 0.0000000000000000
1.0000000000000000 0.0000000000000000 0.0000000000000000
1.0000000000000000 0.0000000000000000 0.0000000000000000
1.0000000000000000 0.0000000000000000 0.0000000000000000
1.0000000000000000 0.0000000000000000 0.0000000000000000
1.0000000000000000 0.0000000000000000 0.0000000000000000
1.0000000000000000 0.0000000000000000 0.0000000000000000
1.0000000000000000 0.0000000000000000 0.0000000000000000
1.0000000000000000 0.0000000000000000 0.0000000000000000
1.0000000000000000 0.0000000000000000 0.0000000000000000
1.0000000000000000 0.0000000000000000 0.0000000000000000
1.0000000000000000 0.0000000000000000 0.0000000000000000
1.0000000000000000 0.0000000000000000 0.0000000000000000
1.0000000000000000 0.0000000000000000 0.0000000000000000
1.0000000000000000 0.0000000000000000 0.0000000000000000
1.0000000000000000 0.0000000000000000 0.0000000000000000
1.0000000000000000 0.0000000000000000 0.0000000000000000
1.0000000000000000 0.0000000000000000 0.0000000000000000
1.0000000000000000 0.0000000000000000 0.0000000000000000
1.0000000000000000 0.0000000000000000 0.0000000000000000
1.0000000000000000 0.0000000000000000 0.0000000000000000
1.0000000000000000 0.0000000000000000 0.0000000000000000
1.0000000000000000 0.0000000000000000 0.0000000000000000
1.0000000000000000 0.0000000000000000 0.0000000000000000
1.0000000000000000 0.0000000000000000 0.0000000000000000
1.0000000000000000 0.0000000000000000 0.0000000000000000
1.0000000000000000 0.0000000000000000 0.0000000000000000
1.0000000000000000 0.0000000000000000 0.0000000000000000
1.0000000000000000 0.0000000000000000 0.0000000000000000
1.0000000000000000 0.0000000000000000 0.0000000000000000
1.0000000000000000 0.0000000000000000 0.0000000000000000
1.0000000000000000 0.0000000000000000 0.0000000000000000
1.0000000000000000 0.0000000000000000 0.0000000000000000
1.0000000000000000 0.0000000000000000 0.0000000000000000
1.0000000000000000 0.0000000000000000 0.0000000000000000
1.0000000000000000 0.0000000000000000 0.0000000000000000
1.0000000000000000 0.0000000000000000 0.0000000000000000
1.0000000000000000 0.0000000000000000 0.0000000000000000
1.0000000000000000 0.0000000000000000 0.0000000000000000
1.0000000000000000 0.0000000000000000 0.0000000000000000
1.0000000000000000 0.0000000000000000 0.0000000000000000
1.0000000000000000 0.0000000000000000 0.0000000000000000
1.0000000000000000 0.0000000000000000 0.0000000000000000
1.0000000000000000 0.0000000000000000 0.0000000000000000
1.0000000000000000 0.0000000000000000 0.0000000000000000
1.0000000000000000 0.0000000000000000 0.0000000000000000
1.0000000000000000 0.0000000000000000 0.0000000000000000
1.0000000000000000 0.0000000000000000 0.0000000000000000
1.0000000000000000 0.0000000000000000 0.0000000000000000
1.0000000000000000 0.0000000000000000 0.0000000000000000
1.0000000000000000 0.0000000000000000 0.0000000000000000
1.0000000000000000 0.0000000000000000 0.0000000000000000
1.0000000000000000 0.0000000000000000 0.0000000000000000
1.0000000000000000 0.0000000000000000 0.0000000000000000
1.0000000000000000 0.0000000000000000 0.0000000000000000
1.0000000000000000 0.0000000000000000 0.0000000000000000
1.0000000000000000 0.0000000000000000 0.0000000000000000
1.0000000000000000 0.0000000000000000 0.0000000000000000
1.0000000000000000 0.0000000000000000 0.0000000000000000
1.0000000000000000 0.0000000000000000 0.0000000000000000
1.0000000000000000 0.0000000000000000 0.0000000000000000
1.0000000000000000 0.0000000000000000 0.0000000000000000
1.0000000000000000 0.0000000000000000 0.0000000000000000
1.0000000000000000 0.0000000000000000 0.0000000000000000
1.0000000000000000 0.0000000000000000 0.0000000000000000
1.0000000000000000 0.0000000000000000 0.0000000000000000
1.0000000000000000 0.0000000000000000 0.0000000000000000
1.0000000000000000 0.0000000000000000 0.0000000000000000
1.0000000000000000 0.0000000000000000 0.0000000000000000
1.0000000000000000 0.0000000000000000 0.0000000000000000
1.0000000000000000 0.0000000000000000 0.0000000000000000
1.0000000000000000 0.0000000000000000 0.0000000000000000
1.0000000000000000 0.0000000000000000 0.0000000000000000
1.0000000000000000 0.0000000000000000 0.0000000000000000
1.0000000000000000 0.0000000000000000 0.0000000000000000
1.0000000000000000 0.0000000000000000 0.0000000000000000
1.0000000000000000 0.0000000000000000 0.0000000000000000
1.0000000000000000 0.0000000000000000 0.0000000000000000
1.0000000000000000 0.0000000000000000 0.0000000000000000
1.0000000000000000 0.0000000000000000 0.0000000000000000
1.0000000000000000 0.0000000000000000 0.0000000000000000
1.0000000000000000 0.0000000000000000 0.0000000000000000
1.0000000000000000 0.0000000000000000 0.0000000000000000
1.0000000000000000 0.0000000000000000 0.0000000000000000
1.0000000000000000 0.0000000000000000 0.0000000000000000
1.0000000000000000 0.0000000000000000 0.0000000000000000
1.0000000000000000 0.0000000000000000 0.0000000000000000
1.0000000000000000 0.0000000000000000 0.0000000000000000
1.0000000000000000 0.0000000000000000 0.0000000000000000
1.0000000000000000 0.0000000000000000 0.0000000000000000
1.0000000000000000 0.0000000000000000 0.0000000000000000
1.0000000000000000 0.0000000000000000 0.0000000000000000
1.0000000000000000 0.0000000000000000 0.0000000000000000
1.0000000000000000 0.0000000000000000 0.0000000000000000
1.0000000000000000 0.0000000000000000 0.0000000000000000
1.0000000000000000 0.0000000000000000 0.0000000000000000
1.0000000000000000 0.0000000000000000 0.0000000000000000
1.0000000000000000 0.0000000000000000 0.0000000000000000
1.0000000000000000 0.0000000000000000 0.0000000000000000
1.0000000000000000 0.0000000000000000 0.0000000000000000
1.0000000000000000 0.0000000000000000 0.0000000000000000
1.0000000000000000 0.0000000000000000 0.0000000000000000
1.0000000000000000 0.0000000000000000 0.0000000000000000
1.0000000000000000 0.0000000000000000 0.0000000000000000
1.0000000000000000 0.0000000000000000 0.0000000000000000
1.0000000000000000 0.0000000000000000 0.0000000000000000
1.0000000000000000 0.0000000000000000 0.0000000000000000
1.0000000000000000 0.0000000000000000 0.0000000000000000
1.0000000000000000 0.0000000000000000 0.0000000000000000
1.0000000000000000 0.0000000000000000 0.0000000000000000
1.0000000000000000 0.0000000000000000 0.0000000000000000
1.0000000000000000 0.0000000000000000 0.0000000000000000
1.0000000000000000 0.0000000000000000 0.0000000000000000
1.0000000000000000 0.0000000000000000 0.0000000000000000
1.0000000000000000 0.0000000000000000 0.0000000000000000
1.0000000000000000 0.0000000000000000 0.0000000000000000
1.0000000000000000 0.0000000000000000 0.0000000000000000
1.0000000000000000 0.0000000000000000 0.0000000000000000
1.0000000000000000 0.0000000000000000 0.0000000000000000
1.0000000000000000 0.0000000000000000 0.0000000000000000
1.0000000000000000 0.0000000000000000 0.0000000000000000
1.0000000000000000 0.0000000000000000 0.0000000000000000
1.0000000000000000 0.0000000000000000 0.0000000000000000
1.0000000000000000 0.0000000000000000 0.0000000000000000
1.0000000000000000 0.0000000000000000 0.0000000000000000
1.0000000000000000 0.0000000000000000 0.0000000000000000
1.0000000000000000 0.0000000000000000 0.0000000000000000
1.0000000000000000 0.0000000000000000 0.0000000000000000
1.0000000000000000 0.0000000000000000 0.0000000000000000
1.0000000000000000 0.0000000000000000 0.0000000000000000
1.0000000000000000 0.0000000000000000 0.0000000000000000
1.0000000000000000 0.0000000000000000 0.0000000000000000
1.0000000000000000 0.0000000000000000 0.0000000000000000
1.0000000000000000 0.0000000000000000 0.0000000000000000
1.0000000000000000 0.0000000000000000 0.0000000000000000
1.0000000000000000 0.0000000000000000 0.0000000000000000
1.0000000000000000 0.0000000000000000 0.0000000000000000
1.0000000000000000 0.0000000000000000 0.0000000000000000
1.0000000000000000 0.0000000000000000 0.0000000000000000
1.0000000000000000 0.0000000000000000 0.0000000000000000
1.0000000000000000 0.0000000000000000 0.0000000000000000
1.0000000000000000 0.0000000000000000 0.0000000000000000
1.0000000000000000 0.0000000000000000 0.0000000000000000
1.0000000000000000 0.0000000000000000 0.0000000000000000
1.0000000000000000 0.0000000000000000 0.0000000000000000
1.0000000000000000 0.0000000000000000 0.0000000000000000
1.0000000000000000 0.0000000000000000 0.0000000000000000
1.0000000000000000 0.0000000000000000 0.0000000000000000
1.0000000000000000 0.0000000000000000 0.0000000000000000
1.0000000000000000 0.0000000000000000 0.0000000000000000
1.0000000000000000 0.0000000000000000 0.0000000000000000
1.0000000000000000 0.0000000000000000 0.0000000000000000
1.0000000000000000 0.0000000000000000 0.0000000000000000
1.0000000000000000 0.0000000000000000 0.0000000000000000
1.0000000000000000 0.0000000000000000 0.0000000000000000
1.0000000000000000 0.0000000000000000 0.0000000000000000
1.0000000000000000 0.0000000000000000 0.0000000000000000
1.0000000000000000 0.0000000000000000 0.0000000000000000
1.0000000000000000 0.0000000000000000 0.0000000000000000
1.0000000000000000 0.0000000000000000 0.0000000000000000
1.0000000000000000 0.0000000000000000 0.0000000000000000
1.0000000000000000 0.0000000000000000 0.0000000000000000
1.0000000000000000 0.0000000000000000 0.0000000000000000
1.0000000000000000 0.0000000000000000 0.0000000000000000
1.0000000000000000 0.0000000000000000 0.0000000000000000
1.0000000000000000 0.0000000000000000 0.0000000000000000
1.0000000000000000 0.0000000000000000 0.0000000000000000
1.0000000000000000 0.0000000000000000 0.0000000000000000
1.0000000000000000 0.0000000000000000 0.0000000000000000
1.0000000000000000 0.0000000000000000 0.0000000000000000
1.0000000000000000 0.0000000000000000 0.0000000000000000
1.0000000000000000 0.0000000000000000 0.0000000000000000
1.0000000000000000 0.0000000000000000 0.0000000000000000
1.0000000000000000 0.0000000000000000 0.0000000000000000
1.0000000000000000 0.0000000000000000 0.0000000000000000
1.0000000000000000 0.0000000000000000 0.0000000000000000
1.0000000000000000 0.0000000000000000 0.0000000000000000
1.0000000000000000 0.0000000000000000 0.0000000000000000
1.0000000000000000 0.0000000000000000 0.0000000000000000
1.0000000000000000 0.0000000000000000 0.0000000000000000
1.0000000000000000 0.0000000000000000 0.0000000000000000
1.0000000000000000 0.0000000000000000 0.0000000000000000
1.0000000000000000 0.0000000000000000 0.0000000000000000
1.0000000000000000 0.0000000000000000 0.0000000000000000
1.0000000000000000 0.0000000000000000 0.0000000000000000
1.0000000000000000 0.0000000000000000 0.0000000000000000
1.0000000000000000 0.0000000000000000 0.0000000000000000
1.0000000000000000 0.0000000000000000 0.0000000000000000
1.0000000000000000 0.0000000000000000 0.0000000000000000
1.0000000000000000 0.0000000000000000 0.0000000000000000
1.0000000000000000 0.0000000000000000 0.0000000000000000
1.0000000000000000 0.0000000000000000 0.0000000000000000
1.0000000000000000 0.0000000000000000 0.0000000000000000
1.0000000000000000 0.0000000000000000 0.0000000000000000
1.0000000000000000 0.0000000000000000 0.0000000000000000
1.0000000000000000 0.0000000000000000 0.0000000000000000
1.0000000000000000 0.0000000000000000 0.0000000000000000
1.0000000000000000 0.0000000000000000 0.0000000000000000
1.0000000000000000 0.0000000000000000 0.0000000000000000
1.0000000000000000 0.0000000000000000 0.0000000000000000
1.0000000000000000 0.0000000000000000 0.0000000000000000
1.0000000000000000 0.0000000000000000 0.0000000000000000
1.0000000000000000 0.0000000000000000 0.0000000000000000
1.0000000000000000 0.0000000000000000 0.0000000000000000
1.0000000000000000 0.0000000000000000 0.0000000000000000
1.0000000000000000 0.0000000000000000 0.0000000000000000
1.0000000000000000 0.0000000000000000 0.0000000000000000
1.0000000000000000 0.0000000000000000 0.0000000000000000
1.0000000000000000 0.0000000000000000 0.0000000000000000
1.0000000000000000 0.0000000000000000 0.0000000000000000
1.0000000000000000 0.0000000000000000 0.0000000000000000
1.0000000000000000 0.0000000000000000 0.0000000000000000
1.0000000000000000 0.0000000000000000 0.0000000000000000
1.0000000000000000 0.0000000000000000 0.0000000000000000
1.0000000000000000 0.0000000000000000 0.0000000000000000
1.0000000000000000 0.0000000000000000 0.0000000000000000
1.0000000000000000 0.0000000000000000 0.0000000000000000
1.0000000000000000 0.0000000000000000 0.0000000000000000
1.0000000000000000 0.0000000000000000 0.0000000000000000
1.0000000000000000 0.0000000000000000 0.0000000000000000
1.0000000000000000 0.0000000000000000 0.0000000000000000
1.0000000000000000 0.0000000000000000 0.0000000000000000
1.0000000000000000 0.0000000000000000 0.0000000000000000
1.0000000000000000 0.0000000000000000 0.0000000000000000
1.0000000000000000 0.0000000000000000 0.0000000000000000
1.0000000000000000 0.0000000000000000 0.0000000000000000
1.0000000000000000 0.0000000000000000 0.0000000000000000
1.0000000000000000 0.0000000000000000 0.0000000000000000
1.0000000000000000 0.0000000000000000 0.0000000000000000
1.0000000000000000 0.0000000000000000 0.0000000000000000
1.0000000000000000 0.0000000000000000 0.0000000000000000
1.0000000000000000 0.0000000000000000 0.0000000000000000
1.0000000000000000 0.0000000000000000 0.0000000000000000
1.0000000000000000 0.0000000000000000 0.0000000000000000
1.0000000000000000 0.0000000000000000 0.0000000000000000
1.0000000000000000 0.0000000000000000 0.0000000000000000
1.0000000000000000 0.0000000000000000 0.0000000000000000
1.0000000000000000 0.0000000000000000 0.0000000000000000
1.0000000000000000 0.0000000000000000 0.0000000000000000
1.0000000000000000 0.0000000000000000 0.0000000000000000
1.0000000000000000 0.0000000000000000 0.0000000000000000
1.0000000000000000 0.0000000000000000 0.0000000000000000
1.0000000000000000 0.0000000000000000 0.0000000000000000
1.0000000000000000 0.0000000000000000 0.0000000000000000
1.0000000000000000 0.0000000000000000 0.0000000000000000
1.0000000000000000 0.0000000000000000 0.0000000000000000
1.0000000000000000 0.0000000000000000 0.0000000000000000
1.0000000000000000 0.0000000000000000 0.0000000000000000
1.0000000000000000 0.0000000000000000 0.0000000000000000
1.0000000000000000 0.0000000000000000 0.0000000000000000
1.0000000000000000 0.0000000000000000 0.0000000000000000
1.0000000000000000 0.0000000000000000 0.0000000000000000
1.0000000000000000 0.0000000000000000 0.0000000000000000
1.0000000000000000 0.0000000000000000 0.0000000000000000
1.0000000000000000 0.0000000000000000 0.0000000000000000
1.0000000000000000 0.0000000000000000 0.0000000000000000
1.0000000000000000 0.0000000000000000 0.0000000000000000
1.0000000000000000 0.0000000000000000 0.0000000000000000
1.0000000000000000 0.0000000000000000 0.0000000000000000
1.0000000000000000 0.0000000000000000 0.0000000000000000
1.0000000000000000 0.0000000000000000 0.0000000000000000
1.0000000000000000 0.0000000000000000 0.0000000000000000
1.0000000000000000 0.0000000000000000 0.0000000000000000
1.0000000000000000 0.0000000000000000 0.0000000000000000
1.0000000000000000 0.0000000000000000 0.0000000000000000
1.0000000000000000 0.0000000000000000 0.0000000000000000
1.0000000000000000 0.0000000000000000 0.0000000000000000
1.0000000000000000 0.0000000000000000 0.0000000000000000
1.0000000000000000 0.0000000000000000 0.0000000000000000
1.0000000000000000 0.0000000000000000 0.0000000000000000
1.0000000000000000 0.0000000000000000 0.0000000000000000
1.0000000000000000 0.0000000000000000 0.0000000000000000
1.0000000000000000 0.0000000000000000 0.0000000000000000
1.0000000000000000 0.0000000000000000 0.0000000000000000
1.0000000000000000 0.0000000000000000 0.0000000000000000
1.0000000000000000 0.0000000000000000 0.0000000000000000
1.0000000000000000 0.0000000000000000 0.0000000000000000
1.0000000000000000 0.0000000000000000 0.0000000000000000
1.0000000000000000 0.0000000000000000 0.0000000000000000
1.0000000000000000 0.0000000000000000 0.0000000000000000
1.0000000000000000 0.0000000000000000 0.0000000000000000
1.0000000000000000 0.0000000000000000 0.0000000000000000
1.0000000000000000 0.0000000000000000 0.0000000000000000
1.0000000000000000 0.0000000000000000 0.0000000000000000
1.0000000000000000 0.0000000000000000 0.0000000000000000
1.0000000000000000 0.0000000000000000 0.0000000000000000
1.0000000000000000 0.0000000000000000 0.0000000000000000
1.0000000000000000 0.0000000000000000 0.0000000000000000
1.0000000000000000 0.0000000000000000 0.0000000000000000
1.0000000000000000 0.0000000000000000 0.0000000000000000
1.0000000000000000 0.0000000000000000 0.0000000000000000
1.0000000000000000 0.0000000000000000 0.0000000000000000
1.0000000000000000 0.0000000000000000 0.0000000000000000
1.0000000000000000 0.0000000000000000 0.0000000000000000
1.0000000000000000 0.0000000000000000 0.0000000000000000
1.0000000000000000 0.0000000000000000 0.0000000000000000
1.0000000000000000 0.0000000000000000 0.0000000000000000
1.0000000000000000 0.0000000000000000 0.0000000000000000
1.0000000000000000 0.0000000000000000 0.0000000000000000
1.0000000000000000 0.0000000000000000 0.0000000000000000
1.0000000000000000 0.0000000000000000 0.0000000000000000
1.0000000000000000 0.0000000000000000 0.0000000000000000
1.0000000000000000 0.0000000000000000 0.0000000000000000
1.0000000000000000 0.0000000000000000 0.0000000000000000
1.0000000000000000 0.0000000000000000 0.0000000000000000
1.0000000000000000 0.0000000000000000 0.0000000000000000
1.0000000000000000 0.0000000000000000 0.0000000000000000
1.0000000000000000 0.0000000000000000 0.0000000000000000
1.0000000000000000 0.0000000000000000 0.0000000000000000
1.0000000000000000 0.0000000000000000 0.0000000000000000
1.0000000000000000 0.0000000000000000 0.0000000000000000
1.0000000000000000 0.0000000000000000 0.0000000000000000
1.0000000000000000 0.0000000000000000 0.0000000000000000
1.0000000000000000 0.0000000000000000 0.0000000000000000
1.0000000000000000 0.0000000000000000 0.0000000000000000
1.0000000000000000 0.0000000000000000 0.0000000000000000
1.0000000000000000 0.0000000000000000 0.0000000000000000
1.0000000000000000 0.0000000000000000 0.0000000000000000
1.0000000000000000 0.0000000000000000 0.0000000000000000
1.0000000000000000 0.0000000000000000 0.0000000000000000
1.0000000000000000 0.0000000000000000 0.0000000000000000
1.0000000000000000 0.0000000000000000 0.0000000000000000
1.0000000000000000 0.0000000000000000 0.0000000000000000
1.0000000000000000 0.0000000000000000 0.0000000000000000
1.0000000000000000 0.0000000000000000 0.0000000000000000
1.0000000000000000 0.0000000000000000 0.0000000000000000
1.0000000000000000 0.0000000000000000 0.0000000000000000
1.0000000000000000 0.0000000000000000 0.0000000000000000
1.0000000000000000 0.0000000000000000 0.0000000000000000
1.0000000000000000 0.0000000000000000 0.0000000000000000
1.0000000000000000 0.0000000000000000 0.0000000000000000
1.0000000000000000 0.0000000000000000 0.0000000000000000
1.0000000000000000 0.0000000000000000 0.0000000000000000
1.0000000000000000 0.0000000000000000 0.0000000000000000
1.0000000000000000 0.0000000000000000 0.0000000000000000
1.0000000000000000 0.0000000000000000 0.0000000000000000
1.0000000000000000 0.0000000000000000 0.0000000000000000
1.0000000000000000 0.0000000000000000 0.0000000000000000
1.0000000000000000 0.0000000000000000 0.0000000000000000
1.0000000000000000 0.0000000000000000 0.0000000000000000
1.0000000000000000 0.0000000000000000 0.0000000000000000
1.0000000000000000 0.0000000000000000 0.0000000000000000
1.0000000000000000 0.0000000000000000 0.0000000000000000
1.0000000000000000 0.0000000000000000 0.0000000000000000
1.0000000000000000 0.0000000000000000 0.0000000000000000
1.0000000000000000 0.0000000000000000 0.0000000000000000
1.0000000000000000 0.0000000000000000 0.0000000000000000
1.0000000000000000 0.0000000000000000 0.0000000000000000
1.0000000000000000 0.0000000000000000 0.0000000000000000
1.0000000000000000 0.0000000000000000 0.0000000000000000
1.0000000000000000 0.0000000000000000 0.0000000000000000
1.0000000000000000 0.0000000000000000 0.0000000000000000
1.0000000000000000 0.0000000000000000 0.0000000000000000
1.0000000000000000 0.0000000000000000 0.0000000000000000
1.0000000000000000 0.0000000000000000 0.0000000000000000
1.0000000000000000 0.0000000000000000 0.0000000000000000
1.0000000000000000 0.0000000000000000 0.0000000000000000
1.0000000000000000 0.0000000000000000 0.0000000000000000
1.0000000000000000 0.0000000000000000 0.0000000000000000
1.0000000000000000 0.0000000000000000 0.0000000000000000
1.0000000000000000 0.0000000000000000 0.0000000000000000
1.0000000000000000 0.0000000000000000 0.0000000000000000
1.0000000000000000 0.0000000000000000 0.0000000000000000
1.0000000000000000 0.0000000000000000 0.0000000000000000
1.0000000000000000 0.0000000000000000 0.0000000000000000
1.0000000000000000 0.0000000000000000 0.0000000000000000
1.0000000000000000 0.0000000000000000 0.0000000000000000
1.0000000000000000 0.0000000000000000 0.0000000000000000
1.0000000000000000 0.0000000000000000 0.0000000000000000
1.0000000000000000 0.0000000000000000 0.0000000000000000
1.0000000000000000 0.0000000000000000 0.0000000000000000
1.0000000000000000 0.0000000000000000 0.0000000000000000
1.0000000000000000 0.0000000000000000 0.0000000000000000
1.0000000000000000 0.0000000000000000 0.0000000000000000
1.0000000000000000 0.0000000000000000 0.0000000000000000
1.0000000000000000 0.0000000000000000 0.0000000000000000
1.0000000000000000 0.0000000000000000 0.0000000000000000
1.0000000000000000 0.0000000000000000 0.0000000000000000
1.0000000000000000 0.0000000000000000 0.0000000000000000
1.0000000000000000 0.0000000000000000 0.0000000000000000
1.0000000000000000 0.0000000000000000 0.0000000000000000
1.0000000000000000 0.0000000000000000 0.0000000000000000
1.0000000000000000 0.0000000000000000 0.0000000000000000
1.0000000000000000 0.0000000000000000 0.0000000000000000
1.0000000000000000 0.0000000000000000 0.0000000000000000
1.0000000000000000 0.0000000000000000 0.0000000000000000
1.0000000000000000 0.0000000000000000 0.0000000000000000
1.0000000000000000 0.0000000000000000 0.0000000000000000
1.0000000000000000 0.0000000000000000 0.0000000000000000
1.0000000000000000 0.0000000000000000 0.0000000000000000
1.0000000000000000 0.0000000000000000 0.0000000000000000
1.0000000000000000 0.0000000000000000 0.0000000000000000
1.0000000000000000 0.0000000000000000 0.0000000000000000
1.0000000000000000 0.0000000000000000 0.0000000000000000
1.0000000000000000 0.0000000000000000 0.0000000000000000
1.0000000000000000 0.0000000000000000 0.0000000000000000
1.0000000000000000 0.0000000000000000 0.0000000000000000
1.0000000000000000 0.0000000000000000 0.0000000000000000
1.0000000000000000 0.0000000000000000 0.0000000000000000
1.0000000000000000 0.0000000000000000 0.0000000000000000
1.0000000000000000 0.0000000000000000 0.0000000000000000
1.0000000000000000 0.0000000000000000 0.0000000000000000
1.0000000000000000 0.0000000000000000 0.0000000000000000
1.0000000000000000 0.0000000000000000 0.0000000000000000
1.0000000000000000 0.0000000000000000 0.0000000000000000
1.0000000000000000 0.0000000000000000 0.0000000000000000
1.0000000000000000 0.0000000000000000 0.0000000000000000
1.0000000000000000 0.0000000000000000 0.0000000000000000
1.0000000000000000 0.0000000000000000 0.0000000000000000
1.0000000000000000 0.0000000000000000 0.0000000000000000
1.0000000000000000 0.0000000000000000 0.0000000000000000
1.0000000000000000 0.0000000000000000 0.0000000000000000
1.0000000000000000 0.0000000000000000 0.0000000000000000
1.0000000000000000 0.0000000000000000 0.0000000000000000
1.0000000000000000 0.0000000000000000 0.0000000000000000
1.0000000000000000 0.0000000000000000 0.0000000000000000
1.0000000000000000 0.0000000000000000 0.0000000000000000
1.0000000000000000 0.0000000000000000 0.0000000000000000
1.0000000000000000 0.0000000000000000 0.0000000000000000
1.0000000000000000 0.0000000000000000 0.0000000000000000
1.0000000000000000 0.0000000000000000 0.0000000000000000
1.0000000000000000 0.0000000000000000 0.0000000000000000
1.0000000000000000 0.0000000000000000 0.0000000000000000
1.0000000000000000 0.0000000000000000 0.0000000000000000
1.0000000000000000 0.0000000000000000 0.0000000000000000
1.0000000000000000 0.0000000000000000 0.0000000000000000
1.0000000000000000 0.0000000000000000 0.0000000000000000
1.0000000000000000 0.0000000000000000 0.0000000000000000
1.0000000000000000 0.0000000000000000 0.0000000000000000
1.0000000000000000 0.0000000000000000 0.0000000000000000
1.0000000000000000 0.0000000000000000 0.0000000000000000
1.0000000000000000 0.0000000000000000 0.0000000000000000
1.0000000000000000 0.0000000000000000 0.0000000000000000
1.0000000000000000 0.0000000000000000 0.0000000000000000
1.0000000000000000 0.0000000000000000 0.0000000000000000
1.0000000000000000 0.0000000000000000 0.0000000000000000
1.0000000000000000 0.0000000000000000 0.0000000000000000
1.0000000000000000 0.0000000000000000 0.0000000000000000
1.0000000000000000 0.0000000000000000 0.0000000000000000
1.0000000000000000 0.0000000000000000 0.0000000000000000
1.0000000000000000 0.0000000000000000 0.0000000000000000
1.0000000000000000 0.0000000000000000 0.0000000000000000
1.0000000000000000 0.0000000000000000 0.0000000000000000
1.0000000000000000 0.0000000000000000 0.0000000000000000
1.0000000000000000 0.0000000000000000 0.0000000000000000
1.0000000000000000 0.0000000000000000 0.0000000000000000
1.0000000000000000 0.0000000000000000 0.0000000000000000
1.0000000000000000 0.0000000000000000 0.0000000000000000
1.0000000000000000 0.0000000000000000 0.0000000000000000
1.0000000000000000 0.0000000000000000 0.0000000000000000
1.0000000000000000 0.0000000000000000 0.0000000000000000
1.0000000000000000 0.0000000000000000 0.0000000000000000
1.0000000000000000 0.0000000000000000 0.0000000000000000
1.0000000000000000 0.0000000000000000 0.0000000000000000
1.0000000000000000 0.0000000000000000 0.0000000000000000
1.0000000000000000 0.0000000000000000 0.0000000000000000
1.0000000000000000 0.0000000000000000 0.0000000000000000
1.0000000000000000 0.0000000000000000 0.0000000000000000
1.0000000000000000 0.0000000000000000 0.0000000000000000
1.0000000000000000 0.0000000000000000 0.0000000000000000
1.0000000000000000 0.0000000000000000 0.0000000000000000
1.0000000000000000 0.0000000000000000 0.0000000000000000
1.0000000000000000 0.0000000000000000 0.0000000000000000
1.0000000000000000 0.0000000000000000 0.0000000000000000
1.0000000000000000 0.0000000000000000 0.0000000000000000
1.0000000000000000 0.0000000000000000 0.0000000000000000
1.0000000000000000 0.0000000000000000 0.0000000000000000
1.0000000000000000 0.0000000000000000 0.0000000000000000
1.0000000000000000 0.0000000000000000 0.0000000000000000
1.0000000000000000 0.0000000000000000 0.0000000000000000
1.0000000000000000 0.0000000000000000 0.0000000000000000
1.0000000000000000 0.0000000000000000 0.0000000000000000
1.0000000000000000 0.0000000000000000 0.0000000000000000
1.0000000000000000 0.0000000000000000 0.0000000000000000
1.0000000000000000 0.0000000000000000 0.0000000000000000
1.0000000000000000 0.0000000000000000 0.0000000000000000
1.0000000000000000 0.0000000000000000 0.0000000000000000
1.0000000000000000 0.0000000000000000 0.0000000000000000
1.0000000000000000 0.0000000000000000 0.0000000000000000
1.0000000000000000 0.0000000000000000 0.0000000000000000
1.0000000000000000 0.0000000000000000 0.0000000000000000
1.0000000000000000 0.0000000000000000 0.0000000000000000
1.0000000000000000 0.0000000000000000 0.0000000000000000
1.0000000000000000 0.0000000000000000 0.0000000000000000
1.0000000000000000 0.0000000000000000 0.0000000000000000
1.0000000000000000 0.0000000000000000 0.0000000000000000
1.0000000000000000 0.0000000000000000 0.0000000000000000
1.0000000000000000 0.0000000000000000 0.0000000000000000
1.0000000000000000 0.0000000000000000 0.0000000000000000
1.0000000000000000 0.0000000000000000 0.0000000000000000
1.0000000000000000 0.0000000000000000 0.0000000000000000
1.0000000000000000 0.0000000000000000 0.0000000000000000
1.0000000000000000 0.0000000000000000 0.0000000000000000
1.0000000000000000 0.0000000000000000 0.0000000000000000
1.0000000000000000 0.0000000000000000 0.0000000000000000
1.0000000000000000 0.0000000000000000 0.0000000000000000
1.0000000000000000 0.0000000000000000 0.0000000000000000
1.0000000000000000 0.0000000000000000 0.0000000000000000
1.0000000000000000 0.0000000000000000 0.0000000000000000
1.0000000000000000 0.0000000000000000 0.0000000000000000
1.0000000000000000 0.0000000000000000 0.0000000000000000
1.0000000000000000 0.0000000000000000 0.0000000000000000
1.0000000000000000 0.0000000000000000 0.0000000000000000
1.0000000000000000 0.0000000000000000 0.0000000000000000
1.0000000000000000 0.0000000000000000 0.0000000000000000
1.0000000000000000 0.0000000000000000 0.0000000000000000
1.0000000000000000 0.0000000000000000 0.0000000000000000
1.0000000000000000 0.0000000000000000 0.0000000000000000
1.0000000000000000 0.0000000000000000 0.0000000000000000
1.0000000000000000 0.0000000000000000 0.0000000000000000
1.0000000000000000 0.0000000000000000 0.0000000000000000
1.0000000000000000 0.0000000000000000 0.0000000000000000
1.0000000000000000 0.0000000000000000 0.0000000000000000
1.0000000000000000 0.0000000000000000 0.0000000000000000
1.0000000000000000 0.0000000000000000 0.0000000000000000
1.0000000000000000 0.0000000000000000 0.0000000000000000
1.0000000000000000 0.0000000000000000 0.0000000000000000
1.0000000000000000 0.0000000000000000 0.0000000000000000
1.0000000000000000 0.0000000000000000 0.0000000000000000
1.0000000000000000 0.0000000000000000 0.0000000000000000
1.0000000000000000 0.0000000000000000 0.0000000000000000
1.0000000000000000 0.0000000000000000 0.0000000000000000
1.0000000000000000 0.0000000000000000 0.0000000000000000
1.0000000000000000 0.0000000000000000 0.0000000000000000
1.0000000000000000 0.0000000000000000 0.0000000000000000
1.0000000000000000 0.0000000000000000 0.0000000000000000
1.0000000000000000 0.0000000000000000 0.0000000000000000
1.0000000000000000 0.0000000000000000 0.0000000000000000
1.0000000000000000 0.0000000000000000 0.0000000000000000
1.0000000000000000 0.0000000000000000 0.0000000000000000
1.0000000000000000 0.0000000000000000 0.0000000000000000
1.0000000000000000 0.0000000000000000 0.0000000000000000
1.0000000000000000 0.0000000000000000 0.0000000000000000
1.0000000000000000 0.0000000000000000 0.0000000000000000
1.0000000000000000 0.0000000000000000 0.0000000000000000
1.0000000000000000 0.0000000000000000 0.0000000000000000
1.0000000000000000 0.0000000000000000 0.0000000000000000
1.0000000000000000 0.0000000000000000 0.0000000000000000
1.0000000000000000 0.0000000000000000 0.0000000000000000
1.0000000000000000 0.0000000000000000 0.0000000000000000
1.0000000000000000 0.0000000000000000 0.0000000000000000
1.0000000000000000 0.0000000000000000 0.0000000000000000
1.0000000000000000 0.0000000000000000 0.0000000000000000
1.0000000000000000 0.0000000000000000 0.0000000000000000
1.0000000000000000 0.0000000000000000 0.0000000000000000
1.0000000000000000 0.0000000000000000 0.0000000000000000
1.0000000000000000 0.0000000000000000 0.0000000000000000
1.0000000000000000 0.0000000000000000 0.0000000000000000
1.0000000000000000 0.0000000000000000 0.0000000000000000
1.0000000000000000 0.0000000000000000 0.0000000000000000
1.0000000000000000 0.0000000000000000 0.0000000000000000
1.0000000000000000 0.0000000000000000 0.0000000000000000
1.0000000000000000 0.0000000000000000 0.0000000000000000
1.0000000000000000 0.0000000000000000 0.0000000000000000
1.0000000000000000 0.0000000000000000 0.0000000000000000
1.0000000000000000 0.0000000000000000 0.0000000000000000
1.0000000000000000 0.0000000000000000 0.0000000000000000
1.0000000000000000 0.0000000000000000 0.0000000000000000
1.0000000000000000 0.0000000000000000 0.0000000000000000
1.0000000000000000 0.0000000000000000 0.0000000000000000
1.0000000000000000 0.0000000000000000 0.0000000000000000
1.0000000000000000 0.0000000000000000 0.0000000000000000
1.0000000000000000 0.0000000000000000 0.0000000000000000
1.0000000000000000 0.0000000000000000 0.0000000000000000
1.0000000000000000 0.0000000000000000 0.0000000000000000
1.0000000000000000 0.0000000000000000 0.0000000000000000
1.0000000000000000 0.0000000000000000 0.0000000000000000
1.0000000000000000 0.0000000000000000 0.0000000000000000
1.0000000000000000 0.0000000000000000 0.0000000000000000
1.0000000000000000 0.0000000000000000 0.0000000000000000
1.0000000000000000 0.0000000000000000 0.0000000000000000
1.0000000000000000 0.0000000000000000 0.0000000000000000
1.0000000000000000 0.0000000000000000 0.0000000000000000
1.0000000000000000 0.0000000000000000 0.0000000000000000
1.0000000000000000 0.0000000000000000 0.0000000000000000
1.0000000000000000 0.0000000000000000 0.0000000000000000
1.0000000000000000 0.0000000000000000 0.0000000000000000
1.0000000000000000 0.0000000000000000 0.0000000000000000
1.0000000000000000 0.0000000000000000 0.0000000000000000
1.0000000000000000 0.0000000000000000 0.0000000000000000
1.0000000000000000 0.0000000000000000 0.0000000000000000
1.0000000000000000 0.0000000000000000 0.0000000000000000
1.0000000000000000 0.0000000000000000 0.0000000000000000
1.0000000000000000 0.0000000000000000 0.0000000000000000
1.0000000000000000 0.0000000000000000 0.0000000000000000
1.0000000000000000 0.0000000000000000 0.0000000000000000
1.0000000000000000 0.0000000000000000 0.0000000000000000
1.0000000000000000 0.0000000000000000 0.0000000000000000
1.0000000000000000 0.0000000000000000 0.0000000000000000
1.0000000000000000 0.0000000000000000 0.0000000000000000
1.0000000000000000 0.0000000000000000 0.0000000000000000
1.0000000000000000 0.0000000000000000 0.0000000000000000
1.0000000000000000 0.0000000000000000 0.0000000000000000
1.0000000000000000 0.0000000000000000 0.0000000000000000
1.0000000000000000 0.0000000000000000 0.0000000000000000
1.0000000000000000 0.0000000000000000 0.0000000000000000
1.0000000000000000 0.0000000000000000 0.0000000000000000
1.0000000000000000 0.0000000000000000 0.0000000000000000
1.0000000000000000 0.0000000000000000 0.0000000000000000
1.0000000000000000 0.0000000000000000 0.0000000000000000
1.0000000000000000 0.0000000000000000 0.0000000000000000
1.0000000000000000 0.0000000000000000 0.0000000000000000
1.0000000000000000 0.0000000000000000 0.0000000000000000
1.0000000000000000 0.0000000000000000 0.0000000000000000
1.0000000000000000 0.0000000000000000 0.0000000000000000
1.0000000000000000 0.0000000000000000 0.0000000000000000
1.0000000000000000 0.0000000000000000 0.0000000000000000
1.0000000000000000 0.0000000000000000 0.0000000000000000
1.0000000000000000 0.0000000000000000 0.0000000000000000
1.0000000000000000 0.0000000000000000 0.0000000000000000
1.0000000000000000 0.0000000000000000 0.0000000000000000
1.0000000000000000 0.0000000000000000 0.0000000000000000
1.0000000000000000 0.0000000000000000 0.0000000000000000
1.0000000000000000 0.0000000000000000 0.0000000000000000
1.0000000000000000 0.0000000000000000 0.0000000000000000
1.0000000000000000 0.0000000000000000 0.0000000000000000
1.0000000000000000 0.0000000000000000 0.0000000000000000
1.0000000000000000 0.0000000000000000 0.0000000000000000
1.0000000000000000 0.0000000000000000 0.0000000000000000
1.0000000000000000 0.0000000000000000 0.0000000000000000
1.0000000000000000 0.0000000000000000 0.0000000000000000
1.0000000000000000 0.0000000000000000 0.0000000000000000
1.0000000000000000 0.0000000000000000 0.0000000000000000
1.0000000000000000 0.0000000000000000 0.0000000000000000
1.0000000000000000 0.0000000000000000 0.0000000000000000
1.0000000000000000 0.0000000000000000 0.0000000000000000
1.0000000000000000 0.0000000000000000 0.0000000000000000
1.0000000000000000 0.0000000000000000 0.0000000000000000
1.0000000000000000 0.0000000000000000 0.0000000000000000
1.0000000000000000 0.0000000000000000 0.0000000000000000
1.0000000000000000 0.0000000000000000 0.0000000000000000
1.0000000000000000 0.0000000000000000 0.0000000000000000
1.0000000000000000 0.0000000000000000 0.0000000000000000
1.0000000000000000 0.0000000000000000 0.0000000000000000
1.0000000000000000 0.0000000000000000 0.0000000000000000
1.0000000000000000 0.0000000000000000 0.0000000000000000
1.0000000000000000 0.0000000000000000 0.0000000000000000
1.0000000000000000 0.0000000000000000 0.0000000000000000
1.0000000000000000 0.0000000000000000 0.0000000000000000
1.0000000000000000 0.0000000000000000 0.0000000000000000
1.0000000000000000 0.0000000000000000 0.0000000000000000
1.0000000000000000 0.0000000000000000 0.0000000000000000
1.0000000000000000 0.0000000000000000 0.0000000000000000
1.0000000000000000 0.0000000000000000 0.0000000000000000
1.0000000000000000 0.0000000000000000 0.0000000000000000
1.0000000000000000 0.0000000000000000 0.0000000000000000
1.0000000000000000 0.0000000000000000 0.0000000000000000
1.0000000000000000 0.0000000000000000 0.0000000000000000
1.0000000000000000 0.0000000000000000 0.0000000000000000
1.0000000000000000 0.0000000000000000 0.0000000000000000
1.0000000000000000 0.0000000000000000 0.0000000000000000
1.0000000000000000 0.0000000000000000 0.0000000000000000
1.0000000000000000 0.0000000000000000 0.0000000000000000
1.0000000000000000 0.0000000000000000 0.0000000000000000
1.0000000000000000 0.0000000000000000 0.0000000000000000
1.0000000000000000 0.0000000000000000 0.0000000000000000
1.0000000000000000 0.0000000000000000 0.0000000000000000
1.0000000000000000 0.0000000000000000 0.0000000000000000
1.0000000000000000 0.0000000000000000 0.0000000000000000
1.0000000000000000 0.0000000000000000 0.0000000000000000
1.0000000000000000 0.0000000000000000 0.0000000000000000
1.0000000000000000 0.0000000000000000 0.0000000000000000
1.0000000000000000 0.0000000000000000 0.0000000000000000
1.0000000000000000 0.0000000000000000 0.0000000000000000
1.0000000000000000 0.0000000000000000 0.0000000000000000
1.0000000000000000 0.0000000000000000 0.0000000000000000
1.0000000000000000 0.0000000000000000 0.0000000000000000
1.0000000000000000 0.0000000000000000 0.0000000000000000
1.0000000000000000 0.0000000000000000 0.0000000000000000
1.0000000000000000 0.0000000000000000 0.0000000000000000
1.0000000000000000 0.0000000000000000 0.0000000000000000
1.0000000000000000 0.0000000000000000 0.0000000000000000
1.0000000000000000 0.0000000000000000 0.0000000000000000
1.0000000000000000 0.0000000000000000 0.0000000000000000
1.0000000000000000 0.0000000000000000 0.0000000000000000
1.0000000000000000 0.0000000000000000 0.0000000000000000
1.0000000000000000 0.0000000000000000 0.0000000000000000
1.0000000000000000 0.0000000000000000 0.0000000000000000
1.0000000000000000 0.0000000000000000 0.0000000000000000
1.0000000000000000 0.0000000000000000 0.0000000000000000
1.0000000000000000 0.0000000000000000 0.0000000000000000
1.0000000000000000 0.0000000000000000 0.0000000000000000
1.0000000000000000 0.0000000000000000 0.0000000000000000
1.0000000000000000 0.0000000000000000 0.0000000000000000
1.0000000000000000 0.0000000000000000 0.0000000000000000
1.0000000000000000 0.0000000000000000 0.0000000000000000
1.0000000000000000 0.0000000000000000 0.0000000000000000
1.0000000000000000 0.0000000000000000 0.0000000000000000
1.0000000000000000 0.0000000000000000 0.0000000000000000
1.0000000000000000 0.0000000000000000 0.0000000000000000
1.0000000000000000 0.0000000000000000 0.0000000000000000
1.0000000000000000 0.0000000000000000 0.0000000000000000
1.0000000000000000 0.0000000000000000 0.0000000000000000
1.0000000000000000 0.0000000000000000 0.0000000000000000
1.0000000000000000 0.0000000000000000 0.0000000000000000
1.0000000000000000 0.0000000000000000 0.0000000000000000
1.0000000000000000 0.0000000000000000 0.0000000000000000
1.0000000000000000 0.0000000000000000 0.0000000000000000
1.0000000000000000 0.0000000000000000 0.0000000000000000
1.0000000000000000 0.0000000000000000 0.0000000000000000
1.0000000000000000 0.0000000000000000 0.0000000000000000
1.0000000000000000 0.0000000000000000 0.0000000000000000
1.0000000000000000 0.0000000000000000 0.0000000000000000
1.0000000000000000 0.0000000000000000 0.0000000000000000
1.0000000000000000 0.0000000000000000 0.0000000000000000
1.0000000000000000 0.0000000000000000 0.0000000000000000
1.0000000000000000 0.0000000000000000 0.0000000000000000
1.0000000000000000 0.0000000000000000 0.0000000000000000
1.0000000000000000 0.0000000000000000 0.0000000000000000
1.0000000000000000 0.0000000000000000 0.0000000000000000
1.0000000000000000 0.0000000000000000 0.0000000000000000
1.0000000000000000 0.0000000000000000 0.0000000000000000
1.0000000000000000 0.0000000000000000 0.0000000000000000
1.0000000000000000 0.0000000000000000 0.0000000000000000
1.0000000000000000 0.0000000000000000 0.0000000000000000
1.0000000000000000 0.0000000000000000 0.0000000000000000
1.0000000000000000 0.0000000000000000 0.0000000000000000
1.0000000000000000 0.0000000000000000 0.0000000000000000
1.0000000000000000 0.0000000000000000 0.0000000000000000
1.0000000000000000 0.0000000000000000 0.0000000000000000
1.0000000000000000 0.0000000000000000 0.0000000000000000
1.0000000000000000 0.0000000000000000 0.0000000000000000
1.0000000000000000 0.0000000000000000 0.0000000000000000
1.0000000000000000 0.0000000000000000 0.0000000000000000
1.0000000000000000 0.0000000000000000 0.0000000000000000
1.0000000000000000 0.0000000000000000 0.0000000000000000
1.0000000000000000 0.0000000000000000 0.0000000000000000
1.0000000000000000 0.0000000000000000 0.0000000000000000
1.0000000000000000 0.0000000000000000 0.0000000000000000
1.0000000000000000 0.0000000000000000 0.0000000000000000
1.0000000000000000 0.0000000000000000 0.0000000000000000
1.0000000000000000 0.0000000000000000 0.0000000000000000
1.0000000000000000 0.0000000000000000 0.0000000000000000
1.0000000000000000 0.0000000000000000 0.0000000000000000
1.0000000000000000 0.0000000000000000 0.0000000000000000
1.0000000000000000 0.0000000000000000 0.0000000000000000
1.0000000000000000 0.0000000000000000 0.0000000000000000
1.0000000000000000 0.0000000000000000 0.0000000000000000
1.0000000000000000 0.0000000000000000 0.0000000000000000
1.0000000000000000 0.0000000000000000 0.0000000000000000
1.0000000000000000 0.0000000000000000 0.0000000000000000
1.0000000000000000 0.0000000000000000 0.0000000000000000
1.0000000000000000 0.0000000000000000 0.0000000000000000
1.0000000000000000 0.0000000000000000 0.0000000000000000
1.0000000000000000 0.0000000000000000 0.0000000000000000
1.0000000000000000 0.0000000000000000 0.0000000000000000
1.0000000000000000 0.0000000000000000 0.0000000000000000
1.0000000000000000 0.0000000000000000 0.0000000000000000
1.0000000000000000 0.0000000000000000 0.0000000000000000
1.0000000000000000 0.0000000000000000 0.0000000000000000
1.0000000000000000 0.0000000000000000 0.0000000000000000
1.0000000000000000 0.0000000000000000 0.0000000000000000
1.0000000000000000 0.0000000000000000 0.0000000000000000
1.0000000000000000 0.0000000000000000 0.0000000000000000
1.0000000000000000 0.0000000000000000 0.0000000000000000
1.0000000000000000 0.0000000000000000 0.0000000000000000
1.0000000000000000 0.0000000000000000 0.0000000000000000
1.0000000000000000 0.0000000000000000 0.0000000000000000
1.0000000000000000 0.0000000000000000 0.0000000000000000
1.0000000000000000 0.0000000000000000 0.0000000000000000
1.0000000000000000 0.0000000000000000 0.0000000000000000
1.0000000000000000 0.0000000000000000 0.0000000000000000
1.0000000000000000 0.0000000000000000 0.0000000000000000
1.0000000000000000 0.0000000000000000 0.0000000000000000
1.0000000000000000 0.0000000000000000 0.0000000000000000
1.0000000000000000 0.0000000000000000 0.0000000000000000
1.0000000000000000 0.0000000000000000 0.0000000000000000
1.0000000000000000 0.0000000000000000 0.0000000000000000
1.0000000000000000 0.0000000000000000 0.0000000000000000
1.0000000000000000 0.0000000000000000 0.0000000000000000
1.0000000000000000 0.0000000000000000 0.0000000000000000
1.0000000000000000 0.0000000000000000 0.0000000000000000
1.0000000000000000 0.0000000000000000 0.0000000000000000
1.0000000000000000 0.0000000000000000 0.0000000000000000
1.0000000000000000 0.0000000000000000 0.0000000000000000
1.0000000000000000 0.0000000000000000 0.0000000000000000
1.0000000000000000 0.0000000000000000 0.0000000000000000
1.0000000000000000 0.0000000000000000 0.0000000000000000
1.0000000000000000 0.0000000000000000 0.0000000000000000
1.0000000000000000 0.0000000000000000 0.0000000000000000
1.0000000000000000 0.0000000000000000 0.0000000000000000
1.0000000000000000 0.0000000000000000 0.0000000000000000
1.0000000000000000 0.0000000000000000 0.0000000000000000
1.0000000000000000 0.0000000000000000 0.0000000000000000
1.0000000000000000 0.0000000000000000 0.0000000000000000
1.0000000000000000 0.0000000000000000 0.0000000000000000
1.0000000000000000 0.0000000000000000 0.0000000000000000
1.0000000000000000 0.0000000000000000 0.0000000000000000
1.0000000000000000 0.0000000000000000 0.0000000000000000
1.0000000000000000 0.0000000000000000 0.0000000000000000
1.0000000000000000 0.0000000000000000 0.0000000000000000
1.0000000000000000 0.0000000000000000 0.0000000000000000
1.0000000000000000 0.0000000000000000 0.0000000000000000
1.0000000000000000 0.0000000000000000 0.0000000000000000
1.0000000000000000 0.0000000000000000 0.0000000000000000
1.0000000000000000 0.0000000000000000 0.0000000000000000
1.0000000000000000 0.0000000000000000 0.0000000000000000
1.0000000000000000 0.0000000000000000 0.0000000000000000
1.0000000000000000 0.0000000000000000 0.0000000000000000
1.0000000000000000 0.0000000000000000 0.0000000000000000
1.0000000000000000 0.0000000000000000 0.0000000000000000
1.0000000000000000 0.0000000000000000 0.0000000000000000
1.0000000000000000 0.0000000000000000 0.0000000000000000
1.0000000000000000 0.0000000000000000 0.0000000000000000
1.0000000000000000 0.0000000000000000 0.0000000000000000
1.0000000000000000 0.0000000000000000 0.0000000000000000
1.0000000000000000 0.0000000000000000 0.0000000000000000
1.0000000000000000 0.0000000000000000 0.0000000000000000
1.0000000000000000 0.0000000000000000 0.0000000000000000
1.0000000000000000 0.0000000000000000 0.0000000000000000
1.0000000000000000 0.0000000000000000 0.0000000000000000
1.0000000000000000 0.0000000000000000 0.0000000000000000
1.0000000000000000 0.0000000000000000 0.0000000000000000
1.0000000000000000 0.0000000000000000 0.0000000000000000
1.0000000000000000 0.0000000000000000 0.0000000000000000
1.0000000000000000 0.0000000000000000 0.0000000000000000
1.0000000000000000 0.0000000000000000 0.0000000000000000
1.0000000000000000 0.0000000000000000 0.0000000000000000
1.0000000000000000 0.0000000000000000 0.0000000000000000
1.0000000000000000 0.0000000000000000 0.0000000000000000
1.0000000000000000 0.0000000000000000 0.0000000000000000
1.0000000000000000 0.0000000000000000 0.0000000000000000
1.0000000000000000 0.0000000000000000 0.0000000000000000
1.0000000000000000 0.0000000000000000 0.0000000000000000
1.0000000000000000 0.0000000000000000 0.0000000000000000
1.0000000000000000 0.0000000000000000 0.0000000000000000
1.0000000000000000 0.0000000000000000 0.0000000000000000
1.0000000000000000 0.0000000000000000 0.0000000000000000
1.0000000000000000 0.0000000000000000 0.0000000000000000
1.0000000000000000 0.0000000000000000 0.0000000000000000
1.0000000000000000 0.0000000000000000 0.0000000000000000
1.0000000000000000 0.0000000000000000 0.0000000000000000
1.0000000000000000 0.0000000000000000 0.0000000000000000
1.0000000000000000 0.0000000000000000 0.0000000000000000
1.0000000000000000 0.0000000000000000 0.0000000000000000
1.0000000000000000 0.0000000000000000 0.0000000000000000
1.0000000000000000 0.0000000000000000 0.0000000000000000
1.0000000000000000 0.0000000000000000 0.0000000000000000
1.0000000000000000 0.0000000000000000 0.0000000000000000
1.0000000000000000 0.0000000000000000 0.0000000000000000
1.0000000000000000 0.0000000000000000 0.0000000000000000
1.0000000000000000 0.0000000000000000 0.0000000000000000
1.0000000000000000 0.0000000000000000 0.0000000000000000
1.0000000000000000 0.0000000000000000 0.0000000000000000
1.0000000000000000 0.0000000000000000 0.0000000000000000
1.0000000000000000 0.0000000000000000 0.0000000000000000
1.0000000000000000 0.0000000000000000 0.0000000000000000
1.0000000000000000 0.0000000000000000 0.0000000000000000
1.0000000000000000 0.0000000000000000 0.0000000000000000
1.0000000000000000 0.0000000000000000 0.0000000000000000
1.0000000000000000 0.0000000000000000 0.0000000000000000
1.0000000000000000 0.0000000000000000 0.0000000000000000
1.0000000000000000 0.0000000000000000 0.0000000000000000
1.0000000000000000 0.0000000000000000 0.0000000000000000
1.0000000000000000 0.0000000000000000 0.0000000000000000
1.0000000000000000 0.0000000000000000 0.0000000000000000
1.0000000000000000 0.0000000000000000 0.0000000000000000
1.0000000000000000 0.0000000000000000 0.0000000000000000
1.0000000000000000 0.0000000000000000 0.0000000000000000
1.0000000000000000 0.0000000000000000 0.0000000000000000
1.0000000000000000 0.0000000000000000 0.0000000000000000
1.0000000000000000 0.0000000000000000 0.0000000000000000
1.0000000000000000 0.0000000000000000 0.0000000000000000
1.0000000000000000 0.0000000000000000 0.0000000000000000
1.0000000000000000 0.0000000000000000 0.0000000000000000
1.0000000000000000 0.0000000000000000 0.0000000000000000
1.0000000000000000 0.0000000000000000 0.0000000000000000
1.0000000000000000 0.0000000000000000 0.0000000000000000
1.0000000000000000 0.0000000000000000 0.0000000000000000
1.0000000000000000 0.0000000000000000 0.0000000000000000
1.0000000000000000 0.0000000000000000 0.0000000000000000
1.0000000000000000 0.0000000000000000 0.0000000000000000
1.0000000000000000 0.0000000000000000 0.0000000000000000
1.0000000000000000 0.0000000000000000 0.0000000000000000
1.0000000000000000 0.0000000000000000 0.0000000000000000
1.0000000000000000 0.0000000000000000 0.0000000000000000
1.0000000000000000 0.0000000000000000 0.0000000000000000
1.0000000000000000 0.0000000000000000 0.0000000000000000
1.0000000000000000 0.0000000000000000 0.0000000000000000
1.0000000000000000 0.0000000000000000 0.0000000000000000
1.0000000000000000 0.0000000000000000 0.0000000000000000
1.0000000000000000 0.0000000000000000 0.0000000000000000
1.0000000000000000 0.0000000000000000 0.0000000000000000
1.0000000000000000 0.0000000000000000 0.0000000000000000
1.0000000000000000 0.0000000000000000 0.0000000000000000
1.0000000000000000 0.0000000000000000 0.0000000000000000
1.0000000000000000 0.0000000000000000 0.0000000000000000
1.0000000000000000 0.0000000000000000 0.0000000000000000
1.0000000000000000 0.0000000000000000 0.0000000000000000
1.0000000000000000 0.0000000000000000 0.0000000000000000
1.0000000000000000 0.0000000000000000 0.0000000000000000
1.0000000000000000 0.0000000000000000 0.0000000000000000
1.0000000000000000 0.0000000000000000 0.0000000000000000
1.0000000000000000 0.0000000000000000 0.0000000000000000
1.0000000000000000 0.0000000000000000 0.0000000000000000
1.0000000000000000 0.0000000000000000 0.0000000000000000
1.0000000000000000 0.0000000000000000 0.0000000000000000
1.0000000000000000 0.0000000000000000 0.0000000000000000
1.0000000000000000 0.0000000000000000 0.0000000000000000
1.0000000000000000 0.0000000000000000 0.0000000000000000
1.0000000000000000 0.0000000000000000 0.0000000000000000
1.0000000000000000 0.0000000000000000 0.0000000000000000
1.0000000000000000 0.0000000000000000 0.0000000000000000
1.0000000000000000 0.0000000000000000 0.0000000000000000
1.0000000000000000 0.0000000000000000 0.0000000000000000
1.0000000000000000 0.0000000000000000 0.0000000000000000
1.0000000000000000 0.0000000000000000 0.0000000000000000
1.0000000000000000 0.0000000000000000 0.0000000000000000
1.0000000000000000 0.0000000000000000 0.0000000000000000
1.0000000000000000 0.0000000000000000 0.0000000000000000
1.0000000000000000 0.0000000000000000 0.0000000000000000
1.0000000000000000 0.0000000000000000 0.0000000000000000
1.0000000000000000 0.0000000000000000 0.0000000000000000
1.0000000000000000 0.0000000000000000 0.0000000000000000
1.0000000000000000 0.0000000000000000 0.0000000000000000
1.0000000000000000 0.0000000000000000 0.0000000000000000
1.0000000000000000 0.0000000000000000 0.0000000000000000
1.0000000000000000 0.0000000000000000 0.0000000000000000
1.0000000000000000 0.0000000000000000 0.0000000000000000
1.0000000000000000 0.0000000000000000 0.0000000000000000
1.0000000000000000 0.0000000000000000 0.0000000000000000
1.0000000000000000 0.0000000000000000 0.0000000000000000
1.0000000000000000 0.0000000000000000 0.0000000000000000
1.0000000000000000 0.0000000000000000 0.0000000000000000
1.0000000000000000 0.0000000000000000 0.0000000000000000
1.0000000000000000 0.0000000000000000 0.0000000000000000
1.0000000000000000 0.0000000000000000 0.0000000000000000
1.0000000000000000 0.0000000000000000 0.0000000000000000
1.0000000000000000 0.0000000000000000 0.0000000000000000
1.0000000000000000 0.0000000000000000 0.0000000000000000
1.0000000000000000 0.0000000000000000 0.0000000000000000
1.0000000000000000 0.0000000000000000 0.0000000000000000
1.0000000000000000 0.0000000000000000 0.0000000000000000
1.0000000000000000 0.0000000000000000 0.0000000000000000
1.0000000000000000 0.0000000000000000 0.0000000000000000
1.0000000000000000 0.0000000000000000 0.0000000000000000
1.0000000000000000 0.0000000000000000 0.0000000000000000
1.0000000000000000 0.0000000000000000 0.0000000000000000
1.0000000000000000 0.0000000000000000 0.0000000000000000
1.0000000000000000 0.0000000000000000 0.0000000000000000
1.0000000000000000 0.0000000000000000 0.0000000000000000
1.0000000000000000 0.0000000000000000 0.0000000000000000
1.0000000000000000 0.0000000000000000 0.0000000000000000
1.0000000000000000 0.0000000000000000 0.0000000000000000
1.0000000000000000 0.0000000000000000 0.0000000000000000
1.0000000000000000 0.0000000000000000 0.0000000000000000
1.0000000000000000 0.0000000000000000 0.0000000000000000
1.0000000000000000 0.0000000000000000 0.0000000000000000
1.0000000000000000 0.0000000000000000 0.0000000000000000
1.0000000000000000 0.0000000000000000 0.0000000000000000
1.0000000000000000 0.0000000000000000 0.0000000000000000
1.0000000000000000 0.0000000000000000 0.0000000000000000
1.0000000000000000 0.0000000000000000 0.0000000000000000
1.0000000000000000 0.0000000000000000 0.0000000000000000
1.0000000000000000 0.0000000000000000 0.0000000000000000
1.0000000000000000 0.0000000000000000 0.0000000000000000
1.0000000000000000 0.0000000000000000 0.0000000000000000
1.0000000000000000 0.0000000000000000 0.0000000000000000
1.0000000000000000 0.0000000000000000 0.0000000000000000
1.0000000000000000 0.0000000000000000 0.0000000000000000
1.0000000000000000 0.0000000000000000 0.0000000000000000
1.0000000000000000 0.0000000000000000 0.0000000000000000
1.0000000000000000 0.0000000000000000 0.0000000000000000
1.0000000000000000 0.0000000000000000 0.0000000000000000
1.0000000000000000 0.0000000000000000 0.0000000000000000
1.0000000000000000 0.0000000000000000 0.0000000000000000
1.0000000000000000 0.0000000000000000 0.0000000000000000
1.0000000000000000 0.0000000000000000 0.0000000000000000
1.0000000000000000 0.0000000000000000 0.0000000000000000
1.0000000000000000 0.0000000000000000 0.0000000000000000
1.0000000000000000 0.0000000000000000 0.0000000000000000
1.0000000000000000 0.0000000000000000 0.0000000000000000
1.0000000000000000 0.0000000000000000 0.0000000000000000
1.0000000000000000 0.0000000000000000 0.0000000000000000
1.0000000000000000 0.0000000000000000 0.0000000000000000
1.0000000000000000 0.0000000000000000 0.0000000000000000
1.0000000000000000 0.0000000000000000 0.0000000000000000
1.0000000000000000 0.0000000000000000 0.0000000000000000
1.0000000000000000 0.0000000000000000 0.0000000000000000
1.0000000000000000 0.0000000000000000 0.0000000000000000
1.0000000000000000 0.0000000000000000 0.0000000000000000
1.0000000000000000 0.0000000000000000 0.0000000000000000
1.0000000000000000 0.0000000000000000 0.0000000000000000
1.0000000000000000 0.0000000000000000 0.0000000000000000
1.0000000000000000 0.0000000000000000 0.0000000000000000
1.0000000000000000 0.0000000000000000 0.0000000000000000
1.0000000000000000 0.0000000000000000 0.0000000000000000
1.0000000000000000 0.0000000000000000 0.0000000000000000
1.0000000000000000 0.0000000000000000 0.0000000000000000
1.0000000000000000 0.0000000000000000 0.0000000000000000
1.0000000000000000 0.0000000000000000 0.0000000000000000
1.0000000000000000 0.0000000000000000 0.0000000000000000
1.0000000000000000 0.0000000000000000 0.0000000000000000
1.0000000000000000 0.0000000000000000 0.0000000000000000
1.0000000000000000 0.0000000000000000 0.0000000000000000
1.0000000000000000 0.0000000000000000 0.0000000000000000
1.0000000000000000 0.0000000000000000 0.0000000000000000
1.0000000000000000 0.0000000000000000 0.0000000000000000
1.0000000000000000 0.0000000000000000 0.0000000000000000
1.0000000000000000 0.0000000000000000 0.0000000000000000
1.0000000000000000 0.0000000000000000 0.0000000000000000
1.0000000000000000 0.0000000000000000 0.0000000000000000
1.0000000000000000 0.0000000000000000 0.0000000000000000
1.0000000000000000 0.0000000000000000 0.0000000000000000
1.0000000000000000 0.0000000000000000 0.0000000000000000
1.0000000000000000 0.0000000000000000 0.0000000000000000
1.0000000000000000 0.0000000000000000 0.0000000000000000
1.0000000000000000 0.0000000000000000 0.0000000000000000
1.0000000000000000 0.0000000000000000 0.0000000000000000
1.0000000000000000 0.0000000000000000 0.0000000000000000
1.0000000000000000 0.0000000000000000 0.0000000000000000
1.0000000000000000 0.0000000000000000 0.0000000000000000
1.0000000000000000 0.0000000000000000 0.0000000000000000
1.0000000000000000 0.0000000000000000 0.0000000000000000
1.0000000000000000 0.0000000000000000 0.0000000000000000
1.0000000000000000 0.0000000000000000 0.0000000000000000
1.0000000000000000 0.0000000000000000 0.0000000000000000
1.0000000000000000 0.0000000000000000 0.0000000000000000
1.0000000000000000 0.0000000000000000 0.0000000000000000
1.0000000000000000 0.0000000000000000 0.0000000000000000
1.0000000000000000 0.0000000000000000 0.0000000000000000
1.0000000000000000 0.0000000000000000 0.0000000000000000
1.0000000000000000 0.0000000000000000 0.0000000000000000
1.0000000000000000 0.0000000000000000 0.0000000000000000
1.0000000000000000 0.0000000000000000 0.0000000000000000
1.0000000000000000 0.0000000000000000 0.0000000000000000
1.0000000000000000 0.0000000000000000 0.0000000000000000
1.0000000000000000 0.0000000000000000 0.0000000000000000
1.0000000000000000 0.0000000000000000 0.0000000000000000
1.0000000000000000 0.0000000000000000 0.0000000000000000
1.0000000000000000 0.0000000000000000 0.0000000000000000
1.0000000000000000 0.0000000000000000 0.0000000000000000
1.0000000000000000 0.0000000000000000 0.0000000000000000
1.0000000000000000 0.0000000000000000 0.0000000000000000
1.0000000000000000 0.0000000000000000 0.0000000000000000
1.0000000000000000 0.0000000000000000 0.0000000000000000
1.0000000000000000 0.0000000000000000 0.0000000000000000
1.0000000000000000 0.0000000000000000 0.0000000000000000
1.0000000000000000 0.0000000000000000 0.0000000000000000
1.0000000000000000 0.0000000000000000 0.0000000000000000
1.0000000000000000 0.0000000000000000 0.0000000000000000
1.0000000000000000 0.0000000000000000 0.0000000000000000
1.0000000000000000 0.0000000000000000 0.0000000000000000
1.0000000000000000 0.0000000000000000 0.0000000000000000
1.0000000000000000 0.0000000000000000 0.0000000000000000
1.0000000000000000 0.0000000000000000 0.0000000000000000
1.0000000000000000 0.0000000000000000 0.0000000000000000
1.0000000000000000 0.0000000000000000 0.0000000000000000
1.0000000000000000 0.0000000000000000 0.0000000000000000
1.0000000000000000 0.0000000000000000 0.0000000000000000
1.0000000000000000 0.0000000000000000 0.0000000000000000
1.0000000000000000 0.0000000000000000 0.0000000000000000
1.0000000000000000 0.0000000000000000 0.0000000000000000
1.0000000000000000 0.0000000000000000 0.0000000000000000
1.0000000000000000 0.0000000000000000 0.0000000000000000
1.0000000000000000 0.0000000000000000 0.0000000000000000
1.0000000000000000 0.0000000000000000 0.0000000000000000
1.0000000000000000 0.0000000000000000 0.0000000000000000
1.0000000000000000 0.0000000000000000 0.0000000000000000
1.0000000000000000 0.0000000000000000 0.0000000000000000
1.0000000000000000 0.0000000000000000 0.0000000000000000
1.0000000000000000 0.0000000000000000 0.0000000000000000
1.0000000000000000 0.0000000000000000 0.0000000000000000
1.0000000000000000 0.0000000000000000 0.0000000000000000
1.0000000000000000 0.0000000000000000 0.0000000000000000
1.0000000000000000 0.0000000000000000 0.0000000000000000
1.0000000000000000 0.0000000000000000 0.0000000000000000
1.0000000000000000 0.0000000000000000 0.0000000000000000
1.0000000000000000 0.0000000000000000 0.0000000000000000
1.0000000000000000 0.0000000000000000 0.0000000000000000
1.0000000000000000 0.0000000000000000 0.0000000000000000
1.0000000000000000 0.0000000000000000 0.0000000000000000
1.0000000000000000 0.0000000000000000 0.0000000000000000
1.0000000000000000 0.0000000000000000 0.0000000000000000
1.0000000000000000 0.0000000000000000 0.0000000000000000
1.0000000000000000 0.0000000000000000 0.0000000000000000
1.0000000000000000 0.0000000000000000 0.0000000000000000
1.0000000000000000 0.0000000000000000 0.0000000000000000
1.0000000000000000 0.0000000000000000 0.0000000000000000
1.0000000000000000 0.0000000000000000 0.0000000000000000
1.0000000000000000 0.0000000000000000 0.0000000000000000
1.0000000000000000 0.0000000000000000 0.0000000000000000
1.0000000000000000 0.0000000000000000 0.0000000000000000
1.0000000000000000 0.0000000000000000 0.0000000000000000
1.0000000000000000 0.0000000000000000 0.0000000000000000
1.0000000000000000 0.0000000000000000 0.0000000000000000
1.0000000000000000 0.0000000000000000 0.0000000000000000
1.0000000000000000 0.0000000000000000 0.0000000000000000
1.0000000000000000 0.0000000000000000 0.0000000000000000
1.0000000000000000 0.0000000000000000 0.0000000000000000
1.0000000000000000 0.0000000000000000 0.0000000000000000
1.0000000000000000 0.0000000000000000 0.0000000000000000
1.0000000000000000 0.0000000000000000 0.0000000000000000
1.0000000000000000 0.0000000000000000 0.0000000000000000
1.0000000000000000 0.0000000000000000 0.0000000000000000
1.0000000000000000 0.0000000000000000 0.0000000000000000
1.0000000000000000 0.0000000000000000 0.0000000000000000
1.0000000000000000 0.0000000000000000 0.0000000000000000
1.0000000000000000 0.0000000000000000 0.0000000000000000
1.0000000000000000 0.0000000000000000 0.0000000000000000
1.0000000000000000 0.0000000000000000 0.0000000000000000
1.0000000000000000 0.0000000000000000 0.0000000000000000
1.0000000000000000 0.0000000000000000 0.0000000000000000
1.0000000000000000 0.0000000000000000 0.0000000000000000
1.0000000000000000 0.0000000000000000 0.0000000000000000
1.0000000000000000 0.0000000000000000 0.0000000000000000
1.0000000000000000 0.0000000000000000 0.0000000000000000
1.0000000000000000 0.0000000000000000 0.0000000000000000
1.0000000000000000 0.0000000000000000 0.0000000000000000
1.0000000000000000 0.0000000000000000 0.0000000000000000
1.0000000000000000 0.0000000000000000 0.0000000000000000
1.0000000000000000 0.0000000000000000 0.0000000000000000
1.0000000000000000 0.0000000000000000 0.0000000000000000
1.0000000000000000 0.0000000000000000 0.0000000000000000
1.0000000000000000 0.0000000000000000 0.0000000000000000
1.0000000000000000 0.0000000000000000 0.0000000000000000
1.0000000000000000 0.0000000000000000 0.0000000000000000
1.0000000000000000 0.0000000000000000 0.0000000000000000
1.0000000000000000 0.0000000000000000 0.0000000000000000
1.0000000000000000 0.0000000000000000 0.0000000000000000
1.0000000000000000 0.0000000000000000 0.0000000000000000
1.0000000000000000 0.0000000000000000 0.0000000000000000
1.0000000000000000 0.0000000000000000 0.0000000000000000
1.0000000000000000 0.0000000000000000 0.0000000000000000
1.0000000000000000 0.0000000000000000 0.0000000000000000
1.0000000000000000 0.0000000000000000 0.0000000000000000
1.0000000000000000 0.0000000000000000 0.0000000000000000
1.0000000000000000 0.0000000000000000 0.0000000000000000
1.0000000000000000 0.0000000000000000 0.0000000000000000
1.0000000000000000 0.0000000000000000 0.0000000000000000
1.0000000000000000 0.0000000000000000 0.0000000000000000
1.0000000000000000 0.0000000000000000 0.0000000000000000
1.0000000000000000 0.0000000000000000 0.0000000000000000
1.0000000000000000 0.0000000000000000 0.0000000000000000
1.0000000000000000 0.0000000000000000 0.0000000000000000
1.0000000000000000 0.0000000000000000 0.0000000000000000
1.0000000000000000 0.0000000000000000 0.0000000000000000
1.0000000000000000 0.0000000000000000 0.0000000000000000
1.0000000000000000 0.0000000000000000 0.0000000000000000
1.0000000000000000 0.0000000000000000 0.0000000000000000
1.0000000000000000 0.0000000000000000 0.0000000000000000
1.0000000000000000 0.0000000000000000 0.0000000000000000
1.0000000000000000 0.0000000000000000 0.0000000000000000
1.0000000000000000 0.0000000000000000 0.0000000000000000
1.0000000000000000 0.0000000000000000 0.0000000000000000
1.0000000000000000 0.0000000000000000 0.0000000000000000
1.0000000000000000 0.0000000000000000 0.0000000000000000
1.0000000000000000 0.0000000000000000 0.0000000000000000
1.0000000000000000 0.0000000000000000 0.0000000000000000
1.0000000000000000 0.0000000000000000 0.0000000000000000
1.0000000000000000 0.0000000000000000 0.0000000000000000
1.0000000000000000 0.0000000000000000 0.0000000000000000
1.0000000000000000 0.0000000000000000 0.0000000000000000
1.0000000000000000 0.0000000000000000 0.0000000000000000
1.0000000000000000 0.0000000000000000 0.0000000000000000
1.0000000000000000 0.0000000000000000 0.0000000000000000
1.0000000000000000 0.0000000000000000 0.0000000000000000
1.0000000000000000 0.0000000000000000 0.0000000000000000
1.0000000000000000 0.0000000000000000 0.0000000000000000
1.0000000000000000 0.0000000000000000 0.0000000000000000
1.0000000000000000 0.0000000000000000 0.0000000000000000
1.0000000000000000 0.0000000000000000 0.0000000000000000
1.0000000000000000 0.0000000000000000 0.0000000000000000
1.0000000000000000 0.0000000000000000 0.0000000000000000
1.0000000000000000 0.0000000000000000 0.0000000000000000
1.0000000000000000 0.0000000000000000 0.0000000000000000
1.0000000000000000 0.0000000000000000 0.0000000000000000
1.0000000000000000 0.0000000000000000 0.0000000000000000
1.0000000000000000 0.0000000000000000 0.0000000000000000
1.0000000000000000 0.0000000000000000 0.0000000000000000
1.0000000000000000 0.0000000000000000 0.0000000000000000
1.0000000000000000 0.0000000000000000 0.0000000000000000
1.0000000000000000 0.0000000000000000 0.0000000000000000
1.0000000000000000 0.0000000000000000 0.0000000000000000
1.0000000000000000 0.0000000000000000 0.0000000000000000
1.0000000000000000 0.0000000000000000 0.0000000000000000
1.0000000000000000 0.0000000000000000 0.0000000000000000
1.0000000000000000 0.0000000000000000 0.0000000000000000
1.0000000000000000 0.0000000000000000 0.0000000000000000
1.0000000000000000 0.0000000000000000 0.0000000000000000
1.0000000000000000 0.0000000000000000 0.0000000000000000
1.0000000000000000 0.0000000000000000 0.0000000000000000
1.0000000000000000 0.0000000000000000 0.0000000000000000
1.0000000000000000 0.0000000000000000 0.0000000000000000
1.0000000000000000 0.0000000000000000 0.0000000000000000
1.0000000000000000 0.0000000000000000 0.0000000000000000
1.0000000000000000 0.0000000000000000 0.0000000000000000
1.0000000000000000 0.0000000000000000 0.0000000000000000
1.0000000000000000 0.0000000000000000 0.0000000000000000
1.0000000000000000 0.0000000000000000 0.0000000000000000
1.0000000000000000 0.0000000000000000 0.0000000000000000
1.0000000000000000 0.0000000000000000 0.0000000000000000
1.0000000000000000 0.0000000000000000 0.0000000000000000
1.0000000000000000 0.0000000000000000 0.0000000000000000
1.0000000000000000 0.0000000000000000 0.0000000000000000
1.0000000000000000 0.0000000000000000 0.0000000000000000
1.0000000000000000 0.0000000000000000 0.0000000000000000
1.0000000000000000 0.0000000000000000 0.0000000000000000
1.0000000000000000 0.0000000000000000 0.0000000000000000
1.0000000000000000 0.0000000000000000 0.0000000000000000
1.0000000000000000 0.0000000000000000 0.0000000000000000
1.0000000000000000 0.0000000000000000 0.0000000000000000
1.0000000000000000 0.0000000000000000 0.0000000000000000
1.0000000000000000 0.0000000000000000 0.0000000000000000
1.0000000000000000 0.0000000000000000 0.0000000000000000
1.0000000000000000 0.0000000000000000 0.0000000000000000
1.0000000000000000 0.0000000000000000 0.0000000000000000
1.0000000000000000 0.0000000000000000 0.0000000000000000
1.0000000000000000 0.0000000000000000 0.0000000000000000
1.0000000000000000 0.0000000000000000 0.0000000000000000
1.0000000000000000 0.0000000000000000 0.0000000000000000
1.0000000000000000 0.0000000000000000 0.0000000000000000
1.0000000000000000 0.0000000000000000 0.0000000000000000
1.0000000000000000 0.0000000000000000 0.0000000000000000
1.0000000000000000 0.0000000000000000 0.0000000000000000
1.0000000000000000 0.0000000000000000 0.0000000000000000
1.0000000000000000 0.0000000000000000 0.0000000000000000
1.0000000000000000 0.0000000000000000 0.0000000000000000
1.0000000000000000 0.0000000000000000 0.0000000000000000
1.0000000000000000 0.0000000000000000 0.0000000000000000
1.0000000000000000 0.0000000000000000 0.0000000000000000
1.0000000000000000 0.0000000000000000 0.0000000000000000
1.0000000000000000 0.0000000000000000 0.0000000000000000
1.0000000000000000 0.0000000000000000 0.0000000000000000
1.0000000000000000 0.0000000000000000 0.0000000000000000
1.0000000000000000 0.0000000000000000 0.0000000000000000
1.0000000000000000 0.0000000000000000 0.0000000000000000
1.0000000000000000 0.0000000000000000 0.0000000000000000
1.0000000000000000 0.0000000000000000 0.0000000000000000
1.0000000000000000 0.0000000000000000 0.0000000000000000
1.0000000000000000 0.0000000000000000 0.0000000000000000
1.0000000000000000 0.0000000000000000 0.0000000000000000
1.0000000000000000 0.0000000000000000 0.0000000000000000
1.0000000000000000 0.0000000000000000 0.0000000000000000
1.0000000000000000 0.0000000000000000 0.0000000000000000
1.0000000000000000 0.0000000000000000 0.0000000000000000
1.0000000000000000 0.0000000000000000 0.0000000000000000
1.0000000000000000 0.0000000000000000 0.0000000000000000
1.0000000000000000 0.0000000000000000 0.0000000000000000
1.0000000000000000 0.0000000000000000 0.0000000000000000
1.0000000000000000 0.0000000000000000 0.0000000000000000
1.0000000000000000 0.0000000000000000 0.0000000000000000
1.0000000000000000 0.0000000000000000 0.0000000000000000
1.0000000000000000 0.0000000000000000 0.0000000000000000
1.0000000000000000 0.0000000000000000 0.0000000000000000
1.0000000000000000 0.0000000000000000 0.0000000000000000
1.0000000000000000 0.0000000000000000 0.0000000000000000
1.0000000000000000 0.0000000000000000 0.0000000000000000
1.0000000000000000 0.0000000000000000 0.0000000000000000
1.0000000000000000 0.0000000000000000 0.0000000000000000
1.0000000000000000 0.0000000000000000 0.0000000000000000
1.0000000000000000 0.0000000000000000 0.0000000000000000
1.0000000000000000 0.0000000000000000 0.0000000000000000
1.0000000000000000 0.0000000000000000 0.0000000000000000
1.0000000000000000 0.0000000000000000 0.0000000000000000
1.0000000000000000 0.0000000000000000 0.0000000000000000
1.0000000000000000 0.0000000000000000 0.0000000000000000
1.0000000000000000 0.0000000000000000 0.0000000000000000
1.0000000000000000 0.0000000000000000 0.0000000000000000
1.0000000000000000 0.0000000000000000 0.0000000000000000
1.0000000000000000 0.0000000000000000 0.0000000000000000
1.0000000000000000 0.0000000000000000 0.0000000000000000
1.0000000000000000 0.0000000000000000 0.0000000000000000
1.0000000000000000 0.0000000000000000 0.0000000000000000
1.0000000000000000 0.0000000000000000 0.0000000000000000
1.0000000000000000 0.0000000000000000 0.0000000000000000
1.0000000000000000 0.0000000000000000 0.0000000000000000
1.0000000000000000 0.0000000000000000 0.0000000000000000
1.0000000000000000 0.0000000000000000 0.0000000000000000
1.0000000000000000 0.0000000000000000 0.0000000000000000
1.0000000000000000 0.0000000000000000 0.0000000000000000
1.0000000000000000 0.0000000000000000 0.0000000000000000
1.0000000000000000 0.0000000000000000 0.0000000000000000
1.0000000000000000 0.0000000000000000 0.0000000000000000
1.0000000000000000 0.0000000000000000 0.0000000000000000
1.0000000000000000 0.0000000000000000 0.0000000000000000
1.0000000000000000 0.0000000000000000 0.0000000000000000
1.0000000000000000 0.0000000000000000 0.0000000000000000
1.0000000000000000 0.0000000000000000 0.0000000000000000
1.0000000000000000 0.0000000000000000 0.0000000000000000
1.0000000000000000 0.0000000000000000 0.0000000000000000
1.0000000000000000 0.0000000000000000 0.0000000000000000
1.0000000000000000 0.0000000000000000 0.0000000000000000
1.0000000000000000 0.0000000000000000 0.0000000000000000
1.0000000000000000 0.0000000000000000 0.0000000000000000
1.0000000000000000 0.0000000000000000 0.0000000000000000
1.0000000000000000 0.0000000000000000 0.0000000000000000
1.0000000000000000 0.0000000000000000 0.0000000000000000
1.0000000000000000 0.0000000000000000 0.0000000000000000
1.0000000000000000 0.0000000000000000 0.0000000000000000
1.0000000000000000 0.0000000000000000 0.0000000000000000
1.0000000000000000 0.0000000000000000 0.0000000000000000
1.0000000000000000 0.0000000000000000 0.0000000000000000
1.0000000000000000 0.0000000000000000 0.0000000000000000
1.0000000000000000 0.0000000000000000 0.0000000000000000
1.0000000000000000 0.0000000000000000 0.0000000000000000
1.0000000000000000 0.0000000000000000 0.0000000000000000
1.0000000000000000 0.0000000000000000 0.0000000000000000
1.0000000000000000 0.0000000000000000 0.0000000000000000
1.0000000000000000 0.0000000000000000 0.0000000000000000
1.0000000000000000 0.0000000000000000 0.0000000000000000
1.0000000000000000 0.0000000000000000 0.0000000000000000
1.0000000000000000 0.0000000000000000 0.0000000000000000
1.0000000000000000 0.0000000000000000 0.0000000000000000
1.0000000000000000 0.0000000000000000 0.0000000000000000
1.0000000000000000 0.0000000000000000 0.0000000000000000
1.0000000000000000 0.0000000000000000 0.0000000000000000
1.0000000000000000 0.0000000000000000 0.0000000000000000
1.0000000000000000 0.0000000000000000 0.0000000000000000
1.0000000000000000 0.0000000000000000 0.0000000000000000
1.0000000000000000 0.0000000000000000 0.0000000000000000
1.0000000000000000 0.0000000000000000 0.0000000000000000
1.0000000000000000 0.0000000000000000 0.0000000000000000
1.0000000000000000 0.0000000000000000 0.0000000000000000
1.0000000000000000 0.0000000000000000 0.0000000000000000
1.0000000000000000 0.0000000000000000 0.0000000000000000
1.0000000000000000 0.0000000000000000 0.0000000000000000
1.0000000000000000 0.0000000000000000 0.0000000000000000
1.0000000000000000 0.0000000000000000 0.0000000000000000
1.0000000000000000 0.0000000000000000 0.0000000000000000
1.0000000000000000 0.0000000000000000 0.0000000000000000
1.0000000000000000 0.0000000000000000 0.0000000000000000
1.0000000000000000 0.0000000000000000 0.0000000000000000
1.0000000000000000 0.0000000000000000 0.0000000000000000
1.0000000000000000 0.0000000000000000 0.0000000000000000
1.0000000000000000 0.0000000000000000 0.0000000000000000
1.0000000000000000 0.0000000000000000 0.0000000000000000
1.0000000000000000 0.0000000000000000 0.0000000000000000
1.0000000000000000 0.0000000000000000 0.0000000000000000
1.0000000000000000 0.0000000000000000 0.0000000000000000
1.0000000000000000 0.0000000000000000 0.0000000000000000
1.0000000000000000 0.0000000000000000 0.0000000000000000
1.0000000000000000 0.0000000000000000 0.0000000000000000
1.0000000000000000 0.0000000000000000 0.0000000000000000
1.0000000000000000 0.0000000000000000 0.0000000000000000
1.0000000000000000 0.0000000000000000 0.0000000000000000
1.0000000000000000 0.0000000000000000 0.0000000000000000
1.0000000000000000 0.0000000000000000 0.0000000000000000
1.0000000000000000 0.0000000000000000 0.0000000000000000
1.0000000000000000 0.0000000000000000 0.0000000000000000
1.0000000000000000 0.0000000000000000 0.0000000000000000
1.0000000000000000 0.0000000000000000 0.0000000000000000
1.0000000000000000 0.0000000000000000 0.0000000000000000
1.0000000000000000 0.0000000000000000 0.0000000000000000
1.0000000000000000 0.0000000000000000 0.0000000000000000
1.0000000000000000 0.0000000000000000 0.0000000000000000
1.0000000000000000 0.0000000000000000 0.0000000000000000
1.0000000000000000 0.0000000000000000 0.0000000000000000
1.0000000000000000 0.0000000000000000 0.0000000000000000
1.0000000000000000 0.0000000000000000 0.0000000000000000
1.0000000000000000 0.0000000000000000 0.0000000000000000
1.0000000000000000 0.0000000000000000 0.0000000000000000
1.0000000000000000 0.0000000000000000 0.0000000000000000
1.0000000000000000 0.0000000000000000 0.0000000000000000
1.0000000000000000 0.0000000000000000 0.0000000000000000
1.0000000000000000 0.0000000000000000 0.0000000000000000
1.0000000000000000 0.0000000000000000 0.0000000000000000
1.0000000000000000 0.0000000000000000 0.0000000000000000
1.0000000000000000 0.0000000000000000 0.0000000000000000
1.0000000000000000 0.0000000000000000 0.0000000000000000
1.0000000000000000 0.0000000000000000 0.0000000000000000
1.0000000000000000 0.0000000000000000 0.0000000000000000
1.0000000000000000 0.0000000000000000 0.0000000000000000
1.0000000000000000 0.0000000000000000 0.0000000000000000
1.0000000000000000 0.0000000000000000 0.0000000000000000
1.0000000000000000 0.0000000000000000 0.0000000000000000
1.0000000000000000 0.0000000000000000 0.0000000000000000
1.0000000000000000 0.0000000000000000 0.0000000000000000
1.0000000000000000 0.0000000000000000 0.0000000000000000
1.0000000000000000 0.0000000000000000 0.0000000000000000
1.0000000000000000 0.0000000000000000 0.0000000000000000
1.0000000000000000 0.0000000000000000 0.0000000000000000
1.0000000000000000 0.0000000000000000 0.0000000000000000
1.0000000000000000 0.0000000000000000 0.0000000000000000
1.0000000000000000 0.0000000000000000 0.0000000000000000
1.0000000000000000 0.0000000000000000 0.0000000000000000
1.0000000000000000 0.0000000000000000 0.0000000000000000
1.0000000000000000 0.0000000000000000 0.0000000000000000
1.0000000000000000 0.0000000000000000 0.0000000000000000
1.0000000000000000 0.0000000000000000 0.0000000000000000
1.0000000000000000 0.0000000000000000 0.0000000000000000
1.0000000000000000 0.0000000000000000 0.0000000000000000
1.0000000000000000 0.0000000000000000 0.0000000000000000
1.0000000000000000 0.0000000000000000 0.0000000000000000
1.0000000000000000 0.0000000000000000 0.0000000000000000
1.0000000000000000 0.0000000000000000 0.0000000000000000
1.0000000000000000 0.0000000000000000 0.0000000000000000
1.0000000000000000 0.0000000000000000 0.0000000000000000
1.0000000000000000 0.0000000000000000 0.0000000000000000
1.0000000000000000 0.0000000000000000 0.0000000000000000
1.0000000000000000 0.0000000000000000 0.0000000000000000
1.0000000000000000 0.0000000000000000 0.0000000000000000
1.0000000000000000 0.0000000000000000 0.0000000000000000
1.0000000000000000 0.0000000000000000 0.0000000000000000
1.0000000000000000 0.0000000000000000 0.0000000000000000
1.0000000000000000 0.0000000000000000 0.0000000000000000
1.0000000000000000 0.0000000000000000 0.0000000000000000
1.0000000000000000 0.0000000000000000 0.0000000000000000
1.0000000000000000 0.0000000000000000 0.0000000000000000
1.0000000000000000 0.0000000000000000 0.0000000000000000
1.0000000000000000 0.0000000000000000 0.0000000000000000
1.0000000000000000 0.0000000000000000 0.0000000000000000
1.0000000000000000 0.0000000000000000 0.0000000000000000
1.0000000000000000 0.0000000000000000 0.0000000000000000
1.0000000000000000 0.0000000000000000 0.0000000000000000
1.0000000000000000 0.0000000000000000 0.0000000000000000
1.0000000000000000 0.0000000000000000 0.0000000000000000
1.0000000000000000 0.0000000000000000 0.0000000000000000
1.0000000000000000 0.0000000000000000 0.0000000000000000
1.0000000000000000 0.0000000000000000 0.0000000000000000
1.0000000000000000 0.0000000000000000 0.0000000000000000
1.0000000000000000 0.0000000000000000 0.0000000000000000
1.0000000000000000 0.0000000000000000 0.0000000000000000
1.0000000000000000 0.0000000000000000 0.0000000000000000
1.0000000000000000 0.0000000000000000 0.0000000000000000
1.0000000000000000 0.0000000000000000 0.0000000000000000
1.0000000000000000 0.0000000000000000 0.0000000000000000
1.0000000000000000 0.0000000000000000 0.0000000000000000
1.0000000000000000 0.0000000000000000 0.0000000000000000
1.0000000000000000 0.0000000000000000 0.0000000000000000
1.0000000000000000 0.0000000000000000 0.0000000000000000
1.0000000000000000 0.0000000000000000 0.0000000000000000
1.0000000000000000 0.0000000000000000 0.0000000000000000
1.0000000000000000 0.0000000000000000 0.0000000000000000
1.0000000000000000 0.0000000000000000 0.0000000000000000
1.0000000000000000 0.0000000000000000 0.0000000000000000
1.0000000000000000 0.0000000000000000 0.0000000000000000
1.0000000000000000 0.0000000000000000 0.0000000000000000
1.0000000000000000 0.0000000000000000 0.0000000000000000
1.0000000000000000 0.0000000000000000 0.0000000000000000
1.0000000000000000 0.0000000000000000 0.0000000000000000
1.0000000000000000 0.0000000000000000 0.0000000000000000
1.0000000000000000 0.0000000000000000 0.0000000000000000
1.0000000000000000 0.0000000000000000 0.0000000000000000
1.0000000000000000 0.0000000000000000 0.0000000000000000
1.0000000000000000 0.0000000000000000 0.0000000000000000
1.0000000000000000 0.0000000000000000 0.0000000000000000
1.0000000000000000 0.0000000000000000 0.0000000000000000
1.0000000000000000 0.0000000000000000 0.0000000000000000
1.0000000000000000 0.0000000000000000 0.0000000000000000
1.0000000000000000 0.0000000000000000 0.0000000000000000
1.0000000000000000 0.0000000000000000 0.0000000000000000
1.0000000000000000 0.0000000000000000 0.0000000000000000
1.0000000000000000 0.0000000000000000 0.0000000000000000
1.0000000000000000 0.0000000000000000 0.0000000000000000
1.0000000000000000 0.0000000000000000 0.0000000000000000
1.0000000000000000 0.0000000000000000 0.0000000000000000
1.0000000000000000 0.0000000000000000 0.0000000000000000
1.0000000000000000 0.0000000000000000 0.0000000000000000
1.0000000000000000 0.0000000000000000 0.0000000000000000
1.0000000000000000 0.0000000000000000 0.0000000000000000
1.0000000000000000 0.0000000000000000 0.0000000000000000
1.0000000000000000 0.0000000000000000 0.0000000000000000
1.0000000000000000 0.0000000000000000 0.0000000000000000
1.0000000000000000 0.0000000000000000 0.0000000000000000
1.0000000000000000 0.0000000000000000 0.0000000000000000
1.0000000000000000 0.0000000000000000 0.0000000000000000
1.0000000000000000 0.0000000000000000 0.0000000000000000
1.0000000000000000 0.0000000000000000 0.0000000000000000
1.0000000000000000 0.0000000000000000 0.0000000000000000
1.0000000000000000 0.0000000000000000 0.0000000000000000
1.0000000000000000 0.0000000000000000 0.0000000000000000
1.0000000000000000 0.0000000000000000 0.0000000000000000
1.0000000000000000 0.0000000000000000 0.0000000000000000
1.0000000000000000 0.0000000000000000 0.0000000000000000
1.0000000000000000 0.0000000000000000 0.0000000000000000
1.0000000000000000 0.0000000000000000 0.0000000000000000
1.0000000000000000 0.0000000000000000 0.0000000000000000
1.0000000000000000 0.0000000000000000 0.0000000000000000
1.0000000000000000 0.0000000000000000 0.0000000000000000
1.0000000000000000 0.0000000000000000 0.0000000000000000
1.0000000000000000 0.0000000000000000 0.0000000000000000
1.0000000000000000 0.0000000000000000 0.0000000000000000
1.0000000000000000 0.0000000000000000 0.0000000000000000
1.0000000000000000 0.0000000000000000 0.0000000000000000
1.0000000000000000 0.0000000000000000 0.0000000000000000
1.0000000000000000 0.0000000000000000 0.0000000000000000
1.0000000000000000 0.0000000000000000 0.0000000000000000
1.0000000000000000 0.0000000000000000 0.0000000000000000
1.0000000000000000 0.0000000000000000 0.0000000000000000
1.0000000000000000 0.0000000000000000 0.0000000000000000
1.0000000000000000 0.0000000000000000 0.0000000000000000
1.0000000000000000 0.0000000000000000 0.0000000000000000
1.0000000000000000 0.0000000000000000 0.0000000000000000
1.0000000000000000 0.0000000000000000 0.0000000000000000
1.0000000000000000 0.0000000000000000 0.0000000000000000
1.0000000000000000 0.0000000000000000 0.0000000000000000
1.0000000000000000 0.0000000000000000 0.0000000000000000
1.0000000000000000 0.0000000000000000 0.0000000000000000
1.0000000000000000 0.0000000000000000 0.0000000000000000
1.0000000000000000 0.0000000000000000 0.0000000000000000
1.0000000000000000 0.0000000000000000 0.0000000000000000
1.0000000000000000 0.0000000000000000 0.0000000000000000
1.0000000000000000 0.0000000000000000 0.0000000000000000
1.0000000000000000 0.0000000000000000 0.0000000000000000
1.0000000000000000 0.0000000000000000 0.0000000000000000
1.0000000000000000 0.0000000000000000 0.0000000000000000
1.0000000000000000 0.0000000000000000 0.0000000000000000
1.0000000000000000 0.0000000000000000 0.0000000000000000
1.0000000000000000 0.0000000000000000 0.0000000000000000
1.0000000000000000 0.0000000000000000 0.0000000000000000
1.0000000000000000 0.0000000000000000 0.0000000000000000
1.0000000000000000 0.0000000000000000 0.0000000000000000
1.0000000000000000 0.0000000000000000 0.0000000000000000
1.0000000000000000 0.0000000000000000 0.0000000000000000
1.0000000000000000 0.0000000000000000 0.0000000000000000
1.0000000000000000 0.0000000000000000 0.0000000000000000
1.0000000000000000 0.0000000000000000 0.0000000000000000
1.0000000000000000 0.0000000000000000 0.0000000000000000
1.0000000000000000 0.0000000000000000 0.0000000000000000
1.0000000000000000 0.0000000000000000 0.0000000000000000
1.0000000000000000 0.0000000000000000 0.0000000000000000
1.0000000000000000 0.0000000000000000 0.0000000000000000
1.0000000000000000 0.0000000000000000 0.0000000000000000
1.0000000000000000 0.0000000000000000 0.0000000000000000
1.0000000000000000 0.0000000000000000 0.0000000000000000
1.0000000000000000 0.0000000000000000 0.0000000000000000
1.0000000000000000 0.0000000000000000 0.0000000000000000
1.0000000000000000 0.0000000000000000 0.0000000000000000
1.0000000000000000 0.0000000000000000 0.0000000000000000
1.0000000000000000 0.0000000000000000 0.0000000000000000
1.0000000000000000 0.0000000000000000 0.0000000000000000
1.0000000000000000 0.0000000000000000 0.0000000000000000
1.0000000000000000 0.0000000000000000 0.0000000000000000
1.0000000000000000 0.0000000000000000 0.0000000000000000
1.0000000000000000 0.0000000000000000 0.0000000000000000
1.0000000000000000 0.0000000000000000 0.0000000000000000
1.0000000000000000 0.0000000000000000 0.0000000000000000
1.0000000000000000 0.0000000000000000 0.0000000000000000
1.0000000000000000 0.0000000000000000 0.0000000000000000
1.0000000000000000 0.0000000000000000 0.0000000000000000
1.0000000000000000 0.0000000000000000 0.0000000000000000
1.0000000000000000 0.0000000000000000 0.0000000000000000
1.0000000000000000 0.0000000000000000 0.0000000000000000
1.0000000000000000 0.0000000000000000 0.0000000000000000
1.0000000000000000 0.0000000000000000 0.0000000000000000
1.0000000000000000 0.0000000000000000 0.0000000000000000
1.0000000000000000 0.0000000000000000 0.0000000000000000
1.0000000000000000 0.0000000000000000 0.0000000000000000
1.0000000000000000 0.0000000000000000 0.0000000000000000
1.0000000000000000 0.0000000000000000 0.0000000000000000
1.0000000000000000 0.0000000000000000 0.0000000000000000
1.0000000000000000 0.0000000000000000 0.0000000000000000
1.0000000000000000 0.0000000000000000 0.0000000000000000
1.0000000000000000 0.0000000000000000 0.0000000000000000
1.0000000000000000 0.0000000000000000 0.0000000000000000
1.0000000000000000 0.0000000000000000 0.0000000000000000
1.0000000000000000 0.0000000000000000 0.0000000000000000
1.0000000000000000 0.0000000000000000 0.0000000000000000
1.0000000000000000 0.0000000000000000 0.0000000000000000
1.0000000000000000 0.0000000000000000 0.0000000000000000
1.0000000000000000 0.0000000000000000 0.0000000000000000
1.0000000000000000 0.0000000000000000 0.0000000000000000
1.0000000000000000 0.0000000000000000 0.0000000000000000
1.0000000000000000 0.0000000000000000 0.0000000000000000
1.0000000000000000 0.0000000000000000 0.0000000000000000
1.0000000000000000 0.0000000000000000 0.0000000000000000
1.0000000000000000 0.0000000000000000 0.0000000000000000
1.0000000000000000 0.0000000000000000 0.0000000000000000
1.0000000000000000 0.0000000000000000 0.0000000000000000
1.0000000000000000 0.0000000000000000 0.0000000000000000
1.0000000000000000 0.0000000000000000 0.0000000000000000
1.0000000000000000 0.0000000000000000 0.0000000000000000
1.0000000000000000 0.0000000000000000 0.0000000000000000
1.0000000000000000 0.0000000000000000 0.0000000000000000
1.0000000000000000 0.0000000000000000 0.0000000000000000
1.0000000000000000 0.0000000000000000 0.0000000000000000
1.0000000000000000 0.0000000000000000 0.0000000000000000
1.0000000000000000 0.0000000000000000 0.0000000000000000
1.0000000000000000 0.0000000000000000 0.0000000000000000
1.0000000000000000 0.0000000000000000 0.0000000000000000
1.0000000000000000 0.0000000000000000 0.0000000000000000
1.0000000000000000 0.0000000000000000 0.0000000000000000
1.0000000000000000 0.0000000000000000 0.0000000000000000
1.0000000000000000 0.0000000000000000 0.0000000000000000
1.0000000000000000 0.0000000000000000 0.0000000000000000
1.0000000000000000 0.0000000000000000 0.0000000000000000
1.0000000000000000 0.0000000000000000 0.0000000000000000
1.0000000000000000 0.0000000000000000 0.0000000000000000
1.0000000000000000 0.0000000000000000 0.0000000000000000
1.0000000000000000 0.0000000000000000 0.0000000000000000
1.0000000000000000 0.0000000000000000 0.0000000000000000
1.0000000000000000 0.0000000000000000 0.0000000000000000
1.0000000000000000 0.0000000000000000 0.0000000000000000
1.0000000000000000 0.0000000000000000 0.0000000000000000
1.0000000000000000 0.0000000000000000 0.0000000000000000
1.0000000000000000 0.0000000000000000 0.0000000000000000
1.0000000000000000 0.0000000000000000 0.0000000000000000
1.0000000000000000 0.0000000000000000 0.0000000000000000
1.0000000000000000 0.0000000000000000 0.0000000000000000
1.0000000000000000 0.0000000000000000 0.0000000000000000
1.0000000000000000 0.0000000000000000 0.0000000000000000
1.0000000000000000 0.0000000000000000 0.0000000000000000
1.0000000000000000 0.0000000000000000 0.0000000000000000
1.0000000000000000 0.0000000000000000 0.0000000000000000
1.0000000000000000 0.0000000000000000 0.0000000000000000
1.0000000000000000 0.0000000000000000 0.0000000000000000
1.0000000000000000 0.0000000000000000 0.0000000000000000
1.0000000000000000 0.0000000000000000 0.0000000000000000
1.0000000000000000 0.0000000000000000 0.0000000000000000
1.0000000000000000 0.0000000000000000 0.0000000000000000
1.0000000000000000 0.0000000000000000 0.0000000000000000
1.0000000000000000 0.0000000000000000 0.0000000000000000
1.0000000000000000 0.0000000000000000 0.0000000000000000
1.0000000000000000 0.0000000000000000 0.0000000000000000
1.0000000000000000 0.0000000000000000 0.0000000000000000
1.0000000000000000 0.0000000000000000 0.0000000000000000
1.0000000000000000 0.0000000000000000 0.0000000000000000
1.0000000000000000 0.0000000000000000 0.0000000000000000
1.0000000000000000 0.0000000000000000 0.0000000000000000
1.0000000000000000 0.0000000000000000 0.0000000000000000
1.0000000000000000 0.0000000000000000 0.0000000000000000
1.0000000000000000 0.0000000000000000 0.0000000000000000
1.0000000000000000 0.0000000000000000 0.0000000000000000
1.0000000000000000 0.0000000000000000 0.0000000000000000
1.0000000000000000 0.0000000000000000 0.0000000000000000
1.0000000000000000 0.0000000000000000 0.0000000000000000
1.0000000000000000 0.0000000000000000 0.0000000000000000
1.0000000000000000 0.0000000000000000 0.0000000000000000
1.0000000000000000 0.0000000000000000 0.0000000000000000
1.0000000000000000 0.0000000000000000 0.0000000000000000
1.0000000000000000 0.0000000000000000 0.0000000000000000
1.0000000000000000 0.0000000000000000 0.0000000000000000
1.0000000000000000 0.0000000000000000 0.0000000000000000
1.0000000000000000 0.0000000000000000 0.0000000000000000
1.0000000000000000 0.0000000000000000 0.0000000000000000
1.0000000000000000 0.0000000000000000 0.0000000000000000
1.0000000000000000 0.0000000000000000 0.0000000000000000
1.0000000000000000 0.0000000000000000 0.0000000000000000
1.0000000000000000 0.0000000000000000 0.0000000000000000
1.0000000000000000 0.0000000000000000 0.0000000000000000
1.0000000000000000 0.0000000000000000 0.0000000000000000
1.0000000000000000 0.0000000000000000 0.0000000000000000
1.0000000000000000 0.0000000000000000 0.0000000000000000
1.0000000000000000 0.0000000000000000 0.0000000000000000
1.0000000000000000 0.0000000000000000 0.0000000000000000
1.0000000000000000 0.0000000000000000 0.0000000000000000
1.0000000000000000 0.0000000000000000 0.0000000000000000
1.0000000000000000 0.0000000000000000 0.0000000000000000
1.0000000000000000 0.0000000000000000 0.0000000000000000
1.0000000000000000 0.0000000000000000 0.0000000000000000
1.0000000000000000 0.0000000000000000 0.0000000000000000
1.0000000000000000 0.0000000000000000 0.0000000000000000
1.0000000000000000 0.0000000000000000 0.0000000000000000
1.0000000000000000 0.0000000000000000 0.0000000000000000
1.0000000000000000 0.0000000000000000 0.0000000000000000
1.0000000000000000 0.0000000000000000 0.0000000000000000
1.0000000000000000 0.0000000000000000 0.0000000000000000
1.0000000000000000 0.0000000000000000 0.0000000000000000
1.0000000000000000 0.0000000000000000 0.0000000000000000
1.0000000000000000 0.0000000000000000 0.0000000000000000
1.0000000000000000 0.0000000000000000 0.0000000000000000
1.0000000000000000 0.0000000000000000 0.0000000000000000
1.0000000000000000 0.0000000000000000 0.0000000000000000
1.0000000000000000 0.0000000000000000 0.0000000000000000
1.0000000000000000 0.0000000000000000 0.0000000000000000
1.0000000000000000 0.0000000000000000 0.0000000000000000
1.0000000000000000 0.0000000000000000 0.0000000000000000
1.0000000000000000 0.0000000000000000 0.0000000000000000
1.0000000000000000 0.0000000000000000 0.0000000000000000
1.0000000000000000 0.0000000000000000 0.0000000000000000
1.0000000000000000 0.0000000000000000 0.0000000000000000
1.0000000000000000 0.0000000000000000 0.0000000000000000
1.0000000000000000 0.0000000000000000 0.0000000000000000
1.0000000000000000 0.0000000000000000 0.0000000000000000
1.0000000000000000 0.0000000000000000 0.0000000000000000
1.0000000000000000 0.0000000000000000 0.0000000000000000
1.0000000000000000 0.0000000000000000 0.0000000000000000
1.0000000000000000 0.0000000000000000 0.0000000000000000
1.0000000000000000 0.0000000000000000 0.0000000000000000
1.0000000000000000 0.0000000000000000 0.0000000000000000
1.0000000000000000 0.0000000000000000 0.0000000000000000
1.0000000000000000 0.0000000000000000 0.0000000000000000
1.0000000000000000 0.0000000000000000 0.0000000000000000
1.0000000000000000 0.0000000000000000 0.0000000000000000
1.0000000000000000 0.0000000000000000 0.0000000000000000
1.0000000000000000 0.0000000000000000 0.0000000000000000
1.0000000000000000 0.0000000000000000 0.0000000000000000
1.0000000000000000 0.0000000000000000 0.0000000000000000
1.0000000000000000 0.0000000000000000 0.0000000000000000
1.0000000000000000 0.0000000000000000 0.0000000000000000
1.0000000000000000 0.0000000000000000 0.0000000000000000
1.0000000000000000 0.0000000000000000 0.0000000000000000
1.0000000000000000 0.0000000000000000 0.0000000000000000
1.0000000000000000 0.0000000000000000 0.0000000000000000
1.0000000000000000 0.0000000000000000 0.0000000000000000
1.0000000000000000 0.0000000000000000 0.0000000000000000
1.0000000000000000 0.0000000000000000 0.0000000000000000
1.0000000000000000 0.0000000000000000 0.0000000000000000
1.0000000000000000 0.0000000000000000 0.0000000000000000
1.0000000000000000 0.0000000000000000 0.0000000000000000
1.0000000000000000 0.0000000000000000 0.0000000000000000
1.0000000000000000 0.0000000000000000 0.0000000000000000
1.0000000000000000 0.0000000000000000 0.0000000000000000
1.0000000000000000 0.0000000000000000 0.0000000000000000
1.0000000000000000 0.0000000000000000 0.0000000000000000
1.0000000000000000 0.0000000000000000 0.0000000000000000
1.0000000000000000 0.0000000000000000 0.0000000000000000
1.0000000000000000 0.0000000000000000 0.0000000000000000
1.0000000000000000 0.0000000000000000 0.0000000000000000
1.0000000000000000 0.0000000000000000 0.0000000000000000
1.0000000000000000 0.0000000000000000 0.0000000000000000
1.0000000000000000 0.0000000000000000 0.0000000000000000
1.0000000000000000 0.0000000000000000 0.0000000000000000
1.0000000000000000 0.0000000000000000 0.0000000000000000
1.0000000000000000 0.0000000000000000 0.0000000000000000
1.0000000000000000 0.0000000000000000 0.0000000000000000
1.0000000000000000 0.0000000000000000 0.0000000000000000
1.0000000000000000 0.0000000000000000 0.0000000000000000
1.0000000000000000 0.0000000000000000 0.0000000000000000
1.0000000000000000 0.0000000000000000 0.0000000000000000
1.0000000000000000 0.0000000000000000 0.0000000000000000
1.0000000000000000 0.0000000000000000 0.0000000000000000
1.0000000000000000 0.0000000000000000 0.0000000000000000
1.0000000000000000 0.0000000000000000 0.0000000000000000
1.0000000000000000 0.0000000000000000 0.0000000000000000
1.0000000000000000 0.0000000000000000 0.0000000000000000
1.0000000000000000 0.0000000000000000 0.0000000000000000
1.0000000000000000 0.0000000000000000 0.0000000000000000
1.0000000000000000 0.0000000000000000 0.0000000000000000
1.0000000000000000 0.0000000000000000 0.0000000000000000
1.0000000000000000 0.0000000000000000 0.0000000000000000
1.0000000000000000 0.0000000000000000 0.0000000000000000
1.0000000000000000 0.0000000000000000 0.0000000000000000
1.0000000000000000 0.0000000000000000 0.0000000000000000
1.0000000000000000 0.0000000000000000 0.0000000000000000
1.0000000000000000 0.0000000000000000 0.0000000000000000
1.0000000000000000 0.0000000000000000 0.0000000000000000
1.0000000000000000 0.0000000000000000 0.0000000000000000
1.0000000000000000 0.0000000000000000 0.0000000000000000
1.0000000000000000 0.0000000000000000 0.0000000000000000
1.0000000000000000 0.0000000000000000 0.0000000000000000
1.0000000000000000 0.0000000000000000 0.0000000000000000
1.0000000000000000 0.0000000000000000 0.0000000000000000
1.0000000000000000 0.0000000000000000 0.0000000000000000
1.0000000000000000 0.0000000000000000 0.0000000000000000
1.0000000000000000 0.0000000000000000 0.0000000000000000
1.0000000000000000 0.0000000000000000 0.0000000000000000
1.0000000000000000 0.0000000000000000 0.0000000000000000
1.0000000000000000 0.0000000000000000 0.0000000000000000
1.0000000000000000 0.0000000000000000 0.0000000000000000
1.0000000000000000 0.0000000000000000 0.0000000000000000
1.0000000000000000 0.0000000000000000 0.0000000000000000
1.0000000000000000 0.0000000000000000 0.0000000000000000
1.0000000000000000 0.0000000000000000 0.0000000000000000
1.0000000000000000 0.0000000000000000 0.0000000000000000
1.0000000000000000 0.0000000000000000 0.0000000000000000
1.0000000000000000 0.0000000000000000 0.0000000000000000
1.0000000000000000 0.0000000000000000 0.0000000000000000
1.0000000000000000 0.0000000000000000 0.0000000000000000
1.0000000000000000 0.0000000000000000 0.0000000000000000
1.0000000000000000 0.0000000000000000 0.0000000000000000
1.0000000000000000 0.0000000000000000 0.0000000000000000
1.0000000000000000 0.0000000000000000 0.0000000000000000
1.0000000000000000 0.0000000000000000 0.0000000000000000
1.0000000000000000 0.0000000000000000 0.0000000000000000
1.0000000000000000 0.0000000000000000 0.0000000000000000
1.0000000000000000 0.0000000000000000 0.0000000000000000
1.0000000000000000 0.0000000000000000 0.0000000000000000
1.0000000000000000 0.0000000000000000 0.0000000000000000
1.0000000000000000 0.0000000000000000 0.0000000000000000
1.0000000000000000 0.0000000000000000 0.0000000000000000
1.0000000000000000 0.0000000000000000 0.0000000000000000
1.0000000000000000 0.0000000000000000 0.0000000000000000
1.0000000000000000 0.0000000000000000 0.0000000000000000
1.0000000000000000 0.0000000000000000 0.0000000000000000
1.0000000000000000 0.0000000000000000 0.0000000000000000
1.0000000000000000 0.0000000000000000 0.0000000000000000
1.0000000000000000 0.0000000000000000 0.0000000000000000
1.0000000000000000 0.0000000000000000 0.0000000000000000
1.0000000000000000 0.0000000000000000 0.0000000000000000
1.0000000000000000 0.0000000000000000 0.0000000000000000
1.0000000000000000 0.0000000000000000 0.0000000000000000
1.0000000000000000 0.0000000000000000 0.0000000000000000
1.0000000000000000 0.0000000000000000 0.0000000000000000
1.0000000000000000 0.0000000000000000 0.0000000000000000
1.0000000000000000 0.0000000000000000 0.0000000000000000
1.0000000000000000 0.0000000000000000 0.0000000000000000
1.0000000000000000 0.0000000000000000 0.0000000000000000
1.0000000000000000 0.0000000000000000 0.0000000000000000
1.0000000000000000 0.0000000000000000 0.0000000000000000
1.0000000000000000 0.0000000000000000 0.0000000000000000
1.0000000000000000 0.0000000000000000 0.0000000000000000
1.0000000000000000 0.0000000000000000 0.0000000000000000
1.0000000000000000 0.0000000000000000 0.0000000000000000
1.0000000000000000 0.0000000000000000 0.0000000000000000
1.0000000000000000 0.0000000000000000 0.0000000000000000
1.0000000000000000 0.0000000000000000 0.0000000000000000
1.0000000000000000 0.0000000000000000 0.0000000000000000
1.0000000000000000 0.0000000000000000 0.0000000000000000
1.0000000000000000 0.0000000000000000 0.0000000000000000
1.0000000000000000 0.0000000000000000 0.0000000000000000
1.0000000000000000 0.0000000000000000 0.0000000000000000
1.0000000000000000 0.0000000000000000 0.0000000000000000
1.0000000000000000 0.0000000000000000 0.0000000000000000
1.0000000000000000 0.0000000000000000 0.0000000000000000
1.0000000000000000 0.0000000000000000 0.0000000000000000
1.0000000000000000 0.0000000000000000 0.0000000000000000
1.0000000000000000 0.0000000000000000 0.0000000000000000
1.0000000000000000 0.0000000000000000 0.0000000000000000
1.0000000000000000 0.0000000000000000 0.0000000000000000
1.0000000000000000 0.0000000000000000 0.0000000000000000
1.0000000000000000 0.0000000000000000 0.0000000000000000
1.0000000000000000 0.0000000000000000 0.0000000000000000
1.0000000000000000 0.0000000000000000 0.0000000000000000
1.0000000000000000 0.0000000000000000 0.0000000000000000
1.0000000000000000 0.0000000000000000 0.0000000000000000
1.0000000000000000 0.0000000000000000 0.0000000000000000
1.0000000000000000 0.0000000000000000 0.0000000000000000
1.0000000000000000 0.0000000000000000 0.0000000000000000
1.0000000000000000 0.0000000000000000 0.0000000000000000
1.0000000000000000 0.0000000000000000 0.0000000000000000
1.0000000000000000 0.0000000000000000 0.0000000000000000
1.0000000000000000 0.0000000000000000 0.0000000000000000
1.0000000000000000 0.0000000000000000 0.0000000000000000
1.0000000000000000 0.0000000000000000 0.0000000000000000
1.0000000000000000 0.0000000000000000 0.0000000000000000
1.0000000000000000 0.0000000000000000 0.0000000000000000
1.0000000000000000 0.0000000000000000 0.0000000000000000
1.0000000000000000 0.0000000000000000 0.0000000000000000
1.0000000000000000 0.0000000000000000 0.0000000000000000
1.0000000000000000 0.0000000000000000 0.0000000000000000
1.0000000000000000 0.0000000000000000 0.0000000000000000
1.0000000000000000 0.0000000000000000 0.0000000000000000
1.0000000000000000 0.0000000000000000 0.0000000000000000
1.0000000000000000 0.0000000000000000 0.0000000000000000
1.0000000000000000 0.0000000000000000 0.0000000000000000
1.0000000000000000 0.0000000000000000 0.0000000000000000
1.0000000000000000 0.0000000000000000 0.0000000000000000
1.0000000000000000 0.0000000000000000 0.0000000000000000
1.0000000000000000 0.0000000000000000 0.0000000000000000
1.0000000000000000 0.0000000000000000 0.0000000000000000
1.0000000000000000 0.0000000000000000 0.0000000000000000
1.0000000000000000 0.0000000000000000 0.0000000000000000
1.0000000000000000 0.0000000000000000 0.0000000000000000
1.0000000000000000 0.0000000000000000 0.0000000000000000
1.0000000000000000 0.0000000000000000 0.0000000000000000
1.0000000000000000 0.0000000000000000 0.0000000000000000
1.0000000000000000 0.0000000000000000 0.0000000000000000
1.0000000000000000 0.0000000000000000 0.0000000000000000
1.0000000000000000 0.0000000000000000 0.0000000000000000
1.0000000000000000 0.0000000000000000 0.0000000000000000
1.0000000000000000 0.0000000000000000 0.0000000000000000
1.0000000000000000 0.0000000000000000 0.0000000000000000
1.0000000000000000 0.0000000000000000 0.0000000000000000
1.0000000000000000 0.0000000000000000 0.0000000000000000
1.0000000000000000 0.0000000000000000 0.0000000000000000
1.0000000000000000 0.0000000000000000 0.0000000000000000
1.0000000000000000 0.0000000000000000 0.0000000000000000
1.0000000000000000 0.0000000000000000 0.0000000000000000
1.0000000000000000 0.0000000000000000 0.0000000000000000
1.0000000000000000 0.0000000000000000 0.0000000000000000
1.0000000000000000 0.0000000000000000 0.0000000000000000
1.0000000000000000 0.0000000000000000 0.0000000000000000
1.0000000000000000 0.0000000000000000 0.0000000000000000
1.0000000000000000 0.0000000000000000 0.0000000000000000
1.0000000000000000 0.0000000000000000 0.0000000000000000
1.0000000000000000 0.0000000000000000 0.0000000000000000
1.0000000000000000 0.0000000000000000 0.0000000000000000
1.0000000000000000 0.0000000000000000 0.0000000000000000
1.0000000000000000 0.0000000000000000 0.0000000000000000
1.0000000000000000 0.0000000000000000 0.0000000000000000
1.0000000000000000 0.0000000000000000 0.0000000000000000
1.0000000000000000 0.0000000000000000 0.0000000000000000
1.0000000000000000 0.0000000000000000 0.0000000000000000
1.0000000000000000 0.0000000000000000 0.0000000000000000
1.0000000000000000 0.0000000000000000 0.0000000000000000
1.0000000000000000 0.0000000000000000 0.0000000000000000
1.0000000000000000 0.0000000000000000 0.0000000000000000
1.0000000000000000 0.0000000000000000 0.0000000000000000
1.0000000000000000 0.0000000000000000 0.0000000000000000
1.0000000000000000 0.0000000000000000 0.0000000000000000
1.0000000000000000 0.0000000000000000 0.0000000000000000
1.0000000000000000 0.0000000000000000 0.0000000000000000
1.0000000000000000 0.0000000000000000 0.0000000000000000
1.0000000000000000 0.0000000000000000 0.0000000000000000
1.0000000000000000 0.0000000000000000 0.0000000000000000
1.0000000000000000 0.0000000000000000 0.0000000000000000
1.0000000000000000 0.0000000000000000 0.0000000000000000
1.0000000000000000 0.0000000000000000 0.0000000000000000
1.0000000000000000 0.0000000000000000 0.0000000000000000
1.0000000000000000 0.0000000000000000 0.0000000000000000
1.0000000000000000 0.0000000000000000 0.0000000000000000
1.0000000000000000 0.0000000000000000 0.0000000000000000
1.0000000000000000 0.0000000000000000 0.0000000000000000
1.0000000000000000 0.0000000000000000 0.0000000000000000
1.0000000000000000 0.0000000000000000 0.0000000000000000
1.0000000000000000 0.0000000000000000 0.0000000000000000
1.0000000000000000 0.0000000000000000 0.0000000000000000
1.0000000000000000 0.0000000000000000 0.0000000000000000
1.0000000000000000 0.0000000000000000 0.0000000000000000
1.0000000000000000 0.0000000000000000 0.0000000000000000
1.0000000000000000 0.0000000000000000 0.0000000000000000
1.0000000000000000 0.0000000000000000 0.0000000000000000
1.0000000000000000 0.0000000000000000 0.0000000000000000
1.0000000000000000 0.0000000000000000 0.0000000000000000
1.0000000000000000 0.0000000000000000 0.0000000000000000
1.0000000000000000 0.0000000000000000 0.0000000000000000
1.0000000000000000 0.0000000000000000 0.0000000000000000
1.0000000000000000 0.0000000000000000 0.0000000000000000
1.0000000000000000 0.0000000000000000 0.0000000000000000
1.0000000000000000 0.0000000000000000 0.0000000000000000
1.0000000000000000 0.0000000000000000 0.0000000000000000
1.0000000000000000 0.0000000000000000 0.0000000000000000
1.0000000000000000 0.0000000000000000 0.0000000000000000
1.0000000000000000 0.0000000000000000 0.0000000000000000
1.0000000000000000 0.0000000000000000 0.0000000000000000
1.0000000000000000 0.0000000000000000 0.0000000000000000
1.0000000000000000 0.0000000000000000 0.0000000000000000
1.0000000000000000 0.0000000000000000 0.0000000000000000
1.0000000000000000 0.0000000000000000 0.0000000000000000
1.0000000000000000 0.0000000000000000 0.0000000000000000
1.0000000000000000 0.0000000000000000 0.0000000000000000
1.0000000000000000 0.0000000000000000 0.0000000000000000
1.0000000000000000 0.0000000000000000 0.0000000000000000
1.0000000000000000 0.0000000000000000 0.0000000000000000
1.0000000000000000 0.0000000000000000 0.0000000000000000
1.0000000000000000 0.0000000000000000 0.0000000000000000
1.0000000000000000 0.0000000000000000 0.0000000000000000
1.0000000000000000 0.0000000000000000 0.0000000000000000
1.0000000000000000 0.0000000000000000 0.0000000000000000
1.0000000000000000 0.0000000000000000 0.0000000000000000
1.0000000000000000 0.0000000000000000 0.0000000000000000
1.0000000000000000 0.0000000000000000 0.0000000000000000
1.0000000000000000 0.0000000000000000 0.0000000000000000
1.0000000000000000 0.0000000000000000 0.0000000000000000
1.0000000000000000 0.0000000000000000 0.0000000000000000
1.0000000000000000 0.0000000000000000 0.0000000000000000
1.0000000000000000 0.0000000000000000 0.0000000000000000
1.0000000000000000 0.0000000000000000 0.0000000000000000
1.0000000000000000 0.0000000000000000 0.0000000000000000
1.0000000000000000 0.0000000000000000 0.0000000000000000
1.0000000000000000 0.0000000000000000 0.0000000000000000
1.0000000000000000 0.0000000000000000 0.0000000000000000
1.0000000000000000 0.0000000000000000 0.0000000000000000
1.0000000000000000 0.0000000000000000 0.0000000000000000
1.0000000000000000 0.0000000000000000 0.0000000000000000
1.0000000000000000 0.0000000000000000 0.0000000000000000
1.0000000000000000 0.0000000000000000 0.0000000000000000
1.0000000000000000 0.0000000000000000 0.0000000000000000
1.0000000000000000 0.0000000000000000 0.0000000000000000
1.0000000000000000 0.0000000000000000 0.0000000000000000
1.0000000000000000 0.0000000000000000 0.0000000000000000
1.0000000000000000 0.0000000000000000 0.0000000000000000
1.0000000000000000 0.0000000000000000 0.0000000000000000
1.0000000000000000 0.0000000000000000 0.0000000000000000
1.0000000000000000 0.0000000000000000 0.0000000000000000
1.0000000000000000 0.0000000000000000 0.0000000000000000
1.0000000000000000 0.0000000000000000 0.0000000000000000
1.0000000000000000 0.0000000000000000 0.0000000000000000
1.0000000000000000 0.0000000000000000 0.0000000000000000
1.0000000000000000 0.0000000000000000 0.0000000000000000
1.0000000000000000 0.0000000000000000 0.0000000000000000
1.0000000000000000 0.0000000000000000 0.0000000000000000
1.0000000000000000 0.0000000000000000 0.0000000000000000
1.0000000000000000 0.0000000000000000 0.0000000000000000
1.0000000000000000 0.0000000000000000 0.0000000000000000
1.0000000000000000 0.0000000000000000 0.0000000000000000
1.0000000000000000 0.0000000000000000 0.0000000000000000
1.0000000000000000 0.0000000000000000 0.0000000000000000
1.0000000000000000 0.0000000000000000 0.0000000000000000
1.0000000000000000 0.0000000000000000 0.0000000000000000
1.0000000000000000 0.0000000000000000 0.0000000000000000
1.0000000000000000 0.0000000000000000 0.0000000000000000
1.0000000000000000 0.0000000000000000 0.0000000000000000
1.0000000000000000 0.0000000000000000 0.0000000000000000
1.0000000000000000 0.0000000000000000 0.0000000000000000
1.0000000000000000 0.0000000000000000 0.0000000000000000
1.0000000000000000 0.0000000000000000 0.0000000000000000
1.0000000000000000 0.0000000000000000 0.0000000000000000
1.0000000000000000 0.0000000000000000 0.0000000000000000
1.0000000000000000 0.0000000000000000 0.0000000000000000
1.0000000000000000 0.0000000000000000 0.0000000000000000
1.0000000000000000 0.0000000000000000 0.0000000000000000
1.0000000000000000 0.0000000000000000 0.0000000000000000
1.0000000000000000 0.0000000000000000 0.0000000000000000
1.0000000000000000 0.0000000000000000 0.0000000000000000
1.0000000000000000 0.0000000000000000 0.0000000000000000
1.0000000000000000 0.0000000000000000 0.0000000000000000
1.0000000000000000 0.0000000000000000 0.0000000000000000
1.0000000000000000 0.0000000000000000 0.0000000000000000
1.0000000000000000 0.0000000000000000 0.0000000000000000
1.0000000000000000 0.0000000000000000 0.0000000000000000
1.0000000000000000 0.0000000000000000 0.0000000000000000
1.0000000000000000 0.0000000000000000 0.0000000000000000
1.0000000000000000 0.0000000000000000 0.0000000000000000
1.0000000000000000 0.0000000000000000 0.0000000000000000
1.0000000000000000 0.0000000000000000 0.0000000000000000
1.0000000000000000 0.0000000000000000 0.0000000000000000
1.0000000000000000 0.0000000000000000 0.0000000000000000
1.0000000000000000 0.0000000000000000 0.0000000000000000
1.0000000000000000 0.0000000000000000 0.0000000000000000
1.0000000000000000 0.0000000000000000 0.0000000000000000
1.0000000000000000 0.0000000000000000 0.0000000000000000
1.0000000000000000 0.0000000000000000 0.0000000000000000
1.0000000000000000 0.0000000000000000 0.0000000000000000
1.0000000000000000 0.0000000000000000 0.0000000000000000
1.0000000000000000 0.0000000000000000 0.0000000000000000
1.0000000000000000 0.0000000000000000 0.0000000000000000
1.0000000000000000 0.0000000000000000 0.0000000000000000
1.0000000000000000 0.0000000000000000 0.0000000000000000
1.0000000000000000 0.0000000000000000 0.0000000000000000
1.0000000000000000 0.0000000000000000 0.0000000000000000
1.0000000000000000 0.0000000000000000 0.0000000000000000
1.0000000000000000 0.0000000000000000 0.0000000000000000
1.0000000000000000 0.0000000000000000 0.0000000000000000
1.0000000000000000 0.0000000000000000 0.0000000000000000
1.0000000000000000 0.0000000000000000 0.0000000000000000
1.0000000000000000 0.0000000000000000 0.0000000000000000
1.0000000000000000 0.0000000000000000 0.0000000000000000
1.0000000000000000 0.0000000000000000 0.0000000000000000
1.0000000000000000 0.0000000000000000 0.0000000000000000
1.0000000000000000 0.0000000000000000 0.0000000000000000
1.0000000000000000 0.0000000000000000 0.0000000000000000
1.0000000000000000 0.0000000000000000 0.0000000000000000
1.0000000000000000 0.0000000000000000 0.0000000000000000
1.0000000000000000 0.0000000000000000 0.0000000000000000
1.0000000000000000 0.0000000000000000 0.0000000000000000
1.0000000000000000 0.0000000000000000 0.0000000000000000
1.0000000000000000 0.0000000000000000 0.0000000000000000
1.0000000000000000 0.0000000000000000 0.0000000000000000
1.0000000000000000 0.0000000000000000 0.0000000000000000
1.0000000000000000 0.0000000000000000 0.0000000000000000
1.0000000000000000 0.0000000000000000 0.0000000000000000
1.0000000000000000 0.0000000000000000 0.0000000000000000
1.0000000000000000 0.0000000000000000 0.0000000000000000
1.0000000000000000 0.0000000000000000 0.0000000000000000
1.0000000000000000 0.0000000000000000 0.0000000000000000
1.0000000000000000 0.0000000000000000 0.0000000000000000
1.0000000000000000 0.0000000000000000 0.0000000000000000
1.0000000000000000 0.0000000000000000 0.0000000000000000
1.0000000000000000 0.0000000000000000 0.0000000000000000
1.0000000000000000 0.0000000000000000 0.0000000000000000
1.0000000000000000 0.0000000000000000 0.0000000000000000
1.0000000000000000 0.0000000000000000 0.0000000000000000
1.0000000000000000 0.0000000000000000 0.0000000000000000
1.0000000000000000 0.0000000000000000 0.0000000000000000
1.0000000000000000 0.0000000000000000 0.0000000000000000
1.0000000000000000 0.0000000000000000 0.0000000000000000
1.0000000000000000 0.0000000000000000 0.0000000000000000
1.0000000000000000 0.0000000000000000 0.0000000000000000
1.0000000000000000 0.0000000000000000 0.0000000000000000
1.0000000000000000 0.0000000000000000 0.0000000000000000
1.0000000000000000 0.0000000000000000 0.0000000000000000
1.0000000000000000 0.0000000000000000 0.0000000000000000
1.0000000000000000 0.0000000000000000 0.0000000000000000
1.0000000000000000 0.0000000000000000 0.0000000000000000
1.0000000000000000 0.0000000000000000 0.0000000000000000
1.0000000000000000 0.0000000000000000 0.0000000000000000
1.0000000000000000 0.0000000000000000 0.0000000000000000
1.0000000000000000 0.0000000000000000 0.0000000000000000
1.0000000000000000 0.0000000000000000 0.0000000000000000
1.0000000000000000 0.0000000000000000 0.0000000000000000
1.0000000000000000 0.0000000000000000 0.0000000000000000
1.0000000000000000 0.0000000000000000 0.0000000000000000
1.0000000000000000 0.0000000000000000 0.0000000000000000
1.0000000000000000 0.0000000000000000 0.0000000000000000
1.0000000000000000 0.0000000000000000 0.0000000000000000
1.0000000000000000 0.0000000000000000 0.0000000000000000
1.0000000000000000 0.0000000000000000 0.0000000000000000
1.0000000000000000 0.0000000000000000 0.0000000000000000
1.0000000000000000 0.0000000000000000 0.0000000000000000
1.0000000000000000 0.0000000000000000 0.0000000000000000
1.0000000000000000 0.0000000000000000 0.0000000000000000
1.0000000000000000 0.0000000000000000 0.0000000000000000
1.0000000000000000 0.0000000000000000 0.0000000000000000
1.0000000000000000 0.0000000000000000 0.0000000000000000
1.0000000000000000 0.0000000000000000 0.0000000000000000
1.0000000000000000 0.0000000000000000 0.0000000000000000
1.0000000000000000 0.0000000000000000 0.0000000000000000
1.0000000000000000 0.0000000000000000 0.0000000000000000
1.0000000000000000 0.0000000000000000 0.0000000000000000
1.0000000000000000 0.0000000000000000 0.0000000000000000
1.0000000000000000 0.0000000000000000 0.0000000000000000
1.0000000000000000 0.0000000000000000 0.0000000000000000
1.0000000000000000 0.0000000000000000 0.0000000000000000
1.0000000000000000 0.0000000000000000 0.0000000000000000
1.0000000000000000 0.0000000000000000 0.0000000000000000
1.0000000000000000 0.0000000000000000 0.0000000000000000
1.0000000000000000 0.0000000000000000 0.0000000000000000
1.0000000000000000 0.0000000000000000 0.0000000000000000
1.0000000000000000 0.0000000000000000 0.0000000000000000
1.0000000000000000 0.0000000000000000 0.0000000000000000
1.0000000000000000 0.0000000000000000 0.0000000000000000
1.0000000000000000 0.0000000000000000 0.0000000000000000
1.0000000000000000 0.0000000000000000 0.0000000000000000
1.0000000000000000 0.0000000000000000 0.0000000000000000
1.0000000000000000 0.0000000000000000 0.0000000000000000
1.0000000000000000 0.0000000000000000 0.0000000000000000
1.0000000000000000 0.0000000000000000 0.0000000000000000
1.0000000000000000 0.0000000000000000 0.0000000000000000
1.0000000000000000 0.0000000000000000 0.0000000000000000
1.0000000000000000 0.0000000000000000 0.0000000000000000
1.0000000000000000 0.0000000000000000 0.0000000000000000
1.0000000000000000 0.0000000000000000 0.0000000000000000
1.0000000000000000 0.0000000000000000 0.0000000000000000
1.0000000000000000 0.0000000000000000 0.0000000000000000
1.0000000000000000 0.0000000000000000 0.0000000000000000
1.0000000000000000 0.0000000000000000 0.0000000000000000
1.0000000000000000 0.0000000000000000 0.0000000000000000
1.0000000000000000 0.0000000000000000 0.0000000000000000
1.0000000000000000 0.0000000000000000 0.0000000000000000
1.0000000000000000 0.0000000000000000 0.0000000000000000
1.0000000000000000 0.0000000000000000 0.0000000000000000
1.0000000000000000 0.0000000000000000 0.0000000000000000
1.0000000000000000 0.0000000000000000 0.0000000000000000
1.0000000000000000 0.0000000000000000 0.0000000000000000
1.0000000000000000 0.0000000000000000 0.0000000000000000
1.0000000000000000 0.0000000000000000 0.0000000000000000
1.0000000000000000 0.0000000000000000 0.0000000000000000
1.0000000000000000 0.0000000000000000 0.0000000000000000
1.0000000000000000 0.0000000000000000 0.0000000000000000
1.0000000000000000 0.0000000000000000 0.0000000000000000
1.0000000000000000 0.0000000000000000 0.0000000000000000
1.0000000000000000 0.0000000000000000 0.0000000000000000
1.0000000000000000 0.0000000000000000 0.0000000000000000
1.0000000000000000 0.0000000000000000 0.0000000000000000
1.0000000000000000 0.0000000000000000 0.0000000000000000
1.0000000000000000 0.0000000000000000 0.0000000000000000
1.0000000000000000 0.0000000000000000 0.0000000000000000
1.0000000000000000 0.0000000000000000 0.0000000000000000
1.0000000000000000 0.0000000000000000 0.0000000000000000
1.0000000000000000 0.0000000000000000 0.0000000000000000
1.0000000000000000 0.0000000000000000 0.0000000000000000
1.0000000000000000 0.0000000000000000 0.0000000000000000
1.0000000000000000 0.0000000000000000 0.0000000000000000
1.0000000000000000 0.0000000000000000 0.0000000000000000
1.0000000000000000 0.0000000000000000 0.0000000000000000
1.0000000000000000 0.0000000000000000 0.0000000000000000
1.0000000000000000 0.0000000000000000 0.0000000000000000
1.0000000000000000 0.0000000000000000 0.0000000000000000
1.0000000000000000 0.0000000000000000 0.0000000000000000
1.0000000000000000 0.0000000000000000 0.0000000000000000
1.0000000000000000 0.0000000000000000 0.0000000000000000
1.0000000000000000 0.0000000000000000 0.0000000000000000
1.0000000000000000 0.0000000000000000 0.0000000000000000
1.0000000000000000 0.0000000000000000 0.0000000000000000
1.0000000000000000 0.0000000000000000 0.0000000000000000
1.0000000000000000 0.0000000000000000 0.0000000000000000
1.0000000000000000 0.0000000000000000 0.0000000000000000
1.0000000000000000 0.0000000000000000 0.0000000000000000
1.0000000000000000 0.0000000000000000 0.0000000000000000
1.0000000000000000 0.0000000000000000 0.0000000000000000
1.0000000000000000 0.0000000000000000 0.0000000000000000
1.0000000000000000 0.0000000000000000 0.0000000000000000
1.0000000000000000 0.0000000000000000 0.0000000000000000
1.0000000000000000 0.0000000000000000 0.0000000000000000
1.0000000000000000 0.0000000000000000 0.0000000000000000
1.0000000000000000 0.0000000000000000 0.0000000000000000
1.0000000000000000 0.0000000000000000 0.0000000000000000
1.0000000000000000 0.0000000000000000 0.0000000000000000
1.0000000000000000 0.0000000000000000 0.0000000000000000
1.0000000000000000 0.0000000000000000 0.0000000000000000
1.0000000000000000 0.0000000000000000 0.0000000000000000
1.0000000000000000 0.0000000000000000 0.0000000000000000
1.0000000000000000 0.0000000000000000 0.0000000000000000
1.0000000000000000 0.0000000000000000 0.0000000000000000
1.0000000000000000 0.0000000000000000 0.0000000000000000
1.0000000000000000 0.0000000000000000 0.0000000000000000
1.0000000000000000 0.0000000000000000 0.0000000000000000
1.0000000000000000 0.0000000000000000 0.0000000000000000
1.0000000000000000 0.0000000000000000 0.0000000000000000
1.0000000000000000 0.0000000000000000 0.0000000000000000
1.0000000000000000 0.0000000000000000 0.0000000000000000
1.0000000000000000 0.0000000000000000 0.0000000000000000
1.0000000000000000 0.0000000000000000 0.0000000000000000
1.0000000000000000 0.0000000000000000 0.0000000000000000
1.0000000000000000 0.0000000000000000 0.0000000000000000
1.0000000000000000 0.0000000000000000 0.0000000000000000
1.0000000000000000 0.0000000000000000 0.0000000000000000
1.0000000000000000 0.0000000000000000 0.0000000000000000
1.0000000000000000 0.0000000000000000 0.0000000000000000
1.0000000000000000 0.0000000000000000 0.0000000000000000
1.0000000000000000 0.0000000000000000 0.0000000000000000
1.0000000000000000 0.0000000000000000 0.0000000000000000
1.0000000000000000 0.0000000000000000 0.0000000000000000
1.0000000000000000 0.0000000000000000 0.0000000000000000
1.0000000000000000 0.0000000000000000 0.0000000000000000
1.0000000000000000 0.0000000000000000 0.0000000000000000
1.0000000000000000 0.0000000000000000 0.0000000000000000
1.0000000000000000 0.0000000000000000 0.0000000000000000
1.0000000000000000 0.0000000000000000 0.0000000000000000
1.0000000000000000 0.0000000000000000 0.0000000000000000
1.0000000000000000 0.0000000000000000 0.0000000000000000
1.0000000000000000 0.0000000000000000 0.0000000000000000
1.0000000000000000 0.0000000000000000 0.0000000000000000
1.0000000000000000 0.0000000000000000 0.0000000000000000
1.0000000000000000 0.0000000000000000 0.0000000000000000
1.0000000000000000 0.0000000000000000 0.0000000000000000
1.0000000000000000 0.0000000000000000 0.0000000000000000
1.0000000000000000 0.0000000000000000 0.0000000000000000
1.0000000000000000 0.0000000000000000 0.0000000000000000
1.0000000000000000 0.0000000000000000 0.0000000000000000
1.0000000000000000 0.0000000000000000 0.0000000000000000
1.0000000000000000 0.0000000000000000 0.0000000000000000
1.0000000000000000 0.0000000000000000 0.0000000000000000
1.0000000000000000 0.0000000000000000 0.0000000000000000
1.0000000000000000 0.0000000000000000 0.0000000000000000
1.0000000000000000 0.0000000000000000 0.0000000000000000
1.0000000000000000 0.0000000000000000 0.0000000000000000
1.0000000000000000 0.0000000000000000 0.0000000000000000
1.0000000000000000 0.0000000000000000 0.0000000000000000
1.0000000000000000 0.0000000000000000 0.0000000000000000
1.0000000000000000 0.0000000000000000 0.0000000000000000
1.0000000000000000 0.0000000000000000 0.0000000000000000
1.0000000000000000 0.0000000000000000 0.0000000000000000
1.0000000000000000 0.0000000000000000 0.0000000000000000
1.0000000000000000 0.0000000000000000 0.0000000000000000
1.0000000000000000 0.0000000000000000 0.0000000000000000
1.0000000000000000 0.0000000000000000 0.0000000000000000
1.0000000000000000 0.0000000000000000 0.0000000000000000
1.0000000000000000 0.0000000000000000 0.0000000000000000
1.0000000000000000 0.0000000000000000 0.0000000000000000
1.0000000000000000 0.0000000000000000 0.0000000000000000
1.0000000000000000 0.0000000000000000 0.0000000000000000
1.0000000000000000 0.0000000000000000 0.0000000000000000
1.0000000000000000 0.0000000000000000 0.0000000000000000
1.0000000000000000 0.0000000000000000 0.0000000000000000
1.0000000000000000 0.0000000000000000 0.0000000000000000
1.0000000000000000 0.0000000000000000 0.0000000000000000
1.0000000000000000 0.0000000000000000 0.0000000000000000
1.0000000000000000 0.0000000000000000 0.0000000000000000
1.0000000000000000 0.0000000000000000 0.0000000000000000
1.0000000000000000 0.0000000000000000 0.0000000000000000
1.0000000000000000 0.0000000000000000 0.0000000000000000
1.0000000000000000 0.0000000000000000 0.0000000000000000
1.0000000000000000 0.0000000000000000 0.0000000000000000
1.0000000000000000 0.0000000000000000 0.0000000000000000
1.0000000000000000 0.0000000000000000 0.0000000000000000
1.0000000000000000 0.0000000000000000 0.0000000000000000
1.0000000000000000 0.0000000000000000 0.0000000000000000
1.0000000000000000 0.0000000000000000 0.0000000000000000
1.0000000000000000 0.0000000000000000 0.0000000000000000
1.0000000000000000 0.0000000000000000 0.0000000000000000
1.0000000000000000 0.0000000000000000 0.0000000000000000
1.0000000000000000 0.0000000000000000 0.0000000000000000
1.0000000000000000 0.0000000000000000 0.0000000000000000
1.0000000000000000 0.0000000000000000 0.0000000000000000
1.0000000000000000 0.0000000000000000 0.0000000000000000
1.0000000000000000 0.0000000000000000 0.0000000000000000
1.0000000000000000 0.0000000000000000 0.0000000000000000
1.0000000000000000 0.0000000000000000 0.0000000000000000
1.0000000000000000 0.0000000000000000 0.0000000000000000
1.0000000000000000 0.0000000000000000 0.0000000000000000
1.0000000000000000 0.0000000000000000 0.0000000000000000
1.0000000000000000 0.0000000000000000 0.0000000000000000
1.0000000000000000 0.0000000000000000 0.0000000000000000
1.0000000000000000 0.0000000000000000 0.0000000000000000
1.0000000000000000 0.0000000000000000 0.0000000000000000
1.0000000000000000 0.0000000000000000 0.0000000000000000
1.0000000000000000 0.0000000000000000 0.0000000000000000
1.0000000000000000 0.0000000000000000 0.0000000000000000
1.0000000000000000 0.0000000000000000 0.0000000000000000
1.0000000000000000 0.0000000000000000 0.0000000000000000
1.0000000000000000 0.0000000000000000 0.0000000000000000
1.0000000000000000 0.0000000000000000 0.0000000000000000
1.0000000000000000 0.0000000000000000 0.0000000000000000
1.0000000000000000 0.0000000000000000 0.0000000000000000
1.0000000000000000 0.0000000000000000 0.0000000000000000
1.0000000000000000 0.0000000000000000 0.0000000000000000
1.0000000000000000 0.0000000000000000 0.0000000000000000
1.0000000000000000 0.0000000000000000 0.0000000000000000
1.0000000000000000 0.0000000000000000 0.0000000000000000
1.0000000000000000 0.0000000000000000 0.0000000000000000
1.0000000000000000 0.0000000000000000 0.0000000000000000
1.0000000000000000 0.0000000000000000 0.0000000000000000
1.0000000000000000 0.0000000000000000 0.0000000000000000
1.0000000000000000 0.0000000000000000 0.0000000000000000
1.0000000000000000 0.0000000000000000 0.0000000000000000
1.0000000000000000 0.0000000000000000 0.0000000000000000
1.0000000000000000 0.0000000000000000 0.0000000000000000
1.0000000000000000 0.0000000000000000 0.0000000000000000
1.0000000000000000 0.0000000000000000 0.0000000000000000
1.0000000000000000 0.0000000000000000 0.0000000000000000
1.0000000000000000 0.0000000000000000 0.0000000000000000
1.0000000000000000 0.0000000000000000 0.0000000000000000
1.0000000000000000 0.0000000000000000 0.0000000000000000
1.0000000000000000 0.0000000000000000 0.0000000000000000
1.0000000000000000 0.0000000000000000 0.0000000000000000
1.0000000000000000 0.0000000000000000 0.0000000000000000
1.0000000000000000 0.0000000000000000 0.0000000000000000
1.0000000000000000 0.0000000000000000 0.0000000000000000
1.0000000000000000 0.0000000000000000 0.0000000000000000
1.0000000000000000 0.0000000000000000 0.0000000000000000
1.0000000000000000 0.0000000000000000 0.0000000000000000
1.0000000000000000 0.0000000000000000 0.0000000000000000
1.0000000000000000 0.0000000000000000 0.0000000000000000
1.0000000000000000 0.0000000000000000 0.0000000000000000
1.0000000000000000 0.0000000000000000 0.0000000000000000
1.0000000000000000 0.0000000000000000 0.0000000000000000
1.0000000000000000 0.0000000000000000 0.0000000000000000
1.0000000000000000 0.0000000000000000 0.0000000000000000
1.0000000000000000 0.0000000000000000 0.0000000000000000
1.0000000000000000 0.0000000000000000 0.0000000000000000
1.0000000000000000 0.0000000000000000 0.0000000000000000
1.0000000000000000 0.0000000000000000 0.0000000000000000
1.0000000000000000 0.0000000000000000 0.0000000000000000
1.0000000000000000 0.0000000000000000 0.0000000000000000
1.0000000000000000 0.0000000000000000 0.0000000000000000
1.0000000000000000 0.0000000000000000 0.0000000000000000
1.0000000000000000 0.0000000000000000 0.0000000000000000
1.0000000000000000 0.0000000000000000 0.0000000000000000
1.0000000000000000 0.0000000000000000 0.0000000000000000
1.0000000000000000 0.0000000000000000 0.0000000000000000
1.0000000000000000 0.0000000000000000 0.0000000000000000
1.0000000000000000 0.0000000000000000 0.0000000000000000
1.0000000000000000 0.0000000000000000 0.0000000000000000
1.0000000000000000 0.0000000000000000 0.0000000000000000
1.0000000000000000 0.0000000000000000 0.0000000000000000
1.0000000000000000 0.0000000000000000 0.0000000000000000
1.0000000000000000 0.0000000000000000 0.0000000000000000
1.0000000000000000 0.0000000000000000 0.0000000000000000
1.0000000000000000 0.0000000000000000 0.0000000000000000
1.0000000000000000 0.0000000000000000 0.0000000000000000
1.0000000000000000 0.0000000000000000 0.0000000000000000
1.0000000000000000 0.0000000000000000 0.0000000000000000
1.0000000000000000 0.0000000000000000 0.0000000000000000
1.0000000000000000 0.0000000000000000 0.0000000000000000
1.0000000000000000 0.0000000000000000 0.0000000000000000
1.0000000000000000 0.0000000000000000 0.0000000000000000
1.0000000000000000 0.0000000000000000 0.0000000000000000
1.0000000000000000 0.0000000000000000 0.0000000000000000
1.0000000000000000 0.0000000000000000 0.0000000000000000
1.0000000000000000 0.0000000000000000 0.0000000000000000
1.0000000000000000 0.0000000000000000 0.0000000000000000
1.0000000000000000 0.0000000000000000 0.0000000000000000
1.0000000000000000 0.0000000000000000 0.0000000000000000
1.0000000000000000 0.0000000000000000 0.0000000000000000
1.0000000000000000 0.0000000000000000 0.0000000000000000
1.0000000000000000 0.0000000000000000 0.0000000000000000
1.0000000000000000 0.0000000000000000 0.0000000000000000
1.0000000000000000 0.0000000000000000 0.0000000000000000
1.0000000000000000 0.0000000000000000 0.0000000000000000
1.0000000000000000 0.0000000000000000 0.0000000000000000
1.0000000000000000 0.0000000000000000 0.0000000000000000
1.0000000000000000 0.0000000000000000 0.0000000000000000
1.0000000000000000 0.0000000000000000 0.0000000000000000
1.0000000000000000 0.0000000000000000 0.0000000000000000
1.0000000000000000 0.0000000000000000 0.0000000000000000
1.0000000000000000 0.0000000000000000 0.0000000000000000
1.0000000000000000 0.0000000000000000 0.0000000000000000
1.0000000000000000 0.0000000000000000 0.0000000000000000
1.0000000000000000 0.0000000000000000 0.0000000000000000
1.0000000000000000 0.0000000000000000 0.0000000000000000
1.0000000000000000 0.0000000000000000 0.0000000000000000
1.0000000000000000 0.0000000000000000 0.0000000000000000
1.0000000000000000 0.0000000000000000 0.0000000000000000
1.0000000000000000 0.0000000000000000 0.0000000000000000
1.0000000000000000 0.0000000000000000 0.0000000000000000
1.0000000000000000 0.0000000000000000 0.0000000000000000
1.0000000000000000 0.0000000000000000 0.0000000000000000
1.0000000000000000 0.0000000000000000 0.0000000000000000
1.0000000000000000 0.0000000000000000 0.0000000000000000
1.0000000000000000 0.0000000000000000 0.0000000000000000
1.0000000000000000 0.0000000000000000 0.0000000000000000
1.0000000000000000 0.0000000000000000 0.0000000000000000
1.0000000000000000 0.0000000000000000 0.0000000000000000
1.0000000000000000 0.0000000000000000 0.0000000000000000
1.0000000000000000 0.0000000000000000 0.0000000000000000
1.0000000000000000 0.0000000000000000 0.0000000000000000
1.0000000000000000 0.0000000000000000 0.0000000000000000
1.0000000000000000 0.0000000000000000 0.0000000000000000
1.0000000000000000 0.0000000000000000 0.0000000000000000
1.0000000000000000 0.0000000000000000 0.0000000000000000
1.0000000000000000 0.0000000000000000 0.0000000000000000
1.0000000000000000 0.0000000000000000 0.0000000000000000
1.0000000000000000 0.0000000000000000 0.0000000000000000
1.0000000000000000 0.0000000000000000 0.0000000000000000
1.0000000000000000 0.0000000000000000 0.0000000000000000
1.0000000000000000 0.0000000000000000 0.0000000000000000
1.0000000000000000 0.0000000000000000 0.0000000000000000
1.0000000000000000 0.0000000000000000 0.0000000000000000
1.0000000000000000 0.0000000000000000 0.0000000000000000
1.0000000000000000 0.0000000000000000 0.0000000000000000
1.0000000000000000 0.0000000000000000 0.0000000000000000
1.0000000000000000 0.0000000000000000 0.0000000000000000
1.0000000000000000 0.0000000000000000 0.0000000000000000
1.0000000000000000 0.0000000000000000 0.0000000000000000
1.0000000000000000 0.0000000000000000 0.0000000000000000
1.0000000000000000 0.0000000000000000 0.0000000000000000
1.0000000000000000 0.0000000000000000 0.0000000000000000
1.0000000000000000 0.0000000000000000 0.0000000000000000
1.0000000000000000 0.0000000000000000 0.0000000000000000
1.0000000000000000 0.0000000000000000 0.0000000000000000
1.0000000000000000 0.0000000000000000 0.0000000000000000
1.0000000000000000 0.0000000000000000 0.0000000000000000
1.0000000000000000 0.0000000000000000 0.0000000000000000
1.0000000000000000 0.0000000000000000 0.0000000000000000
1.0000000000000000 0.0000000000000000 0.0000000000000000
1.0000000000000000 0.0000000000000000 0.0000000000000000
1.0000000000000000 0.0000000000000000 0.0000000000000000
1.0000000000000000 0.0000000000000000 0.0000000000000000
1.0000000000000000 0.0000000000000000 0.0000000000000000
1.0000000000000000 0.0000000000000000 0.0000000000000000
1.0000000000000000 0.0000000000000000 0.0000000000000000
1.0000000000000000 0.0000000000000000 0.0000000000000000
1.0000000000000000 0.0000000000000000 0.0000000000000000
1.0000000000000000 0.0000000000000000 0.0000000000000000
1.0000000000000000 0.0000000000000000 0.0000000000000000
1.0000000000000000 0.0000000000000000 0.0000000000000000
1.0000000000000000 0.0000000000000000 0.0000000000000000
1.0000000000000000 0.0000000000000000 0.0000000000000000
1.0000000000000000 0.0000000000000000 0.0000000000000000
1.0000000000000000 0.0000000000000000 0.0000000000000000
1.0000000000000000 0.0000000000000000 0.0000000000000000
1.0000000000000000 0.0000000000000000 0.0000000000000000
1.0000000000000000 0.0000000000000000 0.0000000000000000
1.0000000000000000 0.0000000000000000 0.0000000000000000
1.0000000000000000 0.0000000000000000 0.0000000000000000
1.0000000000000000 0.0000000000000000 0.0000000000000000
1.0000000000000000 0.0000000000000000 0.0000000000000000
1.0000000000000000 0.0000000000000000 0.0000000000000000
1.0000000000000000 0.0000000000000000 0.0000000000000000
1.0000000000000000 0.0000000000000000 0.0000000000000000
1.0000000000000000 0.0000000000000000 0.0000000000000000
1.0000000000000000 0.0000000000000000 0.0000000000000000
1.0000000000000000 0.0000000000000000 0.0000000000000000
1.0000000000000000 0.0000000000000000 0.0000000000000000
1.0000000000000000 0.0000000000000000 0.0000000000000000
1.0000000000000000 0.0000000000000000 0.0000000000000000
1.0000000000000000 0.0000000000000000 0.0000000000000000
1.0000000000000000 0.0000000000000000 0.0000000000000000
1.0000000000000000 0.0000000000000000 0.0000000000000000
1.0000000000000000 0.0000000000000000 0.0000000000000000
1.0000000000000000 0.0000000000000000 0.0000000000000000
1.0000000000000000 0.0000000000000000 0.0000000000000000
1.0000000000000000 0.0000000000000000 0.0000000000000000
1.0000000000000000 0.0000000000000000 0.0000000000000000
1.0000000000000000 0.0000000000000000 0.0000000000000000
1.0000000000000000 0.0000000000000000 0.0000000000000000
1.0000000000000000 0.0000000000000000 0.0000000000000000
1.0000000000000000 0.0000000000000000 0.0000000000000000
1.0000000000000000 0.0000000000000000 0.0000000000000000
1.0000000000000000 0.0000000000000000 0.0000000000000000
1.0000000000000000 0.0000000000000000 0.0000000000000000
1.0000000000000000 0.0000000000000000 0.0000000000000000
1.0000000000000000 0.0000000000000000 0.0000000000000000
1.0000000000000000 0.0000000000000000 0.0000000000000000
1.0000000000000000 0.0000000000000000 0.0000000000000000
1.0000000000000000 0.0000000000000000 0.0000000000000000
1.0000000000000000 0.0000000000000000 0.0000000000000000
1.0000000000000000 0.0000000000000000 0.0000000000000000
1.0000000000000000 0.0000000000000000 0.0000000000000000
1.0000000000000000 0.0000000000000000 0.0000000000000000
1.0000000000000000 0.0000000000000000 0.0000000000000000
1.0000000000000000 0.0000000000000000 0.0000000000000000
1.0000000000000000 0.0000000000000000 0.0000000000000000
1.0000000000000000 0.0000000000000000 0.0000000000000000
1.0000000000000000 0.0000000000000000 0.0000000000000000
1.0000000000000000 0.0000000000000000 0.0000000000000000
1.0000000000000000 0.0000000000000000 0.0000000000000000
1.0000000000000000 0.0000000000000000 0.0000000000000000
1.0000000000000000 0.0000000000000000 0.0000000000000000
1.0000000000000000 0.0000000000000000 0.0000000000000000
1.0000000000000000 0.0000000000000000 0.0000000000000000
1.0000000000000000 0.0000000000000000 0.0000000000000000
1.0000000000000000 0.0000000000000000 0.0000000000000000
1.0000000000000000 0.0000000000000000 0.0000000000000000
1.0000000000000000 0.0000000000000000 0.0000000000000000
1.0000000000000000 0.0000000000000000 0.0000000000000000
1.0000000000000000 0.0000000000000000 0.0000000000000000
1.0000000000000000 0.0000000000000000 0.0000000000000000
1.0000000000000000 0.0000000000000000 0.0000000000000000
1.0000000000000000 0.0000000000000000 0.0000000000000000
1.0000000000000000 0.0000000000000000 0.0000000000000000
1.0000000000000000 0.0000000000000000 0.0000000000000000
1.0000000000000000 0.0000000000000000 0.0000000000000000
1.0000000000000000 0.0000000000000000 0.0000000000000000
1.0000000000000000 0.0000000000000000 0.0000000000000000
1.0000000000000000 0.0000000000000000 0.0000000000000000
1.0000000000000000 0.0000000000000000 0.0000000000000000
1.0000000000000000 0.0000000000000000 0.0000000000000000
1.0000000000000000 0.0000000000000000 0.0000000000000000
1.0000000000000000 0.0000000000000000 0.0000000000000000
1.0000000000000000 0.0000000000000000 0.0000000000000000
1.0000000000000000 0.0000000000000000 0.0000000000000000
1.0000000000000000 0.0000000000000000 0.0000000000000000
1.0000000000000000 0.0000000000000000 0.0000000000000000
1.0000000000000000 0.0000000000000000 0.0000000000000000
1.0000000000000000 0.0000000000000000 0.0000000000000000
1.0000000000000000 0.0000000000000000 0.0000000000000000
1.0000000000000000 0.0000000000000000 0.0000000000000000
1.0000000000000000 0.0000000000000000 0.0000000000000000
1.0000000000000000 0.0000000000000000 0.0000000000000000
1.0000000000000000 0.0000000000000000 0.0000000000000000
1.0000000000000000 0.0000000000000000 0.0000000000000000
1.0000000000000000 0.0000000000000000 0.0000000000000000
1.0000000000000000 0.0000000000000000 0.0000000000000000
1.0000000000000000 0.0000000000000000 0.0000000000000000
1.0000000000000000 0.0000000000000000 0.0000000000000000
1.0000000000000000 0.0000000000000000 0.0000000000000000
1.0000000000000000 0.0000000000000000 0.0000000000000000
1.0000000000000000 0.0000000000000000 0.0000000000000000
1.0000000000000000 0.0000000000000000 0.0000000000000000
1.0000000000000000 0.0000000000000000 0.0000000000000000
1.0000000000000000 0.0000000000000000 0.0000000000000000
1.0000000000000000 0.0000000000000000 0.0000000000000000
1.0000000000000000 0.0000000000000000 0.0000000000000000
1.0000000000000000 0.0000000000000000 0.0000000000000000
1.0000000000000000 0.0000000000000000 0.0000000000000000
1.0000000000000000 0.0000000000000000 0.0000000000000000
1.0000000000000000 0.0000000000000000 0.0000000000000000
1.0000000000000000 0.0000000000000000 0.0000000000000000
1.0000000000000000 0.0000000000000000 0.0000000000000000
1.0000000000000000 0.0000000000000000 0.0000000000000000
1.0000000000000000 0.0000000000000000 0.0000000000000000
1.0000000000000000 0.0000000000000000 0.0000000000000000
1.0000000000000000 0.0000000000000000 0.0000000000000000
1.0000000000000000 0.0000000000000000 0.0000000000000000
1.0000000000000000 0.0000000000000000 0.0000000000000000
1.0000000000000000 0.0000000000000000 0.0000000000000000
1.0000000000000000 0.0000000000000000 0.0000000000000000
1.0000000000000000 0.0000000000000000 0.0000000000000000
1.0000000000000000 0.0000000000000000 0.0000000000000000
1.0000000000000000 0.0000000000000000 0.0000000000000000
1.0000000000000000 0.0000000000000000 0.0000000000000000
1.0000000000000000 0.0000000000000000 0.0000000000000000
1.0000000000000000 0.0000000000000000 0.0000000000000000
1.0000000000000000 0.0000000000000000 0.0000000000000000
1.0000000000000000 0.0000000000000000 0.0000000000000000
1.0000000000000000 0.0000000000000000 0.0000000000000000
1.0000000000000000 0.0000000000000000 0.0000000000000000
1.0000000000000000 0.0000000000000000 0.0000000000000000
1.0000000000000000 0.0000000000000000 0.0000000000000000
1.0000000000000000 0.0000000000000000 0.0000000000000000
1.0000000000000000 0.0000000000000000 0.0000000000000000
1.0000000000000000 0.0000000000000000 0.0000000000000000
1.0000000000000000 0.0000000000000000 0.0000000000000000
1.0000000000000000 0.0000000000000000 0.0000000000000000
1.0000000000000000 0.0000000000000000 0.0000000000000000
1.0000000000000000 0.0000000000000000 0.0000000000000000
1.0000000000000000 0.0000000000000000 0.0000000000000000
1.0000000000000000 0.0000000000000000 0.0000000000000000
1.0000000000000000 0.0000000000000000 0.0000000000000000
1.0000000000000000 0.0000000000000000 0.0000000000000000
1.0000000000000000 0.0000000000000000 0.0000000000000000
1.0000000000000000 0.0000000000000000 0.0000000000000000
1.0000000000000000 0.0000000000000000 0.0000000000000000
1.0000000000000000 0.0000000000000000 0.0000000000000000
1.0000000000000000 0.0000000000000000 0.0000000000000000
1.0000000000000000 0.0000000000000000 0.0000000000000000
1.0000000000000000 0.0000000000000000 0.0000000000000000
1.0000000000000000 0.0000000000000000 0.0000000000000000
1.0000000000000000 0.0000000000000000 0.0000000000000000
1.0000000000000000 0.0000000000000000 0.0000000000000000
1.0000000000000000 0.0000000000000000 0.0000000000000000
1.0000000000000000 0.0000000000000000 0.0000000000000000
1.0000000000000000 0.0000000000000000 0.0000000000000000
1.0000000000000000 0.0000000000000000 0.0000000000000000
1.0000000000000000 0.0000000000000000 0.0000000000000000
1.0000000000000000 0.0000000000000000 0.0000000000000000
1.0000000000000000 0.0000000000000000 0.0000000000000000
1.0000000000000000 0.0000000000000000 0.0000000000000000
1.0000000000000000 0.0000000000000000 0.0000000000000000
1.0000000000000000 0.0000000000000000 0.0000000000000000
1.0000000000000000 0.0000000000000000 0.0000000000000000
1.0000000000000000 0.0000000000000000 0.0000000000000000
1.0000000000000000 0.0000000000000000 0.0000000000000000
1.0000000000000000 0.0000000000000000 0.0000000000000000
1.0000000000000000 0.0000000000000000 0.0000000000000000
1.0000000000000000 0.0000000000000000 0.0000000000000000
1.0000000000000000 0.0000000000000000 0.0000000000000000
1.0000000000000000 0.0000000000000000 0.0000000000000000
1.0000000000000000 0.0000000000000000 0.0000000000000000
1.0000000000000000 0.0000000000000000 0.0000000000000000
1.0000000000000000 0.0000000000000000 0.0000000000000000
1.0000000000000000 0.0000000000000000 0.0000000000000000
1.0000000000000000 0.0000000000000000 0.0000000000000000
1.0000000000000000 0.0000000000000000 0.0000000000000000
1.0000000000000000 0.0000000000000000 0.0000000000000000
1.0000000000000000 0.0000000000000000 0.0000000000000000
1.0000000000000000 0.0000000000000000 0.0000000000000000
1.0000000000000000 0.0000000000000000 0.0000000000000000
1.0000000000000000 0.0000000000000000 0.0000000000000000
1.0000000000000000 0.0000000000000000 0.0000000000000000
1.0000000000000000 0.0000000000000000 0.0000000000000000
1.0000000000000000 0.0000000000000000 0.0000000000000000
1.0000000000000000 0.0000000000000000 0.0000000000000000
1.0000000000000000 0.0000000000000000 0.0000000000000000
1.0000000000000000 0.0000000000000000 0.0000000000000000
1.0000000000000000 0.0000000000000000 0.0000000000000000
1.0000000000000000 0.0000000000000000 0.0000000000000000
1.0000000000000000 0.0000000000000000 0.0000000000000000
1.0000000000000000 0.0000000000000000 0.0000000000000000
1.0000000000000000 0.0000000000000000 0.0000000000000000
1.0000000000000000 0.0000000000000000 0.0000000000000000
1.0000000000000000 0.0000000000000000 0.0000000000000000
1.0000000000000000 0.0000000000000000 0.0000000000000000
1.0000000000000000 0.0000000000000000 0.0000000000000000
1.0000000000000000 0.0000000000000000 0.0000000000000000
1.0000000000000000 0.0000000000000000 0.0000000000000000
1.0000000000000000 0.0000000000000000 0.0000000000000000
1.0000000000000000 0.0000000000000000 0.0000000000000000
1.0000000000000000 0.0000000000000000 0.0000000000000000
1.0000000000000000 0.0000000000000000 0.0000000000000000
1.0000000000000000 0.0000000000000000 0.0000000000000000
1.0000000000000000 0.0000000000000000 0.0000000000000000
1.0000000000000000 0.0000000000000000 0.0000000000000000
1.0000000000000000 0.0000000000000000 0.0000000000000000
1.0000000000000000 0.0000000000000000 0.0000000000000000
1.0000000000000000 0.0000000000000000 0.0000000000000000
1.0000000000000000 0.0000000000000000 0.0000000000000000
1.0000000000000000 0.0000000000000000 0.0000000000000000
1.0000000000000000 0.0000000000000000 0.0000000000000000
1.0000000000000000 0.0000000000000000 0.0000000000000000
1.0000000000000000 0.0000000000000000 0.0000000000000000
1.0000000000000000 0.0000000000000000 0.0000000000000000
1.0000000000000000 0.0000000000000000 0.0000000000000000
1.0000000000000000 0.0000000000000000 0.0000000000000000
1.0000000000000000 0.0000000000000000 0.0000000000000000
1.0000000000000000 0.0000000000000000 0.0000000000000000
1.0000000000000000 0.0000000000000000 0.0000000000000000
1.0000000000000000 0.0000000000000000 0.0000000000000000
1.0000000000000000 0.0000000000000000 0.0000000000000000
1.0000000000000000 0.0000000000000000 0.0000000000000000
1.0000000000000000 0.0000000000000000 0.0000000000000000
1.0000000000000000 0.0000000000000000 0.0000000000000000
1.0000000000000000 0.0000000000000000 0.0000000000000000
1.0000000000000000 0.0000000000000000 0.0000000000000000
1.0000000000000000 0.0000000000000000 0.0000000000000000
1.0000000000000000 0.0000000000000000 0.0000000000000000
1.0000000000000000 0.0000000000000000 0.0000000000000000
1.0000000000000000 0.0000000000000000 0.0000000000000000
1.0000000000000000 0.0000000000000000 0.0000000000000000
1.0000000000000000 0.0000000000000000 0.0000000000000000
1.0000000000000000 0.0000000000000000 0.0000000000000000
1.0000000000000000 0.0000000000000000 0.0000000000000000
1.0000000000000000 0.0000000000000000 0.0000000000000000
1.0000000000000000 0.0000000000000000 0.0000000000000000
1.0000000000000000 0.0000000000000000 0.0000000000000000
1.0000000000000000 0.0000000000000000 0.0000000000000000
1.0000000000000000 0.0000000000000000 0.0000000000000000
1.0000000000000000 0.0000000000000000 0.0000000000000000
1.0000000000000000 0.0000000000000000 0.0000000000000000
1.0000000000000000 0.0000000000000000 0.0000000000000000
1.0000000000000000 0.0000000000000000 0.0000000000000000
1.0000000000000000 0.0000000000000000 0.0000000000000000
1.0000000000000000 0.0000000000000000 0.0000000000000000
1.0000000000000000 0.0000000000000000 0.0000000000000000
1.0000000000000000 0.0000000000000000 0.0000000000000000
1.0000000000000000 0.0000000000000000 0.0000000000000000
1.0000000000000000 0.0000000000000000 0.0000000000000000
1.0000000000000000 0.0000000000000000 0.0000000000000000
1.0000000000000000 0.0000000000000000 0.0000000000000000
1.0000000000000000 0.0000000000000000 0.0000000000000000
1.0000000000000000 0.0000000000000000 0.0000000000000000
1.0000000000000000 0.0000000000000000 0.0000000000000000
1.0000000000000000 0.0000000000000000 0.0000000000000000
1.0000000000000000 0.0000000000000000 0.0000000000000000
1.0000000000000000 0.0000000000000000 0.0000000000000000
1.0000000000000000 0.0000000000000000 0.0000000000000000
1.0000000000000000 0.0000000000000000 0.0000000000000000
1.0000000000000000 0.0000000000000000 0.0000000000000000
1.0000000000000000 0.0000000000000000 0.0000000000000000
1.0000000000000000 0.0000000000000000 0.0000000000000000
1.0000000000000000 0.0000000000000000 0.0000000000000000
1.0000000000000000 0.0000000000000000 0.0000000000000000
1.0000000000000000 0.0000000000000000 0.0000000000000000
1.0000000000000000 0.0000000000000000 0.0000000000000000
1.0000000000000000 0.0000000000000000 0.0000000000000000
1.0000000000000000 0.0000000000000000 0.0000000000000000
1.0000000000000000 0.0000000000000000 0.0000000000000000
1.0000000000000000 0.0000000000000000 0.0000000000000000
1.0000000000000000 0.0000000000000000 0.0000000000000000
1.0000000000000000 0.0000000000000000 0.0000000000000000
1.0000000000000000 0.0000000000000000 0.0000000000000000
1.0000000000000000 0.0000000000000000 0.0000000000000000
1.0000000000000000 0.0000000000000000 0.0000000000000000
1.0000000000000000 0.0000000000000000 0.0000000000000000
1.0000000000000000 0.0000000000000000 0.0000000000000000
1.0000000000000000 0.0000000000000000 0.0000000000000000
1.0000000000000000 0.0000000000000000 0.0000000000000000
1.0000000000000000 0.0000000000000000 0.0000000000000000
1.0000000000000000 0.0000000000000000 0.0000000000000000
1.0000000000000000 0.0000000000000000 0.0000000000000000
1.0000000000000000 0.0000000000000000 0.0000000000000000
1.0000000000000000 0.0000000000000000 0.0000000000000000
1.0000000000000000 0.0000000000000000 0.0000000000000000
1.0000000000000000 0.0000000000000000 0.0000000000000000
1.0000000000000000 0.0000000000000000 0.0000000000000000
1.0000000000000000 0.0000000000000000 0.0000000000000000
1.0000000000000000 0.0000000000000000 0.0000000000000000
1.0000000000000000 0.0000000000000000 0.0000000000000000
1.0000000000000000 0.0000000000000000 0.0000000000000000
1.0000000000000000 0.0000000000000000 0.0000000000000000
1.0000000000000000 0.0000000000000000 0.0000000000000000
1.0000000000000000 0.0000000000000000 0.0000000000000000
1.0000000000000000 0.0000000000000000 0.0000000000000000
1.0000000000000000 0.0000000000000000 0.0000000000000000
1.0000000000000000 0.0000000000000000 0.0000000000000000
1.0000000000000000 0.0000000000000000 0.0000000000000000
1.0000000000000000 0.0000000000000000 0.0000000000000000
1.0000000000000000 0.0000000000000000 0.0000000000000000
1.0000000000000000 0.0000000000000000 0.0000000000000000
1.0000000000000000 0.0000000000000000 0.0000000000000000
1.0000000000000000 0.0000000000000000 0.0000000000000000
1.0000000000000000 0.0000000000000000 0.0000000000000000
1.0000000000000000 0.0000000000000000 0.0000000000000000
1.0000000000000000 0.0000000000000000 0.0000000000000000
1.0000000000000000 0.0000000000000000 0.0000000000000000
1.0000000000000000 0.0000000000000000 0.0000000000000000
1.0000000000000000 0.0000000000000000 0.0000000000000000
1.0000000000000000 0.0000000000000000 0.0000000000000000
1.0000000000000000 0.0000000000000000 0.0000000000000000
1.0000000000000000 0.0000000000000000 0.0000000000000000
1.0000000000000000 0.0000000000000000 0.0000000000000000
1.0000000000000000 0.0000000000000000 0.0000000000000000
1.0000000000000000 0.0000000000000000 0.0000000000000000
1.0000000000000000 0.0000000000000000 0.0000000000000000
1.0000000000000000 0.0000000000000000 0.0000000000000000
1.0000000000000000 0.0000000000000000 0.0000000000000000
1.0000000000000000 0.0000000000000000 0.0000000000000000
1.0000000000000000 0.0000000000000000 0.0000000000000000
1.0000000000000000 0.0000000000000000 0.0000000000000000
1.0000000000000000 0.0000000000000000 0.0000000000000000
1.0000000000000000 0.0000000000000000 0.0000000000000000
1.0000000000000000 0.0000000000000000 0.0000000000000000
1.0000000000000000 0.0000000000000000 0.0000000000000000
1.0000000000000000 0.0000000000000000 0.0000000000000000
1.0000000000000000 0.0000000000000000 0.0000000000000000
1.0000000000000000 0.0000000000000000 0.0000000000000000
1.0000000000000000 0.0000000000000000 0.0000000000000000
1.0000000000000000 0.0000000000000000 0.0000000000000000
1.0000000000000000 0.0000000000000000 0.0000000000000000
1.0000000000000000 0.0000000000000000 0.0000000000000000
1.0000000000000000 0.0000000000000000 0.0000000000000000
1.0000000000000000 0.0000000000000000 0.0000000000000000
1.0000000000000000 0.0000000000000000 0.0000000000000000
1.0000000000000000 0.0000000000000000 0.0000000000000000
1.0000000000000000 0.0000000000000000 0.0000000000000000
1.0000000000000000 0.0000000000000000 0.0000000000000000
1.0000000000000000 0.0000000000000000 0.0000000000000000
1.0000000000000000 0.0000000000000000 0.0000000000000000
1.0000000000000000 0.0000000000000000 0.0000000000000000
1.0000000000000000 0.0000000000000000 0.0000000000000000
1.0000000000000000 0.0000000000000000 0.0000000000000000
1.0000000000000000 0.0000000000000000 0.0000000000000000
1.0000000000000000 0.0000000000000000 0.0000000000000000
1.0000000000000000 0.0000000000000000 0.0000000000000000
1.0000000000000000 0.0000000000000000 0.0000000000000000
1.0000000000000000 0.0000000000000000 0.0000000000000000
1.0000000000000000 0.0000000000000000 0.0000000000000000
1.0000000000000000 0.0000000000000000 0.0000000000000000
1.0000000000000000 0.0000000000000000 0.0000000000000000
1.0000000000000000 0.0000000000000000 0.0000000000000000
1.0000000000000000 0.0000000000000000 0.0000000000000000
1.0000000000000000 0.0000000000000000 0.0000000000000000
1.0000000000000000 0.0000000000000000 0.0000000000000000
1.0000000000000000 0.0000000000000000 0.0000000000000000
1.0000000000000000 0.0000000000000000 0.0000000000000000
1.0000000000000000 0.0000000000000000 0.0000000000000000
1.0000000000000000 0.0000000000000000 0.0000000000000000
1.0000000000000000 0.0000000000000000 0.0000000000000000
1.0000000000000000 0.0000000000000000 0.0000000000000000
1.0000000000000000 0.0000000000000000 0.0000000000000000
1.0000000000000000 0.0000000000000000 0.0000000000000000
1.0000000000000000 0.0000000000000000 0.0000000000000000
1.0000000000000000 0.0000000000000000 0.0000000000000000
1.0000000000000000 0.0000000000000000 0.0000000000000000
1.0000000000000000 0.0000000000000000 0.0000000000000000
1.0000000000000000 0.0000000000000000 0.0000000000000000
1.0000000000000000 0.0000000000000000 0.0000000000000000
1.0000000000000000 0.0000000000000000 0.0000000000000000
1.0000000000000000 0.0000000000000000 0.0000000000000000
1.0000000000000000 0.0000000000000000 0.0000000000000000
1.0000000000000000 0.0000000000000000 0.0000000000000000
1.0000000000000000 0.0000000000000000 0.0000000000000000
1.0000000000000000 0.0000000000000000 0.0000000000000000
1.0000000000000000 0.0000000000000000 0.0000000000000000
1.0000000000000000 0.0000000000000000 0.0000000000000000
1.0000000000000000 0.0000000000000000 0.0000000000000000
1.0000000000000000 0.0000000000000000 0.0000000000000000
1.0000000000000000 0.0000000000000000 0.0000000000000000
1.0000000000000000 0.0000000000000000 0.0000000000000000
1.0000000000000000 0.0000000000000000 0.0000000000000000
1.0000000000000000 0.0000000000000000 0.0000000000000000
1.0000000000000000 0.0000000000000000 0.0000000000000000
1.0000000000000000 0.0000000000000000 0.0000000000000000
1.0000000000000000 0.0000000000000000 0.0000000000000000
1.0000000000000000 0.0000000000000000 0.0000000000000000
1.0000000000000000 0.0000000000000000 0.0000000000000000
1.0000000000000000 0.0000000000000000 0.0000000000000000
1.0000000000000000 0.0000000000000000 0.0000000000000000
1.0000000000000000 0.0000000000000000 0.0000000000000000
1.0000000000000000 0.0000000000000000 0.0000000000000000
1.0000000000000000 0.0000000000000000 0.0000000000000000
1.0000000000000000 0.0000000000000000 0.0000000000000000
1.0000000000000000 0.0000000000000000 0.0000000000000000
1.0000000000000000 0.0000000000000000 0.0000000000000000
1.0000000000000000 0.0000000000000000 0.0000000000000000
1.0000000000000000 0.0000000000000000 0.0000000000000000
1.0000000000000000 0.0000000000000000 0.0000000000000000
1.0000000000000000 0.0000000000000000 0.0000000000000000
1.0000000000000000 0.0000000000000000 0.0000000000000000
1.0000000000000000 0.0000000000000000 0.0000000000000000
1.0000000000000000 0.0000000000000000 0.0000000000000000
1.0000000000000000 0.0000000000000000 0.0000000000000000
1.0000000000000000 0.0000000000000000 0.0000000000000000
1.0000000000000000 0.0000000000000000 0.0000000000000000
1.0000000000000000 0.0000000000000000 0.0000000000000000
1.0000000000000000 0.0000000000000000 0.0000000000000000
1.0000000000000000 0.0000000000000000 0.0000000000000000
1.0000000000000000 0.0000000000000000 0.0000000000000000
1.0000000000000000 0.0000000000000000 0.0000000000000000
1.0000000000000000 0.0000000000000000 0.0000000000000000
1.0000000000000000 0.0000000000000000 0.0000000000000000
1.0000000000000000 0.0000000000000000 0.0000000000000000
1.0000000000000000 0.0000000000000000 0.0000000000000000
1.0000000000000000 0.0000000000000000 0.0000000000000000
1.0000000000000000 0.0000000000000000 0.0000000000000000
1.0000000000000000 0.0000000000000000 0.0000000000000000
1.0000000000000000 0.0000000000000000 0.0000000000000000
1.0000000000000000 0.0000000000000000 0.0000000000000000
1.0000000000000000 0.0000000000000000 0.0000000000000000
1.0000000000000000 0.0000000000000000 0.0000000000000000
1.0000000000000000 0.0000000000000000 0.0000000000000000
1.0000000000000000 0.0000000000000000 0.0000000000000000
1.0000000000000000 0.0000000000000000 0.0000000000000000
1.0000000000000000 0.0000000000000000 0.0000000000000000
1.0000000000000000 0.0000000000000000 0.0000000000000000
1.0000000000000000 0.0000000000000000 0.0000000000000000
1.0000000000000000 0.0000000000000000 0.0000000000000000
1.0000000000000000 0.0000000000000000 0.0000000000000000
1.0000000000000000 0.0000000000000000 0.0000000000000000
1.0000000000000000 0.0000000000000000 0.0000000000000000
1.0000000000000000 0.0000000000000000 0.0000000000000000
1.0000000000000000 0.0000000000000000 0.0000000000000000
1.0000000000000000 0.0000000000000000 0.0000000000000000
1.0000000000000000 0.0000000000000000 0.0000000000000000
1.0000000000000000 0.0000000000000000 0.0000000000000000
1.0000000000000000 0.0000000000000000 0.0000000000000000
1.0000000000000000 0.0000000000000000 0.0000000000000000
1.0000000000000000 0.0000000000000000 0.0000000000000000
1.0000000000000000 0.0000000000000000 0.0000000000000000
1.0000000000000000 0.0000000000000000 0.0000000000000000
1.0000000000000000 0.0000000000000000 0.0000000000000000
1.0000000000000000 0.0000000000000000 0.0000000000000000
1.0000000000000000 0.0000000000000000 0.0000000000000000
1.0000000000000000 0.0000000000000000 0.0000000000000000
1.0000000000000000 0.0000000000000000 0.0000000000000000
1.0000000000000000 0.0000000000000000 0.0000000000000000
1.0000000000000000 0.0000000000000000 0.0000000000000000
1.0000000000000000 0.0000000000000000 0.0000000000000000
1.0000000000000000 0.0000000000000000 0.0000000000000000
1.0000000000000000 0.0000000000000000 0.0000000000000000
1.0000000000000000 0.0000000000000000 0.0000000000000000
1.0000000000000000 0.0000000000000000 0.0000000000000000
1.0000000000000000 0.0000000000000000 0.0000000000000000
1.0000000000000000 0.0000000000000000 0.0000000000000000
1.0000000000000000 0.0000000000000000 0.0000000000000000
1.0000000000000000 0.0000000000000000 0.0000000000000000
1.0000000000000000 0.0000000000000000 0.0000000000000000
1.0000000000000000 0.0000000000000000 0.0000000000000000
1.0000000000000000 0.0000000000000000 0.0000000000000000
1.0000000000000000 0.0000000000000000 0.0000000000000000
1.0000000000000000 0.0000000000000000 0.0000000000000000
1.0000000000000000 0.0000000000000000 0.0000000000000000
1.0000000000000000 0.0000000000000000 0.0000000000000000
1.0000000000000000 0.0000000000000000 0.0000000000000000
1.0000000000000000 0.0000000000000000 0.0000000000000000
1.0000000000000000 0.0000000000000000 0.0000000000000000
1.0000000000000000 0.0000000000000000 0.0000000000000000
1.0000000000000000 0.0000000000000000 0.0000000000000000
1.0000000000000000 0.0000000000000000 0.0000000000000000
1.0000000000000000 0.0000000000000000 0.0000000000000000
1.0000000000000000 0.0000000000000000 0.0000000000000000
1.0000000000000000 0.0000000000000000 0.0000000000000000
1.0000000000000000 0.0000000000000000 0.0000000000000000
1.0000000000000000 0.0000000000000000 0.0000000000000000
1.0000000000000000 0.0000000000000000 0.0000000000000000
1.0000000000000000 0.0000000000000000 0.0000000000000000
1.0000000000000000 0.0000000000000000 0.0000000000000000
1.0000000000000000 0.0000000000000000 0.0000000000000000
1.0000000000000000 0.0000000000000000 0.0000000000000000
1.0000000000000000 0.0000000000000000 0.0000000000000000
1.0000000000000000 0.0000000000000000 0.0000000000000000
1.0000000000000000 0.0000000000000000 0.0000000000000000
1.0000000000000000 0.0000000000000000 0.0000000000000000
1.0000000000000000 0.0000000000000000 0.0000000000000000
1.0000000000000000 0.0000000000000000 0.0000000000000000
1.0000000000000000 0.0000000000000000 0.0000000000000000
1.0000000000000000 0.0000000000000000 0.0000000000000000
1.0000000000000000 0.0000000000000000 0.0000000000000000
1.0000000000000000 0.0000000000000000 0.0000000000000000
1.0000000000000000 0.0000000000000000 0.0000000000000000
1.0000000000000000 0.0000000000000000 0.0000000000000000
1.0000000000000000 0.0000000000000000 0.0000000000000000
1.0000000000000000 0.0000000000000000 0.0000000000000000
1.0000000000000000 0.0000000000000000 0.0000000000000000
1.0000000000000000 0.0000000000000000 0.0000000000000000
1.0000000000000000 0.0000000000000000 0.0000000000000000
1.0000000000000000 0.0000000000000000 0.0000000000000000
1.0000000000000000 0.0000000000000000 0.0000000000000000
1.0000000000000000 0.0000000000000000 0.0000000000000000
1.0000000000000000 0.0000000000000000 0.0000000000000000
1.0000000000000000 0.0000000000000000 0.0000000000000000
1.0000000000000000 0.0000000000000000 0.0000000000000000
1.0000000000000000 0.0000000000000000 0.0000000000000000
1.0000000000000000 0.0000000000000000 0.0000000000000000
1.0000000000000000 0.0000000000000000 0.0000000000000000
1.0000000000000000 0.0000000000000000 0.0000000000000000
1.0000000000000000 0.0000000000000000 0.0000000000000000
1.0000000000000000 0.0000000000000000 0.0000000000000000
1.0000000000000000 0.0000000000000000 0.0000000000000000
1.0000000000000000 0.0000000000000000 0.0000000000000000
1.0000000000000000 0.0000000000000000 0.0000000000000000
1.0000000000000000 0.0000000000000000 0.0000000000000000
1.0000000000000000 0.0000000000000000 0.0000000000000000
1.0000000000000000 0.0000000000000000 0.0000000000000000
1.0000000000000000 0.0000000000000000 0.0000000000000000
1.0000000000000000 0.0000000000000000 0.0000000000000000
1.0000000000000000 0.0000000000000000 0.0000000000000000
1.0000000000000000 0.0000000000000000 0.0000000000000000
1.0000000000000000 0.0000000000000000 0.0000000000000000
1.0000000000000000 0.0000000000000000 0.0000000000000000
1.0000000000000000 0.0000000000000000 0.0000000000000000
1.0000000000000000 0.0000000000000000 0.0000000000000000
1.0000000000000000 0.0000000000000000 0.0000000000000000
1.0000000000000000 0.0000000000000000 0.0000000000000000
1.0000000000000000 0.0000000000000000 0.0000000000000000
1.0000000000000000 0.0000000000000000 0.0000000000000000
1.0000000000000000 0.0000000000000000 0.0000000000000000
1.0000000000000000 0.0000000000000000 0.0000000000000000
1.0000000000000000 0.0000000000000000 0.0000000000000000
1.0000000000000000 0.0000000000000000 0.0000000000000000
1.0000000000000000 0.0000000000000000 0.0000000000000000
1.0000000000000000 0.0000000000000000 0.0000000000000000
1.0000000000000000 0.0000000000000000 0.0000000000000000
1.0000000000000000 0.0000000000000000 0.0000000000000000
1.0000000000000000 0.0000000000000000 0.0000000000000000
1.0000000000000000 0.0000000000000000 0.0000000000000000
1.0000000000000000 0.0000000000000000 0.0000000000000000
1.0000000000000000 0.0000000000000000 0.0000000000000000
1.0000000000000000 0.0000000000000000 0.0000000000000000
1.0000000000000000 0.0000000000000000 0.0000000000000000
1.0000000000000000 0.0000000000000000 0.0000000000000000
1.0000000000000000 0.0000000000000000 0.0000000000000000
1.0000000000000000 0.0000000000000000 0.0000000000000000
1.0000000000000000 0.0000000000000000 0.0000000000000000
1.0000000000000000 0.0000000000000000 0.0000000000000000
1.0000000000000000 0.0000000000000000 0.0000000000000000
1.0000000000000000 0.0000000000000000 0.0000000000000000
1.0000000000000000 0.0000000000000000 0.0000000000000000
1.0000000000000000 0.0000000000000000 0.0000000000000000
1.0000000000000000 0.0000000000000000 0.0000000000000000
1.0000000000000000 0.0000000000000000 0.0000000000000000
1.0000000000000000 0.0000000000000000 0.0000000000000000
1.0000000000000000 0.0000000000000000 0.0000000000000000
1.0000000000000000 0.0000000000000000 0.0000000000000000
1.0000000000000000 0.0000000000000000 0.0000000000000000
1.0000000000000000 0.0000000000000000 0.0000000000000000
1.0000000000000000 0.0000000000000000 0.0000000000000000
1.0000000000000000 0.0000000000000000 0.0000000000000000
1.0000000000000000 0.0000000000000000 0.0000000000000000
1.0000000000000000 0.0000000000000000 0.0000000000000000
1.0000000000000000 0.0000000000000000 0.0000000000000000
1.0000000000000000 0.0000000000000000 0.0000000000000000
1.0000000000000000 0.0000000000000000 0.0000000000000000
1.0000000000000000 0.0000000000000000 0.0000000000000000
1.0000000000000000 0.0000000000000000 0.0000000000000000
1.0000000000000000 0.0000000000000000 0.0000000000000000
1.0000000000000000 0.0000000000000000 0.0000000000000000
1.0000000000000000 0.0000000000000000 0.0000000000000000
1.0000000000000000 0.0000000000000000 0.0000000000000000
1.0000000000000000 0.0000000000000000 0.0000000000000000
1.0000000000000000 0.0000000000000000 0.0000000000000000
1.0000000000000000 0.0000000000000000 0.0000000000000000
1.0000000000000000 0.0000000000000000 0.0000000000000000
1.0000000000000000 0.0000000000000000 0.0000000000000000
1.0000000000000000 0.0000000000000000 0.0000000000000000
1.0000000000000000 0.0000000000000000 0.0000000000000000
1.0000000000000000 0.0000000000000000 0.0000000000000000
1.0000000000000000 0.0000000000000000 0.0000000000000000
1.0000000000000000 0.0000000000000000 0.0000000000000000
1.0000000000000000 0.0000000000000000 0.0000000000000000
1.0000000000000000 0.0000000000000000 0.0000000000000000
1.0000000000000000 0.0000000000000000 0.0000000000000000
1.0000000000000000 0.0000000000000000 0.0000000000000000
1.0000000000000000 0.0000000000000000 0.0000000000000000
1.0000000000000000 0.0000000000000000 0.0000000000000000
1.0000000000000000 0.0000000000000000 0.0000000000000000
1.0000000000000000 0.0000000000000000 0.0000000000000000
1.0000000000000000 0.0000000000000000 0.0000000000000000
1.0000000000000000 0.0000000000000000 0.0000000000000000
1.0000000000000000 0.0000000000000000 0.0000000000000000
1.0000000000000000 0.0000000000000000 0.0000000000000000
1.0000000000000000 0.0000000000000000 0.0000000000000000
1.0000000000000000 0.0000000000000000 0.0000000000000000
1.0000000000000000 0.0000000000000000 0.0000000000000000
1.0000000000000000 0.0000000000000000 0.0000000000000000
1.0000000000000000 0.0000000000000000 0.0000000000000000
1.0000000000000000 0.0000000000000000 0.0000000000000000
1.0000000000000000 0.0000000000000000 0.0000000000000000
1.0000000000000000 0.0000000000000000 0.0000000000000000
1.0000000000000000 0.0000000000000000 0.0000000000000000
1.0000000000000000 0.0000000000000000 0.0000000000000000
1.0000000000000000 0.0000000000000000 0.0000000000000000
1.0000000000000000 0.0000000000000000 0.0000000000000000
1.0000000000000000 0.0000000000000000 0.0000000000000000
1.0000000000000000 0.0000000000000000 0.0000000000000000
1.0000000000000000 0.0000000000000000 0.0000000000000000
1.0000000000000000 0.0000000000000000 0.0000000000000000
1.0000000000000000 0.0000000000000000 0.0000000000000000
1.0000000000000000 0.0000000000000000 0.0000000000000000
1.0000000000000000 0.0000000000000000 0.0000000000000000
1.0000000000000000 0.0000000000000000 0.0000000000000000
1.0000000000000000 0.0000000000000000 0.0000000000000000
1.0000000000000000 0.0000000000000000 0.0000000000000000
1.0000000000000000 0.0000000000000000 0.0000000000000000
1.0000000000000000 0.0000000000000000 0.0000000000000000
1.0000000000000000 0.0000000000000000 0.0000000000000000
1.0000000000000000 0.0000000000000000 0.0000000000000000
1.0000000000000000 0.0000000000000000 0.0000000000000000
1.0000000000000000 0.0000000000000000 0.0000000000000000
1.0000000000000000 0.0000000000000000 0.0000000000000000
1.0000000000000000 0.0000000000000000 0.0000000000000000
1.0000000000000000 0.0000000000000000 0.0000000000000000
1.0000000000000000 0.0000000000000000 0.0000000000000000
1.0000000000000000 0.0000000000000000 0.0000000000000000
1.0000000000000000 0.0000000000000000 0.0000000000000000
1.0000000000000000 0.0000000000000000 0.0000000000000000
1.0000000000000000 0.0000000000000000 0.0000000000000000
1.0000000000000000 0.0000000000000000 0.0000000000000000
1.0000000000000000 0.0000000000000000 0.0000000000000000
1.0000000000000000 0.0000000000000000 0.0000000000000000
1.0000000000000000 0.0000000000000000 0.0000000000000000
1.0000000000000000 0.0000000000000000 0.0000000000000000
1.0000000000000000 0.0000000000000000 0.0000000000000000
1.0000000000000000 0.0000000000000000 0.0000000000000000
1.0000000000000000 0.0000000000000000 0.0000000000000000
1.0000000000000000 0.0000000000000000 0.0000000000000000
1.0000000000000000 0.0000000000000000 0.0000000000000000
1.0000000000000000 0.0000000000000000 0.0000000000000000
1.0000000000000000 0.0000000000000000 0.0000000000000000
1.0000000000000000 0.0000000000000000 0.0000000000000000
1.0000000000000000 0.0000000000000000 0.0000000000000000
1.0000000000000000 0.0000000000000000 0.0000000000000000
1.0000000000000000 0.0000000000000000 0.0000000000000000
1.0000000000000000 0.0000000000000000 0.0000000000000000
1.0000000000000000 0.0000000000000000 0.0000000000000000
1.0000000000000000 0.0000000000000000 0.0000000000000000
1.0000000000000000 0.0000000000000000 0.0000000000000000
1.0000000000000000 0.0000000000000000 0.0000000000000000
1.0000000000000000 0.0000000000000000 0.0000000000000000
1.0000000000000000 0.0000000000000000 0.0000000000000000
1.0000000000000000 0.0000000000000000 0.0000000000000000
1.0000000000000000 0.0000000000000000 0.0000000000000000
1.0000000000000000 0.0000000000000000 0.0000000000000000
1.0000000000000000 0.0000000000000000 0.0000000000000000
1.0000000000000000 0.0000000000000000 0.0000000000000000
1.0000000000000000 0.0000000000000000 0.0000000000000000
1.0000000000000000 0.0000000000000000 0.0000000000000000
1.0000000000000000 0.0000000000000000 0.0000000000000000
1.0000000000000000 0.0000000000000000 0.0000000000000000
1.0000000000000000 0.0000000000000000 0.0000000000000000
1.0000000000000000 0.0000000000000000 0.0000000000000000
1.0000000000000000 0.0000000000000000 0.0000000000000000
1.0000000000000000 0.0000000000000000 0.0000000000000000
1.0000000000000000 0.0000000000000000 0.0000000000000000
1.0000000000000000 0.0000000000000000 0.0000000000000000
1.0000000000000000 0.0000000000000000 0.0000000000000000
1.0000000000000000 0.0000000000000000 0.0000000000000000
1.0000000000000000 0.0000000000000000 0.0000000000000000
1.0000000000000000 0.0000000000000000 0.0000000000000000
1.0000000000000000 0.0000000000000000 0.0000000000000000
1.0000000000000000 0.0000000000000000 0.0000000000000000
1.0000000000000000 0.0000000000000000 0.0000000000000000
1.0000000000000000 0.0000000000000000 0.0000000000000000
1.0000000000000000 0.0000000000000000 0.0000000000000000
1.0000000000000000 0.0000000000000000 0.0000000000000000
1.0000000000000000 0.0000000000000000 0.0000000000000000
1.0000000000000000 0.0000000000000000 0.0000000000000000
1.0000000000000000 0.0000000000000000 0.0000000000000000
1.0000000000000000 0.0000000000000000 0.0000000000000000
1.0000000000000000 0.0000000000000000 0.0000000000000000
1.0000000000000000 0.0000000000000000 0.0000000000000000
1.0000000000000000 0.0000000000000000 0.0000000000000000
1.0000000000000000 0.0000000000000000 0.0000000000000000
1.0000000000000000 0.0000000000000000 0.0000000000000000
1.0000000000000000 0.0000000000000000 0.0000000000000000
1.0000000000000000 0.0000000000000000 0.0000000000000000
1.0000000000000000 0.0000000000000000 0.0000000000000000
1.0000000000000000 0.0000000000000000 0.0000000000000000
1.0000000000000000 0.0000000000000000 0.0000000000000000
1.0000000000000000 0.0000000000000000 0.0000000000000000
1.0000000000000000 0.0000000000000000 0.0000000000000000
1.0000000000000000 0.0000000000000000 0.0000000000000000
1.0000000000000000 0.0000000000000000 0.0000000000000000
1.0000000000000000 0.0000000000000000 0.0000000000000000
1.0000000000000000 0.0000000000000000 0.0000000000000000
1.0000000000000000 0.0000000000000000 0.0000000000000000
1.0000000000000000 0.0000000000000000 0.0000000000000000
1.0000000000000000 0.0000000000000000 0.0000000000000000
1.0000000000000000 0.0000000000000000 0.0000000000000000
1.0000000000000000 0.0000000000000000 0.0000000000000000
1.0000000000000000 0.0000000000000000 0.0000000000000000
1.0000000000000000 0.0000000000000000 0.0000000000000000
1.0000000000000000 0.0000000000000000 0.0000000000000000
1.0000000000000000 0.0000000000000000 0.0000000000000000
1.0000000000000000 0.0000000000000000 0.0000000000000000
1.0000000000000000 0.0000000000000000 0.0000000000000000
1.0000000000000000 0.0000000000000000 0.0000000000000000
1.0000000000000000 0.0000000000000000 0.0000000000000000
1.0000000000000000 0.0000000000000000 0.0000000000000000
1.0000000000000000 0.0000000000000000 0.0000000000000000
1.0000000000000000 0.0000000000000000 0.0000000000000000
1.0000000000000000 0.0000000000000000 0.0000000000000000
1.0000000000000000 0.0000000000000000 0.0000000000000000
1.0000000000000000 0.0000000000000000 0.0000000000000000
1.0000000000000000 0.0000000000000000 0.0000000000000000
1.0000000000000000 0.0000000000000000 0.0000000000000000
1.0000000000000000 0.0000000000000000 0.0000000000000000
1.0000000000000000 0.0000000000000000 0.0000000000000000
1.0000000000000000 0.0000000000000000 0.0000000000000000
1.0000000000000000 0.0000000000000000 0.0000000000000000
1.0000000000000000 0.0000000000000000 0.0000000000000000
1.0000000000000000 0.0000000000000000 0.0000000000000000
1.0000000000000000 0.0000000000000000 0.0000000000000000
1.0000000000000000 0.0000000000000000 0.0000000000000000
1.0000000000000000 0.0000000000000000 0.0000000000000000
1.0000000000000000 0.0000000000000000 0.0000000000000000
1.0000000000000000 0.0000000000000000 0.0000000000000000
1.0000000000000000 0.0000000000000000 0.0000000000000000
1.0000000000000000 0.0000000000000000 0.0000000000000000
1.0000000000000000 0.0000000000000000 0.0000000000000000
1.0000000000000000 0.0000000000000000 0.0000000000000000
1.0000000000000000 0.0000000000000000 0.0000000000000000
1.0000000000000000 0.0000000000000000 0.0000000000000000
1.0000000000000000 0.0000000000000000 0.0000000000000000
1.0000000000000000 0.0000000000000000 0.0000000000000000
1.0000000000000000 0.0000000000000000 0.0000000000000000
1.0000000000000000 0.0000000000000000 0.0000000000000000
1.0000000000000000 0.0000000000000000 0.0000000000000000
1.0000000000000000 0.0000000000000000 0.0000000000000000
1.0000000000000000 0.0000000000000000 0.0000000000000000
1.0000000000000000 0.0000000000000000 0.0000000000000000
1.0000000000000000 0.0000000000000000 0.0000000000000000
1.0000000000000000 0.0000000000000000 0.0000000000000000
1.0000000000000000 0.0000000000000000 0.0000000000000000
1.0000000000000000 0.0000000000000000 0.0000000000000000
1.0000000000000000 0.0000000000000000 0.0000000000000000
1.0000000000000000 0.0000000000000000 0.0000000000000000
1.0000000000000000 0.0000000000000000 0.0000000000000000
1.0000000000000000 0.0000000000000000 0.0000000000000000
1.0000000000000000 0.0000000000000000 0.0000000000000000
1.0000000000000000 0.0000000000000000 0.0000000000000000
1.0000000000000000 0.0000000000000000 0.0000000000000000
1.0000000000000000 0.0000000000000000 0.0000000000000000
1.0000000000000000 0.0000000000000000 0.0000000000000000
1.0000000000000000 0.0000000000000000 0.0000000000000000
1.0000000000000000 0.0000000000000000 0.0000000000000000
1.0000000000000000 0.0000000000000000 0.0000000000000000
1.0000000000000000 0.0000000000000000 0.0000000000000000
1.0000000000000000 0.0000000000000000 0.0000000000000000
1.0000000000000000 0.0000000000000000 0.0000000000000000
1.0000000000000000 0.0000000000000000 0.0000000000000000
1.0000000000000000 0.0000000000000000 0.0000000000000000
1.0000000000000000 0.0000000000000000 0.0000000000000000
1.0000000000000000 0.0000000000000000 0.0000000000000000
1.0000000000000000 0.0000000000000000 0.0000000000000000
1.0000000000000000 0.0000000000000000 0.0000000000000000
1.0000000000000000 0.0000000000000000 0.0000000000000000
1.0000000000000000 0.0000000000000000 0.0000000000000000
1.0000000000000000 0.0000000000000000 0.0000000000000000
1.0000000000000000 0.0000000000000000 0.0000000000000000
1.0000000000000000 0.0000000000000000 0.0000000000000000
1.0000000000000000 0.0000000000000000 0.0000000000000000
1.0000000000000000 0.0000000000000000 0.0000000000000000
1.0000000000000000 0.0000000000000000 0.0000000000000000
1.0000000000000000 0.0000000000000000 0.0000000000000000
1.0000000000000000 0.0000000000000000 0.0000000000000000
1.0000000000000000 0.0000000000000000 0.0000000000000000
1.0000000000000000 0.0000000000000000 0.0000000000000000
1.0000000000000000 0.0000000000000000 0.0000000000000000
1.0000000000000000 0.0000000000000000 0.0000000000000000
1.0000000000000000 0.0000000000000000 0.0000000000000000
1.0000000000000000 0.0000000000000000 0.0000000000000000
1.0000000000000000 0.0000000000000000 0.0000000000000000
1.0000000000000000 0.0000000000000000 0.0000000000000000
1.0000000000000000 0.0000000000000000 0.0000000000000000
1.0000000000000000 0.0000000000000000 0.0000000000000000
1.0000000000000000 0.0000000000000000 0.0000000000000000
1.0000000000000000 0.0000000000000000 0.0000000000000000
1.0000000000000000 0.0000000000000000 0.0000000000000000
1.0000000000000000 0.0000000000000000 0.0000000000000000
1.0000000000000000 0.0000000000000000 0.0000000000000000
1.0000000000000000 0.0000000000000000 0.0000000000000000
1.0000000000000000 0.0000000000000000 0.0000000000000000
1.0000000000000000 0.0000000000000000 0.0000000000000000
1.0000000000000000 0.0000000000000000 0.0000000000000000
1.0000000000000000 0.0000000000000000 0.0000000000000000
1.0000000000000000 0.0000000000000000 0.0000000000000000
1.0000000000000000 0.0000000000000000 0.0000000000000000
1.0000000000000000 0.0000000000000000 0.0000000000000000
1.0000000000000000 0.0000000000000000 0.0000000000000000
1.0000000000000000 0.0000000000000000 0.0000000000000000
1.0000000000000000 0.0000000000000000 0.0000000000000000
1.0000000000000000 0.0000000000000000 0.0000000000000000
1.0000000000000000 0.0000000000000000 0.0000000000000000
1.0000000000000000 0.0000000000000000 0.0000000000000000
1.0000000000000000 0.0000000000000000 0.0000000000000000
1.0000000000000000 0.0000000000000000 0.0000000000000000
1.0000000000000000 0.0000000000000000 0.0000000000000000
1.0000000000000000 0.0000000000000000 0.0000000000000000
1.0000000000000000 0.0000000000000000 0.0000000000000000
1.0000000000000000 0.0000000000000000 0.0000000000000000
1.0000000000000000 0.0000000000000000 0.0000000000000000
1.0000000000000000 0.0000000000000000 0.0000000000000000
1.0000000000000000 0.0000000000000000 0.0000000000000000
1.0000000000000000 0.0000000000000000 0.0000000000000000
1.0000000000000000 0.0000000000000000 0.0000000000000000
1.0000000000000000 0.0000000000000000 0.0000000000000000
1.0000000000000000 0.0000000000000000 0.0000000000000000
1.0000000000000000 0.0000000000000000 0.0000000000000000
1.0000000000000000 0.0000000000000000 0.0000000000000000
1.0000000000000000 0.0000000000000000 0.0000000000000000
1.0000000000000000 0.0000000000000000 0.0000000000000000
1.0000000000000000 0.0000000000000000 0.0000000000000000
1.0000000000000000 0.0000000000000000 0.0000000000000000
1.0000000000000000 0.0000000000000000 0.0000000000000000
1.0000000000000000 0.0000000000000000 0.0000000000000000
1.0000000000000000 0.0000000000000000 0.0000000000000000
1.0000000000000000 0.0000000000000000 0.0000000000000000
1.0000000000000000 0.0000000000000000 0.0000000000000000
1.0000000000000000 0.0000000000000000 0.0000000000000000
1.0000000000000000 0.0000000000000000 0.0000000000000000
1.0000000000000000 0.0000000000000000 0.0000000000000000
1.0000000000000000 0.0000000000000000 0.0000000000000000
1.0000000000000000 0.0000000000000000 0.0000000000000000
1.0000000000000000 0.0000000000000000 0.0000000000000000
1.0000000000000000 0.0000000000000000 0.0000000000000000
1.0000000000000000 0.0000000000000000 0.0000000000000000
1.0000000000000000 0.0000000000000000 0.0000000000000000
1.0000000000000000 0.0000000000000000 0.0000000000000000
1.0000000000000000 0.0000000000000000 0.0000000000000000
1.0000000000000000 0.0000000000000000 0.0000000000000000
1.0000000000000000 0.0000000000000000 0.0000000000000000
1.0000000000000000 0.0000000000000000 0.0000000000000000
1.0000000000000000 0.0000000000000000 0.0000000000000000
1.0000000000000000 0.0000000000000000 0.0000000000000000
1.0000000000000000 0.0000000000000000 0.0000000000000000
1.0000000000000000 0.0000000000000000 0.0000000000000000
1.0000000000000000 0.0000000000000000 0.0000000000000000
1.0000000000000000 0.0000000000000000 0.0000000000000000
1.0000000000000000 0.0000000000000000 0.0000000000000000
1.0000000000000000 0.0000000000000000 0.0000000000000000
1.0000000000000000 0.0000000000000000 0.0000000000000000
1.0000000000000000 0.0000000000000000 0.0000000000000000
1.0000000000000000 0.0000000000000000 0.0000000000000000
1.0000000000000000 0.0000000000000000 0.0000000000000000
1.0000000000000000 0.0000000000000000 0.0000000000000000
1.0000000000000000 0.0000000000000000 0.0000000000000000
1.0000000000000000 0.0000000000000000 0.0000000000000000
1.0000000000000000 0.0000000000000000 0.0000000000000000
1.0000000000000000 0.0000000000000000 0.0000000000000000
1.0000000000000000 0.0000000000000000 0.0000000000000000
1.0000000000000000 0.0000000000000000 0.0000000000000000
1.0000000000000000 0.0000000000000000 0.0000000000000000
1.0000000000000000 0.0000000000000000 0.0000000000000000
1.0000000000000000 0.0000000000000000 0.0000000000000000
1.0000000000000000 0.0000000000000000 0.0000000000000000
1.0000000000000000 0.0000000000000000 0.0000000000000000
1.0000000000000000 0.0000000000000000 0.0000000000000000
1.0000000000000000 0.0000000000000000 0.0000000000000000
1.0000000000000000 0.0000000000000000 0.0000000000000000
1.0000000000000000 0.0000000000000000 0.0000000000000000
1.0000000000000000 0.0000000000000000 0.0000000000000000
1.0000000000000000 0.0000000000000000 0.0000000000000000
1.0000000000000000 0.0000000000000000 0.0000000000000000
1.0000000000000000 0.0000000000000000 0.0000000000000000
1.0000000000000000 0.0000000000000000 0.0000000000000000
1.0000000000000000 0.0000000000000000 0.0000000000000000
1.0000000000000000 0.0000000000000000 0.0000000000000000
1.0000000000000000 0.0000000000000000 0.0000000000000000
1.0000000000000000 0.0000000000000000 0.0000000000000000
1.0000000000000000 0.0000000000000000 0.0000000000000000
1.0000000000000000 0.0000000000000000 0.0000000000000000
1.0000000000000000 0.0000000000000000 0.0000000000000000
1.0000000000000000 0.0000000000000000 0.0000000000000000
1.0000000000000000 0.0000000000000000 0.0000000000000000
1.0000000000000000 0.0000000000000000 0.0000000000000000
1.0000000000000000 0.0000000000000000 0.0000000000000000
1.0000000000000000 0.0000000000000000 0.0000000000000000
1.0000000000000000 0.0000000000000000 0.0000000000000000
1.0000000000000000 0.0000000000000000 0.0000000000000000
1.0000000000000000 0.0000000000000000 0.0000000000000000
1.0000000000000000 0.0000000000000000 0.0000000000000000
1.0000000000000000 0.0000000000000000 0.0000000000000000
1.0000000000000000 0.0000000000000000 0.0000000000000000
1.0000000000000000 0.0000000000000000 0.0000000000000000
1.0000000000000000 0.0000000000000000 0.0000000000000000
1.0000000000000000 0.0000000000000000 0.0000000000000000
1.0000000000000000 0.0000000000000000 0.0000000000000000
1.0000000000000000 0.0000000000000000 0.0000000000000000
1.0000000000000000 0.0000000000000000 0.0000000000000000
1.0000000000000000 0.0000000000000000 0.0000000000000000
1.0000000000000000 0.0000000000000000 0.0000000000000000
1.0000000000000000 0.0000000000000000 0.0000000000000000
1.0000000000000000 0.0000000000000000 0.0000000000000000
1.0000000000000000 0.0000000000000000 0.0000000000000000
1.0000000000000000 0.0000000000000000 0.0000000000000000
1.0000000000000000 0.0000000000000000 0.0000000000000000
1.0000000000000000 0.0000000000000000 0.0000000000000000
1.0000000000000000 0.0000000000000000 0.0000000000000000
1.0000000000000000 0.0000000000000000 0.0000000000000000
1.0000000000000000 0.0000000000000000 0.0000000000000000
1.0000000000000000 0.0000000000000000 0.0000000000000000
1.0000000000000000 0.0000000000000000 0.0000000000000000
1.0000000000000000 0.0000000000000000 0.0000000000000000
1.0000000000000000 0.0000000000000000 0.0000000000000000
1.0000000000000000 0.0000000000000000 0.0000000000000000
1.0000000000000000 0.0000000000000000 0.0000000000000000
1.0000000000000000 0.0000000000000000 0.0000000000000000
1.0000000000000000 0.0000000000000000 0.0000000000000000
1.0000000000000000 0.0000000000000000 0.0000000000000000
1.0000000000000000 0.0000000000000000 0.0000000000000000
1.0000000000000000 0.0000000000000000 0.0000000000000000
1.0000000000000000 0.0000000000000000 0.0000000000000000
1.0000000000000000 0.0000000000000000 0.0000000000000000
1.0000000000000000 0.0000000000000000 0.0000000000000000
1.0000000000000000 0.0000000000000000 0.0000000000000000
1.0000000000000000 0.0000000000000000 0.0000000000000000
1.0000000000000000 0.0000000000000000 0.0000000000000000
1.0000000000000000 0.0000000000000000 0.0000000000000000
1.0000000000000000 0.0000000000000000 0.0000000000000000
1.0000000000000000 0.0000000000000000 0.0000000000000000
1.0000000000000000 0.0000000000000000 0.0000000000000000
1.0000000000000000 0.0000000000000000 0.0000000000000000
1.0000000000000000 0.0000000000000000 0.0000000000000000
1.0000000000000000 0.0000000000000000 0.0000000000000000
1.0000000000000000 0.0000000000000000 0.0000000000000000
1.0000000000000000 0.0000000000000000 0.0000000000000000
1.0000000000000000 0.0000000000000000 0.0000000000000000
1.0000000000000000 0.0000000000000000 0.0000000000000000
1.0000000000000000 0.0000000000000000 0.0000000000000000
1.0000000000000000 0.0000000000000000 0.0000000000000000
1.0000000000000000 0.0000000000000000 0.0000000000000000
1.0000000000000000 0.0000000000000000 0.0000000000000000
1.0000000000000000 0.0000000000000000 0.0000000000000000
1.0000000000000000 0.0000000000000000 0.0000000000000000
1.0000000000000000 0.0000000000000000 0.0000000000000000
1.0000000000000000 0.0000000000000000 0.0000000000000000
1.0000000000000000 0.0000000000000000 0.0000000000000000
1.0000000000000000 0.0000000000000000 0.0000000000000000
1.0000000000000000 0.0000000000000000 0.0000000000000000
1.0000000000000000 0.0000000000000000 0.0000000000000000
1.0000000000000000 0.0000000000000000 0.0000000000000000
1.0000000000000000 0.0000000000000000 0.0000000000000000
1.0000000000000000 0.0000000000000000 0.0000000000000000
1.0000000000000000 0.0000000000000000 0.0000000000000000
1.0000000000000000 0.0000000000000000 0.0000000000000000
1.0000000000000000 0.0000000000000000 0.0000000000000000
1.0000000000000000 0.0000000000000000 0.0000000000000000
1.0000000000000000 0.0000000000000000 0.0000000000000000
1.0000000000000000 0.0000000000000000 0.0000000000000000
1.0000000000000000 0.0000000000000000 0.0000000000000000
1.0000000000000000 0.0000000000000000 0.0000000000000000
1.0000000000000000 0.0000000000000000 0.0000000000000000
1.0000000000000000 0.0000000000000000 0.0000000000000000
1.0000000000000000 0.0000000000000000 0.0000000000000000
1.0000000000000000 0.0000000000000000 0.0000000000000000
1.0000000000000000 0.0000000000000000 0.0000000000000000
1.0000000000000000 0.0000000000000000 0.0000000000000000
1.0000000000000000 0.0000000000000000 0.0000000000000000
1.0000000000000000 0.0000000000000000 0.0000000000000000
1.0000000000000000 0.0000000000000000 0.0000000000000000
1.0000000000000000 0.0000000000000000 0.0000000000000000
1.0000000000000000 0.0000000000000000 0.0000000000000000
1.0000000000000000 0.0000000000000000 0.0000000000000000
1.0000000000000000 0.0000000000000000 0.0000000000000000
1.0000000000000000 0.0000000000000000 0.0000000000000000
1.0000000000000000 0.0000000000000000 0.0000000000000000
1.0000000000000000 0.0000000000000000 0.0000000000000000
1.0000000000000000 0.0000000000000000 0.0000000000000000
1.0000000000000000 0.0000000000000000 0.0000000000000000
1.0000000000000000 0.0000000000000000 0.0000000000000000
1.0000000000000000 0.0000000000000000 0.0000000000000000
1.0000000000000000 0.0000000000000000 0.0000000000000000
1.0000000000000000 0.0000000000000000 0.0000000000000000
1.0000000000000000 0.0000000000000000 0.0000000000000000
1.0000000000000000 0.0000000000000000 0.0000000000000000
1.0000000000000000 0.0000000000000000 0.0000000000000000
1.0000000000000000 0.0000000000000000 0.0000000000000000
1.0000000000000000 0.0000000000000000 0.0000000000000000
1.0000000000000000 0.0000000000000000 0.0000000000000000
1.0000000000000000 0.0000000000000000 0.0000000000000000

SCALARS f:thickness float 1
LOOKUP_TABLE default
0.8500000238418579
0.8500000238418579
0.8500000238418579
0.8500000238418579
0.8500000238418579
0.8500000238418579
0.8500000238418579
0.8500000238418579
0.8500000238418579
0.8500000238418579
0.8500000238418579
0.8500000238418579
0.8500000238418579
0.8500000238418579
0.8500000238418579
0.8500000238418579
0.8500000238418579
0.8500000238418579
0.8500000238418579
0.8500000238418579
0.8500000238418579
0.8500000238418579
0.8500000238418579
0.8500000238418579
0.8500000238418579
0.8500000238418579
0.8500000238418579
0.8500000238418579
0.8500000238418579
0.8500000238418579
0.8500000238418579
0.8500000238418579
0.8500000238418579
0.8500000238418579
0.8500000238418579
0.8500000238418579
0.8500000238418579
0.8500000238418579
0.8500000238418579
0.8500000238418579
0.8500000238418579
0.8500000238418579
0.8500000238418579
0.8500000238418579
0.8500000238418579
0.8500000238418579
0.8500000238418579
0.8500000238418579
0.8500000238418579
0.8500000238418579
0.8500000238418579
0.8500000238418579
0.8500000238418579
0.8500000238418579
0.8500000238418579
0.8500000238418579
0.8500000238418579
0.8500000238418579
0.8500000238418579
0.8500000238418579
0.8500000238418579
0.8500000238418579
0.8500000238418579
0.8500000238418579
0.8500000238418579
0.8500000238418579
0.8500000238418579
0.8500000238418579
0.8500000238418579
0.8500000238418579
0.8500000238418579
0.8500000238418579
0.8500000238418579
0.8500000238418579
0.8500000238418579
0.8500000238418579
0.8500000238418579
0.8500000238418579
0.8500000238418579
0.8500000238418579
0.8500000238418579
0.8500000238418579
0.8500000238418579
0.8500000238418579
0.8500000238418579
0.8500000238418579
0.8500000238418579
0.8500000238418579
0.8500000238418579
0.8500000238418579
0.8500000238418579
0.8500000238418579
0.8500000238418579
0.8500000238418579
0.8500000238418579
0.8500000238418579
0.8500000238418579
0.8500000238418579
0.8500000238418579
0.8500000238418579
0.8500000238418579
0.8500000238418579
0.8500000238418579
0.8500000238418579
0.8500000238418579
0.8500000238418579
0.8500000238418579
0.8500000238418579
0.8500000238418579
0.8500000238418579
0.8500000238418579
0.8500000238418579
0.8500000238418579
0.8500000238418579
0.8500000238418579
0.8500000238418579
0.8500000238418579
0.8500000238418579
0.8500000238418579
0.8500000238418579
0.8500000238418579
0.8500000238418579
0.8500000238418579
0.8500000238418579
0.8500000238418579
0.8500000238418579
0.8500000238418579
0.8500000238418579
0.8500000238418579
0.8500000238418579
0.8500000238418579
0.8500000238418579
0.8500000238418579
0.8500000238418579
0.8500000238418579
0.8500000238418579
0.8500000238418579
0.8500000238418579
0.8500000238418579
0.8500000238418579
0.8500000238418579
0.8500000238418579
0.8500000238418579
0.8500000238418579
0.8500000238418579
0.8500000238418579
0.8500000238418579
0.8500000238418579
0.8500000238418579
0.8500000238418579
0.8500000238418579
0.8500000238418579
0.8500000238418579
0.8500000238418579
0.8500000238418579
0.8500000238418579
0.8500000238418579
0.8500000238418579
0.8500000238418579
0.8500000238418579
0.8500000238418579
0.8500000238418579
0.8500000238418579
0.8500000238418579
0.8500000238418579
0.8500000238418579
0.8500000238418579
0.8500000238418579
0.8500000238418579
0.8500000238418579
0.8500000238418579
0.8500000238418579
0.8500000238418579
0.8500000238418579
0.8500000238418579
0.8500000238418579
0.8500000238418579
0.8500000238418579
0.8500000238418579
0.8500000238418579
0.8500000238418579
0.8500000238418579
0.8500000238418579
0.8500000238418579
0.8500000238418579
0.8500000238418579
0.8500000238418579
0.8500000238418579
0.8500000238418579
0.8500000238418579
0.8500000238418579
0.8500000238418579
0.8500000238418579
0.8500000238418579
0.8500000238418579
0.8500000238418579
0.8500000238418579
0.8500000238418579
0.8500000238418579
0.8500000238418579
0.8500000238418579
0.8500000238418579
0.8500000238418579
0.8500000238418579
0.8500000238418579
0.8500000238418579
0.8500000238418579
0.8500000238418579
0.8500000238418579
0.8500000238418579
0.8500000238418579
0.8500000238418579
0.8500000238418579
0.8500000238418579
0.8500000238418579
0.8500000238418579
0.8500000238418579
0.8500000238418579
0.8500000238418579
0.8500000238418579
0.8500000238418579
0.8500000238418579
0.8500000238418579
0.8500000238418579
0.8500000238418579
0.8500000238418579
0.8500000238418579
0.8500000238418579
0.8500000238418579
0.8500000238418579
0.8500000238418579
0.8500000238418579
0.8500000238418579
0.8500000238418579
0.8500000238418579
0.8500000238418579
0.8500000238418579
0.8500000238418579
0.8500000238418579
0.8500000238418579
0.8500000238418579
0.8500000238418579
0.8500000238418579
0.8500000238418579
0.8500000238418579
0.8500000238418579
0.8500000238418579
0.8500000238418579
0.8500000238418579
0.8500000238418579
0.8500000238418579
0.8500000238418579
0.8500000238418579
0.8500000238418579
0.8500000238418579
0.8500000238418579
0.8500000238418579
0.8500000238418579
0.8500000238418579
0.8500000238418579
0.8500000238418579
0.8500000238418579
0.8500000238418579
0.8500000238418579
0.8500000238418579
0.8500000238418579
0.8500000238418579
0.8500000238418579
0.8500000238418579
0.8500000238418579
0.8500000238418579
0.8500000238418579
0.8500000238418579
0.8500000238418579
0.8500000238418579
0.8500000238418579
0.8500000238418579
0.8500000238418579
0.8500000238418579
0.8500000238418579
0.8500000238418579
0.8500000238418579
0.8500000238418579
0.8500000238418579
0.8500000238418579
0.8500000238418579
0.8500000238418579
0.8500000238418579
0.8500000238418579
0.8500000238418579
0.8500000238418579
0.8500000238418579
0.8500000238418579
0.8500000238418579
0.8500000238418579
0.8500000238418579
0.8500000238418579
0.8500000238418579
0.8500000238418579
0.8500000238418579
0.8500000238418579
0.8500000238418579
0.8500000238418579
0.8500000238418579
0.8500000238418579
0.8500000238418579
0.8500000238418579
0.8500000238418579
0.8500000238418579
0.8500000238418579
0.8500000238418579
0.8500000238418579
0.8500000238418579
0.8500000238418579
0.8500000238418579
0.8500000238418579
0.8500000238418579
0.8500000238418579
0.8500000238418579
0.8500000238418579
0.8500000238418579
0.8500000238418579
0.8500000238418579
0.8500000238418579
0.8500000238418579
0.8500000238418579
0.8500000238418579
0.8500000238418579
0.8500000238418579
0.8500000238418579
0.8500000238418579
0.8500000238418579
0.8500000238418579
0.8500000238418579
0.8500000238418579
0.8500000238418579
0.8500000238418579
0.8500000238418579
0.8500000238418579
0.8500000238418579
0.8500000238418579
0.8500000238418579
0.8500000238418579
0.8500000238418579
0.8500000238418579
0.8500000238418579
0.8500000238418579
0.8500000238418579
0.8500000238418579
0.8500000238418579
0.8500000238418579
0.8500000238418579
0.8500000238418579
0.8500000238418579
0.8500000238418579
0.8500000238418579
0.8500000238418579
0.8500000238418579
0.8500000238418579
0.8500000238418579
0.8500000238418579
0.8500000238418579
0.8500000238418579
0.8500000238418579
0.8500000238418579
0.8500000238418579
0.8500000238418579
0.8500000238418579
0.8500000238418579
0.8500000238418579
0.8500000238418579
0.8500000238418579
0.8500000238418579
0.8500000238418579
0.8500000238418579
0.8500000238418579
0.8500000238418579
0.8500000238418579
0.8500000238418579
0.8500000238418579
0.8500000238418579
0.8500000238418579
0.8500000238418579
0.8500000238418579
0.8500000238418579
0.8500000238418579
0.8500000238418579
0.8500000238418579
0.8500000238418579
0.8500000238418579
0.8500000238418579
0.8500000238418579
0.8500000238418579
0.8500000238418579
0.8500000238418579
0.8500000238418579
0.8500000238418579
0.8500000238418579
0.8500000238418579
0.8500000238418579
0.8500000238418579
0.8500000238418579
0.8500000238418579
0.8500000238418579
0.8500000238418579
0.8500000238418579
0.8500000238418579
0.8500000238418579
0.8500000238418579
0.8500000238418579
0.8500000238418579
0.8500000238418579
0.8500000238418579
0.8500000238418579
0.8500000238418579
0.8500000238418579
0.8500000238418579
0.8500000238418579
0.8500000238418579
0.8500000238418579
0.8500000238418579
0.8500000238418579
0.8500000238418579
0.8500000238418579
0.8500000238418579
0.8500000238418579
0.8500000238418579
0.8500000238418579
0.8500000238418579
0.8500000238418579
0.8500000238418579
0.8500000238418579
0.8500000238418579
0.8500000238418579
0.8500000238418579
0.8500000238418579
0.8500000238418579
0.8500000238418579
0.8500000238418579
0.8500000238418579
0.8500000238418579
0.8500000238418579
0.8500000238418579
0.8500000238418579
0.8500000238418579
0.8500000238418579
0.8500000238418579
0.8500000238418579
0.8500000238418579
0.8500000238418579
0.8500000238418579
0.8500000238418579
0.8500000238418579
0.8500000238418579
0.8500000238418579
0.8500000238418579
0.8500000238418579
0.8500000238418579
0.8500000238418579
0.8500000238418579
0.8500000238418579
0.8500000238418579
0.8500000238418579
0.8500000238418579
0.8500000238418579
0.8500000238418579
0.8500000238418579
0.8500000238418579
0.8500000238418579
0.8500000238418579
0.8500000238418579
0.8500000238418579
0.8500000238418579
0.8500000238418579
0.8500000238418579
0.8500000238418579
0.8500000238418579
0.8500000238418579
0.8500000238418579
0.8500000238418579
0.8500000238418579
0.8500000238418579
0.8500000238418579
0.8500000238418579
0.8500000238418579
0.8500000238418579
0.8500000238418579
0.8500000238418579
0.8500000238418579
0.8500000238418579
0.8500000238418579
0.8500000238418579
0.8500000238418579
0.8500000238418579
0.8500000238418579
0.8500000238418579
0.8500000238418579
0.8500000238418579
0.8500000238418579
0.8500000238418579
0.8500000238418579
0.8500000238418579
0.8500000238418579
0.8500000238418579
0.8500000238418579
0.8500000238418579
0.8500000238418579
0.8500000238418579
0.8500000238418579
0.8500000238418579
0.8500000238418579
0.8500000238418579
0.8500000238418579
0.8500000238418579
0.8500000238418579
0.8500000238418579
0.8500000238418579
0.8500000238418579
0.8500000238418579
0.8500000238418579
0.8500000238418579
0.8500000238418579
0.8500000238418579
0.8500000238418579
0.8500000238418579
0.8500000238418579
0.8500000238418579
0.8500000238418579
0.8500000238418579
0.8500000238418579
0.8500000238418579
0.8500000238418579
0.8500000238418579
0.8500000238418579
0.8500000238418579
0.8500000238418579
0.8500000238418579
0.8500000238418579
0.8500000238418579
0.8500000238418579
0.8500000238418579
0.8500000238418579
0.8500000238418579
0.8500000238418579
0.8500000238418579
0.8500000238418579
0.8500000238418579
0.8500000238418579
0.8500000238418579
0.8500000238418579
0.8500000238418579
0.8500000238418579
0.8500000238418579
0.8500000238418579
0.8500000238418579
0.8500000238418579
0.8500000238418579
0.8500000238418579
0.8500000238418579
0.8500000238418579
0.8500000238418579
0.8500000238418579
0.8500000238418579
0.8500000238418579
0.8500000238418579
0.8500000238418579
0.8500000238418579
0.8500000238418579
0.8500000238418579
0.8500000238418579
0.8500000238418579
0.8500000238418579
0.8500000238418579
0.8500000238418579
0.8500000238418579
0.8500000238418579
0.8500000238418579
0.8500000238418579
0.8500000238418579
0.8500000238418579
0.8500000238418579
0.8500000238418579
0.8500000238418579
0.8500000238418579
0.8500000238418579
0.8500000238418579
0.8500000238418579
0.8500000238418579
0.8500000238418579
0.8500000238418579
0.8500000238418579
0.8500000238418579
0.8500000238418579
0.8500000238418579
0.8500000238418579
0.8500000238418579
0.8500000238418579
0.8500000238418579
0.8500000238418579
0.8500000238418579
0.8500000238418579
0.8500000238418579
0.8500000238418579
0.8500000238418579
0.8500000238418579
0.8500000238418579
0.8500000238418579
0.8500000238418579
0.8500000238418579
0.8500000238418579
0.8500000238418579
0.8500000238418579
0.8500000238418579
0.8500000238418579
0.8500000238418579
0.8500000238418579
0.8500000238418579
0.8500000238418579
0.8500000238418579
0.8500000238418579
0.8500000238418579
0.8500000238418579
0.8500000238418579
0.8500000238418579
0.8500000238418579
0.8500000238418579
0.8500000238418579
0.8500000238418579
0.8500000238418579
0.8500000238418579
0.8500000238418579
0.8500000238418579
0.8500000238418579
0.8500000238418579
0.8500000238418579
0.8500000238418579
0.8500000238418579
0.8500000238418579
0.8500000238418579
0.8500000238418579
0.8500000238418579
0.8500000238418579
0.8500000238418579
0.8500000238418579
0.8500000238418579
0.8500000238418579
0.8500000238418579
0.8500000238418579
0.8500000238418579
0.8500000238418579
0.8500000238418579
0.8500000238418579
0.8500000238418579
0.8500000238418579
0.8500000238418579
0.8500000238418579
0.8500000238418579
0.8500000238418579
0.8500000238418579
0.8500000238418579
0.8500000238418579
0.8500000238418579
0.8500000238418579
0.8500000238418579
0.8500000238418579
0.8500000238418579
0.8500000238418579
0.8500000238418579
0.8500000238418579
0.8500000238418579
0.8500000238418579
0.8500000238418579
0.8500000238418579
0.8500000238418579
0.8500000238418579
0.8500000238418579
0.8500000238418579
0.8500000238418579
0.8500000238418579
0.8500000238418579
0.8500000238418579
0.8500000238418579
0.8500000238418579
0.8500000238418579
0.8500000238418579
0.8500000238418579
0.8500000238418579
0.8500000238418579
0.8500000238418579
0.8500000238418579
0.8500000238418579
0.8500000238418579
0.8500000238418579
0.8500000238418579
0.8500000238418579
0.8500000238418579
0.8500000238418579
0.8500000238418579
0.8500000238418579
0.8500000238418579
0.8500000238418579
0.8500000238418579
0.8500000238418579
0.8500000238418579
0.8500000238418579
0.8500000238418579
0.8500000238418579
0.8500000238418579
0.8500000238418579
0.8500000238418579
0.8500000238418579
0.8500000238418579
0.8500000238418579
0.8500000238418579
0.8500000238418579
0.8500000238418579
0.8500000238418579
0.8500000238418579
0.8500000238418579
0.8500000238418579
0.8500000238418579
0.8500000238418579
0.8500000238418579
0.8500000238418579
0.8500000238418579
0.8500000238418579
0.8500000238418579
0.8500000238418579
0.8500000238418579
0.8500000238418579
0.8500000238418579
0.8500000238418579
0.8500000238418579
0.8500000238418579
0.8500000238418579
0.8500000238418579
0.8500000238418579
0.8500000238418579
0.8500000238418579
0.8500000238418579
0.8500000238418579
0.8500000238418579
0.8500000238418579
0.8500000238418579
0.8500000238418579
0.8500000238418579
0.8500000238418579
0.8500000238418579
0.8500000238418579
0.8500000238418579
0.8500000238418579
0.8500000238418579
0.8500000238418579
0.8500000238418579
0.8500000238418579
0.8500000238418579
0.8500000238418579
0.8500000238418579
0.8500000238418579
0.8500000238418579
0.8500000238418579
0.8500000238418579
0.8500000238418579
0.8500000238418579
0.8500000238418579
0.8500000238418579
0.8500000238418579
0.8500000238418579
0.8500000238418579
0.8500000238418579
0.8500000238418579
0.8500000238418579
0.8500000238418579
0.8500000238418579
0.8500000238418579
0.8500000238418579
0.8500000238418579
0.8500000238418579
0.8500000238418579
0.8500000238418579
0.8500000238418579
0.8500000238418579
0.8500000238418579
0.8500000238418579
0.8500000238418579
0.8500000238418579
0.8500000238418579
0.8500000238418579
0.8500000238418579
0.8500000238418579
0.8500000238418579
0.8500000238418579
0.8500000238418579
0.8500000238418579
0.8500000238418579
0.8500000238418579
0.8500000238418579
0.8500000238418579
0.8500000238418579
0.8500000238418579
0.8500000238418579
0.8500000238418579
0.8500000238418579
0.8500000238418579
0.8500000238418579
0.8500000238418579
0.8500000238418579
0.8500000238418579
0.8500000238418579
0.8500000238418579
0.8500000238418579
0.8500000238418579
0.8500000238418579
0.8500000238418579
0.8500000238418579
0.8500000238418579
0.8500000238418579
0.8500000238418579
0.8500000238418579
0.8500000238418579
0.8500000238418579
0.8500000238418579
0.8500000238418579
0.8500000238418579
0.8500000238418579
0.8500000238418579
0.8500000238418579
0.8500000238418579
0.8500000238418579
0.8500000238418579
0.8500000238418579
0.8500000238418579
0.8500000238418579
0.8500000238418579
0.8500000238418579
0.8500000238418579
0.8500000238418579
0.8500000238418579
0.8500000238418579
0.8500000238418579
0.8500000238418579
0.8500000238418579
0.8500000238418579
0.8500000238418579
0.8500000238418579
0.8500000238418579
0.8500000238418579
0.8500000238418579
0.8500000238418579
0.8500000238418579
0.8500000238418579
0.8500000238418579
0.8500000238418579
0.8500000238418579
0.8500000238418579
0.8500000238418579
0.8500000238418579
0.8500000238418579
0.8500000238418579
0.8500000238418579
0.8500000238418579
0.8500000238418579
0.8500000238418579
0.8500000238418579
0.8500000238418579
0.8500000238418579
0.8500000238418579
0.8500000238418579
0.8500000238418579
0.8500000238418579
0.8500000238418579
0.8500000238418579
0.8500000238418579
0.8500000238418579
0.8500000238418579
0.8500000238418579
0.8500000238418579
0.8500000238418579
0.8500000238418579
0.8500000238418579
0.8500000238418579
0.8500000238418579
0.8500000238418579
0.8500000238418579
0.8500000238418579
0.8500000238418579
0.8500000238418579
0.8500000238418579
0.8500000238418579
0.8500000238418579
0.8500000238418579
0.8500000238418579
0.8500000238418579
0.8500000238418579
0.8500000238418579
0.8500000238418579
0.8500000238418579
0.8500000238418579
0.8500000238418579
0.8500000238418579
0.8500000238418579
0.8500000238418579
0.8500000238418579
0.8500000238418579
0.8500000238418579
0.8500000238418579
0.8500000238418579
0.8500000238418579
0.8500000238418579
0.8500000238418579
0.8500000238418579
0.8500000238418579
0.8500000238418579
0.8500000238418579
0.8500000238418579
0.8500000238418579
0.8500000238418579
0.8500000238418579
0.8500000238418579
0.8500000238418579
0.8500000238418579
0.8500000238418579
0.8500000238418579
0.8500000238418579
0.8500000238418579
0.8500000238418579
0.8500000238418579
0.8500000238418579
0.8500000238418579
0.8500000238418579
0.8500000238418579
0.8500000238418579
0.8500000238418579
0.8500000238418579
0.8500000238418579
0.8500000238418579
0.8500000238418579
0.8500000238418579
0.8500000238418579
0.8500000238418579
0.8500000238418579
0.8500000238418579
0.8500000238418579
0.8500000238418579
0.8500000238418579
0.8500000238418579
0.8500000238418579
0.8500000238418579
0.8500000238418579
0.8500000238418579
0.8500000238418579
0.8500000238418579
0.8500000238418579
0.8500000238418579
0.8500000238418579
0.8500000238418579
0.8500000238418579
0.8500000238418579
0.8500000238418579
0.8500000238418579
0.8500000238418579
0.8500000238418579
0.8500000238418579
0.8500000238418579
0.8500000238418579
0.8500000238418579
0.8500000238418579
0.8500000238418579
0.8500000238418579
0.8500000238418579
0.8500000238418579
0.8500000238418579
0.8500000238418579
0.8500000238418579
0.8500000238418579
0.8500000238418579
0.8500000238418579
0.8500000238418579
0.8500000238418579
0.8500000238418579
0.8500000238418579
0.8500000238418579
0.8500000238418579
0.8500000238418579
0.8500000238418579
0.8500000238418579
0.8500000238418579
0.8500000238418579
0.8500000238418579
0.8500000238418579
0.8500000238418579
0.8500000238418579
0.8500000238418579
0.8500000238418579
0.8500000238418579
0.8500000238418579
0.8500000238418579
0.8500000238418579
0.8500000238418579
0.8500000238418579
0.8500000238418579
0.8500000238418579
0.8500000238418579
0.8500000238418579
0.8500000238418579
0.8500000238418579
0.8500000238418579
0.8500000238418579
0.8500000238418579
0.8500000238418579
0.8500000238418579
0.8500000238418579
0.8500000238418579
0.8500000238418579
0.8500000238418579
0.8500000238418579
0.8500000238418579
0.8500000238418579
0.8500000238418579
0.8500000238418579
0.8500000238418579
0.8500000238418579
0.8500000238418579
0.8500000238418579
0.8500000238418579
0.8500000238418579
0.8500000238418579
0.8500000238418579
0.8500000238418579
0.8500000238418579
0.8500000238418579
0.8500000238418579
0.8500000238418579
0.8500000238418579
0.8500000238418579
0.8500000238418579
0.8500000238418579
0.8500000238418579
0.8500000238418579
0.8500000238418579
0.8500000238418579
0.8500000238418579
0.8500000238418579
0.8500000238418579
0.8500000238418579
0.8500000238418579
0.8500000238418579
0.8500000238418579
0.8500000238418579
0.8500000238418579
0.8500000238418579
0.8500000238418579
0.8500000238418579
0.8500000238418579
0.8500000238418579
0.8500000238418579
0.8500000238418579
0.8500000238418579
0.8500000238418579
0.8500000238418579
0.8500000238418579
0.8500000238418579
0.8500000238418579
0.8500000238418579
0.8500000238418579
0.8500000238418579
0.8500000238418579
0.8500000238418579
0.8500000238418579
0.8500000238418579
0.8500000238418579
0.8500000238418579
0.8500000238418579
0.8500000238418579
0.8500000238418579
0.8500000238418579
0.8500000238418579
0.8500000238418579
0.8500000238418579
0.8500000238418579
0.8500000238418579
0.8500000238418579
0.8500000238418579
0.8500000238418579
0.8500000238418579
0.8500000238418579
0.8500000238418579
0.8500000238418579
0.8500000238418579
0.8500000238418579
0.8500000238418579
0.8500000238418579
0.8500000238418579
0.8500000238418579
0.8500000238418579
0.8500000238418579
0.8500000238418579
0.8500000238418579
0.8500000238418579
0.8500000238418579
0.8500000238418579
0.8500000238418579
0.8500000238418579
0.8500000238418579
0.8500000238418579
0.8500000238418579
0.8500000238418579
0.8500000238418579
0.8500000238418579
0.8500000238418579
0.8500000238418579
0.8500000238418579
0.8500000238418579
0.8500000238418579
0.8500000238418579
0.8500000238418579
0.8500000238418579
0.8500000238418579
0.8500000238418579
0.8500000238418579
0.8500000238418579
0.8500000238418579
0.8500000238418579
0.8500000238418579
0.8500000238418579
0.8500000238418579
0.8500000238418579
0.8500000238418579
0.8500000238418579
0.8500000238418579
0.8500000238418579
0.8500000238418579
0.8500000238418579
0.8500000238418579
0.8500000238418579
0.8500000238418579
0.8500000238418579
0.8500000238418579
0.8500000238418579
0.8500000238418579
0.8500000238418579
0.8500000238418579
0.8500000238418579
0.8500000238418579
0.8500000238418579
0.8500000238418579
0.8500000238418579
0.8500000238418579
0.8500000238418579
0.8500000238418579
0.8500000238418579
0.8500000238418579
0.8500000238418579
0.8500000238418579
0.8500000238418579
0.8500000238418579
0.8500000238418579
0.8500000238418579
0.8500000238418579
0.8500000238418579
0.8500000238418579
0.8500000238418579
0.8500000238418579
0.8500000238418579
0.8500000238418579
0.8500000238418579
0.8500000238418579
0.8500000238418579
0.8500000238418579
0.8500000238418579
0.8500000238418579
0.8500000238418579
0.8500000238418579
0.8500000238418579
0.8500000238418579
0.8500000238418579
0.8500000238418579
0.8500000238418579
0.8500000238418579
0.8500000238418579
0.8500000238418579
0.8500000238418579
0.8500000238418579
0.8500000238418579
0.8500000238418579
0.8500000238418579
0.8500000238418579
0.8500000238418579
0.8500000238418579
0.8500000238418579
0.8500000238418579
0.8500000238418579
0.8500000238418579
0.8500000238418579
0.8500000238418579
0.8500000238418579
0.8500000238418579
0.8500000238418579
0.8500000238418579
0.8500000238418579
0.8500000238418579
0.8500000238418579
0.8500000238418579
0.8500000238418579
0.8500000238418579
0.8500000238418579
0.8500000238418579
0.8500000238418579
0.8500000238418579
0.8500000238418579
0.8500000238418579
0.8500000238418579
0.8500000238418579
0.8500000238418579
0.8500000238418579
0.8500000238418579
0.8500000238418579
0.8500000238418579
0.8500000238418579
0.8500000238418579
0.8500000238418579
0.8500000238418579
0.8500000238418579
0.8500000238418579
0.8500000238418579
0.8500000238418579
0.8500000238418579
0.8500000238418579
0.8500000238418579
0.8500000238418579
0.8500000238418579
0.8500000238418579
0.8500000238418579
0.8500000238418579
0.8500000238418579
0.8500000238418579
0.8500000238418579
0.8500000238418579
0.8500000238418579
0.8500000238418579
0.8500000238418579
0.8500000238418579
0.8500000238418579
0.8500000238418579
0.8500000238418579
0.8500000238418579
0.8500000238418579
0.8500000238418579
0.8500000238418579
0.8500000238418579
0.8500000238418579
0.8500000238418579
0.8500000238418579
0.8500000238418579
0.8500000238418579
0.8500000238418579
0.8500000238418579
0.8500000238418579
0.8500000238418579
0.8500000238418579
0.8500000238418579
0.8500000238418579
0.8500000238418579
0.8500000238418579
0.8500000238418579
0.8500000238418579
0.8500000238418579
0.8500000238418579
0.8500000238418579
0.8500000238418579
0.8500000238418579
0.8500000238418579
0.8500000238418579
0.8500000238418579
0.8500000238418579
0.8500000238418579
0.8500000238418579
0.8500000238418579
0.8500000238418579
0.8500000238418579
0.8500000238418579
0.8500000238418579
0.8500000238418579
0.8500000238418579
0.8500000238418579
0.8500000238418579
0.8500000238418579
0.8500000238418579
0.8500000238418579
0.8500000238418579
0.8500000238418579
0.8500000238418579
0.8500000238418579
0.8500000238418579
0.8500000238418579
0.8500000238418579
0.8500000238418579
0.8500000238418579
0.8500000238418579
0.8500000238418579
0.8500000238418579
0.8500000238418579
0.8500000238418579
0.8500000238418579
0.8500000238418579
0.8500000238418579
0.8500000238418579
0.8500000238418579
0.8500000238418579
0.8500000238418579
0.8500000238418579
0.8500000238418579
0.8500000238418579
0.8500000238418579
0.8500000238418579
0.8500000238418579
0.8500000238418579
0.8500000238418579
0.8500000238418579
0.8500000238418579
0.8500000238418579
0.8500000238418579
0.8500000238418579
0.8500000238418579
0.8500000238418579
0.8500000238418579
0.8500000238418579
0.8500000238418579
0.8500000238418579
0.8500000238418579
0.8500000238418579
0.8500000238418579
0.8500000238418579
0.8500000238418579
0.8500000238418579
0.8500000238418579
0.8500000238418579
0.8500000238418579
0.8500000238418579
0.8500000238418579
0.8500000238418579
0.8500000238418579
0.8500000238418579
0.8500000238418579
0.8500000238418579
0.8500000238418579
0.8500000238418579
0.8500000238418579
0.8500000238418579
0.8500000238418579
0.8500000238418579
0.8500000238418579
0.8500000238418579
0.8500000238418579
0.8500000238418579
0.8500000238418579
0.8500000238418579
0.8500000238418579
0.8500000238418579
0.8500000238418579
0.8500000238418579
0.8500000238418579
0.8500000238418579
0.8500000238418579
0.8500000238418579
0.8500000238418579
0.8500000238418579
0.8500000238418579
0.8500000238418579
0.8500000238418579
0.8500000238418579
0.8500000238418579
0.8500000238418579
0.8500000238418579
0.8500000238418579
0.8500000238418579
0.8500000238418579
0.8500000238418579
0.8500000238418579
0.8500000238418579
0.8500000238418579
0.8500000238418579
0.8500000238418579
0.8500000238418579
0.8500000238418579
0.8500000238418579
0.8500000238418579
0.8500000238418579
0.8500000238418579
0.8500000238418579
0.8500000238418579
0.8500000238418579
0.8500000238418579
0.8500000238418579
0.8500000238418579
0.8500000238418579
0.8500000238418579
0.8500000238418579
0.8500000238418579
0.8500000238418579
0.8500000238418579
0.8500000238418579
0.8500000238418579
0.8500000238418579
0.8500000238418579
0.8500000238418579
0.8500000238418579
0.8500000238418579
0.8500000238418579
0.8500000238418579
0.8500000238418579
0.8500000238418579
0.8500000238418579
0.8500000238418579
0.8500000238418579
0.8500000238418579
0.8500000238418579
0.8500000238418579
0.8500000238418579
0.8500000238418579
0.8500000238418579
0.8500000238418579
0.8500000238418579
0.8500000238418579
0.8500000238418579
0.8500000238418579
0.8500000238418579
0.8500000238418579
0.8500000238418579
0.8500000238418579
0.8500000238418579
0.8500000238418579
0.8500000238418579
0.8500000238418579
0.8500000238418579
0.8500000238418579
0.8500000238418579
0.8500000238418579
0.8500000238418579
0.8500000238418579
0.8500000238418579
0.8500000238418579
0.8500000238418579
0.8500000238418579
0.8500000238418579
0.8500000238418579
0.8500000238418579
0.8500000238418579
0.8500000238418579
0.8500000238418579
0.8500000238418579
0.8500000238418579
0.8500000238418579
0.8500000238418579
0.8500000238418579
0.8500000238418579
0.8500000238418579
0.8500000238418579
0.8500000238418579
0.8500000238418579
0.8500000238418579
0.8500000238418579
0.8500000238418579
0.8500000238418579
0.8500000238418579
0.8500000238418579
0.8500000238418579
0.8500000238418579
0.8500000238418579
0.8500000238418579
0.8500000238418579
0.8500000238418579
0.8500000238418579
0.8500000238418579
0.8500000238418579
0.8500000238418579
0.8500000238418579
0.8500000238418579
0.8500000238418579
0.8500000238418579
0.8500000238418579
0.8500000238418579
0.8500000238418579
0.8500000238418579
0.8500000238418579
0.8500000238418579
0.8500000238418579
0.8500000238418579
0.8500000238418579
0.8500000238418579
0.8500000238418579
0.8500000238418579
0.8500000238418579
0.8500000238418579
0.8500000238418579
0.8500000238418579
0.8500000238418579
0.8500000238418579
0.8500000238418579
0.8500000238418579
0.8500000238418579
0.8500000238418579
0.8500000238418579
0.8500000238418579
0.8500000238418579
0.8500000238418579
0.8500000238418579
0.8500000238418579
0.8500000238418579
0.8500000238418579
0.8500000238418579
0.8500000238418579
0.8500000238418579
0.8500000238418579
0.8500000238418579
0.8500000238418579
0.8500000238418579
0.8500000238418579
0.8500000238418579
0.8500000238418579
0.8500000238418579
0.8500000238418579
0.8500000238418579
0.8500000238418579
0.8500000238418579
0.8500000238418579
0.8500000238418579
0.8500000238418579
0.8500000238418579
0.8500000238418579
0.8500000238418579
0.8500000238418579
0.8500000238418579
0.8500000238418579
0.8500000238418579
0.8500000238418579
0.8500000238418579
0.8500000238418579
0.8500000238418579
0.8500000238418579
0.8500000238418579
0.8500000238418579
0.8500000238418579
0.8500000238418579
0.8500000238418579
0.8500000238418579
0.8500000238418579
0.8500000238418579
0.8500000238418579
0.8500000238418579
0.8500000238418579
0.8500000238418579
0.8500000238418579
0.8500000238418579
0.8500000238418579
0.8500000238418579
0.8500000238418579
0.8500000238418579
0.8500000238418579
0.8500000238418579
0.8500000238418579
0.8500000238418579
0.8500000238418579
0.8500000238418579
0.8500000238418579
0.8500000238418579
0.8500000238418579
0.8500000238418579
0.8500000238418579
0.8500000238418579
0.8500000238418579
0.8500000238418579
0.8500000238418579
0.8500000238418579
0.8500000238418579
0.8500000238418579
0.8500000238418579
0.8500000238418579
0.8500000238418579
0.8500000238418579
0.8500000238418579
0.8500000238418579
0.8500000238418579
0.8500000238418579
0.8500000238418579
0.8500000238418579
0.8500000238418579
0.8500000238418579
0.8500000238418579
0.8500000238418579
0.8500000238418579
0.8500000238418579
0.8500000238418579
0.8500000238418579
0.8500000238418579
0.8500000238418579
0.8500000238418579
0.8500000238418579
0.8500000238418579
0.8500000238418579
0.8500000238418579
0.8500000238418579
0.8500000238418579
0.8500000238418579
0.8500000238418579
0.8500000238418579
0.8500000238418579
0.8500000238418579
0.8500000238418579
0.8500000238418579
0.8500000238418579
0.8500000238418579
0.8500000238418579
0.8500000238418579
0.8500000238418579
0.8500000238418579
0.8500000238418579
0.8500000238418579
0.8500000238418579
0.8500000238418579
0.8500000238418579
0.8500000238418579
0.8500000238418579
0.8500000238418579
0.8500000238418579
0.8500000238418579
0.8500000238418579
0.8500000238418579
0.8500000238418579
0.8500000238418579
0.8500000238418579
0.8500000238418579
0.8500000238418579
0.8500000238418579
0.8500000238418579
0.8500000238418579
0.8500000238418579
0.8500000238418579
0.8500000238418579
0.8500000238418579
0.8500000238418579
0.8500000238418579
0.8500000238418579
0.8500000238418579
0.8500000238418579
0.8500000238418579
0.8500000238418579
0.8500000238418579
0.8500000238418579
0.8500000238418579
0.8500000238418579
0.8500000238418579
0.8500000238418579
0.8500000238418579
0.8500000238418579
0.8500000238418579
0.8500000238418579
0.8500000238418579
0.8500000238418579
0.8500000238418579
0.8500000238418579
0.8500000238418579
0.8500000238418579
0.8500000238418579
0.8500000238418579
0.8500000238418579
0.8500000238418579
0.8500000238418579
0.8500000238418579
0.8500000238418579
0.8500000238418579
0.8500000238418579
0.8500000238418579
0.8500000238418579
0.8500000238418579
0.8500000238418579
0.8500000238418579
0.8500000238418579
0.8500000238418579
0.8500000238418579
0.8500000238418579
0.8500000238418579
0.8500000238418579
0.8500000238418579
0.8500000238418579
0.8500000238418579
0.8500000238418579
0.8500000238418579
0.8500000238418579
0.8500000238418579
0.8500000238418579
0.8500000238418579
0.8500000238418579
0.8500000238418579
0.8500000238418579
0.8500000238418579
0.8500000238418579
0.8500000238418579
0.8500000238418579
0.8500000238418579
0.8500000238418579
0.8500000238418579
0.8500000238418579
0.8500000238418579
0.8500000238418579
0.8500000238418579
0.8500000238418579
0.8500000238418579
0.8500000238418579
0.8500000238418579
0.8500000238418579
0.8500000238418579
0.8500000238418579
0.8500000238418579
0.8500000238418579
0.8500000238418579
0.8500000238418579
0.8500000238418579
0.8500000238418579
0.8500000238418579
0.8500000238418579
0.8500000238418579
0.8500000238418579
0.8500000238418579
0.8500000238418579
0.8500000238418579
0.8500000238418579
0.8500000238418579
0.8500000238418579
0.8500000238418579
0.8500000238418579
0.8500000238418579
0.8500000238418579
0.8500000238418579
0.8500000238418579
0.8500000238418579
0.8500000238418579
0.8500000238418579
0.8500000238418579
0.8500000238418579
0.8500000238418579
0.8500000238418579
0.8500000238418579
0.8500000238418579
0.8500000238418579
0.8500000238418579
0.8500000238418579
0.8500000238418579
0.8500000238418579
0.8500000238418579
0.8500000238418579
0.8500000238418579
0.8500000238418579
0.8500000238418579
0.8500000238418579
0.8500000238418579
0.8500000238418579
0.8500000238418579
0.8500000238418579
0.8500000238418579
0.8500000238418579
0.8500000238418579
0.8500000238418579
0.8500000238418579
0.8500000238418579
0.8500000238418579
0.8500000238418579
0.8500000238418579
0.8500000238418579
0.8500000238418579
0.8500000238418579
0.8500000238418579
0.8500000238418579
0.8500000238418579
0.8500000238418579
0.8500000238418579
0.8500000238418579
0.8500000238418579
0.8500000238418579
0.8500000238418579
0.8500000238418579
0.8500000238418579
0.8500000238418579
0.8500000238418579
0.8500000238418579
0.8500000238418579
0.8500000238418579
0.8500000238418579
0.8500000238418579
0.8500000238418579
0.8500000238418579
0.8500000238418579
0.8500000238418579
0.8500000238418579
0.8500000238418579
0.8500000238418579
0.8500000238418579
0.8500000238418579
0.8500000238418579
0.8500000238418579
0.8500000238418579
0.8500000238418579
0.8500000238418579
0.8500000238418579
0.8500000238418579
0.8500000238418579
0.8500000238418579
0.8500000238418579
0.8500000238418579
0.8500000238418579
0.8500000238418579
0.8500000238418579
0.8500000238418579
0.8500000238418579
0.8500000238418579
0.8500000238418579
0.8500000238418579
0.8500000238418579
0.8500000238418579
0.8500000238418579
0.8500000238418579
0.8500000238418579
0.8500000238418579
0.8500000238418579
0.8500000238418579
0.8500000238418579
0.8500000238418579
0.8500000238418579
0.8500000238418579
0.8500000238418579
0.8500000238418579
0.8500000238418579
0.8500000238418579
0.8500000238418579
0.8500000238418579
0.8500000238418579
0.8500000238418579
0.8500000238418579
0.8500000238418579
0.8500000238418579
0.8500000238418579
0.8500000238418579
0.8500000238418579
0.8500000238418579
0.8500000238418579
0.8500000238418579
0.8500000238418579
0.8500000238418579
0.8500000238418579
0.8500000238418579
0.8500000238418579
0.8500000238418579
0.8500000238418579
0.8500000238418579
0.8500000238418579
0.8500000238418579
0.8500000238418579
0.8500000238418579
0.8500000238418579
0.8500000238418579
0.8500000238418579
0.8500000238418579
0.8500000238418579
0.8500000238418579
0.8500000238418579
0.8500000238418579
0.8500000238418579
0.8500000238418579
0.8500000238418579
0.8500000238418579
0.8500000238418579
0.8500000238418579
0.8500000238418579
0.8500000238418579
0.8500000238418579
0.8500000238418579
0.8500000238418579
0.8500000238418579
0.8500000238418579
0.8500000238418579
0.8500000238418579
0.8500000238418579
0.8500000238418579
0.8500000238418579
0.8500000238418579
0.8500000238418579
0.8500000238418579
0.8500000238418579
0.8500000238418579
0.8500000238418579
0.8500000238418579
0.8500000238418579
0.8500000238418579
0.8500000238418579
0.8500000238418579
0.8500000238418579
0.8500000238418579
0.8500000238418579
0.8500000238418579
0.8500000238418579
0.8500000238418579
0.8500000238418579
0.8500000238418579
0.8500000238418579
0.8500000238418579
0.8500000238418579
0.8500000238418579
0.8500000238418579
0.8500000238418579
0.8500000238418579
0.8500000238418579
0.8500000238418579
0.8500000238418579
0.8500000238418579
0.8500000238418579
0.8500000238418579
0.8500000238418579
0.8500000238418579
0.8500000238418579
0.8500000238418579
0.8500000238418579
0.8500000238418579
0.8500000238418579
0.8500000238418579
0.8500000238418579
0.8500000238418579
0.8500000238418579
0.8500000238418579
0.8500000238418579
0.8500000238418579
0.8500000238418579
0.8500000238418579
0.8500000238418579
0.8500000238418579
0.8500000238418579
0.8500000238418579
0.8500000238418579
0.8500000238418579
0.8500000238418579
0.8500000238418579
0.8500000238418579
0.8500000238418579
0.8500000238418579
0.8500000238418579
0.8500000238418579
0.8500000238418579
0.8500000238418579
0.8500000238418579
0.8500000238418579
0.8500000238418579
0.8500000238418579
0.8500000238418579
0.8500000238418579
0.8500000238418579
0.8500000238418579
0.8500000238418579
0.8500000238418579
0.8500000238418579
0.8500000238418579
0.8500000238418579
0.8500000238418579
0.8500000238418579
0.8500000238418579
0.8500000238418579
0.8500000238418579
0.8500000238418579
0.8500000238418579
0.8500000238418579
0.8500000238418579
0.8500000238418579
0.8500000238418579
0.8500000238418579
0.8500000238418579
0.8500000238418579
0.8500000238418579
0.8500000238418579
0.8500000238418579
0.8500000238418579
0.8500000238418579
0.8500000238418579
0.8500000238418579
0.8500000238418579
0.8500000238418579
0.8500000238418579
0.8500000238418579
0.8500000238418579
0.8500000238418579
0.8500000238418579
0.8500000238418579
0.8500000238418579
0.8500000238418579
0.8500000238418579
0.8500000238418579
0.8500000238418579
0.8500000238418579
0.8500000238418579
0.8500000238418579
0.8500000238418579
0.8500000238418579
0.8500000238418579
0.8500000238418579
0.8500000238418579
0.8500000238418579
0.8500000238418579
0.8500000238418579
0.8500000238418579
0.8500000238418579
0.8500000238418579
0.8500000238418579
0.8500000238418579
0.8500000238418579
0.8500000238418579
0.8500000238418579
0.8500000238418579
0.8500000238418579
0.8500000238418579
0.8500000238418579
0.8500000238418579
0.8500000238418579
0.8500000238418579
0.8500000238418579
0.8500000238418579
0.8500000238418579
0.8500000238418579
0.8500000238418579
0.8500000238418579
0.8500000238418579
0.8500000238418579
0.8500000238418579
0.8500000238418579
0.8500000238418579
0.8500000238418579
0.8500000238418579
0.8500000238418579
0.8500000238418579
0.8500000238418579
0.8500000238418579
0.8500000238418579
0.8500000238418579
0.8500000238418579
0.8500000238418579
0.8500000238418579
0.8500000238418579
0.8500000238418579
0.8500000238418579
0.8500000238418579
0.8500000238418579
0.8500000238418579
0.8500000238418579
0.8500000238418579
0.8500000238418579
0.8500000238418579
0.8500000238418579
0.8500000238418579
0.8500000238418579
0.8500000238418579
0.8500000238418579
0.8500000238418579
0.8500000238418579
0.8500000238418579
0.8500000238418579
0.8500000238418579
0.8500000238418579
0.8500000238418579
0.8500000238418579
0.8500000238418579
0.8500000238418579
0.8500000238418579
0.8500000238418579
0.8500000238418579
0.8500000238418579
0.8500000238418579
0.8500000238418579
0.8500000238418579
0.8500000238418579
0.8500000238418579
0.8500000238418579
0.8500000238418579
0.8500000238418579
0.8500000238418579
0.8500000238418579
0.8500000238418579
0.8500000238418579
0.8500000238418579
0.8500000238418579
0.8500000238418579
0.8500000238418579
0.8500000238418579
0.8500000238418579
0.8500000238418579
0.8500000238418579
0.8500000238418579
0.8500000238418579
0.8500000238418579
0.8500000238418579
0.8500000238418579
0.8500000238418579
0.8500000238418579
0.8500000238418579
0.8500000238418579
0.8500000238418579
0.8500000238418579
0.8500000238418579
0.8500000238418579
0.8500000238418579
0.8500000238418579
0.8500000238418579
0.8500000238418579
0.8500000238418579
0.8500000238418579
0.8500000238418579
0.8500000238418579
0.8500000238418579
0.8500000238418579
0.8500000238418579
0.8500000238418579
0.8500000238418579
0.8500000238418579
0.8500000238418579
0.8500000238418579
0.8500000238418579
0.8500000238418579
0.8500000238418579
0.8500000238418579
0.8500000238418579
0.8500000238418579
0.8500000238418579
0.8500000238418579
0.8500000238418579
0.8500000238418579
0.8500000238418579
0.8500000238418579
0.8500000238418579
0.8500000238418579
0.8500000238418579
0.8500000238418579
0.8500000238418579
0.8500000238418579
0.8500000238418579
0.8500000238418579
0.8500000238418579
0.8500000238418579
0.8500000238418579
0.8500000238418579
0.8500000238418579
0.8500000238418579
0.8500000238418579
0.8500000238418579
0.8500000238418579
0.8500000238418579
0.8500000238418579
0.8500000238418579
0.8500000238418579
0.8500000238418579
0.8500000238418579
0.8500000238418579
0.8500000238418579
0.8500000238418579
0.8500000238418579
0.8500000238418579
0.8500000238418579
0.8500000238418579
0.8500000238418579
0.8500000238418579
0.8500000238418579
0.8500000238418579
0.8500000238418579
0.8500000238418579
0.8500000238418579
0.8500000238418579
0.8500000238418579
0.8500000238418579
0.8500000238418579
0.8500000238418579
0.8500000238418579
0.8500000238418579
0.8500000238418579
0.8500000238418579
0.8500000238418579
0.8500000238418579
0.8500000238418579
0.8500000238418579
0.8500000238418579
0.8500000238418579
0.8500000238418579
0.8500000238418579
0.8500000238418579
0.8500000238418579
0.8500000238418579
0.8500000238418579
0.8500000238418579
0.8500000238418579
0.8500000238418579
0.8500000238418579
0.8500000238418579
0.8500000238418579
0.8500000238418579
0.8500000238418579
0.8500000238418579
0.8500000238418579
0.8500000238418579
0.8500000238418579
0.8500000238418579
0.8500000238418579
0.8500000238418579
0.8500000238418579
0.8500000238418579
0.8500000238418579
0.8500000238418579
0.8500000238418579
0.8500000238418579
0.8500000238418579
0.8500000238418579
0.8500000238418579
0.8500000238418579
0.8500000238418579
0.8500000238418579
0.8500000238418579
0.8500000238418579
0.8500000238418579
0.8500000238418579
0.8500000238418579
0.8500000238418579
0.8500000238418579
0.8500000238418579
0.8500000238418579
0.8500000238418579
0.8500000238418579
0.8500000238418579
0.8500000238418579
0.8500000238418579
0.8500000238418579
0.8500000238418579
0.8500000238418579
0.8500000238418579
0.8500000238418579
0.8500000238418579
0.8500000238418579
0.8500000238418579
0.8500000238418579
0.8500000238418579
0.8500000238418579
0.8500000238418579
0.8500000238418579
0.8500000238418579
0.8500000238418579
0.8500000238418579
0.8500000238418579
0.8500000238418579
0.8500000238418579
0.8500000238418579
0.8500000238418579
0.8500000238418579
0.8500000238418579
0.8500000238418579
0.8500000238418579
0.8500000238418579
0.8500000238418579
0.8500000238418579
0.8500000238418579
0.8500000238418579
0.8500000238418579
0.8500000238418579
0.8500000238418579
0.8500000238418579
0.8500000238418579
0.8500000238418579
0.8500000238418579
0.8500000238418579
0.8500000238418579
0.8500000238418579
0.8500000238418579
0.8500000238418579
0.8500000238418579
0.8500000238418579
0.8500000238418579
0.8500000238418579
0.8500000238418579
0.8500000238418579
0.8500000238418579
0.8500000238418579
0.8500000238418579
0.8500000238418579
0.8500000238418579
0.8500000238418579
0.8500000238418579
0.8500000238418579
0.8500000238418579
0.8500000238418579
0.8500000238418579
0.8500000238418579
0.8500000238418579
0.8500000238418579
0.8500000238418579
0.8500000238418579
0.8500000238418579
0.8500000238418579
0.8500000238418579
0.8500000238418579
0.8500000238418579
0.8500000238418579
0.8500000238418579
0.8500000238418579
0.8500000238418579
0.8500000238418579
0.8500000238418579
0.8500000238418579
0.8500000238418579
0.8500000238418579
0.8500000238418579
0.8500000238418579
0.8500000238418579
0.8500000238418579
0.8500000238418579
0.8500000238418579
0.8500000238418579
0.8500000238418579
0.8500000238418579
0.8500000238418579
0.8500000238418579
0.8500000238418579
0.8500000238418579
0.8500000238418579
0.8500000238418579
0.8500000238418579
0.8500000238418579
0.8500000238418579
0.8500000238418579
0.8500000238418579
0.8500000238418579
0.8500000238418579
0.8500000238418579
0.8500000238418579
0.8500000238418579
0.8500000238418579
0.8500000238418579
0.8500000238418579
0.8500000238418579
0.8500000238418579
0.8500000238418579
0.8500000238418579
0.8500000238418579
0.8500000238418579
0.8500000238418579
0.8500000238418579
0.8500000238418579
0.8500000238418579
0.8500000238418579
0.8500000238418579
0.8500000238418579
0.8500000238418579
0.8500000238418579
0.8500000238418579
0.8500000238418579
0.8500000238418579
0.8500000238418579
0.8500000238418579
0.8500000238418579
0.8500000238418579
0.8500000238418579
0.8500000238418579
0.8500000238418579
0.8500000238418579
0.8500000238418579
0.8500000238418579
0.8500000238418579
0.8500000238418579
0.8500000238418579
0.8500000238418579
0.8500000238418579
0.8500000238418579
0.8500000238418579
0.8500000238418579
0.8500000238418579
0.8500000238418579
0.8500000238418579
0.8500000238418579
0.8500000238418579
0.8500000238418579
0.8500000238418579
0.8500000238418579
0.8500000238418579
0.8500000238418579
0.8500000238418579
0.8500000238418579
0.8500000238418579
0.8500000238418579
0.8500000238418579
0.8500000238418579
0.8500000238418579
0.8500000238418579
0.8500000238418579
0.8500000238418579
0.8500000238418579
0.8500000238418579
0.8500000238418579
0.8500000238418579
0.8500000238418579
0.8500000238418579
0.8500000238418579
0.8500000238418579
0.8500000238418579
0.8500000238418579
0.8500000238418579
0.8500000238418579
0.8500000238418579
0.8500000238418579
0.8500000238418579
0.8500000238418579
0.8500000238418579
0.8500000238418579
0.8500000238418579
0.8500000238418579
0.8500000238418579
0.8500000238418579
0.8500000238418579
0.8500000238418579
0.8500000238418579
0.8500000238418579
0.8500000238418579
0.8500000238418579
0.8500000238418579
0.8500000238418579
0.8500000238418579
0.8500000238418579
0.8500000238418579
0.8500000238418579
0.8500000238418579
0.8500000238418579
0.8500000238418579
0.8500000238418579
0.8500000238418579
0.8500000238418579
0.8500000238418579
0.8500000238418579
0.8500000238418579
0.8500000238418579
0.8500000238418579
0.8500000238418579
0.8500000238418579
0.8500000238418579
0.8500000238418579
0.8500000238418579
0.8500000238418579
0.8500000238418579
0.8500000238418579
0.8500000238418579
0.8500000238418579
0.8500000238418579
0.8500000238418579
0.8500000238418579
0.8500000238418579
0.8500000238418579
0.8500000238418579
0.8500000238418579
0.8500000238418579
0.8500000238418579
0.8500000238418579
0.8500000238418579
0.8500000238418579
0.8500000238418579
0.8500000238418579
0.8500000238418579
0.8500000238418579
0.8500000238418579
0.8500000238418579
0.8500000238418579
0.8500000238418579
0.8500000238418579
0.8500000238418579
0.8500000238418579
0.8500000238418579
0.8500000238418579
0.8500000238418579
0.8500000238418579
0.8500000238418579
0.8500000238418579
0.8500000238418579
0.8500000238418579
0.8500000238418579
0.8500000238418579
0.8500000238418579
0.8500000238418579
0.8500000238418579
0.8500000238418579
0.8500000238418579
0.8500000238418579
0.8500000238418579
0.8500000238418579
0.8500000238418579
0.8500000238418579
0.8500000238418579
0.8500000238418579
0.8500000238418579
0.8500000238418579
0.8500000238418579
0.8500000238418579
0.8500000238418579
0.8500000238418579
0.8500000238418579
0.8500000238418579
0.8500000238418579
0.8500000238418579
0.8500000238418579
0.8500000238418579
0.8500000238418579
0.8500000238418579
0.8500000238418579
0.8500000238418579
0.8500000238418579
0.8500000238418579
0.8500000238418579
0.8500000238418579
0.8500000238418579
0.8500000238418579
0.8500000238418579
0.8500000238418579
0.8500000238418579
0.8500000238418579
0.8500000238418579
0.8500000238418579
0.8500000238418579
0.8500000238418579
0.8500000238418579
0.8500000238418579
0.8500000238418579
0.8500000238418579
0.8500000238418579
0.8500000238418579
0.8500000238418579
0.8500000238418579
0.8500000238418579
0.8500000238418579
0.8500000238418579
0.8500000238418579
0.8500000238418579
0.8500000238418579
0.8500000238418579
0.8500000238418579
0.8500000238418579
0.8500000238418579
0.8500000238418579
0.8500000238418579
0.8500000238418579
0.8500000238418579
0.8500000238418579
0.8500000238418579
0.8500000238418579
0.8500000238418579
0.8500000238418579
0.8500000238418579
0.8500000238418579
0.8500000238418579
0.8500000238418579
0.8500000238418579
0.8500000238418579
0.8500000238418579
0.8500000238418579
0.8500000238418579
0.8500000238418579
0.8500000238418579
0.8500000238418579
0.8500000238418579
0.8500000238418579
0.8500000238418579
0.8500000238418579
0.8500000238418579
0.8500000238418579
0.8500000238418579
0.8500000238418579
0.8500000238418579
0.8500000238418579
0.8500000238418579
0.8500000238418579
0.8500000238418579
0.8500000238418579
0.8500000238418579
0.8500000238418579
0.8500000238418579
0.8500000238418579
0.8500000238418579
0.8500000238418579
0.8500000238418579
0.8500000238418579
0.8500000238418579
0.8500000238418579
0.8500000238418579
0.8500000238418579
0.8500000238418579
0.8500000238418579
0.8500000238418579
0.8500000238418579
0.8500000238418579
0.8500000238418579
0.8500000238418579
0.8500000238418579
0.8500000238418579
0.8500000238418579
0.8500000238418579
0.8500000238418579
0.8500000238418579
0.8500000238418579
0.8500000238418579
0.8500000238418579
0.8500000238418579
0.8500000238418579
0.8500000238418579
0.8500000238418579
0.8500000238418579
0.8500000238418579
0.8500000238418579
0.8500000238418579
0.8500000238418579
0.8500000238418579
0.8500000238418579
0.8500000238418579
0.8500000238418579
0.8500000238418579
0.8500000238418579
0.8500000238418579
0.8500000238418579
0.8500000238418579
0.8500000238418579
0.8500000238418579
0.8500000238418579
0.8500000238418579
0.8500000238418579
0.8500000238418579
0.8500000238418579
0.8500000238418579
0.8500000238418579
0.8500000238418579
0.8500000238418579
0.8500000238418579
0.8500000238418579
0.8500000238418579
0.8500000238418579
0.8500000238418579
0.8500000238418579
0.8500000238418579
0.8500000238418579
0.8500000238418579
0.8500000238418579
0.8500000238418579
0.8500000238418579
0.8500000238418579
0.8500000238418579
0.8500000238418579
0.8500000238418579
0.8500000238418579
0.8500000238418579
0.8500000238418579
0.8500000238418579
0.8500000238418579
0.8500000238418579
0.8500000238418579
0.8500000238418579
0.8500000238418579
0.8500000238418579
0.8500000238418579
0.8500000238418579
0.8500000238418579
0.8500000238418579
0.8500000238418579
0.8500000238418579
0.8500000238418579
0.8500000238418579
0.8500000238418579
0.8500000238418579
0.8500000238418579
0.8500000238418579
0.8500000238418579
0.8500000238418579
0.8500000238418579
0.8500000238418579
0.8500000238418579
0.8500000238418579
0.8500000238418579
0.8500000238418579
0.8500000238418579
0.8500000238418579
0.8500000238418579
0.8500000238418579
0.8500000238418579
0.8500000238418579
0.8500000238418579
0.8500000238418579
0.8500000238418579
0.8500000238418579
0.8500000238418579
0.8500000238418579
0.8500000238418579
0.8500000238418579
0.8500000238418579
0.8500000238418579
0.8500000238418579
0.8500000238418579
0.8500000238418579
0.8500000238418579
0.8500000238418579
0.8500000238418579
0.8500000238418579
0.8500000238418579
0.8500000238418579
0.8500000238418579
0.8500000238418579
0.8500000238418579
0.8500000238418579
0.8500000238418579
0.8500000238418579
0.8500000238418579
0.8500000238418579
0.8500000238418579
0.8500000238418579
0.8500000238418579
0.8500000238418579
0.8500000238418579
0.8500000238418579
0.8500000238418579
0.8500000238418579
0.8500000238418579
0.8500000238418579
0.8500000238418579
0.8500000238418579
0.8500000238418579
0.8500000238418579
0.8500000238418579
0.8500000238418579
0.8500000238418579
0.8500000238418579
0.8500000238418579
0.8500000238418579
0.8500000238418579
0.8500000238418579
0.8500000238418579
0.8500000238418579
0.8500000238418579
0.8500000238418579
0.8500000238418579
0.8500000238418579
0.8500000238418579
0.8500000238418579
0.8500000238418579
0.8500000238418579
0.8500000238418579
0.8500000238418579
0.8500000238418579
0.8500000238418579
0.8500000238418579
0.8500000238418579
0.8500000238418579
0.8500000238418579
0.8500000238418579
0.8500000238418579
0.8500000238418579
0.8500000238418579
0.8500000238418579
0.8500000238418579
0.8500000238418579
0.8500000238418579
0.8500000238418579
0.8500000238418579
0.8500000238418579
0.8500000238418579
0.8500000238418579
0.8500000238418579
0.8500000238418579
0.8500000238418579
0.8500000238418579
0.8500000238418579
0.8500000238418579
0.8500000238418579
0.8500000238418579
0.8500000238418579
0.8500000238418579
0.8500000238418579
0.8500000238418579
0.8500000238418579
0.8500000238418579
0.8500000238418579
0.8500000238418579
0.8500000238418579
0.8500000238418579
0.8500000238418579
0.8500000238418579
0.8500000238418579
0.8500000238418579
0.8500000238418579
0.8500000238418579
0.8500000238418579
0.8500000238418579
0.8500000238418579
0.8500000238418579
0.8500000238418579
0.8500000238418579
0.8500000238418579
0.8500000238418579
0.8500000238418579
0.8500000238418579
0.8500000238418579
0.8500000238418579
0.8500000238418579
0.8500000238418579
0.8500000238418579
0.8500000238418579
0.8500000238418579
0.8500000238418579
0.8500000238418579
0.8500000238418579
0.8500000238418579
0.8500000238418579
0.8500000238418579
0.8500000238418579
0.8500000238418579
0.8500000238418579
0.8500000238418579
0.8500000238418579
0.8500000238418579
0.8500000238418579
0.8500000238418579
0.8500000238418579
0.8500000238418579
0.8500000238418579
0.8500000238418579
0.8500000238418579
0.8500000238418579
0.8500000238418579
0.8500000238418579
0.8500000238418579
0.8500000238418579
0.8500000238418579
0.8500000238418579
0.8500000238418579
0.8500000238418579
0.8500000238418579
0.8500000238418579
0.8500000238418579
0.8500000238418579
0.8500000238418579
0.8500000238418579
0.8500000238418579
0.8500000238418579
0.8500000238418579
0.8500000238418579
0.8500000238418579
0.8500000238418579
0.8500000238418579
0.8500000238418579
0.8500000238418579
0.8500000238418579
0.8500000238418579
0.8500000238418579
0.8500000238418579
0.8500000238418579
0.8500000238418579
0.8500000238418579
0.8500000238418579
0.8500000238418579
0.8500000238418579
0.8500000238418579
0.8500000238418579
0.8500000238418579
0.8500000238418579
0.8500000238418579
0.8500000238418579
0.8500000238418579
0.8500000238418579
0.8500000238418579
0.8500000238418579
0.8500000238418579
0.8500000238418579
0.8500000238418579
0.8500000238418579
0.8500000238418579
0.8500000238418579
0.8500000238418579
0.8500000238418579
0.8500000238418579
0.8500000238418579
0.8500000238418579
0.8500000238418579
0.8500000238418579
0.8500000238418579
0.8500000238418579
0.8500000238418579
0.8500000238418579
0.8500000238418579
0.8500000238418579
0.8500000238418579
0.8500000238418579
0.8500000238418579
0.8500000238418579
0.8500000238418579
0.8500000238418579
0.8500000238418579
0.8500000238418579
0.8500000238418579
0.8500000238418579
0.8500000238418579
0.8500000238418579
0.8500000238418579
0.8500000238418579
0.8500000238418579
0.8500000238418579
0.8500000238418579
0.8500000238418579
0.8500000238418579
0.8500000238418579
0.8500000238418579
0.8500000238418579
0.8500000238418579
0.8500000238418579
0.8500000238418579
0.8500000238418579
0.8500000238418579
0.8500000238418579
0.8500000238418579
0.8500000238418579
0.8500000238418579
0.8500000238418579
0.8500000238418579
0.8500000238418579
0.8500000238418579
0.8500000238418579
0.8500000238418579
0.8500000238418579
0.8500000238418579
0.8500000238418579
0.8500000238418579
0.8500000238418579
0.8500000238418579
0.8500000238418579
0.8500000238418579
0.8500000238418579
0.8500000238418579
0.8500000238418579
0.8500000238418579
0.8500000238418579
0.8500000238418579
0.8500000238418579
0.8500000238418579
0.8500000238418579
0.8500000238418579
0.8500000238418579
0.8500000238418579
0.8500000238418579
0.8500000238418579
0.8500000238418579
0.8500000238418579
0.8500000238418579
0.8500000238418579
0.8500000238418579
0.8500000238418579
0.8500000238418579
0.8500000238418579
0.8500000238418579
0.8500000238418579
0.8500000238418579
0.8500000238418579
0.8500000238418579
0.8500000238418579
0.8500000238418579
0.8500000238418579
0.8500000238418579
0.8500000238418579
0.8500000238418579
0.8500000238418579
0.8500000238418579
0.8500000238418579
0.8500000238418579
0.8500000238418579
0.8500000238418579
0.8500000238418579
0.8500000238418579
0.8500000238418579
0.8500000238418579
0.8500000238418579
0.8500000238418579
0.8500000238418579
0.8500000238418579
0.8500000238418579
0.8500000238418579
0.8500000238418579
0.8500000238418579
0.8500000238418579
0.8500000238418579
0.8500000238418579
0.8500000238418579
0.8500000238418579
0.8500000238418579
0.8500000238418579
0.8500000238418579
0.8500000238418579
0.8500000238418579
0.8500000238418579
0.8500000238418579
0.8500000238418579
0.8500000238418579
0.8500000238418579
0.8500000238418579
0.8500000238418579
0.8500000238418579
0.8500000238418579
0.8500000238418579
0.8500000238418579
0.8500000238418579
0.8500000238418579
0.8500000238418579
0.8500000238418579
0.8500000238418579
0.8500000238418579
0.8500000238418579
0.8500000238418579
0.8500000238418579
0.8500000238418579
0.8500000238418579
0.8500000238418579
0.8500000238418579
0.8500000238418579
0.8500000238418579
0.8500000238418579
0.8500000238418579
0.8500000238418579
0.8500000238418579
0.8500000238418579
0.8500000238418579
0.8500000238418579
0.8500000238418579
0.8500000238418579
0.8500000238418579
0.8500000238418579
0.8500000238418579
0.8500000238418579
0.8500000238418579
0.8500000238418579
0.8500000238418579
0.8500000238418579
0.8500000238418579
0.8500000238418579
0.8500000238418579
0.8500000238418579
0.8500000238418579
0.8500000238418579
0.8500000238418579
0.8500000238418579
0.8500000238418579
0.8500000238418579
0.8500000238418579
0.8500000238418579
0.8500000238418579
0.8500000238418579
0.8500000238418579
0.8500000238418579
0.8500000238418579
0.8500000238418579
0.8500000238418579
0.8500000238418579
0.8500000238418579
0.8500000238418579
0.8500000238418579
0.8500000238418579
0.8500000238418579
0.8500000238418579
0.8500000238418579
0.8500000238418579
0.8500000238418579
0.8500000238418579
0.8500000238418579
0.8500000238418579
0.8500000238418579
0.8500000238418579
0.8500000238418579
0.8500000238418579
0.8500000238418579
0.8500000238418579
0.8500000238418579
0.8500000238418579
0.8500000238418579
0.8500000238418579
0.8500000238418579
0.8500000238418579
0.8500000238418579
0.8500000238418579
0.8500000238418579
0.8500000238418579
0.8500000238418579
0.8500000238418579
0.8500000238418579
0.8500000238418579
0.8500000238418579
0.8500000238418579
0.8500000238418579
0.8500000238418579
0.8500000238418579
0.8500000238418579
0.8500000238418579
0.8500000238418579
0.8500000238418579
0.8500000238418579
0.8500000238418579
0.8500000238418579
0.8500000238418579
0.8500000238418579
0.8500000238418579
0.8500000238418579
0.8500000238418579
0.8500000238418579
0.8500000238418579
0.8500000238418579
0.8500000238418579
0.8500000238418579
0.8500000238418579
0.8500000238418579
0.8500000238418579
0.8500000238418579
0.8500000238418579
0.8500000238418579
0.8500000238418579
0.8500000238418579
0.8500000238418579
0.8500000238418579
0.8500000238418579
0.8500000238418579
0.8500000238418579
0.8500000238418579
0.8500000238418579
0.8500000238418579
0.8500000238418579
0.8500000238418579
0.8500000238418579
0.8500000238418579
0.8500000238418579
0.8500000238418579
0.8500000238418579
0.8500000238418579
0.8500000238418579
0.8500000238418579
0.8500000238418579
0.8500000238418579
0.8500000238418579
0.8500000238418579
0.8500000238418579
0.8500000238418579
0.8500000238418579
0.8500000238418579
0.8500000238418579
0.8500000238418579
0.8500000238418579
0.8500000238418579
0.8500000238418579
0.8500000238418579
0.8500000238418579
0.8500000238418579
0.8500000238418579
0.8500000238418579
0.8500000238418579
0.8500000238418579
0.8500000238418579
0.8500000238418579
0.8500000238418579
0.8500000238418579
0.8500000238418579
0.8500000238418579
0.8500000238418579
0.8500000238418579
0.8500000238418579
0.8500000238418579
0.8500000238418579
0.8500000238418579
0.8500000238418579
0.8500000238418579
0.8500000238418579
0.8500000238418579
0.8500000238418579
0.8500000238418579
0.8500000238418579
0.8500000238418579
0.8500000238418579
0.8500000238418579
0.8500000238418579
0.8500000238418579
0.8500000238418579
0.8500000238418579
0.8500000238418579
0.8500000238418579
0.8500000238418579
0.8500000238418579
0.8500000238418579
0.8500000238418579
0.8500000238418579
0.8500000238418579
0.8500000238418579
0.8500000238418579
0.8500000238418579
0.8500000238418579
0.8500000238418579
0.8500000238418579
0.8500000238418579
0.8500000238418579
0.8500000238418579
0.8500000238418579
0.8500000238418579
0.8500000238418579
0.8500000238418579
0.8500000238418579
0.8500000238418579
0.8500000238418579
0.8500000238418579
0.8500000238418579
0.8500000238418579
0.8500000238418579
0.8500000238418579
0.8500000238418579
0.8500000238418579
0.8500000238418579
0.8500000238418579
0.8500000238418579
0.8500000238418579
0.8500000238418579
0.8500000238418579
0.8500000238418579
0.8500000238418579
0.8500000238418579
0.8500000238418579
0.8500000238418579
0.8500000238418579
0.8500000238418579
0.8500000238418579
0.8500000238418579
0.8500000238418579
0.8500000238418579
0.8500000238418579
0.8500000238418579
0.8500000238418579
0.8500000238418579
0.8500000238418579
0.8500000238418579
0.8500000238418579
0.8500000238418579
0.8500000238418579
0.8500000238418579
0.8500000238418579
0.8500000238418579
0.8500000238418579
0.8500000238418579
0.8500000238418579
0.8500000238418579
0.8500000238418579
0.8500000238418579
0.8500000238418579
0.8500000238418579
0.8500000238418579
0.8500000238418579
0.8500000238418579
0.8500000238418579
0.8500000238418579
0.8500000238418579
0.8500000238418579
0.8500000238418579
0.8500000238418579
0.8500000238418579
0.8500000238418579
0.8500000238418579
0.8500000238418579
0.8500000238418579
0.8500000238418579
0.8500000238418579
0.8500000238418579
0.8500000238418579
0.8500000238418579
0.8500000238418579
0.8500000238418579
0.8500000238418579
0.8500000238418579
0.8500000238418579
0.8500000238418579
0.8500000238418579
0.8500000238418579
0.8500000238418579
0.8500000238418579
0.8500000238418579
0.8500000238418579
0.8500000238418579
0.8500000238418579
0.8500000238418579
0.8500000238418579
0.8500000238418579
0.8500000238418579
0.8500000238418579
0.8500000238418579
0.8500000238418579
0.8500000238418579
0.8500000238418579
0.8500000238418579
0.8500000238418579
0.8500000238418579
0.8500000238418579
0.8500000238418579
0.8500000238418579
0.8500000238418579
0.8500000238418579
0.8500000238418579
0.8500000238418579
0.8500000238418579
0.8500000238418579
0.8500000238418579
0.8500000238418579
0.8500000238418579
0.8500000238418579
0.8500000238418579
0.8500000238418579
0.8500000238418579
0.8500000238418579
0.8500000238418579
0.8500000238418579
0.8500000238418579
0.8500000238418579
0.8500000238418579
0.8500000238418579
0.8500000238418579
0.8500000238418579
0.8500000238418579
0.8500000238418579
0.8500000238418579
0.8500000238418579
0.8500000238418579
0.8500000238418579
0.8500000238418579
0.8500000238418579
0.8500000238418579
0.8500000238418579
0.8500000238418579
0.8500000238418579
0.8500000238418579
0.8500000238418579
0.8500000238418579
0.8500000238418579
0.8500000238418579
0.8500000238418579
0.8500000238418579
0.8500000238418579
0.8500000238418579
0.8500000238418579
0.8500000238418579
0.8500000238418579
0.8500000238418579
0.8500000238418579
0.8500000238418579
0.8500000238418579
0.8500000238418579
0.8500000238418579
0.8500000238418579
0.8500000238418579
0.8500000238418579
0.8500000238418579
0.8500000238418579
0.8500000238418579
0.8500000238418579
0.8500000238418579
0.8500000238418579
0.8500000238418579
0.8500000238418579
0.8500000238418579
0.8500000238418579
0.8500000238418579
0.8500000238418579
0.8500000238418579
0.8500000238418579
0.8500000238418579
0.8500000238418579
0.8500000238418579
0.8500000238418579
0.8500000238418579
0.8500000238418579
0.8500000238418579
0.8500000238418579
0.8500000238418579
0.8500000238418579
0.8500000238418579
0.8500000238418579
0.8500000238418579
0.8500000238418579
0.8500000238418579
0.8500000238418579
0.8500000238418579
0.8500000238418579
0.8500000238418579
0.8500000238418579
0.8500000238418579
0.8500000238418579
0.8500000238418579
0.8500000238418579
0.8500000238418579
0.8500000238418579
0.8500000238418579
0.8500000238418579
0.8500000238418579
0.8500000238418579
0.8500000238418579
0.8500000238418579
0.8500000238418579
0.8500000238418579
0.8500000238418579
0.8500000238418579
0.8500000238418579
0.8500000238418579
0.8500000238418579
0.8500000238418579
0.8500000238418579
0.8500000238418579
0.8500000238418579
0.8500000238418579
0.8500000238418579
0.8500000238418579
0.8500000238418579
0.8500000238418579
0.8500000238418579
0.8500000238418579
0.8500000238418579
0.8500000238418579
0.8500000238418579
0.8500000238418579
0.8500000238418579
0.8500000238418579
0.8500000238418579
0.8500000238418579
0.8500000238418579
0.8500000238418579
0.8500000238418579
0.8500000238418579
0.8500000238418579
0.8500000238418579
0.8500000238418579
0.8500000238418579
0.8500000238418579
0.8500000238418579
0.8500000238418579
0.8500000238418579
0.8500000238418579
0.8500000238418579
0.8500000238418579
0.8500000238418579
0.8500000238418579
0.8500000238418579
0.8500000238418579
0.8500000238418579
0.8500000238418579
0.8500000238418579
0.8500000238418579
0.8500000238418579
0.8500000238418579
0.8500000238418579
0.8500000238418579
0.8500000238418579
0.8500000238418579
0.8500000238418579
0.8500000238418579
0.8500000238418579
0.8500000238418579
0.8500000238418579
0.8500000238418579
0.8500000238418579
0.8500000238418579
0.8500000238418579
0.8500000238418579
0.8500000238418579
0.8500000238418579
0.8500000238418579
0.8500000238418579
0.8500000238418579
0.8500000238418579
0.8500000238418579
0.8500000238418579
0.8500000238418579
0.8500000238418579
0.8500000238418579
0.8500000238418579
0.8500000238418579
0.8500000238418579
0.8500000238418579
0.8500000238418579
0.8500000238418579
0.8500000238418579
0.8500000238418579
0.8500000238418579
0.8500000238418579
0.8500000238418579
0.8500000238418579
0.8500000238418579
0.8500000238418579
0.8500000238418579
0.8500000238418579
0.8500000238418579
0.8500000238418579
0.8500000238418579
0.8500000238418579
0.8500000238418579
0.8500000238418579
0.8500000238418579
0.8500000238418579
0.8500000238418579
0.8500000238418579
0.8500000238418579
0.8500000238418579
0.8500000238418579
0.8500000238418579
0.8500000238418579
0.8500000238418579
0.8500000238418579
0.8500000238418579
0.8500000238418579
0.8500000238418579
0.8500000238418579
0.8500000238418579
0.8500000238418579
0.8500000238418579
0.8500000238418579
0.8500000238418579
0.8500000238418579
0.8500000238418579
0.8500000238418579
0.8500000238418579
0.8500000238418579
0.8500000238418579
0.8500000238418579
0.8500000238418579
0.8500000238418579
0.8500000238418579
0.8500000238418579
0.8500000238418579
0.8500000238418579
0.8500000238418579
0.8500000238418579
0.8500000238418579
0.8500000238418579
0.8500000238418579
0.8500000238418579
0.8500000238418579
0.8500000238418579
0.8500000238418579
0.8500000238418579
0.8500000238418579
0.8500000238418579
0.8500000238418579
0.8500000238418579
0.8500000238418579
0.8500000238418579
0.8500000238418579
0.8500000238418579
0.8500000238418579
0.8500000238418579
0.8500000238418579
0.8500000238418579
0.8500000238418579
0.8500000238418579
0.8500000238418579
0.8500000238418579
0.8500000238418579
0.8500000238418579
0.8500000238418579
0.8500000238418579
0.8500000238418579
0.8500000238418579
0.8500000238418579
0.8500000238418579
0.8500000238418579
0.8500000238418579
0.8500000238418579
0.8500000238418579
0.8500000238418579
0.8500000238418579
0.8500000238418579
0.8500000238418579
0.8500000238418579
0.8500000238418579
0.8500000238418579
0.8500000238418579
0.8500000238418579
0.8500000238418579
0.8500000238418579
0.8500000238418579
0.8500000238418579
0.8500000238418579
0.8500000238418579
0.8500000238418579
0.8500000238418579
0.8500000238418579
0.8500000238418579
0.8500000238418579
0.8500000238418579
0.8500000238418579
0.8500000238418579
0.8500000238418579
0.8500000238418579
0.8500000238418579
0.8500000238418579
0.8500000238418579
0.8500000238418579
0.8500000238418579
0.8500000238418579
0.8500000238418579
0.8500000238418579
0.8500000238418579
0.8500000238418579
0.8500000238418579
0.8500000238418579
0.8500000238418579
0.8500000238418579
0.8500000238418579
0.8500000238418579
0.8500000238418579
0.8500000238418579
0.8500000238418579
0.8500000238418579
0.8500000238418579
0.8500000238418579
0.8500000238418579
0.8500000238418579
0.8500000238418579
0.8500000238418579
0.8500000238418579
0.8500000238418579
0.8500000238418579
0.8500000238418579
0.8500000238418579
0.8500000238418579
0.8500000238418579
0.8500000238418579
0.8500000238418579
0.8500000238418579
0.8500000238418579
0.8500000238418579
0.8500000238418579
0.8500000238418579
0.8500000238418579
0.8500000238418579
0.8500000238418579
0.8500000238418579
0.8500000238418579
0.8500000238418579
0.8500000238418579
0.8500000238418579
0.8500000238418579
0.8500000238418579
0.8500000238418579
0.8500000238418579
0.8500000238418579
0.8500000238418579
0.8500000238418579
0.8500000238418579
0.8500000238418579
0.8500000238418579
0.8500000238418579
0.8500000238418579
0.8500000238418579
0.8500000238418579
0.8500000238418579
0.8500000238418579
0.8500000238418579
0.8500000238418579
0.8500000238418579
0.8500000238418579
0.8500000238418579
0.8500000238418579
0.8500000238418579
0.8500000238418579
0.8500000238418579
0.8500000238418579
0.8500000238418579
0.8500000238418579
0.8500000238418579
0.8500000238418579
0.8500000238418579
0.8500000238418579
0.8500000238418579
0.8500000238418579
0.8500000238418579
0.8500000238418579
0.8500000238418579
0.8500000238418579
0.8500000238418579
0.8500000238418579
0.8500000238418579
0.8500000238418579
0.8500000238418579
0.8500000238418579
0.8500000238418579
0.8500000238418579
0.8500000238418579
0.8500000238418579
0.8500000238418579
0.8500000238418579
0.8500000238418579
0.8500000238418579
0.8500000238418579
0.8500000238418579
0.8500000238418579
0.8500000238418579
0.8500000238418579
0.8500000238418579
0.8500000238418579
0.8500000238418579
0.8500000238418579
0.8500000238418579
0.8500000238418579
0.8500000238418579
0.8500000238418579
0.8500000238418579
0.8500000238418579
0.8500000238418579
0.8500000238418579
0.8500000238418579
0.8500000238418579
0.8500000238418579
0.8500000238418579
0.8500000238418579
0.8500000238418579
0.8500000238418579
0.8500000238418579
0.8500000238418579
0.8500000238418579
0.8500000238418579
0.8500000238418579
0.8500000238418579
0.8500000238418579
0.8500000238418579
0.8500000238418579
0.8500000238418579
0.8500000238418579
0.8500000238418579
0.8500000238418579
0.8500000238418579
0.8500000238418579
0.8500000238418579
0.8500000238418579
0.8500000238418579
0.8500000238418579
0.8500000238418579
0.8500000238418579
0.8500000238418579
0.8500000238418579
0.8500000238418579
0.8500000238418579
0.8500000238418579
0.8500000238418579
0.8500000238418579
0.8500000238418579
0.8500000238418579
0.8500000238418579
0.8500000238418579
0.8500000238418579
0.8500000238418579
0.8500000238418579
0.8500000238418579
0.8500000238418579
0.8500000238418579
0.8500000238418579
0.8500000238418579
0.8500000238418579
0.8500000238418579
0.8500000238418579
0.8500000238418579
0.8500000238418579
0.8500000238418579
0.8500000238418579
0.8500000238418579
0.8500000238418579
0.8500000238418579
0.8500000238418579
0.8500000238418579
0.8500000238418579
0.8500000238418579
0.8500000238418579
0.8500000238418579
0.8500000238418579
0.8500000238418579
0.8500000238418579
0.8500000238418579
0.8500000238418579
0.8500000238418579
0.8500000238418579
0.8500000238418579
0.8500000238418579
0.8500000238418579
0.8500000238418579
0.8500000238418579
0.8500000238418579
0.8500000238418579
0.8500000238418579
0.8500000238418579
0.8500000238418579
0.8500000238418579
0.8500000238418579
0.8500000238418579
0.8500000238418579
0.8500000238418579
0.8500000238418579
0.8500000238418579
0.8500000238418579
0.8500000238418579
0.8500000238418579
0.8500000238418579
0.8500000238418579
0.8500000238418579
0.8500000238418579
0.8500000238418579
0.8500000238418579
0.8500000238418579
0.8500000238418579
0.8500000238418579
0.8500000238418579
0.8500000238418579
0.8500000238418579
0.8500000238418579
0.8500000238418579
0.8500000238418579
0.8500000238418579
0.8500000238418579
0.8500000238418579
0.8500000238418579
0.8500000238418579
0.8500000238418579
0.8500000238418579
0.8500000238418579
0.8500000238418579
0.8500000238418579
0.8500000238418579
0.8500000238418579
0.8500000238418579
0.8500000238418579
0.8500000238418579
0.8500000238418579
0.8500000238418579
0.8500000238418579
0.8500000238418579
0.8500000238418579
0.8500000238418579
0.8500000238418579
0.8500000238418579
0.8500000238418579
0.8500000238418579
0.8500000238418579
0.8500000238418579
0.8500000238418579
0.8500000238418579
0.8500000238418579
0.8500000238418579
0.8500000238418579
0.8500000238418579
0.8500000238418579
0.8500000238418579
0.8500000238418579
0.8500000238418579
0.8500000238418579
0.8500000238418579
0.8500000238418579
0.8500000238418579
0.8500000238418579
0.8500000238418579
0.8500000238418579
0.8500000238418579
0.8500000238418579
0.8500000238418579
0.8500000238418579
0.8500000238418579
0.8500000238418579
0.8500000238418579
0.8500000238418579
0.8500000238418579
0.8500000238418579
0.8500000238418579
0.8500000238418579
0.8500000238418579
0.8500000238418579
0.8500000238418579
0.8500000238418579
0.8500000238418579
0.8500000238418579
0.8500000238418579
0.8500000238418579
0.8500000238418579
0.8500000238418579
0.8500000238418579
0.8500000238418579
0.8500000238418579
0.8500000238418579
0.8500000238418579
0.8500000238418579
0.8500000238418579
0.8500000238418579
0.8500000238418579
0.8500000238418579
0.8500000238418579
0.8500000238418579
0.8500000238418579
0.8500000238418579
0.8500000238418579
0.8500000238418579
0.8500000238418579
0.8500000238418579
0.8500000238418579
0.8500000238418579
0.8500000238418579
0.8500000238418579
0.8500000238418579
0.8500000238418579
0.8500000238418579
0.8500000238418579
0.8500000238418579
0.8500000238418579
0.8500000238418579
0.8500000238418579
0.8500000238418579
0.8500000238418579
0.8500000238418579
0.8500000238418579
0.8500000238418579
0.8500000238418579
0.8500000238418579
0.8500000238418579
0.8500000238418579
0.8500000238418579
0.8500000238418579
0.8500000238418579
0.8500000238418579
0.8500000238418579
0.8500000238418579
0.8500000238418579
0.8500000238418579
0.8500000238418579
0.8500000238418579
0.8500000238418579
0.8500000238418579
0.8500000238418579
0.8500000238418579
0.8500000238418579
0.8500000238418579
0.8500000238418579
0.8500000238418579
0.8500000238418579
0.8500000238418579
0.8500000238418579
0.8500000238418579
0.8500000238418579
0.8500000238418579
0.8500000238418579
0.8500000238418579
0.8500000238418579
0.8500000238418579
0.8500000238418579
0.8500000238418579
0.8500000238418579
0.8500000238418579
0.8500000238418579
0.8500000238418579
0.8500000238418579
0.8500000238418579
0.8500000238418579
0.8500000238418579
0.8500000238418579
0.8500000238418579
0.8500000238418579
0.8500000238418579
0.8500000238418579
0.8500000238418579
0.8500000238418579
0.8500000238418579
0.8500000238418579
0.8500000238418579
0.8500000238418579
0.8500000238418579
0.8500000238418579
0.8500000238418579
0.8500000238418579
0.8500000238418579
0.8500000238418579
0.8500000238418579
0.8500000238418579
0.8500000238418579
0.8500000238418579
0.8500000238418579
0.8500000238418579
0.8500000238418579
0.8500000238418579
0.8500000238418579
0.8500000238418579
0.8500000238418579
0.8500000238418579
0.8500000238418579
0.8500000238418579
0.8500000238418579
0.8500000238418579
0.8500000238418579
0.8500000238418579
0.8500000238418579
0.8500000238418579
0.8500000238418579
0.8500000238418579
0.8500000238418579
0.8500000238418579
0.8500000238418579
0.8500000238418579
0.8500000238418579
0.8500000238418579
0.8500000238418579
0.8500000238418579
0.8500000238418579
0.8500000238418579
0.8500000238418579
0.8500000238418579
0.8500000238418579
0.8500000238418579
0.8500000238418579
0.8500000238418579
0.8500000238418579
0.8500000238418579
0.8500000238418579
0.8500000238418579
0.8500000238418579
0.8500000238418579
0.8500000238418579
0.8500000238418579
0.8500000238418579
0.8500000238418579
0.8500000238418579
0.8500000238418579
0.8500000238418579
0.8500000238418579
0.8500000238418579
0.8500000238418579
0.8500000238418579
0.8500000238418579
0.8500000238418579
0.8500000238418579
0.8500000238418579
0.8500000238418579
0.8500000238418579
0.8500000238418579
0.8500000238418579
0.8500000238418579
0.8500000238418579
0.8500000238418579
0.8500000238418579
0.8500000238418579
0.8500000238418579
0.8500000238418579
0.8500000238418579
0.8500000238418579
0.8500000238418579
0.8500000238418579
0.8500000238418579
0.8500000238418579
0.8500000238418579
0.8500000238418579
0.8500000238418579
0.8500000238418579
0.8500000238418579
0.8500000238418579
0.8500000238418579
0.8500000238418579
0.8500000238418579
0.8500000238418579
0.8500000238418579
0.8500000238418579
0.8500000238418579
0.8500000238418579
0.8500000238418579
0.8500000238418579
0.8500000238418579
0.8500000238418579
0.8500000238418579
0.8500000238418579
0.8500000238418579
0.8500000238418579
0.8500000238418579
0.8500000238418579
0.8500000238418579
0.8500000238418579
0.8500000238418579
0.8500000238418579
0.8500000238418579
0.8500000238418579
0.8500000238418579
0.8500000238418579
0.8500000238418579
0.8500000238418579
0.8500000238418579
0.8500000238418579
0.8500000238418579
0.8500000238418579
0.8500000238418579
0.8500000238418579
0.8500000238418579
0.8500000238418579
0.8500000238418579
0.8500000238418579
0.8500000238418579
0.8500000238418579
0.8500000238418579
0.8500000238418579
0.8500000238418579
0.8500000238418579
0.8500000238418579
0.8500000238418579
0.8500000238418579
0.8500000238418579
0.8500000238418579
0.8500000238418579
0.8500000238418579
0.8500000238418579
0.8500000238418579
0.8500000238418579
0.8500000238418579
0.8500000238418579
0.8500000238418579
0.8500000238418579
0.8500000238418579
0.8500000238418579
0.8500000238418579
0.8500000238418579
0.8500000238418579
0.8500000238418579
0.8500000238418579
0.8500000238418579
0.8500000238418579
0.8500000238418579
0.8500000238418579
0.8500000238418579
0.8500000238418579
0.8500000238418579
0.8500000238418579
0.8500000238418579
0.8500000238418579
0.8500000238418579
0.8500000238418579
0.8500000238418579
0.8500000238418579
0.8500000238418579
0.8500000238418579
0.8500000238418579
0.8500000238418579
0.8500000238418579
0.8500000238418579
0.8500000238418579
0.8500000238418579
0.8500000238418579
0.8500000238418579
0.8500000238418579
0.8500000238418579
0.8500000238418579
0.8500000238418579
0.8500000238418579
0.8500000238418579
0.8500000238418579
0.8500000238418579
0.8500000238418579
0.8500000238418579
0.8500000238418579
0.8500000238418579
0.8500000238418579
0.8500000238418579
0.8500000238418579
0.8500000238418579
0.8500000238418579
0.8500000238418579
0.8500000238418579
0.8500000238418579
0.8500000238418579
0.8500000238418579
0.8500000238418579
0.8500000238418579
0.8500000238418579
0.8500000238418579
0.8500000238418579
0.8500000238418579
0.8500000238418579
0.8500000238418579
0.8500000238418579
0.8500000238418579
0.8500000238418579
0.8500000238418579
0.8500000238418579
0.8500000238418579
0.8500000238418579
0.8500000238418579
0.8500000238418579
0.8500000238418579
0.8500000238418579
0.8500000238418579
0.8500000238418579
0.8500000238418579
0.8500000238418579
0.8500000238418579
0.8500000238418579
0.8500000238418579
0.8500000238418579
0.8500000238418579
0.8500000238418579
0.8500000238418579
0.8500000238418579
0.8500000238418579
0.8500000238418579
0.8500000238418579
0.8500000238418579
0.8500000238418579
0.8500000238418579
0.8500000238418579
0.8500000238418579
0.8500000238418579
0.8500000238418579
0.8500000238418579
0.8500000238418579
0.8500000238418579
0.8500000238418579
0.8500000238418579
0.8500000238418579
0.8500000238418579
0.8500000238418579
0.8500000238418579
0.8500000238418579
0.8500000238418579
0.8500000238418579
0.8500000238418579
0.8500000238418579
0.8500000238418579
0.8500000238418579
0.8500000238418579
0.8500000238418579
0.8500000238418579
0.8500000238418579
0.8500000238418579
0.8500000238418579
0.8500000238418579
0.8500000238418579
0.8500000238418579
0.8500000238418579
0.8500000238418579
0.8500000238418579
0.8500000238418579
0.8500000238418579
0.8500000238418579
0.8500000238418579
0.8500000238418579
0.8500000238418579
0.8500000238418579
0.8500000238418579
0.8500000238418579
0.8500000238418579
0.8500000238418579
0.8500000238418579
0.8500000238418579
0.8500000238418579
0.8500000238418579
0.8500000238418579
0.8500000238418579
0.8500000238418579
0.8500000238418579
0.8500000238418579
0.8500000238418579
0.8500000238418579
0.8500000238418579
0.8500000238418579
0.8500000238418579
0.8500000238418579
0.8500000238418579
0.8500000238418579
0.8500000238418579
0.8500000238418579
0.8500000238418579
0.8500000238418579
0.8500000238418579
0.8500000238418579
0.8500000238418579
0.8500000238418579
0.8500000238418579
0.8500000238418579
0.8500000238418579
0.8500000238418579
0.8500000238418579
0.8500000238418579
0.8500000238418579
0.8500000238418579
0.8500000238418579
0.8500000238418579
0.8500000238418579
0.8500000238418579
0.8500000238418579
0.8500000238418579
0.8500000238418579
0.8500000238418579
0.8500000238418579
0.8500000238418579
0.8500000238418579
0.8500000238418579
0.8500000238418579
0.8500000238418579
0.8500000238418579
0.8500000238418579
0.8500000238418579
0.8500000238418579
0.8500000238418579
0.8500000238418579
0.8500000238418579
0.8500000238418579
0.8500000238418579
0.8500000238418579
0.8500000238418579
0.8500000238418579
0.8500000238418579
0.8500000238418579
0.8500000238418579
0.8500000238418579
0.8500000238418579
0.8500000238418579
0.8500000238418579
0.8500000238418579
0.8500000238418579
0.8500000238418579
0.8500000238418579
0.8500000238418579
0.8500000238418579
0.8500000238418579
0.8500000238418579
0.8500000238418579
0.8500000238418579
0.8500000238418579
0.8500000238418579
0.8500000238418579
0.8500000238418579
0.8500000238418579
0.8500000238418579
0.8500000238418579
0.8500000238418579
0.8500000238418579
0.8500000238418579
0.8500000238418579
0.8500000238418579
0.8500000238418579
0.8500000238418579
0.8500000238418579
0.8500000238418579
0.8500000238418579
0.8500000238418579
0.8500000238418579
0.8500000238418579
0.8500000238418579
0.8500000238418579
0.8500000238418579
0.8500000238418579
0.8500000238418579
0.8500000238418579
0.8500000238418579
0.8500000238418579
0.8500000238418579
0.8500000238418579
0.8500000238418579
0.8500000238418579
0.8500000238418579
0.8500000238418579
0.8500000238418579
0.8500000238418579
0.8500000238418579
0.8500000238418579
0.8500000238418579
0.8500000238418579
0.8500000238418579
0.8500000238418579
0.8500000238418579
0.8500000238418579
0.8500000238418579
0.8500000238418579
0.8500000238418579
0.8500000238418579
0.8500000238418579
0.8500000238418579
0.8500000238418579
0.8500000238418579
0.8500000238418579
0.8500000238418579
0.8500000238418579
0.8500000238418579
0.8500000238418579
0.8500000238418579
0.8500000238418579
0.8500000238418579
0.8500000238418579
0.8500000238418579
0.8500000238418579
0.8500000238418579
0.8500000238418579
0.8500000238418579
0.8500000238418579
0.8500000238418579
0.8500000238418579
0.8500000238418579
0.8500000238418579
0.8500000238418579
0.8500000238418579
0.8500000238418579
0.8500000238418579
0.8500000238418579
0.8500000238418579
0.8500000238418579
0.8500000238418579
0.8500000238418579
0.8500000238418579
0.8500000238418579
0.8500000238418579
0.8500000238418579
0.8500000238418579
0.8500000238418579
0.8500000238418579
0.8500000238418579
0.8500000238418579
0.8500000238418579
0.8500000238418579
0.8500000238418579
0.8500000238418579
0.8500000238418579
0.8500000238418579
0.8500000238418579
0.8500000238418579
0.8500000238418579
0.8500000238418579
0.8500000238418579
0.8500000238418579
0.8500000238418579
0.8500000238418579
0.8500000238418579
0.8500000238418579
0.8500000238418579
0.8500000238418579
0.8500000238418579
0.8500000238418579
0.8500000238418579
0.8500000238418579
0.8500000238418579
0.8500000238418579
0.8500000238418579
0.8500000238418579
0.8500000238418579
0.8500000238418579
0.8500000238418579
0.8500000238418579
0.8500000238418579
0.8500000238418579
0.8500000238418579
0.8500000238418579
0.8500000238418579
0.8500000238418579
0.8500000238418579
0.8500000238418579
0.8500000238418579
0.8500000238418579
0.8500000238418579
0.8500000238418579
0.8500000238418579
0.8500000238418579
0.8500000238418579
0.8500000238418579
0.8500000238418579
0.8500000238418579
0.8500000238418579
0.8500000238418579
0.8500000238418579
0.8500000238418579
0.8500000238418579
0.8500000238418579
0.8500000238418579
0.8500000238418579
0.8500000238418579
0.8500000238418579
0.8500000238418579
0.8500000238418579
0.8500000238418579
0.8500000238418579
0.8500000238418579
0.8500000238418579
0.8500000238418579
0.8500000238418579
0.8500000238418579
0.8500000238418579
0.8500000238418579
0.8500000238418579
0.8500000238418579
0.8500000238418579
0.8500000238418579
0.8500000238418579
0.8500000238418579
0.8500000238418579
0.8500000238418579
0.8500000238418579
0.8500000238418579
0.8500000238418579
0.8500000238418579
0.8500000238418579
0.8500000238418579
0.8500000238418579
0.8500000238418579
0.8500000238418579
0.8500000238418579
0.8500000238418579
0.8500000238418579
0.8500000238418579
0.8500000238418579
0.8500000238418579
0.8500000238418579
0.8500000238418579
0.8500000238418579
0.8500000238418579
0.8500000238418579
0.8500000238418579
0.8500000238418579
0.8500000238418579
0.8500000238418579
0.8500000238418579
0.8500000238418579
0.8500000238418579
0.8500000238418579
0.8500000238418579
0.8500000238418579
0.8500000238418579
0.8500000238418579
0.8500000238418579
0.8500000238418579
0.8500000238418579
0.8500000238418579
0.8500000238418579
0.8500000238418579
0.8500000238418579
0.8500000238418579
0.8500000238418579
0.8500000238418579
0.8500000238418579
0.8500000238418579
0.8500000238418579
0.8500000238418579
0.8500000238418579
0.8500000238418579
0.8500000238418579
0.8500000238418579
0.8500000238418579
0.8500000238418579
0.8500000238418579
0.8500000238418579
0.8500000238418579
0.8500000238418579
0.8500000238418579
0.8500000238418579
0.8500000238418579
0.8500000238418579
0.8500000238418579
0.8500000238418579
0.8500000238418579
0.8500000238418579
0.8500000238418579
0.8500000238418579
0.8500000238418579
0.8500000238418579
0.8500000238418579
0.8500000238418579
0.8500000238418579
0.8500000238418579
0.8500000238418579
0.8500000238418579
0.8500000238418579
0.8500000238418579
0.8500000238418579
0.8500000238418579
0.8500000238418579
0.8500000238418579
0.8500000238418579
0.8500000238418579
0.8500000238418579
0.8500000238418579
0.8500000238418579
0.8500000238418579
0.8500000238418579
0.8500000238418579
0.8500000238418579
0.8500000238418579
0.8500000238418579
0.8500000238418579
0.8500000238418579
0.8500000238418579
0.8500000238418579
0.8500000238418579
0.8500000238418579
0.8500000238418579
0.8500000238418579
0.8500000238418579
0.8500000238418579
0.8500000238418579
0.8500000238418579
0.8500000238418579
0.8500000238418579
0.8500000238418579
0.8500000238418579
0.8500000238418579
0.8500000238418579
0.8500000238418579
0.8500000238418579
0.8500000238418579
0.8500000238418579
0.8500000238418579
0.8500000238418579
0.8500000238418579
0.8500000238418579
0.8500000238418579
0.8500000238418579
0.8500000238418579
0.8500000238418579
0.8500000238418579
0.8500000238418579
0.8500000238418579
0.8500000238418579
0.8500000238418579
0.8500000238418579
0.8500000238418579
0.8500000238418579
0.8500000238418579
0.8500000238418579
0.8500000238418579
0.8500000238418579
0.8500000238418579
0.8500000238418579
0.8500000238418579
0.8500000238418579
0.8500000238418579
0.8500000238418579
0.8500000238418579
0.8500000238418579
0.8500000238418579
0.8500000238418579
0.8500000238418579
0.8500000238418579
0.8500000238418579
0.8500000238418579
0.8500000238418579
0.8500000238418579
0.8500000238418579
0.8500000238418579
0.8500000238418579
0.8500000238418579
0.8500000238418579
0.8500000238418579
0.8500000238418579
0.8500000238418579
0.8500000238418579
0.8500000238418579
0.8500000238418579
0.8500000238418579
0.8500000238418579
0.8500000238418579
0.8500000238418579
0.8500000238418579
0.8500000238418579
0.8500000238418579
0.8500000238418579
0.8500000238418579
0.8500000238418579
0.8500000238418579
0.8500000238418579
0.8500000238418579
0.8500000238418579
0.8500000238418579
0.8500000238418579
0.8500000238418579
0.8500000238418579
0.8500000238418579
0.8500000238418579
0.8500000238418579
0.8500000238418579
0.8500000238418579
0.8500000238418579
0.8500000238418579
0.8500000238418579
0.8500000238418579
0.8500000238418579
0.8500000238418579
0.8500000238418579
0.8500000238418579
0.8500000238418579
0.8500000238418579
0.8500000238418579
0.8500000238418579
0.8500000238418579
0.8500000238418579
0.8500000238418579
0.8500000238418579
0.8500000238418579
0.8500000238418579
0.8500000238418579
0.8500000238418579
0.8500000238418579
0.8500000238418579
0.8500000238418579
0.8500000238418579
0.8500000238418579
0.8500000238418579
0.8500000238418579
0.8500000238418579
0.8500000238418579
0.8500000238418579
0.8500000238418579
0.8500000238418579
0.8500000238418579
0.8500000238418579
0.8500000238418579
0.8500000238418579
0.8500000238418579
0.8500000238418579
0.8500000238418579
0.8500000238418579
0.8500000238418579
0.8500000238418579
0.8500000238418579
0.8500000238418579
0.8500000238418579
0.8500000238418579
0.8500000238418579
0.8500000238418579
0.8500000238418579
0.8500000238418579
0.8500000238418579
0.8500000238418579
0.8500000238418579
0.8500000238418579
0.8500000238418579
0.8500000238418579
0.8500000238418579
0.8500000238418579
0.8500000238418579
0.8500000238418579
0.8500000238418579
0.8500000238418579
0.8500000238418579
0.8500000238418579
0.8500000238418579
0.8500000238418579
0.8500000238418579
0.8500000238418579
0.8500000238418579
0.8500000238418579
0.8500000238418579
0.8500000238418579
0.8500000238418579
0.8500000238418579
0.8500000238418579
0.8500000238418579
0.8500000238418579
0.8500000238418579
0.8500000238418579
0.8500000238418579
0.8500000238418579
0.8500000238418579
0.8500000238418579
0.8500000238418579
0.8500000238418579
0.8500000238418579
0.8500000238418579
0.8500000238418579
0.8500000238418579
0.8500000238418579
0.8500000238418579
0.8500000238418579
0.8500000238418579
0.8500000238418579
0.8500000238418579
0.8500000238418579
0.8500000238418579
0.8500000238418579
0.8500000238418579
0.8500000238418579
0.8500000238418579
0.8500000238418579
0.8500000238418579
0.8500000238418579
0.8500000238418579
0.8500000238418579
0.8500000238418579
0.8500000238418579
0.8500000238418579
0.8500000238418579
0.8500000238418579
0.8500000238418579
0.8500000238418579
0.8500000238418579
0.8500000238418579
0.8500000238418579
0.8500000238418579
0.8500000238418579
0.8500000238418579
0.8500000238418579
0.8500000238418579
0.8500000238418579
0.8500000238418579
0.8500000238418579
0.8500000238418579
0.8500000238418579
0.8500000238418579
0.8500000238418579
0.8500000238418579
0.8500000238418579
0.8500000238418579
0.8500000238418579
0.8500000238418579
0.8500000238418579
0.8500000238418579
0.8500000238418579
0.8500000238418579
0.8500000238418579
0.8500000238418579
0.8500000238418579
0.8500000238418579
0.8500000238418579
0.8500000238418579
0.8500000238418579
0.8500000238418579
0.8500000238418579
0.8500000238418579
0.8500000238418579
0.8500000238418579
0.8500000238418579
0.8500000238418579
0.8500000238418579
0.8500000238418579
0.8500000238418579
0.8500000238418579
0.8500000238418579
0.8500000238418579
0.8500000238418579
0.8500000238418579
0.8500000238418579
0.8500000238418579
0.8500000238418579
0.8500000238418579
0.8500000238418579
0.8500000238418579
0.8500000238418579
0.8500000238418579
0.8500000238418579
0.8500000238418579
0.8500000238418579
0.8500000238418579
0.8500000238418579
0.8500000238418579
0.8500000238418579
0.8500000238418579
0.8500000238418579
0.8500000238418579
0.8500000238418579
0.8500000238418579
0.8500000238418579
0.8500000238418579
0.8500000238418579
0.8500000238418579
0.8500000238418579
0.8500000238418579
0.8500000238418579
0.8500000238418579
0.8500000238418579
0.8500000238418579
0.8500000238418579
0.8500000238418579
0.8500000238418579
0.8500000238418579
0.8500000238418579
0.8500000238418579
0.8500000238418579
0.8500000238418579
0.8500000238418579
0.8500000238418579
0.8500000238418579
0.8500000238418579
0.8500000238418579
0.8500000238418579
0.8500000238418579
0.8500000238418579
0.8500000238418579
0.8500000238418579
0.8500000238418579
0.8500000238418579
0.8500000238418579
0.8500000238418579
0.8500000238418579
0.8500000238418579
0.8500000238418579
0.8500000238418579
0.8500000238418579
0.8500000238418579
0.8500000238418579
0.8500000238418579
0.8500000238418579
0.8500000238418579
0.8500000238418579
0.8500000238418579
0.8500000238418579
0.8500000238418579
0.8500000238418579
0.8500000238418579
0.8500000238418579
0.8500000238418579
0.8500000238418579
0.8500000238418579
0.8500000238418579
0.8500000238418579
0.8500000238418579
0.8500000238418579
0.8500000238418579
0.8500000238418579
0.8500000238418579
0.8500000238418579
0.8500000238418579
0.8500000238418579
0.8500000238418579
0.8500000238418579
0.8500000238418579
0.8500000238418579
0.8500000238418579
0.8500000238418579
0.8500000238418579
0.8500000238418579
0.8500000238418579
0.8500000238418579
0.8500000238418579
0.8500000238418579
0.8500000238418579
0.8500000238418579
0.8500000238418579
0.8500000238418579
0.8500000238418579
0.8500000238418579
0.8500000238418579
0.8500000238418579
0.8500000238418579
0.8500000238418579
0.8500000238418579
0.8500000238418579
0.8500000238418579
0.8500000238418579
0.8500000238418579
0.8500000238418579
0.8500000238418579
0.8500000238418579
0.8500000238418579
0.8500000238418579
0.8500000238418579
0.8500000238418579
0.8500000238418579
0.8500000238418579
0.8500000238418579
0.8500000238418579
0.8500000238418579
0.8500000238418579
0.8500000238418579
0.8500000238418579
0.8500000238418579
0.8500000238418579
0.8500000238418579
0.8500000238418579
0.8500000238418579
0.8500000238418579
0.8500000238418579
0.8500000238418579
0.8500000238418579
0.8500000238418579
0.8500000238418579
0.8500000238418579
0.8500000238418579
0.8500000238418579
0.8500000238418579
0.8500000238418579
0.8500000238418579
0.8500000238418579
0.8500000238418579
0.8500000238418579
0.8500000238418579
0.8500000238418579
0.8500000238418579
0.8500000238418579
0.8500000238418579
0.8500000238418579
0.8500000238418579
0.8500000238418579
0.8500000238418579
0.8500000238418579
0.8500000238418579
0.8500000238418579
0.8500000238418579
0.8500000238418579
0.8500000238418579
0.8500000238418579
0.8500000238418579
0.8500000238418579
0.8500000238418579
0.8500000238418579
0.8500000238418579
0.8500000238418579
0.8500000238418579
0.8500000238418579
0.8500000238418579
0.8500000238418579
0.8500000238418579
0.8500000238418579
0.8500000238418579
0.8500000238418579
0.8500000238418579
0.8500000238418579
0.8500000238418579
0.8500000238418579
0.8500000238418579
0.8500000238418579
0.8500000238418579
0.8500000238418579
0.8500000238418579
0.8500000238418579
0.8500000238418579
0.8500000238418579
0.8500000238418579
0.8500000238418579
0.8500000238418579
0.8500000238418579
0.8500000238418579
0.8500000238418579
0.8500000238418579
0.8500000238418579
0.8500000238418579
0.8500000238418579
0.8500000238418579
0.8500000238418579
0.8500000238418579
0.8500000238418579
0.8500000238418579
0.8500000238418579
0.8500000238418579
0.8500000238418579
0.8500000238418579
0.8500000238418579
0.8500000238418579
0.8500000238418579
0.8500000238418579
0.8500000238418579
0.8500000238418579
0.8500000238418579
0.8500000238418579
0.8500000238418579
0.8500000238418579
0.8500000238418579
0.8500000238418579
0.8500000238418579
0.8500000238418579
0.8500000238418579
0.8500000238418579
0.8500000238418579
0.8500000238418579
0.8500000238418579
0.8500000238418579
0.8500000238418579
0.8500000238418579
0.8500000238418579
0.8500000238418579
0.8500000238418579
0.8500000238418579
0.8500000238418579
0.8500000238418579
0.8500000238418579
0.8500000238418579
0.8500000238418579
0.8500000238418579
0.8500000238418579
0.8500000238418579
0.8500000238418579
0.8500000238418579
0.8500000238418579
0.8500000238418579
0.8500000238418579
0.8500000238418579
0.8500000238418579
0.8500000238418579
0.8500000238418579
0.8500000238418579
0.8500000238418579
0.8500000238418579
0.8500000238418579
0.8500000238418579
0.8500000238418579
0.8500000238418579
0.8500000238418579
0.8500000238418579
0.8500000238418579
0.8500000238418579
0.8500000238418579
0.8500000238418579
0.8500000238418579
0.8500000238418579
0.8500000238418579
0.8500000238418579
0.8500000238418579
0.8500000238418579
0.8500000238418579
0.8500000238418579
0.8500000238418579
0.8500000238418579
0.8500000238418579
0.8500000238418579
0.8500000238418579
0.8500000238418579
0.8500000238418579
0.8500000238418579
0.8500000238418579
0.8500000238418579
0.8500000238418579
0.8500000238418579
0.8500000238418579
0.8500000238418579
0.8500000238418579
0.8500000238418579
0.8500000238418579
0.8500000238418579
0.8500000238418579
0.8500000238418579
0.8500000238418579
0.8500000238418579
0.8500000238418579
0.8500000238418579
0.8500000238418579
0.8500000238418579
0.8500000238418579
0.8500000238418579
0.8500000238418579
0.8500000238418579
0.8500000238418579
0.8500000238418579
0.8500000238418579
0.8500000238418579
0.8500000238418579
0.8500000238418579
0.8500000238418579
0.8500000238418579
0.8500000238418579
0.8500000238418579
0.8500000238418579
0.8500000238418579
0.8500000238418579
0.8500000238418579
0.8500000238418579
0.8500000238418579
0.8500000238418579
0.8500000238418579
0.8500000238418579
0.8500000238418579
0.8500000238418579
0.8500000238418579
0.8500000238418579
0.8500000238418579
0.8500000238418579
0.8500000238418579
0.8500000238418579
0.8500000238418579
0.8500000238418579
0.8500000238418579
0.8500000238418579
0.8500000238418579
0.8500000238418579
0.8500000238418579
0.8500000238418579
0.8500000238418579
0.8500000238418579
0.8500000238418579
0.8500000238418579
0.8500000238418579
0.8500000238418579
0.8500000238418579
0.8500000238418579
0.8500000238418579
0.8500000238418579
0.8500000238418579
0.8500000238418579
0.8500000238418579
0.8500000238418579
0.8500000238418579
0.8500000238418579
0.8500000238418579
0.8500000238418579
0.8500000238418579
0.8500000238418579
0.8500000238418579
0.8500000238418579
0.8500000238418579
0.8500000238418579
0.8500000238418579
0.8500000238418579
0.8500000238418579
0.8500000238418579
0.8500000238418579
0.8500000238418579
0.8500000238418579
0.8500000238418579
0.8500000238418579
0.8500000238418579
0.8500000238418579
0.8500000238418579
0.8500000238418579
0.8500000238418579
0.8500000238418579
0.8500000238418579
0.8500000238418579
0.8500000238418579
0.8500000238418579
0.8500000238418579
0.8500000238418579
0.8500000238418579
0.8500000238418579
0.8500000238418579
0.8500000238418579
0.8500000238418579
0.8500000238418579
0.8500000238418579
0.8500000238418579
0.8500000238418579
0.8500000238418579
0.8500000238418579
0.8500000238418579
0.8500000238418579
0.8500000238418579
0.8500000238418579
0.8500000238418579
0.8500000238418579
0.8500000238418579
0.8500000238418579
0.8500000238418579
0.8500000238418579
0.8500000238418579
0.8500000238418579
0.8500000238418579
0.8500000238418579
0.8500000238418579
0.8500000238418579
0.8500000238418579
0.8500000238418579
0.8500000238418579
0.8500000238418579
0.8500000238418579
0.8500000238418579
0.8500000238418579
0.8500000238418579
0.8500000238418579
0.8500000238418579
0.8500000238418579
0.8500000238418579
0.8500000238418579
0.8500000238418579
0.8500000238418579
0.8500000238418579
0.8500000238418579
0.8500000238418579
0.8500000238418579
0.8500000238418579
0.8500000238418579
0.8500000238418579
0.8500000238418579
0.8500000238418579
0.8500000238418579
0.8500000238418579
0.8500000238418579
0.8500000238418579
0.8500000238418579
0.8500000238418579
0.8500000238418579
0.8500000238418579
0.8500000238418579
0.8500000238418579
0.8500000238418579
0.8500000238418579
0.8500000238418579
0.8500000238418579
0.8500000238418579
0.8500000238418579
0.8500000238418579
0.8500000238418579
0.8500000238418579
0.8500000238418579
0.8500000238418579
0.8500000238418579
0.8500000238418579
0.8500000238418579
0.8500000238418579
0.8500000238418579
0.8500000238418579
0.8500000238418579
0.8500000238418579
0.8500000238418579
0.8500000238418579
0.8500000238418579
0.8500000238418579
0.8500000238418579
0.8500000238418579
0.8500000238418579
0.8500000238418579
0.8500000238418579
0.8500000238418579
0.8500000238418579
0.8500000238418579
0.8500000238418579
0.8500000238418579
0.8500000238418579
0.8500000238418579
0.8500000238418579
0.8500000238418579
0.8500000238418579
0.8500000238418579
0.8500000238418579
0.8500000238418579
0.8500000238418579
0.8500000238418579
0.8500000238418579
0.8500000238418579
0.8500000238418579
0.8500000238418579
0.8500000238418579
0.8500000238418579
0.8500000238418579
0.8500000238418579
0.8500000238418579
0.8500000238418579
0.8500000238418579
0.8500000238418579
0.8500000238418579
0.8500000238418579
0.8500000238418579
0.8500000238418579
0.8500000238418579
0.8500000238418579
0.8500000238418579
0.8500000238418579
0.8500000238418579
0.8500000238418579
0.8500000238418579
0.8500000238418579
0.8500000238418579
0.8500000238418579
0.8500000238418579
0.8500000238418579
0.8500000238418579
0.8500000238418579
0.8500000238418579
0.8500000238418579
0.8500000238418579
0.8500000238418579
0.8500000238418579
0.8500000238418579
0.8500000238418579
0.8500000238418579
0.8500000238418579
0.8500000238418579
0.8500000238418579
0.8500000238418579
0.8500000238418579
0.8500000238418579
0.8500000238418579
0.8500000238418579
0.8500000238418579
0.8500000238418579
0.8500000238418579
0.8500000238418579
0.8500000238418579
0.8500000238418579
0.8500000238418579
0.8500000238418579
0.8500000238418579
0.8500000238418579
0.8500000238418579
0.8500000238418579
0.8500000238418579
0.8500000238418579
0.8500000238418579
0.8500000238418579
0.8500000238418579
0.8500000238418579
0.8500000238418579
0.8500000238418579
0.8500000238418579
0.8500000238418579
0.8500000238418579
0.8500000238418579
0.8500000238418579
0.8500000238418579
0.8500000238418579
0.8500000238418579
0.8500000238418579
0.8500000238418579
0.8500000238418579
0.8500000238418579
0.8500000238418579
0.8500000238418579
0.8500000238418579
0.8500000238418579
0.8500000238418579
0.8500000238418579
0.8500000238418579
0.8500000238418579
0.8500000238418579
0.8500000238418579
0.8500000238418579
0.8500000238418579
0.8500000238418579
0.8500000238418579
0.8500000238418579
0.8500000238418579
0.8500000238418579
0.8500000238418579
0.8500000238418579
0.8500000238418579
0.8500000238418579
0.8500000238418579
0.8500000238418579
0.8500000238418579
0.8500000238418579
0.8500000238418579
0.8500000238418579
0.8500000238418579
0.8500000238418579
0.8500000238418579
0.8500000238418579
0.8500000238418579
0.8500000238418579
0.8500000238418579
0.8500000238418579
0.8500000238418579
0.8500000238418579
0.8500000238418579
0.8500000238418579
0.8500000238418579
0.8500000238418579
0.8500000238418579
0.8500000238418579
0.8500000238418579
0.8500000238418579
0.8500000238418579
0.8500000238418579
0.8500000238418579
0.8500000238418579
0.8500000238418579
0.8500000238418579
0.8500000238418579
0.8500000238418579
0.8500000238418579
0.8500000238418579
0.8500000238418579
0.8500000238418579
0.8500000238418579
0.8500000238418579
0.8500000238418579
0.8500000238418579
0.8500000238418579
0.8500000238418579
0.8500000238418579
0.8500000238418579
0.8500000238418579
0.8500000238418579
0.8500000238418579
0.8500000238418579
0.8500000238418579
0.8500000238418579
0.8500000238418579
0.8500000238418579
0.8500000238418579
0.8500000238418579
0.8500000238418579
0.8500000238418579
0.8500000238418579
0.8500000238418579
0.8500000238418579
0.8500000238418579
0.8500000238418579
0.8500000238418579
0.8500000238418579
0.8500000238418579
0.8500000238418579
0.8500000238418579
0.8500000238418579
0.8500000238418579
0.8500000238418579
0.8500000238418579
0.8500000238418579
0.8500000238418579
0.8500000238418579
0.8500000238418579
0.8500000238418579
0.8500000238418579
0.8500000238418579
0.8500000238418579
0.8500000238418579
0.8500000238418579
0.8500000238418579
0.8500000238418579
0.8500000238418579
0.8500000238418579
0.8500000238418579
0.8500000238418579
0.8500000238418579
0.8500000238418579
0.8500000238418579
0.8500000238418579
0.8500000238418579
0.8500000238418579
0.8500000238418579
0.8500000238418579
0.8500000238418579
0.8500000238418579
0.8500000238418579
0.8500000238418579
0.8500000238418579
0.8500000238418579
0.8500000238418579
0.8500000238418579
0.8500000238418579
0.8500000238418579
0.8500000238418579
0.8500000238418579
0.8500000238418579
0.8500000238418579
0.8500000238418579
0.8500000238418579
0.8500000238418579
0.8500000238418579
0.8500000238418579
0.8500000238418579
0.8500000238418579
0.8500000238418579
0.8500000238418579
0.8500000238418579
0.8500000238418579
0.8500000238418579
0.8500000238418579
0.8500000238418579
0.8500000238418579
0.8500000238418579
0.8500000238418579
0.8500000238418579
0.8500000238418579
0.8500000238418579
0.8500000238418579
0.8500000238418579
0.8500000238418579
0.8500000238418579
0.8500000238418579
0.8500000238418579
0.8500000238418579
0.8500000238418579
0.8500000238418579
0.8500000238418579
0.8500000238418579
0.8500000238418579
0.8500000238418579
0.8500000238418579
0.8500000238418579
0.8500000238418579
0.8500000238418579
0.8500000238418579
0.8500000238418579
0.8500000238418579
0.8500000238418579
0.8500000238418579
0.8500000238418579
0.8500000238418579
0.8500000238418579
0.8500000238418579
0.8500000238418579
0.8500000238418579
0.8500000238418579
0.8500000238418579
0.8500000238418579
0.8500000238418579
0.8500000238418579
0.8500000238418579
0.8500000238418579
0.8500000238418579
0.8500000238418579
0.8500000238418579
0.8500000238418579
0.8500000238418579
0.8500000238418579
0.8500000238418579
0.8500000238418579
0.8500000238418579
0.8500000238418579
0.8500000238418579
0.8500000238418579
0.8500000238418579
0.8500000238418579
0.8500000238418579
0.8500000238418579
0.8500000238418579
0.8500000238418579
0.8500000238418579
0.8500000238418579
0.8500000238418579
0.8500000238418579
0.8500000238418579
0.8500000238418579
0.8500000238418579
0.8500000238418579
0.8500000238418579
0.8500000238418579
0.8500000238418579
0.8500000238418579
0.8500000238418579
0.8500000238418579
0.8500000238418579
0.8500000238418579
0.8500000238418579
0.8500000238418579
0.8500000238418579
0.8500000238418579
0.8500000238418579
0.8500000238418579
0.8500000238418579
0.8500000238418579
0.8500000238418579
0.8500000238418579
0.8500000238418579
0.8500000238418579
0.8500000238418579
0.8500000238418579
0.8500000238418579
0.8500000238418579
0.8500000238418579
0.8500000238418579
0.8500000238418579
0.8500000238418579
0.8500000238418579
0.8500000238418579
0.8500000238418579
0.8500000238418579
0.8500000238418579
0.8500000238418579
0.8500000238418579
0.8500000238418579
0.8500000238418579
0.8500000238418579
0.8500000238418579
0.8500000238418579
0.8500000238418579
0.8500000238418579
0.8500000238418579
0.8500000238418579
0.8500000238418579
0.8500000238418579
0.8500000238418579
0.8500000238418579
0.8500000238418579
0.8500000238418579
0.8500000238418579
0.8500000238418579
0.8500000238418579
0.8500000238418579
0.8500000238418579
0.8500000238418579
0.8500000238418579
0.8500000238418579
0.8500000238418579
0.8500000238418579
0.8500000238418579
0.8500000238418579
0.8500000238418579
0.8500000238418579
0.8500000238418579
0.8500000238418579
0.8500000238418579
0.8500000238418579
0.8500000238418579
0.8500000238418579
0.8500000238418579
0.8500000238418579
0.8500000238418579
0.8500000238418579
0.8500000238418579
0.8500000238418579
0.8500000238418579
0.8500000238418579
0.8500000238418579
0.8500000238418579
0.8500000238418579
0.8500000238418579
0.8500000238418579
0.8500000238418579
0.8500000238418579
0.8500000238418579
0.8500000238418579
0.8500000238418579
0.8500000238418579
0.8500000238418579
0.8500000238418579
0.8500000238418579
0.8500000238418579
0.8500000238418579
0.8500000238418579
0.8500000238418579
0.8500000238418579
0.8500000238418579
0.8500000238418579
0.8500000238418579
0.8500000238418579
0.8500000238418579
0.8500000238418579
0.8500000238418579
0.8500000238418579
0.8500000238418579
0.8500000238418579
0.8500000238418579
0.8500000238418579
0.8500000238418579
0.8500000238418579
0.8500000238418579
0.8500000238418579
0.8500000238418579
0.8500000238418579
0.8500000238418579
0.8500000238418579
0.8500000238418579
0.8500000238418579
0.8500000238418579
0.8500000238418579
0.8500000238418579
0.8500000238418579
0.8500000238418579
0.8500000238418579
0.8500000238418579
0.8500000238418579
0.8500000238418579
0.8500000238418579
0.8500000238418579
0.8500000238418579
0.8500000238418579
0.8500000238418579
0.8500000238418579
0.8500000238418579
0.8500000238418579
0.8500000238418579
0.8500000238418579
0.8500000238418579
0.8500000238418579
0.8500000238418579
0.8500000238418579
0.8500000238418579
0.8500000238418579
0.8500000238418579
0.8500000238418579
0.8500000238418579
0.8500000238418579
0.8500000238418579
0.8500000238418579
0.8500000238418579
0.8500000238418579
0.8500000238418579
0.8500000238418579
0.8500000238418579
0.8500000238418579
0.8500000238418579
0.8500000238418579
0.8500000238418579
0.8500000238418579
0.8500000238418579
0.8500000238418579
0.8500000238418579
0.8500000238418579
0.8500000238418579
0.8500000238418579
0.8500000238418579
0.8500000238418579
0.8500000238418579
0.8500000238418579
0.8500000238418579
0.8500000238418579
0.8500000238418579
0.8500000238418579
0.8500000238418579
0.8500000238418579
0.8500000238418579
0.8500000238418579
0.8500000238418579
0.8500000238418579
0.8500000238418579
0.8500000238418579
0.8500000238418579
0.8500000238418579
0.8500000238418579
0.8500000238418579
0.8500000238418579
0.8500000238418579
0.8500000238418579
0.8500000238418579
0.8500000238418579
0.8500000238418579
0.8500000238418579
0.8500000238418579
0.8500000238418579
0.8500000238418579
0.8500000238418579
0.8500000238418579
0.8500000238418579
0.8500000238418579
0.8500000238418579
0.8500000238418579
0.8500000238418579
0.8500000238418579
0.8500000238418579
0.8500000238418579
0.8500000238418579
0.8500000238418579
0.8500000238418579
0.8500000238418579
0.8500000238418579
0.8500000238418579
0.8500000238418579
0.8500000238418579
0.8500000238418579
0.8500000238418579
0.8500000238418579
0.8500000238418579
0.8500000238418579
0.8500000238418579
0.8500000238418579
0.8500000238418579
0.8500000238418579
0.8500000238418579
0.8500000238418579
0.8500000238418579
0.8500000238418579
0.8500000238418579
0.8500000238418579
0.8500000238418579
0.8500000238418579
0.8500000238418579
0.8500000238418579
0.8500000238418579
0.8500000238418579
0.8500000238418579
0.8500000238418579
0.8500000238418579
0.8500000238418579
0.8500000238418579
0.8500000238418579
0.8500000238418579
0.8500000238418579
0.8500000238418579
0.8500000238418579
0.8500000238418579
0.8500000238418579
0.8500000238418579
0.8500000238418579
0.8500000238418579
0.8500000238418579
0.8500000238418579
0.8500000238418579
0.8500000238418579
0.8500000238418579
0.8500000238418579
0.8500000238418579
0.8500000238418579
0.8500000238418579
0.8500000238418579
0.8500000238418579
0.8500000238418579
0.8500000238418579
0.8500000238418579
0.8500000238418579
0.8500000238418579
0.8500000238418579
0.8500000238418579
0.8500000238418579
0.8500000238418579
0.8500000238418579
0.8500000238418579
0.8500000238418579
0.8500000238418579
0.8500000238418579
0.8500000238418579
0.8500000238418579
0.8500000238418579
0.8500000238418579
0.8500000238418579
0.8500000238418579
0.8500000238418579
0.8500000238418579
0.8500000238418579
0.8500000238418579
0.8500000238418579
0.8500000238418579
0.8500000238418579
0.8500000238418579
0.8500000238418579
0.8500000238418579
0.8500000238418579
0.8500000238418579
0.8500000238418579
0.8500000238418579
0.8500000238418579
0.8500000238418579
0.8500000238418579
0.8500000238418579
0.8500000238418579
0.8500000238418579
0.8500000238418579
0.8500000238418579
0.8500000238418579
0.8500000238418579
0.8500000238418579
0.8500000238418579
0.8500000238418579
0.8500000238418579
0.8500000238418579
0.8500000238418579
0.8500000238418579
0.8500000238418579
0.8500000238418579
0.8500000238418579
0.8500000238418579
0.8500000238418579
0.8500000238418579
0.8500000238418579
0.8500000238418579
0.8500000238418579
0.8500000238418579
0.8500000238418579
0.8500000238418579
0.8500000238418579
0.8500000238418579
0.8500000238418579
0.8500000238418579
0.8500000238418579
0.8500000238418579
0.8500000238418579
0.8500000238418579
0.8500000238418579
0.8500000238418579
0.8500000238418579
0.8500000238418579
0.8500000238418579
0.8500000238418579
0.8500000238418579
0.8500000238418579
0.8500000238418579
0.8500000238418579
0.8500000238418579
0.8500000238418579
0.8500000238418579
0.8500000238418579
0.8500000238418579
0.8500000238418579
0.8500000238418579
0.8500000238418579
0.8500000238418579
0.8500000238418579
0.8500000238418579
0.8500000238418579
0.8500000238418579
0.8500000238418579
0.8500000238418579
0.8500000238418579
0.8500000238418579
0.8500000238418579
0.8500000238418579
0.8500000238418579
0.8500000238418579
0.8500000238418579
0.8500000238418579
0.8500000238418579
0.8500000238418579
0.8500000238418579
0.8500000238418579
0.8500000238418579
0.8500000238418579
0.8500000238418579
0.8500000238418579
0.8500000238418579
0.8500000238418579
0.8500000238418579
0.8500000238418579
0.8500000238418579
0.8500000238418579
0.8500000238418579
0.8500000238418579
0.8500000238418579
0.8500000238418579
0.8500000238418579
0.8500000238418579
0.8500000238418579
0.8500000238418579
0.8500000238418579
0.8500000238418579
0.8500000238418579
0.8500000238418579
0.8500000238418579
0.8500000238418579
0.8500000238418579
0.8500000238418579
0.8500000238418579
0.8500000238418579
0.8500000238418579
0.8500000238418579
0.8500000238418579
0.8500000238418579
0.8500000238418579
0.8500000238418579
0.8500000238418579
0.8500000238418579
0.8500000238418579
0.8500000238418579
0.8500000238418579
0.8500000238418579
0.8500000238418579
0.8500000238418579
0.8500000238418579
0.8500000238418579
0.8500000238418579
0.8500000238418579
0.8500000238418579
0.8500000238418579
0.8500000238418579
0.8500000238418579
0.8500000238418579
0.8500000238418579
0.8500000238418579
0.8500000238418579
0.8500000238418579
0.8500000238418579
0.8500000238418579
0.8500000238418579
0.8500000238418579
0.8500000238418579
0.8500000238418579
0.8500000238418579
0.8500000238418579
0.8500000238418579
0.8500000238418579
0.8500000238418579
0.8500000238418579
0.8500000238418579
0.8500000238418579
0.8500000238418579
0.8500000238418579
0.8500000238418579
0.8500000238418579
0.8500000238418579
0.8500000238418579
0.8500000238418579
0.8500000238418579
0.8500000238418579
0.8500000238418579
0.8500000238418579
0.8500000238418579
0.8500000238418579
0.8500000238418579
0.8500000238418579
0.8500000238418579
0.8500000238418579
0.8500000238418579
0.8500000238418579
0.8500000238418579
0.8500000238418579
0.8500000238418579
0.8500000238418579
0.8500000238418579
0.8500000238418579
0.8500000238418579
0.8500000238418579
0.8500000238418579
0.8500000238418579
0.8500000238418579
0.8500000238418579
0.8500000238418579
0.8500000238418579
0.8500000238418579
0.8500000238418579
0.8500000238418579
0.8500000238418579
0.8500000238418579
0.8500000238418579
0.8500000238418579
0.8500000238418579
0.8500000238418579
0.8500000238418579
0.8500000238418579
0.8500000238418579
0.8500000238418579
0.8500000238418579
0.8500000238418579
0.8500000238418579
0.8500000238418579
0.8500000238418579
0.8500000238418579
0.8500000238418579
0.8500000238418579
0.8500000238418579
0.8500000238418579
0.8500000238418579
0.8500000238418579
0.8500000238418579
0.8500000238418579
0.8500000238418579
0.8500000238418579
0.8500000238418579
0.8500000238418579
0.8500000238418579
0.8500000238418579
0.8500000238418579
0.8500000238418579
0.8500000238418579
0.8500000238418579
0.8500000238418579
0.8500000238418579
0.8500000238418579
0.8500000238418579
0.8500000238418579
0.8500000238418579
0.8500000238418579
0.8500000238418579
0.8500000238418579
0.8500000238418579
0.8500000238418579
0.8500000238418579
0.8500000238418579
0.8500000238418579
0.8500000238418579
0.8500000238418579
0.8500000238418579
0.8500000238418579
0.8500000238418579
0.8500000238418579
0.8500000238418579
0.8500000238418579
0.8500000238418579
0.8500000238418579
0.8500000238418579
0.8500000238418579
0.8500000238418579
0.8500000238418579
0.8500000238418579
0.8500000238418579
0.8500000238418579
0.8500000238418579
0.8500000238418579
0.8500000238418579
0.8500000238418579
0.8500000238418579
0.8500000238418579
0.8500000238418579
0.8500000238418579
0.8500000238418579
0.8500000238418579
0.8500000238418579
0.8500000238418579
0.8500000238418579
0.8500000238418579
0.8500000238418579
0.8500000238418579
0.8500000238418579
0.8500000238418579
0.8500000238418579
0.8500000238418579
0.8500000238418579
0.8500000238418579
0.8500000238418579
0.8500000238418579
0.8500000238418579
0.8500000238418579
0.8500000238418579
0.8500000238418579
0.8500000238418579
0.8500000238418579
0.8500000238418579
0.8500000238418579
0.8500000238418579
0.8500000238418579
0.8500000238418579
0.8500000238418579
0.8500000238418579
0.8500000238418579
0.8500000238418579
0.8500000238418579
0.8500000238418579
0.8500000238418579
0.8500000238418579
0.8500000238418579
0.8500000238418579
0.8500000238418579
0.8500000238418579
0.8500000238418579
0.8500000238418579
0.8500000238418579
0.8500000238418579
0.8500000238418579
0.8500000238418579
0.8500000238418579
0.8500000238418579
0.8500000238418579
0.8500000238418579
0.8500000238418579
0.8500000238418579
0.8500000238418579
0.8500000238418579
0.8500000238418579
0.8500000238418579
0.8500000238418579
0.8500000238418579
0.8500000238418579
0.8500000238418579
0.8500000238418579
0.8500000238418579
0.8500000238418579
0.8500000238418579
0.8500000238418579
0.8500000238418579
0.8500000238418579
0.8500000238418579
0.8500000238418579
0.8500000238418579
0.8500000238418579
0.8500000238418579
0.8500000238418579
0.8500000238418579
0.8500000238418579
0.8500000238418579
0.8500000238418579
0.8500000238418579
0.8500000238418579
0.8500000238418579
0.8500000238418579
0.8500000238418579
0.8500000238418579
0.8500000238418579
0.8500000238418579
0.8500000238418579
0.8500000238418579
0.8500000238418579
0.8500000238418579
0.8500000238418579
0.8500000238418579
0.8500000238418579
0.8500000238418579
0.8500000238418579
0.8500000238418579
0.8500000238418579
0.8500000238418579
0.8500000238418579
0.8500000238418579
0.8500000238418579
0.8500000238418579
0.8500000238418579
0.8500000238418579
0.8500000238418579
0.8500000238418579
0.8500000238418579
0.8500000238418579
0.8500000238418579
0.8500000238418579
0.8500000238418579
0.8500000238418579
0.8500000238418579
0.8500000238418579
0.8500000238418579
0.8500000238418579
0.8500000238418579
0.8500000238418579
0.8500000238418579
0.8500000238418579
0.8500000238418579
0.8500000238418579
0.8500000238418579
0.8500000238418579
0.8500000238418579
0.8500000238418579
0.8500000238418579
0.8500000238418579
0.8500000238418579
0.8500000238418579
0.8500000238418579
0.8500000238418579
0.8500000238418579
0.8500000238418579
0.8500000238418579
0.8500000238418579
0.8500000238418579
0.8500000238418579
0.8500000238418579
0.8500000238418579
0.8500000238418579
0.8500000238418579
0.8500000238418579
0.8500000238418579
0.8500000238418579
0.8500000238418579
0.8500000238418579
0.8500000238418579
0.8500000238418579
0.8500000238418579
0.8500000238418579
0.8500000238418579
0.8500000238418579
0.8500000238418579
0.8500000238418579
0.8500000238418579
0.8500000238418579
0.8500000238418579
0.8500000238418579
0.8500000238418579
0.8500000238418579
0.8500000238418579
0.8500000238418579
0.8500000238418579
0.8500000238418579
0.8500000238418579
0.8500000238418579
0.8500000238418579
0.8500000238418579
0.8500000238418579
0.8500000238418579
0.8500000238418579
0.8500000238418579
0.8500000238418579
0.8500000238418579
0.8500000238418579
0.8500000238418579
0.8500000238418579
0.8500000238418579
0.8500000238418579
0.8500000238418579
0.8500000238418579
0.8500000238418579
0.8500000238418579
0.8500000238418579
0.8500000238418579
0.8500000238418579
0.8500000238418579
0.8500000238418579
0.8500000238418579
0.8500000238418579
0.8500000238418579
0.8500000238418579
0.8500000238418579
0.8500000238418579
0.8500000238418579
0.8500000238418579
0.8500000238418579
0.8500000238418579
0.8500000238418579
0.8500000238418579
0.8500000238418579
0.8500000238418579
0.8500000238418579
0.8500000238418579
0.8500000238418579
0.8500000238418579
0.8500000238418579
0.8500000238418579
0.8500000238418579
0.8500000238418579
0.8500000238418579
0.8500000238418579
0.8500000238418579
0.8500000238418579
0.8500000238418579
0.8500000238418579
0.8500000238418579
0.8500000238418579
0.8500000238418579
0.8500000238418579
0.8500000238418579
0.8500000238418579
0.8500000238418579
0.8500000238418579
0.8500000238418579
0.8500000238418579
0.8500000238418579
0.8500000238418579
0.8500000238418579
0.8500000238418579
0.8500000238418579
0.8500000238418579
0.8500000238418579
0.8500000238418579
0.8500000238418579
0.8500000238418579
0.8500000238418579
0.8500000238418579
0.8500000238418579
0.8500000238418579
0.8500000238418579
0.8500000238418579
0.8500000238418579
0.8500000238418579
0.8500000238418579
0.8500000238418579
0.8500000238418579
0.8500000238418579
0.8500000238418579
0.8500000238418579
0.8500000238418579
0.8500000238418579
0.8500000238418579
0.8500000238418579
0.8500000238418579
0.8500000238418579
0.8500000238418579
0.8500000238418579
0.8500000238418579
0.8500000238418579
0.8500000238418579
0.8500000238418579
0.8500000238418579
0.8500000238418579
0.8500000238418579
0.8500000238418579
0.8500000238418579
0.8500000238418579
0.8500000238418579
0.8500000238418579
0.8500000238418579
0.8500000238418579
0.8500000238418579
0.8500000238418579
0.8500000238418579
0.8500000238418579
0.8500000238418579
0.8500000238418579
0.8500000238418579
0.8500000238418579
0.8500000238418579
0.8500000238418579
0.8500000238418579
0.8500000238418579
0.8500000238418579
0.8500000238418579
0.8500000238418579
0.8500000238418579
0.8500000238418579
0.8500000238418579
0.8500000238418579
0.8500000238418579
0.8500000238418579
0.8500000238418579
0.8500000238418579
0.8500000238418579
0.8500000238418579
0.8500000238418579
0.8500000238418579
0.8500000238418579
0.8500000238418579
0.8500000238418579
0.8500000238418579
0.8500000238418579
0.8500000238418579
0.8500000238418579
0.8500000238418579
0.8500000238418579
0.8500000238418579
0.8500000238418579
0.8500000238418579
0.8500000238418579
0.8500000238418579
0.8500000238418579
0.8500000238418579
0.8500000238418579
0.8500000238418579
0.8500000238418579
0.8500000238418579
0.8500000238418579
0.8500000238418579
0.8500000238418579
0.8500000238418579
0.8500000238418579
0.8500000238418579
0.8500000238418579
0.8500000238418579
0.8500000238418579
0.8500000238418579
0.8500000238418579
0.8500000238418579
0.8500000238418579
0.8500000238418579
0.8500000238418579
0.8500000238418579
0.8500000238418579
0.8500000238418579
0.8500000238418579
0.8500000238418579
0.8500000238418579
0.8500000238418579
0.8500000238418579
0.8500000238418579
0.8500000238418579
0.8500000238418579
0.8500000238418579
0.8500000238418579
0.8500000238418579
0.8500000238418579
0.8500000238418579
0.8500000238418579
0.8500000238418579
0.8500000238418579
0.8500000238418579
0.8500000238418579
0.8500000238418579
0.8500000238418579
0.8500000238418579
0.8500000238418579
0.8500000238418579
0.8500000238418579
0.8500000238418579
0.8500000238418579
0.8500000238418579
0.8500000238418579
0.8500000238418579
0.8500000238418579
0.8500000238418579
0.8500000238418579
0.8500000238418579
0.8500000238418579
0.8500000238418579
0.8500000238418579
0.8500000238418579
0.8500000238418579
0.8500000238418579
0.8500000238418579
0.8500000238418579
0.8500000238418579
0.8500000238418579
0.8500000238418579
0.8500000238418579
0.8500000238418579
0.8500000238418579
0.8500000238418579
0.8500000238418579
0.8500000238418579
0.8500000238418579
0.8500000238418579
0.8500000238418579
0.8500000238418579
0.8500000238418579
0.8500000238418579
0.8500000238418579
0.8500000238418579
0.8500000238418579
0.8500000238418579
0.8500000238418579
0.8500000238418579
0.8500000238418579
0.8500000238418579
0.8500000238418579
0.8500000238418579
0.8500000238418579
0.8500000238418579
0.8500000238418579
0.8500000238418579
0.8500000238418579
0.8500000238418579
0.8500000238418579
0.8500000238418579
0.8500000238418579
0.8500000238418579
0.8500000238418579
0.8500000238418579
0.8500000238418579
0.8500000238418579
0.8500000238418579
0.8500000238418579
0.8500000238418579
0.8500000238418579
0.8500000238418579
0.8500000238418579
0.8500000238418579
0.8500000238418579
0.8500000238418579
0.8500000238418579
0.8500000238418579
0.8500000238418579
0.8500000238418579
0.8500000238418579
0.8500000238418579
0.8500000238418579
0.8500000238418579
0.8500000238418579
0.8500000238418579
0.8500000238418579
0.8500000238418579
0.8500000238418579
0.8500000238418579
0.8500000238418579
0.8500000238418579
0.8500000238418579
0.8500000238418579
0.8500000238418579
0.8500000238418579
0.8500000238418579
0.8500000238418579
0.8500000238418579
0.8500000238418579
0.8500000238418579
0.8500000238418579
0.8500000238418579
0.8500000238418579
0.8500000238418579
0.8500000238418579
0.8500000238418579
0.8500000238418579
0.8500000238418579
0.8500000238418579
0.8500000238418579
0.8500000238418579
0.8500000238418579
0.8500000238418579
0.8500000238418579
0.8500000238418579
0.8500000238418579
0.8500000238418579
0.8500000238418579
0.8500000238418579
0.8500000238418579
0.8500000238418579
0.8500000238418579
0.8500000238418579
0.8500000238418579
0.8500000238418579
0.8500000238418579
0.8500000238418579
0.8500000238418579
0.8500000238418579
0.8500000238418579
0.8500000238418579
0.8500000238418579
0.8500000238418579
0.8500000238418579
0.8500000238418579
0.8500000238418579
0.8500000238418579
0.8500000238418579
0.8500000238418579
0.8500000238418579
0.8500000238418579
0.8500000238418579
0.8500000238418579
0.8500000238418579
0.8500000238418579
0.8500000238418579
0.8500000238418579
0.8500000238418579
0.8500000238418579
0.8500000238418579
0.8500000238418579
0.8500000238418579
0.8500000238418579
0.8500000238418579
0.8500000238418579
0.8500000238418579
0.8500000238418579
0.8500000238418579
0.8500000238418579
0.8500000238418579
0.8500000238418579
0.8500000238418579
0.8500000238418579
0.8500000238418579
0.8500000238418579
0.8500000238418579
0.8500000238418579
0.8500000238418579
0.8500000238418579
0.8500000238418579
0.8500000238418579
0.8500000238418579
0.8500000238418579
0.8500000238418579
0.8500000238418579
0.8500000238418579
0.8500000238418579
0.8500000238418579
0.8500000238418579
0.8500000238418579
0.8500000238418579
0.8500000238418579
0.8500000238418579
0.8500000238418579
0.8500000238418579
0.8500000238418579
0.8500000238418579
0.8500000238418579
0.8500000238418579
0.8500000238418579
0.8500000238418579
0.8500000238418579
0.8500000238418579
0.8500000238418579
0.8500000238418579
0.8500000238418579
0.8500000238418579
0.8500000238418579
0.8500000238418579
0.8500000238418579
0.8500000238418579
0.8500000238418579
0.8500000238418579
0.8500000238418579
0.8500000238418579
0.8500000238418579
0.8500000238418579
0.8500000238418579
0.8500000238418579
0.8500000238418579
0.8500000238418579
0.8500000238418579
0.8500000238418579
0.8500000238418579
0.8500000238418579
0.8500000238418579
0.8500000238418579
0.8500000238418579
0.8500000238418579
0.8500000238418579
0.8500000238418579
0.8500000238418579
0.8500000238418579
0.8500000238418579
0.8500000238418579
0.8500000238418579
0.8500000238418579
0.8500000238418579
0.8500000238418579
0.8500000238418579
0.8500000238418579
0.8500000238418579
0.8500000238418579
0.8500000238418579
0.8500000238418579
0.8500000238418579
0.8500000238418579
0.8500000238418579
0.8500000238418579
0.8500000238418579
0.8500000238418579
0.8500000238418579
0.8500000238418579
0.8500000238418579
0.8500000238418579
0.8500000238418579
0.8500000238418579
0.8500000238418579
0.8500000238418579
0.8500000238418579
0.8500000238418579
0.8500000238418579
0.8500000238418579
0.8500000238418579
0.8500000238418579
0.8500000238418579
0.8500000238418579
0.8500000238418579
0.8500000238418579
0.8500000238418579
0.8500000238418579
0.8500000238418579
0.8500000238418579
0.8500000238418579
0.8500000238418579
0.8500000238418579
0.8500000238418579
0.8500000238418579
0.8500000238418579
0.8500000238418579
0.8500000238418579
0.8500000238418579
0.8500000238418579
0.8500000238418579
0.8500000238418579
0.8500000238418579
0.8500000238418579
0.8500000238418579
0.8500000238418579
0.8500000238418579
0.8500000238418579
0.8500000238418579
0.8500000238418579
0.8500000238418579
0.8500000238418579
0.8500000238418579
0.8500000238418579
0.8500000238418579
0.8500000238418579
0.8500000238418579
0.8500000238418579
0.8500000238418579
0.8500000238418579
0.8500000238418579
0.8500000238418579
0.8500000238418579
0.8500000238418579
0.8500000238418579
0.8500000238418579
0.8500000238418579
0.8500000238418579
0.8500000238418579
0.8500000238418579
0.8500000238418579
0.8500000238418579
0.8500000238418579
0.8500000238418579
0.8500000238418579
0.8500000238418579
0.8500000238418579
0.8500000238418579
0.8500000238418579
0.8500000238418579
0.8500000238418579
0.8500000238418579
0.8500000238418579
0.8500000238418579
0.8500000238418579
0.8500000238418579
0.8500000238418579
0.8500000238418579
0.8500000238418579
0.8500000238418579
0.8500000238418579
0.8500000238418579
0.8500000238418579
0.8500000238418579
0.8500000238418579
0.8500000238418579
0.8500000238418579
0.8500000238418579
0.8500000238418579
0.8500000238418579
0.8500000238418579
0.8500000238418579
0.8500000238418579
0.8500000238418579
0.8500000238418579
0.8500000238418579
0.8500000238418579
0.8500000238418579
0.8500000238418579
0.8500000238418579
0.8500000238418579
0.8500000238418579
0.8500000238418579
0.8500000238418579
0.8500000238418579
0.8500000238418579
0.8500000238418579
0.8500000238418579
0.8500000238418579
0.8500000238418579
0.8500000238418579
0.8500000238418579
0.8500000238418579
0.8500000238418579
0.8500000238418579
0.8500000238418579
0.8500000238418579
0.8500000238418579
0.8500000238418579
0.8500000238418579
0.8500000238418579
0.8500000238418579
0.8500000238418579
0.8500000238418579
0.8500000238418579
0.8500000238418579
0.8500000238418579
0.8500000238418579
0.8500000238418579
0.8500000238418579
0.8500000238418579
0.8500000238418579
0.8500000238418579
0.8500000238418579
0.8500000238418579
0.8500000238418579
0.8500000238418579
0.8500000238418579
0.8500000238418579
0.8500000238418579
0.8500000238418579
0.8500000238418579
0.8500000238418579
0.8500000238418579
0.8500000238418579
0.8500000238418579
0.8500000238418579
0.8500000238418579
0.8500000238418579
0.8500000238418579
0.8500000238418579
0.8500000238418579
0.8500000238418579
0.8500000238418579
0.8500000238418579
0.8500000238418579
0.8500000238418579
0.8500000238418579
0.8500000238418579
0.8500000238418579
0.8500000238418579
0.8500000238418579
0.8500000238418579
0.8500000238418579
0.8500000238418579
0.8500000238418579
0.8500000238418579
0.8500000238418579
0.8500000238418579
0.8500000238418579
0.8500000238418579
0.8500000238418579
0.8500000238418579
0.8500000238418579
0.8500000238418579
0.8500000238418579
0.8500000238418579
0.8500000238418579
0.8500000238418579
0.8500000238418579
0.8500000238418579
0.8500000238418579
0.8500000238418579
0.8500000238418579
0.8500000238418579
0.8500000238418579
0.8500000238418579
0.8500000238418579
0.8500000238418579
0.8500000238418579
0.8500000238418579
0.8500000238418579
0.8500000238418579
0.8500000238418579
0.8500000238418579
0.8500000238418579
0.8500000238418579
0.8500000238418579
0.8500000238418579
0.8500000238418579
0.8500000238418579
0.8500000238418579
0.8500000238418579
0.8500000238418579
0.8500000238418579
0.8500000238418579
0.8500000238418579
0.8500000238418579
0.8500000238418579
0.8500000238418579
0.8500000238418579
0.8500000238418579
0.8500000238418579
0.8500000238418579
0.8500000238418579
0.8500000238418579
0.8500000238418579
0.8500000238418579
0.8500000238418579
0.8500000238418579
0.8500000238418579
0.8500000238418579
0.8500000238418579
0.8500000238418579
0.8500000238418579
0.8500000238418579
0.8500000238418579
0.8500000238418579
0.8500000238418579
0.8500000238418579
0.8500000238418579
0.8500000238418579
0.8500000238418579
0.8500000238418579
0.8500000238418579
0.8500000238418579
0.8500000238418579
0.8500000238418579
0.8500000238418579
0.8500000238418579
0.8500000238418579
0.8500000238418579
0.8500000238418579
0.8500000238418579
0.8500000238418579
0.8500000238418579
0.8500000238418579
0.8500000238418579
0.8500000238418579
0.8500000238418579
0.8500000238418579
0.8500000238418579
0.8500000238418579
0.8500000238418579
0.8500000238418579
0.8500000238418579
0.8500000238418579
0.8500000238418579
0.8500000238418579
0.8500000238418579
0.8500000238418579
0.8500000238418579
0.8500000238418579
0.8500000238418579
0.8500000238418579
0.8500000238418579
0.8500000238418579
0.8500000238418579
0.8500000238418579
0.8500000238418579
0.8500000238418579
0.8500000238418579
0.8500000238418579
0.8500000238418579
0.8500000238418579
0.8500000238418579
0.8500000238418579
0.8500000238418579
0.8500000238418579
0.8500000238418579
0.8500000238418579
0.8500000238418579
0.8500000238418579
0.8500000238418579
0.8500000238418579
0.8500000238418579
0.8500000238418579
0.8500000238418579
0.8500000238418579
0.8500000238418579
0.8500000238418579
0.8500000238418579
0.8500000238418579
0.8500000238418579
0.8500000238418579
0.8500000238418579
0.8500000238418579
0.8500000238418579
0.8500000238418579
0.8500000238418579
0.8500000238418579
0.8500000238418579
0.8500000238418579
0.8500000238418579
0.8500000238418579
0.8500000238418579
0.8500000238418579
0.8500000238418579
0.8500000238418579
0.8500000238418579
0.8500000238418579
0.8500000238418579
0.8500000238418579
0.8500000238418579
0.8500000238418579
0.8500000238418579
0.8500000238418579
0.8500000238418579
0.8500000238418579
0.8500000238418579
0.8500000238418579
0.8500000238418579
0.8500000238418579
0.8500000238418579
0.8500000238418579
0.8500000238418579
0.8500000238418579
0.8500000238418579
0.8500000238418579
0.8500000238418579
0.8500000238418579
0.8500000238418579
0.8500000238418579
0.8500000238418579
0.8500000238418579
0.8500000238418579
0.8500000238418579
0.8500000238418579
0.8500000238418579
0.8500000238418579
0.8500000238418579
0.8500000238418579
0.8500000238418579
0.8500000238418579
0.8500000238418579
0.8500000238418579
0.8500000238418579
0.8500000238418579
0.8500000238418579
0.8500000238418579
0.8500000238418579
0.8500000238418579
0.8500000238418579
0.8500000238418579
0.8500000238418579
0.8500000238418579
0.8500000238418579
0.8500000238418579
0.8500000238418579
0.8500000238418579
0.8500000238418579
0.8500000238418579
0.8500000238418579
0.8500000238418579
0.8500000238418579
0.8500000238418579
0.8500000238418579
0.8500000238418579
0.8500000238418579
0.8500000238418579
0.8500000238418579
0.8500000238418579
0.8500000238418579
0.8500000238418579
0.8500000238418579
0.8500000238418579
0.8500000238418579
0.8500000238418579
0.8500000238418579
0.8500000238418579
0.8500000238418579
0.8500000238418579
0.8500000238418579
0.8500000238418579
0.8500000238418579
0.8500000238418579
0.8500000238418579
0.8500000238418579
0.8500000238418579
0.8500000238418579
0.8500000238418579
0.8500000238418579
0.8500000238418579
0.8500000238418579
0.8500000238418579
0.8500000238418579
0.8500000238418579
0.8500000238418579
0.8500000238418579
0.8500000238418579
0.8500000238418579
0.8500000238418579
0.8500000238418579
0.8500000238418579
0.8500000238418579
0.8500000238418579
0.8500000238418579
0.8500000238418579
0.8500000238418579
0.8500000238418579
0.8500000238418579
0.8500000238418579
0.8500000238418579
0.8500000238418579
0.8500000238418579
0.8500000238418579
0.8500000238418579
0.8500000238418579
0.8500000238418579
0.8500000238418579
0.8500000238418579
0.8500000238418579
0.8500000238418579
0.8500000238418579
0.8500000238418579
0.8500000238418579
0.8500000238418579
0.8500000238418579
0.8500000238418579
0.8500000238418579
0.8500000238418579
0.8500000238418579
0.8500000238418579
0.8500000238418579
0.8500000238418579
0.8500000238418579
0.8500000238418579
0.8500000238418579
0.8500000238418579
0.8500000238418579
0.8500000238418579
0.8500000238418579
0.8500000238418579
0.8500000238418579
0.8500000238418579
0.8500000238418579
0.8500000238418579
0.8500000238418579
0.8500000238418579
0.8500000238418579
0.8500000238418579
0.8500000238418579
0.8500000238418579
0.8500000238418579
0.8500000238418579
0.8500000238418579
0.8500000238418579
0.8500000238418579
0.8500000238418579
0.8500000238418579
0.8500000238418579
0.8500000238418579
0.8500000238418579
0.8500000238418579
0.8500000238418579
0.8500000238418579
0.8500000238418579
0.8500000238418579
0.8500000238418579
0.8500000238418579
0.8500000238418579
0.8500000238418579
0.8500000238418579
0.8500000238418579
0.8500000238418579
0.8500000238418579
0.8500000238418579
0.8500000238418579
0.8500000238418579
0.8500000238418579
0.8500000238418579
0.8500000238418579
0.8500000238418579
0.8500000238418579
0.8500000238418579
0.8500000238418579
0.8500000238418579
0.8500000238418579
0.8500000238418579
0.8500000238418579
0.8500000238418579
0.8500000238418579
0.8500000238418579
0.8500000238418579
0.8500000238418579
0.8500000238418579
0.8500000238418579
0.8500000238418579
0.8500000238418579
0.8500000238418579
0.8500000238418579
0.8500000238418579
0.8500000238418579
0.8500000238418579
0.8500000238418579
0.8500000238418579
0.8500000238418579
0.8500000238418579
0.8500000238418579
0.8500000238418579
0.8500000238418579
0.8500000238418579
0.8500000238418579
0.8500000238418579
0.8500000238418579
0.8500000238418579
0.8500000238418579
0.8500000238418579
0.8500000238418579
0.8500000238418579
0.8500000238418579
0.8500000238418579
0.8500000238418579
0.8500000238418579
0.8500000238418579
0.8500000238418579
0.8500000238418579
0.8500000238418579
0.8500000238418579
0.8500000238418579
0.8500000238418579
0.8500000238418579
0.8500000238418579
0.8500000238418579
0.8500000238418579
0.8500000238418579
0.8500000238418579
0.8500000238418579
0.8500000238418579
0.8500000238418579
0.8500000238418579
0.8500000238418579
0.8500000238418579
0.8500000238418579
0.8500000238418579
0.8500000238418579
0.8500000238418579
0.8500000238418579
0.8500000238418579
0.8500000238418579
0.8500000238418579
0.8500000238418579
0.8500000238418579
0.8500000238418579
0.8500000238418579
0.8500000238418579
0.8500000238418579
0.8500000238418579
0.8500000238418579
0.8500000238418579
0.8500000238418579
0.8500000238418579
0.8500000238418579
0.8500000238418579
0.8500000238418579
0.8500000238418579
0.8500000238418579
0.8500000238418579
0.8500000238418579
0.8500000238418579
0.8500000238418579
0.8500000238418579
0.8500000238418579
0.8500000238418579
0.8500000238418579
0.8500000238418579
0.8500000238418579
0.8500000238418579
0.8500000238418579
0.8500000238418579
0.8500000238418579
0.8500000238418579
0.8500000238418579
0.8500000238418579
0.8500000238418579
0.8500000238418579
0.8500000238418579
0.8500000238418579
0.8500000238418579
0.8500000238418579
0.8500000238418579
0.8500000238418579
0.8500000238418579
0.8500000238418579
0.8500000238418579
0.8500000238418579
0.8500000238418579
0.8500000238418579
0.8500000238418579
0.8500000238418579
0.8500000238418579
0.8500000238418579
0.8500000238418579
0.8500000238418579
0.8500000238418579
0.8500000238418579
0.8500000238418579
0.8500000238418579
0.8500000238418579
0.8500000238418579
0.8500000238418579
0.8500000238418579
0.8500000238418579
0.8500000238418579
0.8500000238418579
0.8500000238418579
0.8500000238418579
0.8500000238418579
0.8500000238418579
0.8500000238418579
0.8500000238418579
0.8500000238418579
0.8500000238418579
0.8500000238418579
0.8500000238418579
0.8500000238418579
0.8500000238418579
0.8500000238418579
0.8500000238418579
0.8500000238418579
0.8500000238418579
0.8500000238418579
0.8500000238418579
0.8500000238418579
0.8500000238418579
0.8500000238418579
0.8500000238418579
0.8500000238418579
0.8500000238418579
0.8500000238418579
0.8500000238418579
0.8500000238418579
0.8500000238418579
0.8500000238418579
0.8500000238418579
0.8500000238418579
0.8500000238418579
0.8500000238418579
0.8500000238418579
0.8500000238418579
0.8500000238418579
0.8500000238418579
0.8500000238418579
0.8500000238418579
0.8500000238418579
0.8500000238418579
0.8500000238418579
0.8500000238418579
0.8500000238418579
0.8500000238418579
0.8500000238418579
0.8500000238418579
0.8500000238418579
0.8500000238418579
0.8500000238418579
0.8500000238418579
0.8500000238418579
0.8500000238418579
0.8500000238418579
0.8500000238418579
0.8500000238418579
0.8500000238418579
0.8500000238418579
0.8500000238418579
0.8500000238418579
0.8500000238418579
0.8500000238418579
0.8500000238418579
0.8500000238418579
0.8500000238418579
0.8500000238418579
0.8500000238418579
0.8500000238418579
0.8500000238418579
0.8500000238418579
0.8500000238418579
0.8500000238418579
0.8500000238418579
0.8500000238418579
0.8500000238418579
0.8500000238418579
0.8500000238418579
0.8500000238418579
0.8500000238418579
0.8500000238418579
0.8500000238418579
0.8500000238418579
0.8500000238418579
0.8500000238418579
0.8500000238418579
0.8500000238418579
0.8500000238418579
0.8500000238418579
0.8500000238418579
0.8500000238418579
0.8500000238418579
0.8500000238418579
0.8500000238418579
0.8500000238418579
0.8500000238418579
0.8500000238418579
0.8500000238418579
0.8500000238418579
0.8500000238418579
0.8500000238418579
0.8500000238418579
0.8500000238418579
0.8500000238418579
0.8500000238418579
0.8500000238418579
0.8500000238418579
0.8500000238418579
0.8500000238418579
0.8500000238418579
0.8500000238418579
0.8500000238418579
0.8500000238418579
0.8500000238418579
0.8500000238418579
0.8500000238418579
0.8500000238418579
0.8500000238418579
0.8500000238418579
0.8500000238418579
0.8500000238418579
0.8500000238418579
0.8500000238418579
0.8500000238418579
0.8500000238418579
0.8500000238418579
0.8500000238418579
0.8500000238418579
0.8500000238418579
0.8500000238418579
0.8500000238418579
0.8500000238418579
0.8500000238418579
0.8500000238418579
0.8500000238418579
0.8500000238418579
0.8500000238418579
0.8500000238418579
0.8500000238418579
0.8500000238418579
0.8500000238418579
0.8500000238418579
0.8500000238418579
0.8500000238418579
0.8500000238418579
0.8500000238418579
0.8500000238418579
0.8500000238418579
0.8500000238418579
0.8500000238418579
0.8500000238418579
0.8500000238418579
0.8500000238418579
0.8500000238418579
0.8500000238418579
0.8500000238418579
0.8500000238418579
0.8500000238418579
0.8500000238418579
0.8500000238418579
0.8500000238418579
0.8500000238418579
0.8500000238418579
0.8500000238418579
0.8500000238418579
0.8500000238418579
0.8500000238418579
0.8500000238418579
0.8500000238418579
0.8500000238418579
0.8500000238418579
0.8500000238418579
0.8500000238418579
0.8500000238418579
0.8500000238418579
0.8500000238418579
0.8500000238418579
0.8500000238418579
0.8500000238418579
0.8500000238418579
0.8500000238418579
0.8500000238418579
0.8500000238418579
0.8500000238418579
0.8500000238418579
0.8500000238418579
0.8500000238418579
0.8500000238418579
0.8500000238418579
0.8500000238418579
0.8500000238418579
0.8500000238418579
0.8500000238418579
0.8500000238418579
0.8500000238418579
0.8500000238418579
0.8500000238418579
0.8500000238418579
0.8500000238418579
0.8500000238418579
0.8500000238418579
0.8500000238418579
0.8500000238418579
0.8500000238418579
0.8500000238418579
0.8500000238418579
0.8500000238418579
0.8500000238418579
0.8500000238418579
0.8500000238418579
0.8500000238418579
0.8500000238418579
0.8500000238418579
0.8500000238418579
0.8500000238418579
0.8500000238418579
0.8500000238418579
0.8500000238418579
0.8500000238418579
0.8500000238418579
0.8500000238418579
0.8500000238418579
0.8500000238418579
0.8500000238418579
0.8500000238418579
0.8500000238418579
0.8500000238418579
0.8500000238418579
0.8500000238418579
0.8500000238418579
0.8500000238418579
0.8500000238418579
0.8500000238418579
0.8500000238418579
0.8500000238418579
0.8500000238418579
0.8500000238418579
0.8500000238418579
0.8500000238418579
0.8500000238418579
0.8500000238418579
0.8500000238418579
0.8500000238418579
0.8500000238418579
0.8500000238418579
0.8500000238418579
0.8500000238418579
0.8500000238418579
0.8500000238418579
0.8500000238418579
0.8500000238418579
0.8500000238418579
0.8500000238418579
0.8500000238418579
0.8500000238418579
0.8500000238418579
0.8500000238418579
0.8500000238418579
0.8500000238418579
0.8500000238418579
0.8500000238418579
0.8500000238418579
0.8500000238418579
0.8500000238418579
0.8500000238418579
0.8500000238418579
0.8500000238418579
0.8500000238418579
0.8500000238418579
0.8500000238418579
0.8500000238418579
0.8500000238418579
0.8500000238418579
0.8500000238418579
0.8500000238418579
0.8500000238418579
0.8500000238418579
0.8500000238418579
0.8500000238418579
0.8500000238418579
0.8500000238418579
0.8500000238418579
0.8500000238418579
0.8500000238418579
0.8500000238418579
0.8500000238418579
0.8500000238418579
0.8500000238418579
0.8500000238418579
0.8500000238418579
0.8500000238418579
0.8500000238418579
0.8500000238418579
0.8500000238418579
0.8500000238418579
0.8500000238418579
0.8500000238418579
0.8500000238418579
0.8500000238418579
0.8500000238418579
0.8500000238418579
0.8500000238418579
0.8500000238418579
0.8500000238418579
0.8500000238418579
0.8500000238418579
0.8500000238418579
0.8500000238418579
0.8500000238418579
0.8500000238418579
0.8500000238418579
0.8500000238418579
0.8500000238418579
0.8500000238418579
0.8500000238418579
0.8500000238418579
0.8500000238418579
0.8500000238418579
0.8500000238418579
0.8500000238418579
0.8500000238418579
0.8500000238418579
0.8500000238418579
0.8500000238418579
0.8500000238418579
0.8500000238418579
0.8500000238418579
0.8500000238418579
0.8500000238418579
0.8500000238418579
0.8500000238418579
0.8500000238418579
0.8500000238418579
0.8500000238418579
0.8500000238418579
0.8500000238418579
0.8500000238418579
0.8500000238418579
0.8500000238418579
0.8500000238418579
0.8500000238418579
0.8500000238418579
0.8500000238418579
0.8500000238418579
0.8500000238418579
0.8500000238418579
0.8500000238418579
0.8500000238418579
0.8500000238418579
0.8500000238418579
0.8500000238418579
0.8500000238418579
0.8500000238418579
0.8500000238418579
0.8500000238418579
0.8500000238418579
0.8500000238418579
0.8500000238418579
0.8500000238418579
0.8500000238418579
0.8500000238418579
0.8500000238418579
0.8500000238418579
0.8500000238418579
0.8500000238418579
0.8500000238418579
0.8500000238418579
0.8500000238418579
0.8500000238418579
0.8500000238418579
0.8500000238418579
0.8500000238418579
0.8500000238418579
0.8500000238418579
0.8500000238418579
0.8500000238418579
0.8500000238418579
0.8500000238418579
0.8500000238418579
0.8500000238418579
0.8500000238418579
0.8500000238418579
0.8500000238418579
0.8500000238418579
0.8500000238418579
0.8500000238418579
0.8500000238418579
0.8500000238418579
0.8500000238418579
0.8500000238418579
0.8500000238418579
0.8500000238418579
0.8500000238418579
0.8500000238418579
0.8500000238418579
0.8500000238418579
0.8500000238418579
0.8500000238418579
0.8500000238418579
0.8500000238418579
0.8500000238418579
0.8500000238418579
0.8500000238418579
0.8500000238418579
0.8500000238418579
0.8500000238418579
0.8500000238418579
0.8500000238418579
0.8500000238418579
0.8500000238418579
0.8500000238418579
0.8500000238418579
0.8500000238418579
0.8500000238418579
0.8500000238418579
0.8500000238418579
0.8500000238418579
0.8500000238418579
0.8500000238418579
0.8500000238418579
0.8500000238418579
0.8500000238418579
0.8500000238418579
0.8500000238418579
0.8500000238418579
0.8500000238418579
0.8500000238418579
0.8500000238418579
0.8500000238418579
0.8500000238418579
0.8500000238418579
0.8500000238418579
0.8500000238418579
0.8500000238418579
0.8500000238418579
0.8500000238418579
0.8500000238418579
0.8500000238418579
0.8500000238418579
0.8500000238418579
0.8500000238418579
0.8500000238418579
0.8500000238418579
0.8500000238418579
0.8500000238418579
0.8500000238418579
0.8500000238418579
0.8500000238418579
0.8500000238418579
0.8500000238418579
0.8500000238418579
0.8500000238418579
0.8500000238418579
0.8500000238418579
0.8500000238418579
0.8500000238418579
0.8500000238418579
0.8500000238418579
0.8500000238418579
0.8500000238418579
0.8500000238418579
0.8500000238418579
0.8500000238418579
0.8500000238418579
0.8500000238418579
0.8500000238418579
0.8500000238418579
0.8500000238418579
0.8500000238418579
0.8500000238418579
0.8500000238418579
0.8500000238418579
0.8500000238418579
0.8500000238418579
0.8500000238418579
0.8500000238418579
0.8500000238418579
0.8500000238418579
0.8500000238418579
0.8500000238418579
0.8500000238418579
0.8500000238418579
0.8500000238418579
0.8500000238418579
0.8500000238418579
0.8500000238418579
0.8500000238418579
0.8500000238418579
0.8500000238418579
0.8500000238418579
0.8500000238418579
0.8500000238418579
0.8500000238418579
0.8500000238418579
0.8500000238418579
0.8500000238418579
0.8500000238418579
0.8500000238418579
0.8500000238418579
0.8500000238418579
0.8500000238418579
0.8500000238418579
0.8500000238418579
0.8500000238418579
0.8500000238418579
0.8500000238418579
0.8500000238418579
0.8500000238418579
0.8500000238418579
0.8500000238418579
0.8500000238418579
0.8500000238418579
0.8500000238418579
0.8500000238418579
0.8500000238418579
0.8500000238418579
0.8500000238418579
0.8500000238418579
0.8500000238418579
0.8500000238418579
0.8500000238418579
0.8500000238418579
0.8500000238418579
0.8500000238418579
0.8500000238418579
0.8500000238418579
0.8500000238418579
0.8500000238418579
0.8500000238418579
0.8500000238418579
0.8500000238418579
0.8500000238418579
0.8500000238418579
0.8500000238418579
0.8500000238418579
0.8500000238418579
0.8500000238418579
0.8500000238418579
0.8500000238418579
0.8500000238418579
0.8500000238418579
0.8500000238418579
0.8500000238418579
0.8500000238418579
0.8500000238418579
0.8500000238418579
0.8500000238418579
0.8500000238418579
0.8500000238418579
0.8500000238418579
0.8500000238418579
0.8500000238418579
0.8500000238418579
0.8500000238418579
0.8500000238418579
0.8500000238418579
0.8500000238418579
0.8500000238418579
0.8500000238418579
0.8500000238418579
0.8500000238418579
0.8500000238418579
0.8500000238418579
0.8500000238418579
0.8500000238418579
0.8500000238418579
0.8500000238418579
0.8500000238418579
0.8500000238418579
0.8500000238418579
0.8500000238418579
0.8500000238418579
0.8500000238418579
0.8500000238418579
0.8500000238418579
0.8500000238418579
0.8500000238418579
0.8500000238418579
0.8500000238418579
0.8500000238418579
0.8500000238418579
0.8500000238418579
0.8500000238418579
0.8500000238418579
0.8500000238418579
0.8500000238418579
0.8500000238418579
0.8500000238418579
0.8500000238418579
0.8500000238418579
0.8500000238418579
0.8500000238418579
0.8500000238418579
0.8500000238418579
0.8500000238418579
0.8500000238418579
0.8500000238418579
0.8500000238418579
0.8500000238418579
0.8500000238418579
0.8500000238418579
0.8500000238418579
0.8500000238418579
0.8500000238418579
0.8500000238418579
0.8500000238418579
0.8500000238418579
0.8500000238418579
0.8500000238418579
0.8500000238418579
0.8500000238418579
0.8500000238418579
0.8500000238418579
0.8500000238418579
0.8500000238418579
0.8500000238418579
0.8500000238418579
0.8500000238418579
0.8500000238418579
0.8500000238418579
0.8500000238418579
0.8500000238418579
0.8500000238418579
0.8500000238418579
0.8500000238418579
0.8500000238418579
0.8500000238418579
0.8500000238418579
0.8500000238418579
0.8500000238418579
0.8500000238418579
0.8500000238418579
0.8500000238418579
0.8500000238418579
0.8500000238418579
0.8500000238418579
0.8500000238418579
0.8500000238418579
0.8500000238418579
0.8500000238418579
0.8500000238418579
0.8500000238418579
0.8500000238418579
0.8500000238418579
0.8500000238418579
0.8500000238418579
0.8500000238418579
0.8500000238418579
0.8500000238418579
0.8500000238418579
0.8500000238418579
0.8500000238418579
0.8500000238418579
0.8500000238418579
0.8500000238418579
0.8500000238418579
0.8500000238418579
0.8500000238418579
0.8500000238418579
0.8500000238418579
0.8500000238418579
0.8500000238418579
0.8500000238418579
0.8500000238418579
0.8500000238418579
0.8500000238418579
0.8500000238418579
0.8500000238418579
0.8500000238418579
0.8500000238418579
0.8500000238418579
0.8500000238418579
0.8500000238418579
0.8500000238418579
0.8500000238418579
0.8500000238418579
0.8500000238418579
0.8500000238418579
0.8500000238418579
0.8500000238418579
0.8500000238418579
0.8500000238418579
0.8500000238418579
0.8500000238418579
0.8500000238418579
0.8500000238418579
0.8500000238418579
0.8500000238418579
0.8500000238418579
0.8500000238418579
0.8500000238418579
0.8500000238418579
0.8500000238418579
0.8500000238418579
0.8500000238418579
0.8500000238418579
0.8500000238418579
0.8500000238418579
0.8500000238418579
0.8500000238418579
0.8500000238418579
0.8500000238418579
0.8500000238418579
0.8500000238418579
0.8500000238418579
0.8500000238418579
0.8500000238418579
0.8500000238418579
0.8500000238418579
0.8500000238418579
0.8500000238418579
0.8500000238418579
0.8500000238418579
0.8500000238418579
0.8500000238418579
0.8500000238418579
0.8500000238418579
0.8500000238418579
0.8500000238418579
0.8500000238418579
0.8500000238418579
0.8500000238418579
0.8500000238418579
0.8500000238418579
0.8500000238418579
0.8500000238418579
0.8500000238418579
0.8500000238418579
0.8500000238418579
0.8500000238418579
0.8500000238418579
0.8500000238418579
0.8500000238418579
0.8500000238418579
0.8500000238418579
0.8500000238418579
0.8500000238418579
0.8500000238418579
0.8500000238418579
0.8500000238418579
0.8500000238418579
0.8500000238418579
0.8500000238418579
0.8500000238418579
0.8500000238418579
0.8500000238418579
0.8500000238418579
0.8500000238418579
0.8500000238418579
0.8500000238418579
0.8500000238418579
0.8500000238418579
0.8500000238418579
0.8500000238418579
0.8500000238418579
0.8500000238418579
0.8500000238418579
0.8500000238418579
0.8500000238418579
0.8500000238418579
0.8500000238418579
0.8500000238418579
0.8500000238418579
0.8500000238418579
0.8500000238418579
0.8500000238418579
0.8500000238418579
0.8500000238418579
0.8500000238418579
0.8500000238418579
0.8500000238418579
0.8500000238418579
0.8500000238418579
0.8500000238418579
0.8500000238418579
0.8500000238418579
0.8500000238418579
0.8500000238418579
0.8500000238418579
0.8500000238418579
0.8500000238418579
0.8500000238418579
0.8500000238418579
0.8500000238418579
0.8500000238418579
0.8500000238418579
0.8500000238418579
0.8500000238418579
0.8500000238418579
0.8500000238418579
0.8500000238418579
0.8500000238418579
0.8500000238418579
0.8500000238418579
0.8500000238418579
0.8500000238418579
0.8500000238418579
0.8500000238418579
0.8500000238418579
0.8500000238418579
0.8500000238418579
0.8500000238418579
0.8500000238418579
0.8500000238418579
0.8500000238418579
0.8500000238418579
0.8500000238418579
0.8500000238418579
0.8500000238418579
0.8500000238418579
0.8500000238418579
0.8500000238418579
0.8500000238418579
0.8500000238418579
0.8500000238418579
0.8500000238418579
0.8500000238418579
0.8500000238418579
0.8500000238418579
0.8500000238418579
0.8500000238418579
0.8500000238418579
0.8500000238418579
0.8500000238418579
0.8500000238418579
0.8500000238418579
0.8500000238418579
0.8500000238418579
0.8500000238418579
0.8500000238418579
0.8500000238418579
0.8500000238418579
0.8500000238418579
0.8500000238418579
0.8500000238418579
0.8500000238418579
0.8500000238418579
0.8500000238418579
0.8500000238418579
0.8500000238418579
0.8500000238418579
0.8500000238418579
0.8500000238418579
0.8500000238418579
0.8500000238418579
0.8500000238418579
0.8500000238418579
0.8500000238418579
0.8500000238418579
0.8500000238418579
0.8500000238418579
0.8500000238418579
0.8500000238418579
0.8500000238418579
0.8500000238418579
0.8500000238418579
0.8500000238418579
0.8500000238418579
0.8500000238418579
0.8500000238418579
0.8500000238418579
0.8500000238418579
0.8500000238418579
0.8500000238418579
0.8500000238418579
0.8500000238418579
0.8500000238418579
0.8500000238418579
0.8500000238418579
0.8500000238418579
0.8500000238418579
0.8500000238418579
0.8500000238418579
0.8500000238418579
0.8500000238418579
0.8500000238418579
0.8500000238418579
0.8500000238418579
0.8500000238418579
0.8500000238418579
0.8500000238418579
0.8500000238418579
0.8500000238418579
0.8500000238418579
0.8500000238418579
0.8500000238418579
0.8500000238418579
0.8500000238418579
0.8500000238418579
0.8500000238418579
0.8500000238418579
0.8500000238418579
0.8500000238418579
0.8500000238418579
0.8500000238418579
0.8500000238418579
0.8500000238418579
0.8500000238418579
0.8500000238418579
0.8500000238418579
0.8500000238418579
0.8500000238418579
0.8500000238418579
0.8500000238418579
0.8500000238418579
0.8500000238418579
0.8500000238418579
0.8500000238418579
0.8500000238418579
0.8500000238418579
0.8500000238418579
0.8500000238418579
0.8500000238418579
0.8500000238418579
0.8500000238418579
0.8500000238418579
0.8500000238418579
0.8500000238418579
0.8500000238418579
0.8500000238418579
0.8500000238418579
0.8500000238418579
0.8500000238418579
0.8500000238418579
0.8500000238418579
0.8500000238418579
0.8500000238418579
0.8500000238418579
0.8500000238418579
0.8500000238418579
0.8500000238418579
0.8500000238418579
0.8500000238418579
0.8500000238418579
0.8500000238418579
0.8500000238418579
0.8500000238418579
0.8500000238418579
0.8500000238418579
0.8500000238418579
0.8500000238418579
0.8500000238418579
0.8500000238418579
0.8500000238418579
0.8500000238418579
0.8500000238418579
0.8500000238418579
0.8500000238418579
0.8500000238418579
0.8500000238418579
0.8500000238418579
0.8500000238418579
0.8500000238418579
0.8500000238418579
0.8500000238418579
0.8500000238418579
0.8500000238418579
0.8500000238418579
0.8500000238418579
0.8500000238418579
0.8500000238418579
0.8500000238418579
0.8500000238418579
0.8500000238418579
0.8500000238418579
0.8500000238418579
0.8500000238418579
0.8500000238418579
0.8500000238418579
0.8500000238418579
0.8500000238418579
0.8500000238418579
0.8500000238418579
0.8500000238418579
0.8500000238418579
0.8500000238418579
0.8500000238418579
0.8500000238418579
0.8500000238418579
0.8500000238418579
0.8500000238418579
0.8500000238418579
0.8500000238418579
0.8500000238418579
0.8500000238418579
0.8500000238418579
0.8500000238418579
0.8500000238418579
0.8500000238418579
0.8500000238418579
0.8500000238418579
0.8500000238418579
0.8500000238418579
0.8500000238418579
0.8500000238418579
0.8500000238418579
0.8500000238418579
0.8500000238418579
0.8500000238418579
0.8500000238418579
0.8500000238418579
0.8500000238418579
0.8500000238418579
0.8500000238418579
0.8500000238418579
0.8500000238418579
0.8500000238418579
0.8500000238418579
0.8500000238418579
0.8500000238418579
0.8500000238418579
0.8500000238418579
0.8500000238418579
0.8500000238418579
0.8500000238418579
0.8500000238418579
0.8500000238418579
0.8500000238418579
0.8500000238418579
0.8500000238418579
0.8500000238418579
0.8500000238418579
0.8500000238418579
0.8500000238418579
0.8500000238418579
0.8500000238418579
0.8500000238418579
0.8500000238418579
0.8500000238418579
0.8500000238418579
0.8500000238418579
0.8500000238418579
0.8500000238418579
0.8500000238418579
0.8500000238418579
0.8500000238418579
0.8500000238418579
0.8500000238418579
0.8500000238418579
0.8500000238418579
0.8500000238418579
0.8500000238418579
0.8500000238418579
0.8500000238418579
0.8500000238418579
0.8500000238418579
0.8500000238418579
0.8500000238418579
0.8500000238418579
0.8500000238418579
0.8500000238418579
0.8500000238418579
0.8500000238418579
0.8500000238418579
0.8500000238418579
0.8500000238418579
0.8500000238418579
0.8500000238418579
0.8500000238418579
0.8500000238418579
0.8500000238418579
0.8500000238418579
0.8500000238418579
0.8500000238418579
0.8500000238418579
0.8500000238418579
0.8500000238418579
0.8500000238418579
0.8500000238418579
0.8500000238418579
0.8500000238418579
0.8500000238418579
0.8500000238418579
0.8500000238418579
0.8500000238418579
0.8500000238418579
0.8500000238418579
0.8500000238418579
0.8500000238418579
0.8500000238418579
0.8500000238418579
0.8500000238418579
0.8500000238418579
0.8500000238418579
0.8500000238418579
0.8500000238418579
0.8500000238418579
0.8500000238418579
0.8500000238418579
0.8500000238418579
0.8500000238418579
0.8500000238418579
0.8500000238418579
0.8500000238418579
0.8500000238418579
0.8500000238418579
0.8500000238418579
0.8500000238418579
0.8500000238418579
0.8500000238418579
0.8500000238418579
0.8500000238418579
0.8500000238418579
0.8500000238418579
0.8500000238418579
0.8500000238418579
0.8500000238418579
0.8500000238418579
0.8500000238418579
0.8500000238418579
0.8500000238418579
0.8500000238418579
0.8500000238418579
0.8500000238418579
0.8500000238418579
0.8500000238418579
0.8500000238418579
0.8500000238418579
0.8500000238418579
0.8500000238418579
0.8500000238418579
0.8500000238418579
0.8500000238418579
0.8500000238418579
0.8500000238418579
0.8500000238418579
0.8500000238418579
0.8500000238418579
0.8500000238418579
0.8500000238418579
0.8500000238418579
0.8500000238418579
0.8500000238418579
0.8500000238418579
0.8500000238418579
0.8500000238418579
0.8500000238418579
0.8500000238418579
0.8500000238418579
0.8500000238418579
0.8500000238418579
0.8500000238418579
0.8500000238418579
0.8500000238418579
0.8500000238418579
0.8500000238418579
0.8500000238418579
0.8500000238418579
0.8500000238418579
0.8500000238418579
0.8500000238418579
0.8500000238418579
0.8500000238418579
0.8500000238418579
0.8500000238418579
0.8500000238418579
0.8500000238418579
0.8500000238418579
0.8500000238418579
0.8500000238418579
0.8500000238418579
0.8500000238418579
0.8500000238418579
0.8500000238418579
0.8500000238418579
0.8500000238418579
0.8500000238418579
0.8500000238418579
0.8500000238418579
0.8500000238418579
0.8500000238418579
0.8500000238418579
0.8500000238418579
0.8500000238418579
0.8500000238418579
0.8500000238418579
0.8500000238418579
0.8500000238418579
0.8500000238418579
0.8500000238418579
0.8500000238418579
0.8500000238418579
0.8500000238418579
0.8500000238418579
0.8500000238418579
0.8500000238418579
0.8500000238418579
0.8500000238418579
0.8500000238418579
0.8500000238418579
0.8500000238418579
0.8500000238418579
0.8500000238418579
0.8500000238418579
0.8500000238418579
0.8500000238418579
0.8500000238418579
0.8500000238418579
0.8500000238418579
0.8500000238418579
0.8500000238418579
0.8500000238418579
0.8500000238418579
0.8500000238418579
0.8500000238418579
0.8500000238418579
0.8500000238418579
0.8500000238418579
0.8500000238418579
0.8500000238418579
0.8500000238418579
0.8500000238418579
0.8500000238418579
0.8500000238418579
0.8500000238418579
0.8500000238418579
0.8500000238418579
0.8500000238418579
0.8500000238418579
0.8500000238418579
0.8500000238418579
0.8500000238418579
0.8500000238418579
0.8500000238418579
0.8500000238418579
0.8500000238418579
0.8500000238418579
0.8500000238418579
0.8500000238418579
0.8500000238418579
0.8500000238418579
0.8500000238418579
0.8500000238418579
0.8500000238418579
0.8500000238418579
0.8500000238418579
0.8500000238418579
0.8500000238418579
0.8500000238418579
0.8500000238418579
0.8500000238418579
0.8500000238418579
0.8500000238418579
0.8500000238418579
0.8500000238418579
0.8500000238418579
0.8500000238418579
0.8500000238418579
0.8500000238418579
0.8500000238418579
0.8500000238418579
0.8500000238418579
0.8500000238418579
0.8500000238418579
0.8500000238418579
0.8500000238418579
0.8500000238418579
0.8500000238418579
0.8500000238418579
0.8500000238418579
0.8500000238418579
0.8500000238418579
0.8500000238418579
0.8500000238418579
0.8500000238418579
0.8500000238418579
0.8500000238418579
0.8500000238418579
0.8500000238418579
0.8500000238418579
0.8500000238418579
0.8500000238418579
0.8500000238418579
0.8500000238418579
0.8500000238418579
0.8500000238418579
0.8500000238418579
0.8500000238418579
0.8500000238418579
0.8500000238418579
0.8500000238418579
0.8500000238418579
0.8500000238418579
0.8500000238418579
0.8500000238418579
0.8500000238418579
0.8500000238418579
0.8500000238418579
0.8500000238418579
0.8500000238418579
0.8500000238418579
0.8500000238418579
0.8500000238418579
0.8500000238418579
0.8500000238418579
0.8500000238418579
0.8500000238418579
0.8500000238418579
0.8500000238418579
0.8500000238418579
0.8500000238418579
0.8500000238418579
0.8500000238418579
0.8500000238418579
0.8500000238418579
0.8500000238418579
0.8500000238418579
0.8500000238418579
0.8500000238418579
0.8500000238418579
0.8500000238418579
0.8500000238418579
0.8500000238418579
0.8500000238418579
0.8500000238418579
0.8500000238418579
0.8500000238418579
0.8500000238418579
0.8500000238418579
0.8500000238418579
0.8500000238418579
0.8500000238418579
0.8500000238418579
0.8500000238418579
0.8500000238418579
0.8500000238418579
0.8500000238418579
0.8500000238418579
0.8500000238418579
0.8500000238418579
0.8500000238418579
0.8500000238418579
0.8500000238418579
0.8500000238418579
0.8500000238418579
0.8500000238418579
0.8500000238418579
0.8500000238418579
0.8500000238418579
0.8500000238418579
0.8500000238418579
0.8500000238418579
0.8500000238418579
0.8500000238418579
0.8500000238418579
0.8500000238418579
0.8500000238418579
0.8500000238418579
0.8500000238418579
0.8500000238418579
0.8500000238418579
0.8500000238418579
0.8500000238418579
0.8500000238418579
0.8500000238418579
0.8500000238418579
0.8500000238418579
0.8500000238418579
0.8500000238418579
0.8500000238418579
0.8500000238418579
0.8500000238418579
0.8500000238418579
0.8500000238418579
0.8500000238418579
0.8500000238418579
0.8500000238418579
0.8500000238418579
0.8500000238418579
0.8500000238418579
0.8500000238418579
0.8500000238418579
0.8500000238418579
0.8500000238418579
0.8500000238418579
0.8500000238418579
0.8500000238418579
0.8500000238418579
0.8500000238418579
0.8500000238418579
0.8500000238418579
0.8500000238418579
0.8500000238418579
0.8500000238418579
0.8500000238418579
0.8500000238418579
0.8500000238418579
0.8500000238418579
0.8500000238418579
0.8500000238418579
0.8500000238418579
0.8500000238418579
0.8500000238418579
0.8500000238418579
0.8500000238418579
0.8500000238418579
0.8500000238418579
0.8500000238418579
0.8500000238418579
0.8500000238418579
0.8500000238418579
0.8500000238418579
0.8500000238418579
0.8500000238418579
0.8500000238418579
0.8500000238418579
0.8500000238418579
0.8500000238418579
0.8500000238418579
0.8500000238418579
0.8500000238418579
0.8500000238418579
0.8500000238418579
0.8500000238418579
0.8500000238418579
0.8500000238418579
0.8500000238418579
0.8500000238418579
0.8500000238418579
0.8500000238418579
0.8500000238418579
0.8500000238418579
0.8500000238418579
0.8500000238418579
0.8500000238418579
0.8500000238418579
0.8500000238418579
0.8500000238418579
0.8500000238418579
0.8500000238418579
0.8500000238418579
0.8500000238418579
0.8500000238418579
0.8500000238418579
0.8500000238418579
0.8500000238418579
0.8500000238418579
0.8500000238418579
0.8500000238418579
0.8500000238418579
0.8500000238418579
0.8500000238418579
0.8500000238418579
0.8500000238418579
0.8500000238418579
0.8500000238418579
0.8500000238418579
0.8500000238418579
0.8500000238418579
0.8500000238418579
0.8500000238418579
0.8500000238418579
0.8500000238418579
0.8500000238418579
0.8500000238418579
0.8500000238418579
0.8500000238418579
0.8500000238418579
0.8500000238418579
0.8500000238418579
0.8500000238418579
0.8500000238418579
0.8500000238418579
0.8500000238418579
0.8500000238418579
0.8500000238418579
0.8500000238418579
0.8500000238418579
0.8500000238418579
0.8500000238418579
0.8500000238418579
0.8500000238418579
0.8500000238418579
0.8500000238418579
0.8500000238418579
0.8500000238418579
0.8500000238418579
0.8500000238418579
0.8500000238418579
0.8500000238418579
0.8500000238418579
0.8500000238418579
0.8500000238418579
0.8500000238418579
0.8500000238418579
0.8500000238418579
0.8500000238418579
0.8500000238418579
0.8500000238418579
0.8500000238418579
0.8500000238418579
0.8500000238418579
0.8500000238418579
0.8500000238418579
0.8500000238418579
0.8500000238418579
0.8500000238418579
0.8500000238418579
0.8500000238418579
0.8500000238418579
0.8500000238418579
0.8500000238418579
0.8500000238418579
0.8500000238418579
0.8500000238418579
0.8500000238418579
0.8500000238418579
0.8500000238418579
0.8500000238418579
0.8500000238418579
0.8500000238418579
0.8500000238418579
0.8500000238418579
0.8500000238418579
0.8500000238418579
0.8500000238418579
0.8500000238418579
0.8500000238418579
0.8500000238418579
0.8500000238418579
0.8500000238418579
0.8500000238418579
0.8500000238418579
0.8500000238418579
0.8500000238418579
0.8500000238418579
0.8500000238418579
0.8500000238418579
0.8500000238418579
0.8500000238418579
0.8500000238418579
0.8500000238418579
0.8500000238418579
0.8500000238418579
0.8500000238418579
0.8500000238418579
0.8500000238418579
0.8500000238418579
0.8500000238418579
0.8500000238418579
0.8500000238418579
0.8500000238418579
0.8500000238418579
0.8500000238418579
0.8500000238418579
0.8500000238418579
0.8500000238418579
0.8500000238418579
0.8500000238418579
0.8500000238418579
0.8500000238418579
0.8500000238418579
0.8500000238418579
0.8500000238418579
0.8500000238418579
0.8500000238418579
0.8500000238418579
0.8500000238418579
0.8500000238418579
0.8500000238418579
0.8500000238418579
0.8500000238418579
0.8500000238418579
0.8500000238418579
0.8500000238418579
0.8500000238418579
0.8500000238418579
0.8500000238418579
0.8500000238418579
0.8500000238418579
0.8500000238418579
0.8500000238418579
0.8500000238418579
0.8500000238418579
0.8500000238418579
0.8500000238418579
0.8500000238418579
0.8500000238418579
0.8500000238418579
0.8500000238418579
0.8500000238418579
0.8500000238418579
0.8500000238418579
0.8500000238418579
0.8500000238418579
0.8500000238418579
0.8500000238418579
0.8500000238418579
0.8500000238418579
0.8500000238418579
0.8500000238418579
0.8500000238418579
0.8500000238418579
0.8500000238418579
0.8500000238418579
0.8500000238418579
0.8500000238418579
0.8500000238418579
0.8500000238418579
0.8500000238418579
0.8500000238418579
0.8500000238418579
0.8500000238418579
0.8500000238418579
0.8500000238418579
0.8500000238418579
0.8500000238418579
0.8500000238418579
0.8500000238418579
0.8500000238418579
0.8500000238418579
0.8500000238418579
0.8500000238418579
0.8500000238418579
0.8500000238418579
0.8500000238418579
0.8500000238418579
0.8500000238418579
0.8500000238418579
0.8500000238418579
0.8500000238418579
0.8500000238418579
0.8500000238418579
0.8500000238418579
0.8500000238418579
0.8500000238418579
0.8500000238418579
0.8500000238418579
0.8500000238418579
0.8500000238418579
0.8500000238418579
0.8500000238418579
0.8500000238418579
0.8500000238418579
0.8500000238418579
0.8500000238418579
0.8500000238418579
0.8500000238418579
0.8500000238418579
0.8500000238418579
0.8500000238418579
0.8500000238418579
0.8500000238418579
0.8500000238418579
0.8500000238418579
0.8500000238418579
0.8500000238418579
0.8500000238418579
0.8500000238418579
0.8500000238418579
0.8500000238418579
0.8500000238418579
0.8500000238418579
0.8500000238418579
0.8500000238418579
0.8500000238418579
0.8500000238418579
0.8500000238418579
0.8500000238418579
0.8500000238418579
0.8500000238418579
0.8500000238418579
0.8500000238418579
0.8500000238418579
0.8500000238418579
0.8500000238418579
0.8500000238418579
0.8500000238418579
0.8500000238418579
0.8500000238418579
0.8500000238418579
0.8500000238418579
0.8500000238418579
0.8500000238418579
0.8500000238418579
0.8500000238418579
0.8500000238418579
0.8500000238418579
0.8500000238418579
0.8500000238418579
0.8500000238418579
0.8500000238418579
0.8500000238418579
0.8500000238418579
0.8500000238418579
0.8500000238418579
0.8500000238418579
0.8500000238418579
0.8500000238418579
0.8500000238418579
0.8500000238418579
0.8500000238418579
0.8500000238418579
0.8500000238418579
0.8500000238418579
0.8500000238418579
0.8500000238418579
0.8500000238418579
0.8500000238418579
0.8500000238418579
0.8500000238418579
0.8500000238418579
0.8500000238418579
0.8500000238418579
0.8500000238418579
0.8500000238418579
0.8500000238418579
0.8500000238418579
0.8500000238418579
0.8500000238418579
0.8500000238418579
0.8500000238418579
0.8500000238418579
0.8500000238418579
0.8500000238418579
0.8500000238418579
0.8500000238418579
0.8500000238418579
0.8500000238418579
0.8500000238418579
0.8500000238418579
0.8500000238418579
0.8500000238418579
0.8500000238418579
0.8500000238418579
0.8500000238418579
0.8500000238418579
0.8500000238418579
0.8500000238418579
0.8500000238418579
0.8500000238418579
0.8500000238418579
0.8500000238418579
0.8500000238418579
0.8500000238418579
0.8500000238418579
0.8500000238418579
0.8500000238418579
0.8500000238418579
0.8500000238418579
0.8500000238418579
0.8500000238418579
0.8500000238418579
0.8500000238418579
0.8500000238418579
0.8500000238418579
0.8500000238418579
0.8500000238418579
0.8500000238418579
0.8500000238418579
0.8500000238418579
0.8500000238418579
0.8500000238418579
0.8500000238418579
0.8500000238418579
0.8500000238418579
0.8500000238418579
0.8500000238418579
0.8500000238418579
0.8500000238418579
0.8500000238418579
0.8500000238418579
0.8500000238418579
0.8500000238418579
0.8500000238418579
0.8500000238418579
0.8500000238418579
0.8500000238418579
0.8500000238418579
0.8500000238418579
0.8500000238418579
0.8500000238418579
0.8500000238418579
0.8500000238418579
0.8500000238418579
0.8500000238418579
0.8500000238418579
0.8500000238418579
0.8500000238418579
0.8500000238418579
0.8500000238418579
0.8500000238418579
0.8500000238418579
0.8500000238418579
0.8500000238418579
0.8500000238418579
0.8500000238418579
0.8500000238418579
0.8500000238418579
0.8500000238418579
0.8500000238418579
0.8500000238418579
0.8500000238418579
0.8500000238418579
0.8500000238418579
0.8500000238418579
0.8500000238418579
0.8500000238418579
0.8500000238418579
0.8500000238418579
0.8500000238418579
0.8500000238418579
0.8500000238418579
0.8500000238418579
0.8500000238418579
0.8500000238418579
0.8500000238418579
0.8500000238418579
0.8500000238418579
0.8500000238418579
0.8500000238418579
0.8500000238418579
0.8500000238418579
0.8500000238418579
0.8500000238418579
0.8500000238418579
0.8500000238418579
0.8500000238418579
0.8500000238418579
0.8500000238418579
0.8500000238418579
0.8500000238418579
0.8500000238418579
0.8500000238418579
0.8500000238418579
0.8500000238418579
0.8500000238418579
0.8500000238418579
0.8500000238418579
0.8500000238418579
0.8500000238418579
0.8500000238418579
0.8500000238418579
0.8500000238418579
0.8500000238418579
0.8500000238418579
0.8500000238418579
0.8500000238418579
0.8500000238418579
0.8500000238418579
0.8500000238418579
0.8500000238418579
0.8500000238418579
0.8500000238418579
0.8500000238418579
0.8500000238418579
0.8500000238418579
0.8500000238418579
0.8500000238418579
0.8500000238418579
0.8500000238418579
0.8500000238418579
0.8500000238418579
0.8500000238418579
0.8500000238418579
0.8500000238418579
0.8500000238418579
0.8500000238418579
0.8500000238418579
0.8500000238418579
0.8500000238418579
0.8500000238418579
0.8500000238418579
0.8500000238418579
0.8500000238418579
0.8500000238418579
0.8500000238418579
0.8500000238418579
0.8500000238418579
0.8500000238418579
0.8500000238418579
0.8500000238418579
0.8500000238418579
0.8500000238418579
0.8500000238418579
0.8500000238418579
0.8500000238418579
0.8500000238418579
0.8500000238418579
0.8500000238418579
0.8500000238418579
0.8500000238418579
0.8500000238418579
0.8500000238418579
0.8500000238418579
0.8500000238418579
0.8500000238418579
0.8500000238418579
0.8500000238418579
0.8500000238418579
0.8500000238418579
0.8500000238418579
0.8500000238418579
0.8500000238418579
0.8500000238418579
0.8500000238418579
0.8500000238418579
0.8500000238418579
0.8500000238418579
0.8500000238418579
0.8500000238418579
0.8500000238418579
0.8500000238418579
0.8500000238418579
0.8500000238418579
0.8500000238418579
0.8500000238418579
0.8500000238418579
0.8500000238418579
0.8500000238418579
0.8500000238418579
0.8500000238418579
0.8500000238418579
0.8500000238418579
0.8500000238418579
0.8500000238418579
0.8500000238418579
0.8500000238418579
0.8500000238418579
0.8500000238418579
0.8500000238418579
0.8500000238418579
0.8500000238418579
0.8500000238418579
0.8500000238418579
0.8500000238418579
0.8500000238418579
0.8500000238418579
0.8500000238418579
0.8500000238418579
0.8500000238418579
0.8500000238418579
0.8500000238418579
0.8500000238418579
0.8500000238418579
0.8500000238418579
0.8500000238418579
0.8500000238418579
0.8500000238418579
0.8500000238418579
0.8500000238418579
0.8500000238418579
0.8500000238418579
0.8500000238418579
0.8500000238418579
0.8500000238418579
0.8500000238418579
0.8500000238418579
0.8500000238418579
0.8500000238418579
0.8500000238418579
0.8500000238418579
0.8500000238418579
0.8500000238418579
0.8500000238418579
0.8500000238418579
0.8500000238418579
0.8500000238418579
0.8500000238418579
0.8500000238418579
0.8500000238418579
0.8500000238418579
0.8500000238418579
0.8500000238418579
0.8500000238418579
0.8500000238418579
0.8500000238418579
0.8500000238418579
0.8500000238418579
0.8500000238418579
0.8500000238418579
0.8500000238418579
0.8500000238418579
0.8500000238418579
0.8500000238418579
0.8500000238418579
0.8500000238418579

